Mg32 Ru16 O64
1.0
  10.9948187053770354   -0.0000001752795214   -0.0000031186546558
  -0.0000001044584176   10.7948082246612902    0.0000037480277264
  -0.0000031648770336    0.0000036328683470   10.9792762891049911
Mg Ru O
31 16 64
direct
   0.7499998576035888    0.8567494831937650    0.5000004649111774 Mg
   0.0000001081954068    0.6432528699924864    0.4999992719890416 Mg
   0.0000001081954069    0.6432528699924864    0.9999992719890416 Mg
   0.5000001081954069    0.6432528699924865    0.4999992719890416 Mg
   0.5000001081954067    0.6432528699924865    0.9999992719890416 Mg
   0.0000004837017092    0.8567468738515600    0.2500004882917908 Mg
   0.0000004837017092    0.8567468738515600    0.7500004882917907 Mg
   0.5000004837017094    0.8567468738515601    0.2500004882917908 Mg
   0.5000004837017091    0.8567468738515601    0.7500004882917908 Mg
   0.2500001876490630    0.6432517048885676    0.2499990815708935 Mg
   0.2500001876490630    0.6432517048885676    0.7499990815708933 Mg
   0.7500001876490631    0.6432517048885676    0.2499990815708935 Mg
   0.2499998576035888    0.8567494831937649    0.0000004649111775 Mg
   0.2499998576035888    0.8567494831937649    0.5000004649111774 Mg
   0.7499998576035888    0.8567494831937650    0.0000004649111776 Mg
   0.2500003551349512    0.1432515042634744    0.4999993837978481 Mg
   0.2500003551349512    0.1432515042634744    0.9999993837978480 Mg
   0.7500003551349511    0.1432515042634744    0.4999993837978481 Mg
   0.7500003551349512    0.1432515042634744    0.9999993837978480 Mg
   0.2499997746643975    0.3567472377310500    0.2500007044268094 Mg
   0.2499997746643975    0.3567472377310500    0.7500007044268094 Mg
   0.7499997746643975    0.3567472377310500    0.2500007044268094 Mg
   0.7499997746643975    0.3567472377310500    0.7500007044268093 Mg
   0.4999991724301076    0.1432541045864129    0.2499993784737061 Mg
   0.4999991724301075    0.1432541045864129    0.7499993784737060 Mg
   0.9999991724301075    0.1432541045864129    0.2499993784737061 Mg
   0.9999991724301075    0.1432541045864129    0.7499993784737060 Mg
   0.4999997983882248    0.3567461996876680    0.0000007296124873 Mg
   0.4999997983882248    0.3567461996876680    0.5000007296124873 Mg
   0.9999997983882248    0.3567461996876680    0.0000007296124873 Mg
   0.9999997983882248    0.3567461996876680    0.5000007296124873 Mg
   0.0000000234912590    0.0000089227723954    0.0000000500048759 Ru
   0.0000000234912590    0.0000089227723954    0.5000000500048758 Ru
   0.5000000234912589    0.0000089227723954    0.0000000500048759 Ru
   0.5000000234912589    0.0000089227723954    0.5000000500048758 Ru
   0.2499999903706648    0.0000089970648286    0.2500000412947943 Ru
   0.2499999903706649    0.0000089970648286    0.7500000412947941 Ru
   0.7499999903706649    0.0000089970648286    0.2500000412947944 Ru
   0.7499999903706648    0.0000089970648286    0.7500000412947943 Ru
   0.2499997692326114    0.4999909086603407    0.9999996456506370 Ru
   0.2499997692326114    0.4999909086603407    0.4999996456506369 Ru
   0.7499997692326112    0.4999909086603407    0.9999996456506370 Ru
   0.7499997692326115    0.4999909086603406    0.4999996456506370 Ru
   0.9999998805911439    0.4999910600859015    0.2499997064190737 Ru
   0.9999998805911439    0.4999910600859015    0.7499997064190737 Ru
   0.4999998805911439    0.4999910600859015    0.2499997064190738 Ru
   0.4999998805911439    0.4999910600859014    0.7499997064190738 Ru
   0.2499996207767518    0.8219092678115580    0.2499998814127414 O
   0.2499996207767518    0.8219092678115579    0.7499998814127414 O
   0.7499996207767518    0.8219092678115580    0.2499998814127414 O
   0.7499996207767516    0.8219092678115580    0.7499998814127413 O
   0.2500001471977429    0.6780877964276318    0.0000005231722965 O
   0.2500001471977429    0.6780877964276318    0.5000005231722965 O
   0.7500001471977429    0.6780877964276318    0.0000005231722965 O
   0.7500001471977428    0.6780877964276317    0.5000005231722965 O
   0.4999995703947303    0.6780933880765045    0.2500002582601901 O
   0.4999995703947303    0.6780933880765045    0.7500002582601901 O
   0.9999995703947303    0.6780933880765045    0.2500002582601901 O
   0.9999995703947303    0.6780933880765044    0.7500002582601900 O
   0.0000001757397435    0.8219089549877824    0.9999999537785828 O
   0.0000001757397435    0.8219089549877824    0.4999999537785826 O
   0.5000001757397434    0.8219089549877824    0.9999999537785828 O
   0.5000001757397435    0.8219089549877824    0.4999999537785826 O
   0.4158690775943061    0.9999986541191160    0.3340362925037733 O
   0.4158690775943061    0.9999986541191160    0.8340362925037733 O
   0.9158690775943060    0.9999986541191160    0.3340362925037734 O
   0.9158690775943062    0.9999986541191160    0.8340362925037732 O
   0.3341309981115462    0.9999988589874554    0.0840354366780062 O
   0.3341309981115461    0.9999988589874554    0.5840354366780062 O
   0.8341309981115462    0.9999988589874554    0.0840354366780062 O
   0.8341309981115460    0.9999988589874554    0.5840354366780063 O
   0.0841309274474855    0.9999988738495585    0.1659638434113892 O
   0.0841309274474855    0.9999988738495585    0.6659638434113891 O
   0.5841309274474855    0.9999988738495585    0.1659638434113892 O
   0.5841309274474854    0.9999988738495585    0.6659638434113891 O
   0.1658690242612091    0.9999986783717258    0.4159646615686524 O
   0.1658690242612091    0.9999986783717258    0.9159646615686523 O
   0.6658690242612092    0.9999986783717258    0.4159646615686524 O
   0.6658690242612091    0.9999986783717258    0.9159646615686524 O
   0.0000004601761635    0.3219166524435066    0.2499996962539684 O
   0.0000004601761635    0.3219166524435066    0.7499996962539683 O
   0.5000004601761636    0.3219166524435066    0.2499996962539684 O
   0.5000004601761634    0.3219166524435067    0.7499996962539682 O
   0.4999997400357290    0.1780811005928384    0.0000002098411310 O
   0.4999997400357289    0.1780811005928384    0.5000002098411310 O
   0.9999997400357289    0.1780811005928384    0.0000002098411310 O
   0.9999997400357291    0.1780811005928384    0.5000002098411310 O
   0.2500006390615532    0.1780805261462592    0.2500002954287042 O
   0.2500006390615532    0.1780805261462592    0.7500002954287042 O
   0.7500006390615532    0.1780805261462592    0.2500002954287042 O
   0.7500006390615533    0.1780805261462592    0.7500002954287042 O
   0.2499998257221919    0.3219224336888714    0.4999995742992453 O
   0.2499998257221919    0.3219224336888714    0.9999995742992452 O
   0.7499998257221919    0.3219224336888714    0.4999995742992454 O
   0.7499998257221918    0.3219224336888714    0.9999995742992451 O
   0.1658693516687069    0.5000017028585916    0.3340361798272316 O
   0.1658693516687069    0.5000017028585917    0.8340361798272315 O
   0.6658693516687070    0.5000017028585917    0.3340361798272317 O
   0.6658693516687069    0.5000017028585917    0.8340361798272315 O
   0.0841313905743871    0.5000015407048483    0.0840358463350298 O
   0.0841313905743871    0.5000015407048483    0.5840358463350298 O
   0.5841313905743871    0.5000015407048483    0.0840358463350298 O
   0.5841313905743870    0.5000015407048481    0.5840358463350298 O
   0.3341309518487743    0.5000007072999383    0.1659640574684241 O
   0.3341309518487743    0.5000007072999384    0.6659640574684240 O
   0.8341309518487742    0.5000007072999384    0.1659640574684241 O
   0.8341309518487744    0.5000007072999384    0.6659640574684240 O
   0.4158686979358506    0.5000009968553478    0.4159643433175083 O
   0.4158686979358506    0.5000009968553478    0.9159643433175082 O
   0.9158686979358506    0.5000009968553479    0.4159643433175083 O
   0.9158686979358507    0.5000009968553477    0.9159643433175081 O
