Li Co16 O32                             
   1.00000000000000     
     8.0496407398500391    0.0001290853439151    0.0003300879872723
     0.0001290495332260    8.0496085331813880   -0.0001336128145378
     0.0003300869875863   -0.0001336128345261    8.0496258602968869
   Ca   Co   O 
     1    16    32
Direct
   0.7499865093777408    0.7500169783876541    0.7500045683832883 Ca
  0.1234851427583193  0.1234829942926826  0.1234851173131730
  0.6289943907572608  0.8853328760374229  0.3710084905396809
  0.8765150574030979  0.8765132912018605  0.1234872114217759
  0.3709996552864925  0.1146573649384576  0.3710004442240434
  0.1146579569340354  0.6289953401288765  0.6289932978110064
  0.6289961565287432  0.3710073821749520  0.8853330808977583
  0.8853362551991363  0.3710052859489165  0.6289991138900353
  0.3710080716161016  0.6289985645762616  0.8853317927782968
  0.6289954140993005  0.1146571452795901  0.6289969322026392
  0.1234849592634221  0.8765164528608906  0.8765167815382332
  0.3710113880164503  0.8853257402941689  0.6289915755016230
  0.8765146330453413  0.1234846513880476  0.8765152849881320
  0.6289959556850369  0.6289970322342663  0.1146493470460901
  0.1146609020085841  0.3710001304295507  0.3709992282643540
  0.3709974379572263  0.3709980614240291  0.1146587372058704
  0.8853393870782424  0.6290005780659309  0.3710055839660765
  0.1090321082849120  0.8909681938419113  0.1090393212918518
  0.1375603060899750  0.1375616030098818  0.3556840352160276
  0.3477823664478719  0.3477751655928404  0.3477817869622227
  0.3556825107939141  0.1375645379706557  0.1375622587703869
  0.3927849480425396  0.8866042632186776  0.3927813751309046
  0.8909662622896001  0.1090328253728180  0.1090340035883979
  0.1375599998696810  0.3556832010661749  0.1375579671222865
  0.6071920470325610  0.1133984885348814  0.3928078266543102
  0.1133955565051315  0.3928036112817104  0.6071974806466227
  0.1375690116278730  0.6443145406054711  0.8624250785801733
  0.3556953399927468  0.8624432716857804  0.8624488112994179
  0.3477643252799040  0.6522268996762496  0.6522309679998193
  0.3927849279253910  0.3927916450543302  0.8866031120908074
  0.8866007743190534  0.6071994641692025  0.6071999327255397
  0.1375644414025325  0.8624241425168144  0.6443145083627653
  0.6072052143655629  0.6072037790314508  0.8865995901160287
  0.6072116259611180  0.8865998412483458  0.6072043672915715
  0.6443148855054009  0.1375672030130582  0.8624259138637806
  0.8624476748012863  0.3556926657475653  0.8624460870794676
  0.8624226286139538  0.1375716846212113  0.6443158284011655
  0.8909555912586915  0.8909646525229942  0.8909628395311773
  0.3928122104079775  0.1133942311453404  0.6071908702273011
  0.6522276214427247  0.3477596744210778  0.6522259643452907
  0.1090292269913131  0.1090382975483569  0.8909691443810687
  0.6071935742801069  0.3928071187822746  0.1134008704188690
  0.6522331978854466  0.6522312916517531  0.3477651961401239
  0.8624464995834901  0.8624444559768700  0.3556977220836225
  0.8624235087638271  0.6443131925134492  0.1375711045691006
  0.8866005922237298  0.3927965387753627  0.3927888551366954
  0.3928077418620105  0.6071936458131336  0.1133976545861687
  0.6443141214678823  0.8624241609882780  0.1375668805068756
  0.1133978060427102  0.6071966898595883  0.3927978113024547
 
  0.00000000E+00  0.00000000E+00  0.00000000E+00
  0.00000000E+00  0.00000000E+00  0.00000000E+00
  0.00000000E+00  0.00000000E+00  0.00000000E+00
  0.00000000E+00  0.00000000E+00  0.00000000E+00
  0.00000000E+00  0.00000000E+00  0.00000000E+00
  0.00000000E+00  0.00000000E+00  0.00000000E+00
  0.00000000E+00  0.00000000E+00  0.00000000E+00
  0.00000000E+00  0.00000000E+00  0.00000000E+00
  0.00000000E+00  0.00000000E+00  0.00000000E+00
  0.00000000E+00  0.00000000E+00  0.00000000E+00
  0.00000000E+00  0.00000000E+00  0.00000000E+00
  0.00000000E+00  0.00000000E+00  0.00000000E+00
  0.00000000E+00  0.00000000E+00  0.00000000E+00
  0.00000000E+00  0.00000000E+00  0.00000000E+00
  0.00000000E+00  0.00000000E+00  0.00000000E+00
  0.00000000E+00  0.00000000E+00  0.00000000E+00
  0.00000000E+00  0.00000000E+00  0.00000000E+00
  0.00000000E+00  0.00000000E+00  0.00000000E+00
  0.00000000E+00  0.00000000E+00  0.00000000E+00
  0.00000000E+00  0.00000000E+00  0.00000000E+00
  0.00000000E+00  0.00000000E+00  0.00000000E+00
  0.00000000E+00  0.00000000E+00  0.00000000E+00
  0.00000000E+00  0.00000000E+00  0.00000000E+00
  0.00000000E+00  0.00000000E+00  0.00000000E+00
  0.00000000E+00  0.00000000E+00  0.00000000E+00
  0.00000000E+00  0.00000000E+00  0.00000000E+00
  0.00000000E+00  0.00000000E+00  0.00000000E+00
  0.00000000E+00  0.00000000E+00  0.00000000E+00
  0.00000000E+00  0.00000000E+00  0.00000000E+00
  0.00000000E+00  0.00000000E+00  0.00000000E+00
  0.00000000E+00  0.00000000E+00  0.00000000E+00
  0.00000000E+00  0.00000000E+00  0.00000000E+00
  0.00000000E+00  0.00000000E+00  0.00000000E+00
  0.00000000E+00  0.00000000E+00  0.00000000E+00
  0.00000000E+00  0.00000000E+00  0.00000000E+00
  0.00000000E+00  0.00000000E+00  0.00000000E+00
  0.00000000E+00  0.00000000E+00  0.00000000E+00
  0.00000000E+00  0.00000000E+00  0.00000000E+00
  0.00000000E+00  0.00000000E+00  0.00000000E+00
  0.00000000E+00  0.00000000E+00  0.00000000E+00
  0.00000000E+00  0.00000000E+00  0.00000000E+00
  0.00000000E+00  0.00000000E+00  0.00000000E+00
  0.00000000E+00  0.00000000E+00  0.00000000E+00
  0.00000000E+00  0.00000000E+00  0.00000000E+00
  0.00000000E+00  0.00000000E+00  0.00000000E+00
  0.00000000E+00  0.00000000E+00  0.00000000E+00
  0.00000000E+00  0.00000000E+00  0.00000000E+00
  0.00000000E+00  0.00000000E+00  0.00000000E+00
  0.00000000E+00  0.00000000E+00  0.00000000E+00
