K8 Sc16 S32                             
   1.00000000000000     
    11.3634433370618240   -0.0000014388024739    0.0000024067572488
    -0.0000014405893345   11.3634442656144969   -0.0000017693675386
     0.0000024114337033   -0.0000017725943294   11.3634429402903443
K   Sc   K    S 
1   16     6    32
Direct
  0.7500094956867116  0.2499992809983098  0.2499979511476198
  0.1249991871009115  0.8749998334724935  0.8750005360506421
  0.8750081192917349  0.1249968270687987  0.8750017763672275
  0.8750080430854226  0.8750008525198467  0.1249942321207982
  0.1250035295070475  0.1250027194054084  0.1249996389991708
  0.1250028038343984  0.3749971919121009  0.3749962390601524
  0.8750086120605189  0.6249991832392681  0.3750019404063991
  0.8750088846270074  0.3750028057186725  0.6250017448715042
  0.1249984138284859  0.6250003368432218  0.6250032589764558
  0.6250005935887870  0.8749993597265515  0.3749996810093634
  0.3749880918235391  0.1250041081181053  0.3749944285695648
  0.3749923844157337  0.8749980881613979  0.6250056213640320
  0.6250003010591243  0.1249983409124127  0.6250041673724596
  0.6249976675075146  0.3750031882533165  0.8750028538150545
  0.3749948960084808  0.6250001993814536  0.8750015901303101
  0.3749905347690685  0.3749978956293702  0.1249988475881736
  0.6249980253962804  0.6249989800890106  0.1249933352916486
  0.7500096296188872  0.7500016541655370  0.7500018391286503
  0.4999998454316810  0.9999923110280875  0.9999913694291251
  0.2499902347823948  0.7500008663045179  0.2499980025377795
  0.0000003897847733  0.5000073993215537  0.9999911844352027
  0.2499901017636361  0.2499988486618037  0.7500018056251747
  0.0000003601623675  0.9999922390220988  0.5000092509672811
  0.8970704001151830  0.1029258573305540  0.1029242535732422
  0.1029304379835452  0.8970686355929374  0.1029232191895986
  0.1029303513028736  0.1029249145369633  0.8970683779820163
  0.8970713529361305  0.8970684712679216  0.8970683358624285
  0.3529156511403784  0.1470804194407620  0.1470796771010185
  0.1470756864279039  0.3529178776469664  0.1470807232316673
  0.1470753603624999  0.1470812222767179  0.3529167799612551
  0.3529154262081278  0.3529187658738948  0.3529175486290512
  0.8970719802202041  0.6029293260620463  0.6029308834001625
  0.1029297478823068  0.3970774553334806  0.6029306545903594
  0.1029296510713351  0.6029291872703624  0.3970774101819785
  0.8970712019723805  0.3970764002929599  0.3970763755254296
  0.3529230407153605  0.6470683607992385  0.6470689619677330
  0.1470676564804236  0.8529316925730228  0.6470696957245750
  0.1470678636369271  0.6470694265311394  0.8529326809016879
  0.3529233141347135  0.8529327431836577  0.8529339537687477
  0.3970768377250309  0.1029217795907442  0.6029284949783289
  0.6029212856347996  0.8970716095843514  0.6029283636064378
  0.6029224475460069  0.1029227346217780  0.3970789084407897
  0.3970769568789905  0.8970716460802493  0.3970798607603783
  0.8529324416199273  0.1470759885074742  0.6470721673580613
  0.6470767981280474  0.3529236888781853  0.6470716470922611
  0.6470764861647353  0.1470749539875271  0.8529313586647831
  0.8529321714716147  0.3529227804922996  0.8529300867040561
  0.3970778748696873  0.6029259877208375  0.1029193064206240
  0.6029214011597759  0.3970797813840647  0.1029202867030037
  0.6029204081759403  0.6029258594863123  0.8970724936505334
  0.3970776776946252  0.3970806842543766  0.8970724730478707
  0.8529320076757827  0.6470721080213195  0.1470759638050509
  0.6470769135641419  0.8529296606354393  0.1470748212598281
  0.6470770557370713  0.6470712237187470  0.3529224357366303
  0.8529323259240655  0.8529289179579109  0.3529216931273638
 
  0.00000000E+00  0.00000000E+00  0.00000000E+00
  0.00000000E+00  0.00000000E+00  0.00000000E+00
  0.00000000E+00  0.00000000E+00  0.00000000E+00
  0.00000000E+00  0.00000000E+00  0.00000000E+00
  0.00000000E+00  0.00000000E+00  0.00000000E+00
  0.00000000E+00  0.00000000E+00  0.00000000E+00
  0.00000000E+00  0.00000000E+00  0.00000000E+00
  0.00000000E+00  0.00000000E+00  0.00000000E+00
  0.00000000E+00  0.00000000E+00  0.00000000E+00
  0.00000000E+00  0.00000000E+00  0.00000000E+00
  0.00000000E+00  0.00000000E+00  0.00000000E+00
  0.00000000E+00  0.00000000E+00  0.00000000E+00
  0.00000000E+00  0.00000000E+00  0.00000000E+00
  0.00000000E+00  0.00000000E+00  0.00000000E+00
  0.00000000E+00  0.00000000E+00  0.00000000E+00
  0.00000000E+00  0.00000000E+00  0.00000000E+00
  0.00000000E+00  0.00000000E+00  0.00000000E+00
  0.00000000E+00  0.00000000E+00  0.00000000E+00
  0.00000000E+00  0.00000000E+00  0.00000000E+00
  0.00000000E+00  0.00000000E+00  0.00000000E+00
  0.00000000E+00  0.00000000E+00  0.00000000E+00
  0.00000000E+00  0.00000000E+00  0.00000000E+00
  0.00000000E+00  0.00000000E+00  0.00000000E+00
  0.00000000E+00  0.00000000E+00  0.00000000E+00
  0.00000000E+00  0.00000000E+00  0.00000000E+00
  0.00000000E+00  0.00000000E+00  0.00000000E+00
  0.00000000E+00  0.00000000E+00  0.00000000E+00
  0.00000000E+00  0.00000000E+00  0.00000000E+00
  0.00000000E+00  0.00000000E+00  0.00000000E+00
  0.00000000E+00  0.00000000E+00  0.00000000E+00
  0.00000000E+00  0.00000000E+00  0.00000000E+00
  0.00000000E+00  0.00000000E+00  0.00000000E+00
  0.00000000E+00  0.00000000E+00  0.00000000E+00
  0.00000000E+00  0.00000000E+00  0.00000000E+00
  0.00000000E+00  0.00000000E+00  0.00000000E+00
  0.00000000E+00  0.00000000E+00  0.00000000E+00
  0.00000000E+00  0.00000000E+00  0.00000000E+00
  0.00000000E+00  0.00000000E+00  0.00000000E+00
  0.00000000E+00  0.00000000E+00  0.00000000E+00
  0.00000000E+00  0.00000000E+00  0.00000000E+00
  0.00000000E+00  0.00000000E+00  0.00000000E+00
  0.00000000E+00  0.00000000E+00  0.00000000E+00
  0.00000000E+00  0.00000000E+00  0.00000000E+00
  0.00000000E+00  0.00000000E+00  0.00000000E+00
  0.00000000E+00  0.00000000E+00  0.00000000E+00
  0.00000000E+00  0.00000000E+00  0.00000000E+00
  0.00000000E+00  0.00000000E+00  0.00000000E+00
  0.00000000E+00  0.00000000E+00  0.00000000E+00
  0.00000000E+00  0.00000000E+00  0.00000000E+00
  0.00000000E+00  0.00000000E+00  0.00000000E+00
  0.00000000E+00  0.00000000E+00  0.00000000E+00
  0.00000000E+00  0.00000000E+00  0.00000000E+00
  0.00000000E+00  0.00000000E+00  0.00000000E+00
  0.00000000E+00  0.00000000E+00  0.00000000E+00
  0.00000000E+00  0.00000000E+00  0.00000000E+00
  0.00000000E+00  0.00000000E+00  0.00000000E+00
