Ca12 Ni36 O72
1.0
  11.5306119547287729   -0.2053056767744538   -0.1352395474526042
  -4.4605890613110271    7.5212541185575361    0.1505886165198573
  -0.1688488049766768    0.1912715150998221   14.6530954516183591
Ca Ni O
1 36 72
direct
   0.7499238550135784    0.6666378351941182    1.0000025829939743 Ca
   0.1676749795381292    0.1076461886038132    0.8145764717138914 Ni
   0.1676749795381292    0.4409795219371465    0.8145764717138914 Ni
   0.1676749795381291    0.7743128552704799    0.8145764717138915 Ni
   0.6676749795381293    0.1076461886038132    0.8145764717138915 Ni
   0.6676749795381293    0.4409795219371465    0.8145764717138914 Ni
   0.6676749795381292    0.7743128552704798    0.8145764717138914 Ni
   0.4162309111219020    0.1082029979555471    0.8143359155149379 Ni
   0.4162309111219019    0.4415363312888804    0.8143359155149379 Ni
   0.4162309111219019    0.7748696646222136    0.8143359155149380 Ni
   0.9162309111219020    0.1082029979555471    0.8143359155149380 Ni
   0.9162309111219020    0.4415363312888804    0.8143359155149379 Ni
   0.9162309111219019    0.7748696646222136    0.8143359155149379 Ni
   0.0837030408123460    0.2250223081608388    0.1855904878171881 Ni
   0.0837030408123460    0.5583556414941722    0.1855904878171881 Ni
   0.0837030408123459    0.8916889748275055    0.1855904878171881 Ni
   0.5837030408123461    0.2250223081608388    0.1855904878171881 Ni
   0.5837030408123460    0.5583556414941722    0.1855904878171881 Ni
   0.5837030408123460    0.8916889748275054    0.1855904878171881 Ni
   0.3322487326564916    0.2255846997506605    0.1853728723138535 Ni
   0.3322487326564915    0.5589180330839938    0.1853728723138535 Ni
   0.3322487326564915    0.8922513664173272    0.1853728723138535 Ni
   0.8322487326564916    0.2255846997506605    0.1853728723138535 Ni
   0.8322487326564917    0.5589180330839939    0.1853728723138535 Ni
   0.8322487326564916    0.8922513664173271    0.1853728723138535 Ni
   0.0000755754915436    0.0001219881878629    0.5000517619342899 Ni
   0.0000755754915435    0.3334553215211962    0.5000517619342899 Ni
   0.0000755754915435    0.6667886548545294    0.5000517619342899 Ni
   0.5000755754915437    0.0001219881878629    0.5000517619342899 Ni
   0.5000755754915436    0.3334553215211962    0.5000517619342899 Ni
   0.5000755754915436    0.6667886548545294    0.5000517619342899 Ni
   0.2500831224433976    0.0001274725382266    0.5000523748058016 Ni
   0.2500831224433976    0.3334608058715600    0.5000523748058016 Ni
   0.2500831224433975    0.6667941392048932    0.5000523748058016 Ni
   0.7500831224433977    0.0001274725382266    0.5000523748058016 Ni
   0.7500831224433977    0.3334608058715600    0.5000523748058016 Ni
   0.7500831224433977    0.6667941392048932    0.5000523748058016 Ni
   0.0779499938117012    0.2247083973984272    0.8906067719088192 O
   0.0779499938117012    0.5580417307317606    0.8906067719088192 O
   0.0779499938117011    0.8913750640650938    0.8906067719088193 O
   0.5779499938117013    0.2247083973984272    0.8906067719088193 O
   0.5779499938117012    0.5580417307317604    0.8906067719088192 O
   0.5779499938117012    0.8913750640650937    0.8906067719088192 O
   0.3359295086260028    0.2148333505847324    0.8821200816652126 O
   0.3359295086260027    0.5481666839180658    0.8821200816652126 O
   0.3359295086260026    0.8815000172513989    0.8821200816652127 O
   0.8359295086260028    0.2148333505847324    0.8821200816652127 O
   0.8359295086260028    0.5481666839180657    0.8821200816652126 O
   0.8359295086260027    0.8815000172513989    0.8821200816652126 O
   0.4993491966551151    0.0038122956455145    0.7525882599028247 O
   0.4993491966551151    0.3371456289788478    0.7525882599028247 O
   0.4993491966551150    0.6704789623121811    0.7525882599028247 O
   0.9993491966551151    0.0038122956455145    0.7525882599028247 O
   0.9993491966551152    0.3371456289788478    0.7525882599028246 O
   0.9993491966551151    0.6704789623121811    0.7525882599028246 O
   0.2516928982748503    0.3248303426478472    0.7504963205859594 O
   0.2516928982748502    0.6581636759811804    0.7504963205859594 O
   0.2516928982748501    0.9914970093145138    0.7504963205859594 O
   0.7516928982748503    0.3248303426478472    0.7504963205859594 O
   0.7516928982748503    0.6581636759811804    0.7504963205859593 O
   0.7516928982748502    0.9914970093145137    0.7504963205859593 O
   0.0005902483281654    0.3294070316088412    0.2473550056376015 O
   0.0005902483281653    0.6627403649421744    0.2473550056376015 O
   0.0005902483281652    0.9960736982755078    0.2473550056376015 O
   0.5005902483281655    0.3294070316088412    0.2473550056376015 O
   0.5005902483281653    0.6627403649421746    0.2473550056376015 O
   0.5005902483281653    0.9960736982755077    0.2473550056376015 O
   0.2482299707308189    0.0083991305397435    0.2494652916034914 O
   0.2482299707308188    0.3417324638730768    0.2494652916034914 O
   0.2482299707308188    0.6750657972064101    0.2494652916034914 O
   0.7482299707308190    0.0083991305397435    0.2494652916034914 O
   0.7482299707308189    0.3417324638730768    0.2494652916034914 O
   0.7482299707308189    0.6750657972064101    0.2494652916034914 O
   0.1640080560759705    0.1184082917733964    0.1178187301180309 O
   0.1640080560759705    0.4517416251067298    0.1178187301180309 O
   0.1640080560759705    0.7850749584400630    0.1178187301180309 O
   0.6640080560759706    0.1184082917733964    0.1178187301180309 O
   0.6640080560759706    0.4517416251067298    0.1178187301180309 O
   0.6640080560759705    0.7850749584400630    0.1178187301180309 O
   0.4219744967014878    0.1084966132058775    0.1093562606602169 O
   0.4219744967014878    0.4418299465392108    0.1093562606602169 O
   0.4219744967014877    0.7751632798725441    0.1093562606602169 O
   0.9219744967014879    0.1084966132058775    0.1093562606602169 O
   0.9219744967014879    0.4418299465392108    0.1093562606602169 O
   0.9219744967014878    0.7751632798725440    0.1093562606602169 O
   0.1681015639947833    0.1078509664854287    0.5630028733545807 O
   0.1681015639947833    0.4411842998187620    0.5630028733545808 O
   0.1681015639947832    0.7745176331520952    0.5630028733545808 O
   0.6681015639947834    0.1078509664854287    0.5630028733545808 O
   0.6681015639947834    0.4411842998187621    0.5630028733545807 O
   0.6681015639947833    0.7745176331520952    0.5630028733545807 O
   0.4181714834705682    0.1079918727870647    0.5629835490975014 O
   0.4181714834705681    0.4413252061203980    0.5629835490975014 O
   0.4181714834705681    0.7746585394537313    0.5629835490975015 O
   0.9181714834705682    0.1079918727870647    0.5629835490975015 O
   0.9181714834705681    0.4413252061203980    0.5629835490975014 O
   0.9181714834705682    0.7746585394537313    0.5629835490975014 O
   0.0819926853561877    0.2255891131688025    0.4371311004528938 O
   0.0819926853561876    0.5589224465021357    0.4371311004528939 O
   0.0819926853561876    0.8922557798354690    0.4371311004528938 O
   0.5819926853561878    0.2255891131688024    0.4371311004528938 O
   0.5819926853561878    0.5589224465021359    0.4371311004528939 O
   0.5819926853561878    0.8922557798354690    0.4371311004528938 O
   0.3320548357466420    0.2257198622899691    0.4371167005612709 O
   0.3320548357466419    0.5590531956233024    0.4371167005612709 O
   0.3320548357466419    0.8923865289566357    0.4371167005612708 O
   0.8320548357466421    0.2257198622899691    0.4371167005612709 O
   0.8320548357466421    0.5590531956233024    0.4371167005612709 O
   0.8320548357466420    0.8923865289566356    0.4371167005612708 O
