Ca1 Mn12 F42                            
   1.00000000000000     
     7.3711960000000003    0.0064990000000000   -0.0282640000000000
    -3.6792539999999998    6.3225889999999998    0.0279640000000000
     0.1620710000000000    0.0336160000000000   17.4590290000000010
   Ca   Mn   F 
     1    12    42
Direct
  0.8278684663281065  0.4871373869632659  0.3272177635709164
  0.2837676590662896  0.9947645833391664  0.3322273136613607
  0.7026259009415434  0.6985473333886698  0.9976901181094939
  0.0097410451252309  0.3033109825346715  0.6714032607359676
  0.3608712067079633  0.0075635362385349  0.8329880066783361
  0.6521120745437003  0.6657880997483713  0.5080613728908563
  0.9716539753592822  0.3306261836113918  0.1609241781040860
  0.6471856136119338  0.1626000522834398  0.5048525785533101
  0.4701148918772822  0.3311211192410123  0.1553468551917287
  0.8607889210636408  0.5068218142639862  0.8336871835388400
  0.3612925368771367  0.5081462484369899  0.8321425975015945
  0.1516044461063792  0.6576709977085379  0.5087710340700753
  0.4745616942514267  0.8308925768283366  0.1628930469797218
  0.5597545191178778  0.7967862694781979  0.0586755331098988
  0.2664127836850187  0.4472660472289310  0.7301086706090352
  0.1736907745819419  0.7447746115096634  0.4030296564041407
  0.4112427630814903  0.2366275055687246  0.2605603766607916
  0.8196891740011716  0.5635423440847134  0.9363628531018976
  0.7754359980970207  0.2032506701154961  0.6095705832811815
  0.8992557203701359  0.0911914311717884  0.7344981027114855
  0.1760113194808658  0.1145636052117640  0.3888195358489517
  0.9060423749303370  0.7848040887853492  0.0632537337150191
  0.1238750320417986  0.2020353994469301  0.6101054835211108
  0.0359644290417056  0.8276132501086191  0.2811497276117452
  0.8178047512842053  0.9220927512557914  0.9399062464913862
  0.1277147179371867  0.5640184410946865  0.6107986223409474
  0.4087345701625840  0.8691192187914563  0.2719988911469882
  0.4511984918989447  0.5686863723443532  0.9340035732492205
  0.8965591401511762  0.4490630010993691  0.7310717103779161
  0.5492510791420179  0.1502370385460978  0.3854349761884055
  0.5474533344232306  0.4283982540278100  0.0530117250204745
  0.3585795162499430  0.5814937670416108  0.4874359709127096
  0.1850920073129654  0.6198924386650164  0.1442731073697125
  0.4389520511794858  0.7946339608958828  0.8146092915581894
  0.6523185376561307  0.2202188452218843  0.8500326471824441
  0.5711574294366581  0.3705390899747567  0.5254744876602719
  0.7661580815511603  0.4200954448219918  0.1874093306273936
  0.6872518276510459  0.6245319830071446  0.4049661633957991
  0.8996963835835163  0.2984084301645740  0.0646745130260216
  0.3912151569973714  0.0684364079963104  0.7340051108542941
  0.3313223011159426  0.9469677706315811  0.9320100164153565
  0.6218953004976888  0.7046521682123414  0.6046837972051289
  0.0242775927179895  0.3709030222798434  0.2658432688682640
  0.9426864714603345  0.7351108002838616  0.5251313420669188
  0.7633882681539251  0.0451885301306516  0.1841118001906200
  0.2837535236434450  0.2215596893931146  0.8502077159123443
  0.0691612108970669  0.7942457478673632  0.8170743300557749
  0.7246895415716974  0.9549024781951808  0.4824488810880921
  0.1778790878406098  0.2524203399671456  0.1433754609734657
  0.6274873919521369  0.5652050811166877  0.8023804958967918
  0.9067883697504920  0.3797436074493933  0.4601204953266878
  0.4239600198362005  0.0495489237906442  0.1308330769531721
  0.3811081551141176  0.9500429768943569  0.5340072123297011
  0.5287685042687710  0.6106855113871502  0.1941112889703903
  0.0949775657642398  0.4505612659960677  0.8629964929043744
 
             NaN             NaN             NaN
             NaN             NaN             NaN
             NaN             NaN             NaN
             NaN             NaN             NaN
             NaN             NaN             NaN
             NaN             NaN             NaN
             NaN             NaN             NaN
             NaN             NaN             NaN
             NaN             NaN             NaN
             NaN             NaN             NaN
             NaN             NaN             NaN
             NaN             NaN             NaN
             NaN             NaN             NaN
             NaN             NaN             NaN
             NaN             NaN             NaN
             NaN             NaN             NaN
             NaN             NaN             NaN
             NaN             NaN             NaN
             NaN             NaN             NaN
             NaN             NaN             NaN
             NaN             NaN             NaN
             NaN             NaN             NaN
             NaN             NaN             NaN
             NaN             NaN             NaN
             NaN             NaN             NaN
             NaN             NaN             NaN
             NaN             NaN             NaN
             NaN             NaN             NaN
             NaN             NaN             NaN
             NaN             NaN             NaN
             NaN             NaN             NaN
             NaN             NaN             NaN
             NaN             NaN             NaN
             NaN             NaN             NaN
             NaN             NaN             NaN
             NaN             NaN             NaN
             NaN             NaN             NaN
             NaN             NaN             NaN
             NaN             NaN             NaN
             NaN             NaN             NaN
             NaN             NaN             NaN
             NaN             NaN             NaN
             NaN             NaN             NaN
             NaN             NaN             NaN
             NaN             NaN             NaN
             NaN             NaN             NaN
             NaN             NaN             NaN
             NaN             NaN             NaN
             NaN             NaN             NaN
             NaN             NaN             NaN
             NaN             NaN             NaN
             NaN             NaN             NaN
             NaN             NaN             NaN
             NaN             NaN             NaN
             NaN             NaN             NaN
