Ca1 Mn12 F42
1.0
7.371196 0.006499 -0.028264
-3.679254 6.322589 0.027964
0.162071 0.033616 17.459029
Ca Mn F
1 12 42
direct
0.791483 0.492559 0.331003 Ca
0.294769 0.999493 0.332959 Mn
0.709473 0.709201 0.995724 Mn
0.004981 0.292043 0.671606 Mn
0.355117 0.002517 0.833041 Mn
0.647896 0.650932 0.506767 Mn
0.993130 0.346007 0.161079 Mn
0.646933 0.149854 0.504376 Mn
0.493052 0.349498 0.158444 Mn
0.855966 0.501031 0.833096 Mn
0.357093 0.503906 0.833338 Mn
0.149430 0.646980 0.508123 Mn
0.493403 0.848127 0.162369 Mn
0.572007 0.812253 0.058209 F
0.259014 0.439672 0.731490 F
0.176662 0.738879 0.402740 F
0.429304 0.251116 0.262703 F
0.821274 0.568008 0.935038 F
0.770879 0.188159 0.607811 F
0.894269 0.078466 0.734186 F
0.189561 0.120350 0.391206 F
0.921517 0.807800 0.057969 F
0.123084 0.193408 0.610797 F
0.049989 0.839537 0.281085 F
0.813293 0.925208 0.934209 F
0.121545 0.552751 0.610214 F
0.422238 0.876236 0.271925 F
0.451056 0.567264 0.935361 F
0.886039 0.433693 0.730940 F
0.556872 0.142459 0.388344 F
0.567615 0.446226 0.056207 F
0.355949 0.566692 0.485355 F
0.205002 0.637208 0.144592 F
0.434943 0.790474 0.814502 F
0.645579 0.215798 0.852586 F
0.569835 0.358652 0.525011 F
0.786503 0.432920 0.189399 F
0.682554 0.609736 0.403719 F
0.920319 0.315684 0.064960 F
0.391021 0.069433 0.734583 F
0.319215 0.935831 0.931512 F
0.615167 0.689798 0.603188 F
0.052638 0.381905 0.265537 F
0.937432 0.723294 0.523414 F
0.781567 0.059469 0.183821 F
0.277727 0.216343 0.851563 F
0.065235 0.787592 0.813699 F
0.721639 0.938710 0.481258 F
0.202098 0.270060 0.143333 F
0.624258 0.558030 0.803044 F
0.912801 0.371011 0.461897 F
0.444055 0.070665 0.131955 F
0.378090 0.933878 0.533185 F
0.547143 0.625793 0.195407 F
0.088380 0.448148 0.863492 F
