Li16 Ti16 O32
1.0
   8.0921487808000006    0.0000000000000000    0.0000000000000000
   0.0000000000000000    8.0921487808000006    0.0000000000000000
   0.0000000000000000    0.0000000000000000    8.4153633118000002
Li Ti O
15 16 32
direct
   0.5000000000000000    0.7499999999999999    0.7500000000000000 Li
   0.5000000000000000    0.0000000000000000    0.5000000000000000 Li
   0.0000000000000000    0.0000000000000000    0.5000000000000000 Li
   0.0000000000000000    0.5000000000000000    0.5000000000000000 Li
   0.5000000000000000    0.2500000000000000    0.7500000000000000 Li
   0.0000000000000000    0.2500000000000000    0.7500000000000000 Li
   0.0000000000000000    0.7499999999999999    0.7500000000000000 Li
   0.2500000000000000    0.2500000000000000    0.0000000000000000 Li
   0.2500000000000000    0.7499999999999999    0.0000000000000000 Li
   0.7499999999999999    0.2500000000000000    0.0000000000000000 Li
   0.7499999999999999    0.7499999999999999    0.0000000000000000 Li
   0.2500000000000000    0.0000000000000000    0.2500000000000000 Li
   0.2500000000000000    0.5000000000000000    0.2500000000000000 Li
   0.7499999999999999    0.0000000000000000    0.2500000000000000 Li
   0.7499999999999999    0.5000000000000000    0.2500000000000000 Li
   0.0000000000000000    0.0000000000000000    0.0000000000000000 Ti
   0.0000000000000000    0.5000000000000000    0.0000000000000000 Ti
   0.5000000000000000    0.0000000000000000    0.0000000000000000 Ti
   0.5000000000000000    0.5000000000000000    0.0000000000000000 Ti
   0.0000000000000000    0.2500000000000000    0.2500000000000000 Ti
   0.0000000000000000    0.7499999999999999    0.2500000000000000 Ti
   0.5000000000000000    0.2500000000000000    0.2500000000000000 Ti
   0.5000000000000000    0.7499999999999999    0.2500000000000000 Ti
   0.2500000000000000    0.2500000000000000    0.5000000000000000 Ti
   0.2500000000000000    0.7499999999999999    0.5000000000000000 Ti
   0.7499999999999999    0.2500000000000000    0.5000000000000000 Ti
   0.7499999999999999    0.7499999999999999    0.5000000000000000 Ti
   0.2500000000000000    0.0000000000000000    0.7500000000000000 Ti
   0.2500000000000000    0.5000000000000000    0.7500000000000000 Ti
   0.7499999999999999    0.0000000000000000    0.7500000000000000 Ti
   0.7499999999999999    0.5000000000000000    0.7500000000000000 Ti
   0.0000000000000000    0.0000000000000000    0.2498214840000000 O
   0.0000000000000000    0.5000000000000000    0.2498214840000000 O
   0.5000000000000000    0.0000000000000000    0.2498214840000000 O
   0.5000000000000000    0.5000000000000000    0.2498214840000000 O
   0.0000000000000000    0.2500000000000000    0.0001785200000000 O
   0.0000000000000000    0.7499999999999999    0.0001785200000000 O
   0.5000000000000000    0.2500000000000000    0.0001785200000000 O
   0.5000000000000000    0.7499999999999999    0.0001785200000000 O
   0.2500000000000000    0.0000000000000000    0.9998214839999999 O
   0.2500000000000000    0.5000000000000000    0.9998214839999999 O
   0.7499999999999999    0.0000000000000000    0.9998214839999999 O
   0.7499999999999999    0.5000000000000000    0.9998214839999999 O
   0.0000000000000000    0.0000000000000000    0.7501785160000000 O
   0.0000000000000000    0.5000000000000000    0.7501785160000000 O
   0.5000000000000000    0.0000000000000000    0.7501785160000000 O
   0.5000000000000000    0.5000000000000000    0.7501785160000000 O
   0.2500000000000000    0.2500000000000000    0.7498214840000000 O
   0.2500000000000000    0.7499999999999999    0.7498214840000000 O
   0.7499999999999999    0.2500000000000000    0.7498214840000000 O
   0.7499999999999999    0.7499999999999999    0.7498214840000000 O
   0.2500000000000000    0.0000000000000000    0.5001785160000000 O
   0.2500000000000000    0.5000000000000000    0.5001785160000000 O
   0.7499999999999999    0.0000000000000000    0.5001785160000000 O
   0.7499999999999999    0.5000000000000000    0.5001785160000000 O
   0.0000000000000000    0.2500000000000000    0.4998214839999999 O
   0.0000000000000000    0.7499999999999999    0.4998214839999999 O
   0.5000000000000000    0.2500000000000000    0.4998214839999999 O
   0.5000000000000000    0.7499999999999999    0.4998214839999999 O
   0.2500000000000000    0.2500000000000000    0.2501785160000000 O
   0.2500000000000000    0.7499999999999999    0.2501785160000000 O
   0.7499999999999999    0.2500000000000000    0.2501785160000000 O
   0.7499999999999999    0.7499999999999999    0.2501785160000000 O
