Na2 Ca2 V4 Si4 P2 O24                   
   1.00000000000000     
     8.8384599999999995    0.1225200000000000    0.0705950000000000
     4.2665670000000002    7.6834569999999998    0.0806270000000000
     4.4102439999999996    2.5570240000000002    7.2298980000000004
   Ca   Na   V    Si   P    O 
     2     2     4     4     2    24
Direct
  0.7438194966900028  0.4223206222492994  0.1895365777125278
 -0.0009365883941391  0.9946386104461479  0.0077710571614876
  0.1453709352567324  0.7419359005402801  0.4115439435928829
  0.8666886968669260  0.2532962063279745  0.6088600670725985
  0.3563372246909488  0.3571612027071768  0.3652180826998475
  0.6279638793313722  0.6418811821392802  0.6512182906115813
  0.1597382213532964  0.1425760735310296  0.1398806467392019
  0.8522577661959252  0.8528945664899249  0.8528975393655119
  0.0225937506210295  0.4586127733508195  0.7550099875056766
  0.7410673153569876  0.0298531144055149  0.4753243588452821
  0.4556902077989530  0.7544670201862255  0.0330477796901270
  0.5397927875158405  0.2530846535171761  0.9649913668667159
  0.9688832070408481  0.5507110482223244  0.2501632717215848
  0.2526007026074153  0.9616657689908215  0.5365964614797386
  0.2151669376381110  0.4211223602264525  0.5804895546190771
  0.7781000545880636  0.5594510259597102  0.4095806450298971
  0.5738529120065448  0.2261017497839193  0.4331102236085405
  0.4220006483043717  0.7870799510848073  0.5560444155532472
  0.4355812692114652  0.5780424901077226  0.2294506322938176
  0.5590777094986166  0.4269055630966945  0.7687979889171953
  0.9197228682951942  0.0684230224652446  0.2810896367190055
  0.0813553419625946  0.9461999864234346  0.7224306236426230
  0.0259431843108281  0.2854852532371632  0.9525954626518064
  0.9477926525306430  0.7232660689630418  0.0732306277306935
  0.2617246681123973  0.9263216606513121  0.0631747811778900
  0.7354464286476347  0.0790866753461132  0.9420213194971133
  0.4849046298034200  0.3054462046978335  0.1436813787892998
  0.4900288199029827  0.7115694134907802  0.8571710832616793
  0.1209549863603622  0.5409783886837498  0.2932848439510245
  0.8467963885666706  0.4821175936518148  0.7196830888565902
  0.2774030589218910  0.1410706153062883  0.4941508654130765
  0.7226758673287542  0.8401570848108189  0.5084734524378962
  0.3665812948580477  0.1954953451331403  0.0055714306693534
  0.6462587253874474  0.7710332948814849  1.0047372190733896
  0.2043624730614141  0.9823551693687432  0.3790900645005954
  0.7790366790504135  0.0128241429680614  0.6475356012528526
  1.0161662478370761  0.3696853085441456  0.2176418914129483
  0.9954127033670092  0.6510096651747506  0.7695414394790041
 
             NaN             NaN             NaN
             NaN             NaN             NaN
             NaN             NaN             NaN
             NaN             NaN             NaN
             NaN             NaN             NaN
             NaN             NaN             NaN
             NaN             NaN             NaN
             NaN             NaN             NaN
             NaN             NaN             NaN
             NaN             NaN             NaN
             NaN             NaN             NaN
             NaN             NaN             NaN
             NaN             NaN             NaN
             NaN             NaN             NaN
             NaN             NaN             NaN
             NaN             NaN             NaN
             NaN             NaN             NaN
             NaN             NaN             NaN
             NaN             NaN             NaN
             NaN             NaN             NaN
             NaN             NaN             NaN
             NaN             NaN             NaN
             NaN             NaN             NaN
             NaN             NaN             NaN
             NaN             NaN             NaN
             NaN             NaN             NaN
             NaN             NaN             NaN
             NaN             NaN             NaN
             NaN             NaN             NaN
             NaN             NaN             NaN
             NaN             NaN             NaN
             NaN             NaN             NaN
             NaN             NaN             NaN
             NaN             NaN             NaN
             NaN             NaN             NaN
             NaN             NaN             NaN
             NaN             NaN             NaN
             NaN             NaN             NaN
