Na2 Ca2 V4 Si4 P2 O24
1.0
8.838460 0.122520 0.070595
4.266567 7.683457 0.080627
4.410244 2.557024 7.229898
Ca Na V Si P O
2 2 4 4 2 24
direct
0.619270 0.451001 0.309643 Ca
0.005678 0.989173 0.002355 Ca
0.268681 0.637058 0.461929 Na
0.878811 0.250940 0.600748 Na
0.357729 0.358901 0.350030 V
0.633712 0.649193 0.653342 V
0.150362 0.147089 0.135456 V
0.848375 0.856143 0.849096 V
0.028349 0.464765 0.748271 Si
0.741233 0.042760 0.464717 Si
0.453469 0.756082 0.035436 Si
0.541874 0.253387 0.958546 Si
0.962882 0.544207 0.243667 P
0.251683 0.961472 0.530143 P
0.212757 0.442338 0.565791 O
0.784236 0.560083 0.417189 O
0.567886 0.236265 0.437211 O
0.418858 0.781435 0.550469 O
0.435696 0.581734 0.230959 O
0.559482 0.424220 0.758605 O
0.916107 0.066727 0.266563 O
0.083809 0.949270 0.718959 O
0.053765 0.275858 0.928801 O
0.938515 0.724776 0.074777 O
0.262540 0.929797 0.058581 O
0.737304 0.080084 0.932970 O
0.506913 0.306808 0.129083 O
0.483462 0.707171 0.864009 O
0.131390 0.515950 0.275324 O
0.841383 0.490597 0.731193 O
0.290152 0.135565 0.483678 O
0.707327 0.853439 0.513223 O
0.359411 0.201842 0.014712 O
0.638650 0.792797 0.990417 O
0.195202 0.985874 0.377925 O
0.789344 0.017215 0.634456 O
-0.010842 0.371507 0.214673 O
0.996238 0.651279 0.776303 O
