Ca4 V4 P6 O24                           
   1.00000000000000     
     2.5847220000000002    7.3792939999999998    4.4236529999999998
    -0.0181450000000000    0.0889980000000000    8.8507420000000003
     7.7169790000000003    0.0947740000000000    4.3347179999999996
   Ca   V    P    O 
     4     4     6    24
Direct
  0.4632209241071403  0.5713469591260005  0.4996272858756813
  0.9504194248672437  0.0058005120724895  0.0236570636215930
  0.3880367673468482  0.7483835027678541  0.0840413505877536
  0.1027599488389348  0.3853380190956814  0.7509038803446537
  0.6534221597207380  0.6366081391043855  0.6476120363083564
  0.1489432687708107  0.1430471829705532  0.1569044743256929
  0.8485270226270657  0.8674797272888155  0.8477636553535954
  0.3426272746687605  0.3502039602755195  0.3495991168421965
  0.2379166417539846  0.5569941628192009  0.9531327326831146
  0.0383885258958685  0.7558827217054342  0.4533780729306435
  0.9478807500678269  0.2546850044641915  0.5521156742121645
  0.4620820736017650  0.0454385807740771  0.7468942678400703
  0.5337902362912416  0.9506372480915628  0.2495630956203083
  0.7521954514848544  0.4526260936960916  0.0399534058116649
  0.5543502312494412  0.7975131278622728  0.4321366104803862
  0.2666294036112900  0.0751520803319723  0.9100740594908475
  0.4123542491960848  0.5685413978336192  0.7783259171098561
  0.9170527452010424  0.2725209352706737  0.0757676302989723
  0.7665797451656516  0.4231033322986338  0.5499471116696844
  0.0761288762990870  0.9037238176867106  0.2586810328059968
  0.9172864821274075  0.1008286503852326  0.7419451840566142
  0.5719996959239484  0.4463555217615416  0.2074889135667039
  0.7221659861456973  0.9186161205952421  0.0945236016981058
  0.2272534833369197  0.5848675899232266  0.4352490449369083
  0.0793451103961078  0.7437352776391873  0.9244878075217422
  0.4243550174517763  0.2200388185758957  0.5819473133267085
  0.1925736156767313  0.3972568574822861  0.9774005444767371
  0.8812395066908352  0.7069071085753301  0.4909013458523337
  0.0110353258588951  0.1872802107969301  0.3941954686703530
  0.4981995084577164  0.8556288631233396  0.7461898514051690
  0.3920643198640906  0.9250885511840850  0.2172590731555955
  0.7529603051058189  0.4554445807393669  0.8624570575750183
  0.2727176469289014  0.5357242900191572  0.1188056595177835
  0.0205960143455819  0.7945315594591530  0.6133123098665367
  0.0986230304344171  0.3087645066864622  0.5357645276855152
  0.6104351963705401  0.0325181930348847  0.7937458329876100
  0.4718148057899914  0.1424916796742781  0.2548000426459516
  0.7758274745613145  0.6300769316750416 -0.0006921240132278
 
             NaN             NaN             NaN
             NaN             NaN             NaN
             NaN             NaN             NaN
             NaN             NaN             NaN
             NaN             NaN             NaN
             NaN             NaN             NaN
             NaN             NaN             NaN
             NaN             NaN             NaN
             NaN             NaN             NaN
             NaN             NaN             NaN
             NaN             NaN             NaN
             NaN             NaN             NaN
             NaN             NaN             NaN
             NaN             NaN             NaN
             NaN             NaN             NaN
             NaN             NaN             NaN
             NaN             NaN             NaN
             NaN             NaN             NaN
             NaN             NaN             NaN
             NaN             NaN             NaN
             NaN             NaN             NaN
             NaN             NaN             NaN
             NaN             NaN             NaN
             NaN             NaN             NaN
             NaN             NaN             NaN
             NaN             NaN             NaN
             NaN             NaN             NaN
             NaN             NaN             NaN
             NaN             NaN             NaN
             NaN             NaN             NaN
             NaN             NaN             NaN
             NaN             NaN             NaN
             NaN             NaN             NaN
             NaN             NaN             NaN
             NaN             NaN             NaN
             NaN             NaN             NaN
             NaN             NaN             NaN
             NaN             NaN             NaN
