Ca4 V4 P6 O24
1.0
2.584722 7.379294 4.423653
-0.018145 0.088998 8.850742
7.716979 0.094774 4.334718
Ca V P O
4 4 6 24
direct
0.465476 0.572974 0.522260 Ca
0.957839 0.000604 0.025295 Ca
0.393374 0.745752 0.099979 Ca
0.118429 0.401166 0.747267 Ca
0.647615 0.638954 0.633104 V
0.147784 0.146796 0.151549 V
0.846337 0.860893 0.854667 V
0.348171 0.345837 0.350971 V
0.247314 0.552839 0.946447 P
0.034513 0.752359 0.450232 P
0.962474 0.245352 0.555782 P
0.458334 0.042514 0.743419 P
0.534246 0.942702 0.251674 P
0.748110 0.456295 0.036721 P
0.561592 0.759360 0.411179 O
0.265990 0.068568 0.908837 O
0.410096 0.567839 0.761603 O
0.919953 0.279285 0.056475 O
0.779995 0.408347 0.559186 O
0.071816 0.909980 0.263177 O
0.933652 0.085115 0.740393 O
0.578911 0.432809 0.214600 O
0.716794 0.936428 0.087153 O
0.226597 0.588291 0.425190 O
0.083003 0.737547 0.929231 O
0.424637 0.229818 0.587091 O
0.195798 0.393791 0.977829 O
0.879824 0.708797 0.472505 O
0.027074 0.182439 0.394145 O
0.486688 0.870444 0.716255 O
0.387354 0.954279 0.197473 O
0.726497 0.481496 0.863484 O
0.296651 0.524971 0.105148 O
0.005087 0.776972 0.624844 O
0.107943 0.300651 0.545714 O
0.610467 1.013903 0.794263 O
0.475210 0.106978 0.308044 O
0.768344 0.629392 0.014215 O
