Ca1 Cr12 F42                            
   1.00000000000000     
     7.2282789999999997   -0.0356200000000000   -0.0233060000000000
    -3.5954880000000000    6.3070079999999997   -0.0711730000000000
     0.0219390000000000   -0.1512590000000000   17.3469279999999983
   Ca   Cr   F 
     1    12    42
Direct
  0.6186298681539849  0.8258452210916374  0.7221604747134607
  0.2997757181519406  0.0094974772819132  0.3326456706383338
  0.6953913123241793  0.6802778039090507  0.0032072497558660
  0.0295664541072789  0.3421803608390834  0.6605440534246408
  0.3279763938381374  0.9726916837118694  0.8418822039896999
  0.6645740265724256  0.6779472490784444  0.4972043967947297
  0.9987574520921131  0.3443810342651895  0.1675273229175293
  0.6665583418059260  0.1787004126090389  0.4962002868011322
  0.4982089281280203  0.3441122068096778  0.1681841134196436
  0.8340582512186294  0.4727974505869122  0.8381153350887141
  0.3241878875301717  0.4629401758192319  0.8434703573870441
  0.1639802236238620  0.6821359687084255  0.4995769237763256
  0.4989892214518667  0.8448395453811376  0.1672132074636052
  0.5383019706847196  0.7864058932425989  0.0610574979058674
  0.2755731524804816  0.4974605753263814  0.7331751917209465
  0.2002515822847552  0.7588777035498061  0.3938567315312245
  0.4284573232080269  0.2616212729614112  0.2722850606524425
  0.8256211192885206  0.5484475506252721  0.9431691656894337
  0.7678225185650859  0.1998455056212028  0.6013370252042283
  0.9384603239376198  0.0976280595233248  0.7181658037758895
  0.1960888916654059  0.1219884625550709  0.3959331320030903
  0.9190551096541061  0.8148831509386385  0.0623535658731996
  0.1766198926960323  0.2728352711784374  0.5972370908434081
  0.0828446971663925  0.8799460533522332  0.2699001361880047
  0.7622156949439938  0.8713214531198712  0.9320756803680257
  0.1246924658933215  0.6063235615378609  0.6076813639611207
  0.4525804700937469  0.8965074447570518  0.2720759084151119
  0.4173819304711694  0.4778567862550074  0.9452906175362641
  0.8519103286434540  0.4075567312075314  0.7323044850865514
  0.5667616353558210  0.1471565474017041  0.3928289225859856
  0.5807295764446171  0.4323741800026314  0.0656255320818759
  0.3691011151746550  0.5905046246985735  0.4864749260510008
  0.2004422279428389  0.6383216900222491  0.1543673449207545
  0.4206433060697558  0.7622211037613215  0.8508379849207605
  0.6209171773351814  0.1873020763130192  0.8611960717047664
  0.5910948258687515  0.3911291443889420  0.5220257252371502
  0.7884564738027214  0.4235486524049868  0.1924263702174104
  0.6841609029375499  0.6294028305702980  0.3987190203047037
  0.9292433757802738  0.3176539767009794  0.0685813935647440
  0.4162435074500861 -0.0267466200210122  0.7376693044385425
  0.2630343029129259  0.9626713476750002  0.9405181957754976
  0.6425737349277234  0.7286329757601774  0.6045303589322594
  0.0678616975721036  0.3668194466294845  0.2661933685298987
  0.9609772135211964  0.7745476976337320  0.5146136637390131
  0.7963484469458180  0.0492016837329340  0.1799230243802419
  0.2421329868235229  0.1760884237770469  0.8218849245472136
  0.0416883990015405  0.7584280176969601  0.8133499153937589
  0.7470871202442303  0.9688603000616520  0.4762990596223280
  0.2100398362064915  0.2648067603296327  0.1432419802420271
  0.6163347786790834  0.5499794000886885  0.8063535502807606
  0.9455536657623826  0.4004301974319316  0.4673127604497964
  0.4393158473671940  0.0634839534331935  0.1358562447637333
  0.3891762408809369  0.9618993593496963  0.5306876353802569
  0.5586319582155573  0.6261905551480323  0.1988426065992294
  0.0396843933967760  0.3907362917064622  0.8686877783903890
 
             NaN             NaN             NaN
             NaN             NaN             NaN
             NaN             NaN             NaN
             NaN             NaN             NaN
             NaN             NaN             NaN
             NaN             NaN             NaN
             NaN             NaN             NaN
             NaN             NaN             NaN
             NaN             NaN             NaN
             NaN             NaN             NaN
             NaN             NaN             NaN
             NaN             NaN             NaN
             NaN             NaN             NaN
             NaN             NaN             NaN
             NaN             NaN             NaN
             NaN             NaN             NaN
             NaN             NaN             NaN
             NaN             NaN             NaN
             NaN             NaN             NaN
             NaN             NaN             NaN
             NaN             NaN             NaN
             NaN             NaN             NaN
             NaN             NaN             NaN
             NaN             NaN             NaN
             NaN             NaN             NaN
             NaN             NaN             NaN
             NaN             NaN             NaN
             NaN             NaN             NaN
             NaN             NaN             NaN
             NaN             NaN             NaN
             NaN             NaN             NaN
             NaN             NaN             NaN
             NaN             NaN             NaN
             NaN             NaN             NaN
             NaN             NaN             NaN
             NaN             NaN             NaN
             NaN             NaN             NaN
             NaN             NaN             NaN
             NaN             NaN             NaN
             NaN             NaN             NaN
             NaN             NaN             NaN
             NaN             NaN             NaN
             NaN             NaN             NaN
             NaN             NaN             NaN
             NaN             NaN             NaN
             NaN             NaN             NaN
             NaN             NaN             NaN
             NaN             NaN             NaN
             NaN             NaN             NaN
             NaN             NaN             NaN
             NaN             NaN             NaN
             NaN             NaN             NaN
             NaN             NaN             NaN
             NaN             NaN             NaN
             NaN             NaN             NaN
