Ca1 Cr12 F42
1.0
7.228279 -0.035620 -0.023306
-3.595488 6.307008 -0.071173
0.021939 -0.151259 17.346928
Ca Cr F
1 12 42
direct
0.633096 0.903603 0.734353 Ca
0.284321 0.001095 0.332176 Cr
0.707181 0.696150 0.005923 Cr
0.011535 0.307375 0.662222 Cr
0.351947 0.995254 0.838595 Cr
0.653411 0.653396 0.494397 Cr
0.994449 0.349569 0.167949 Cr
0.654667 0.156054 0.494378 Cr
0.492614 0.346984 0.168056 Cr
0.853632 0.495757 0.836262 Cr
0.351578 0.490926 0.837298 Cr
0.152947 0.655770 0.496947 Cr
0.495949 0.848983 0.168152 Cr
0.563129 0.814152 0.064101 F
0.267477 0.446168 0.728636 F
0.173926 0.746644 0.393357 F
0.427879 0.255814 0.272332 F
0.820959 0.553522 0.941662 F
0.747626 0.190409 0.601929 F
0.869583 0.065327 0.720304 F
0.195496 0.122763 0.397798 F
0.925600 0.799877 0.069041 F
0.125722 0.201341 0.598537 F
0.064669 0.884066 0.270170 F
0.809349 0.914272 0.941667 F
0.142057 0.576069 0.605254 F
0.424174 0.877480 0.271450 F
0.442501 0.553917 0.940956 F
0.887373 0.440589 0.730700 F
0.555008 0.119234 0.391454 F
0.560549 0.436389 0.063767 F
0.360084 0.570715 0.474708 F
0.202599 0.639112 0.146538 F
0.446750 0.787669 0.815942 F
0.651854 0.200035 0.852812 F
0.568097 0.361944 0.515515 F
0.787151 0.434604 0.188611 F
0.692715 0.616329 0.396312 F
0.917713 0.305611 0.069503 F
0.384791 0.047764 0.733158 F
0.322908 0.931616 0.937949 F
0.613789 0.693344 0.597393 F
0.071447 0.391944 0.266157 F
0.945378 0.737798 0.520087 F
0.787837 0.058344 0.189152 F
0.252839 0.196171 0.853065 F
0.054360 0.790171 0.818766 F
0.740803 0.947775 0.477657 F
0.199838 0.260897 0.147393 F
0.633558 0.557956 0.804863 F
0.933736 0.374768 0.465133 F
0.436576 0.067642 0.135997 F
0.381354 0.932908 0.532347 F
0.552214 0.627856 0.199935 F
0.069793 0.428646 0.866584 F
