Na2 Ca2 V4 P4 S2 O24                    
   1.00000000000000     
     8.9956870000000002    0.2802400000000000    0.1187340000000000
     4.4443950000000001    7.7947720000000000    0.1534260000000000
     4.3627010000000004    2.6547010000000002    7.3420579999999998
   Ca   Na   V    P    S    O 
     2     2     4     4     2    24
Direct
  0.4239257200028011  0.1344261331399231  0.7433195072081202
  0.9976423727497785  0.9902713166694940  0.0126751044200836
  0.6933220717725266  0.4514764103376832  0.2709687857348724
  0.5980373686465874  0.8851824469806328  0.2405873165476566
  0.3522176802729484  0.3636030086332011  0.3402669126501887
  0.6501455429739326  0.6427485565317207  0.6297448204691410
  0.1480268506646616  0.1548696495309014  0.1426829599984132
  0.8547291122174291  0.8544555325365671  0.8506247784225004
  0.9628142383998338  0.5487870063823621  0.2437873145475219
  0.7561896893682477  0.0308587090964078  0.4410599478307192
  0.4652948234609612  0.7533961475874144  0.0253307670774455
  0.5478329985630408  0.2565486653943284  0.9509129709747129
  0.0432862130426920  0.4576545433625287  0.7391304461159363
  0.2449806062752918  0.9679284248864276  0.5508268788521596
  0.2267662074186767  0.4330016448880978  0.5877656815960813
  0.7726540124267588  0.5692755230876728  0.4009808151926096
  0.5807241196472402  0.2147452990941469  0.4284598795389817
  0.4115557988422631  0.7966233910002850  0.5486611141133843
  0.4358461888306601  0.5827309160108890  0.1927143341341570
  0.5630581437986067  0.4295507884075631  0.7814955634947005
  0.9194282212446324  0.0751146826709182  0.2655115360896221
  0.0930510869705515  0.9319272611730622  0.7289826922723541
  0.0766311704259255  0.2704996769453416  0.8962954861492303
  0.9350501236123585  0.7390721186723798  0.0811721307660426
  0.2822901304555837  0.9302307591430500  0.0397669310838843
  0.7342974890834819  0.0870637708639846  0.9292120327974512
  0.5059844241930860  0.2695943866293899  0.1336070411736352
  0.5133078222538756  0.7489939423956449  0.8356838593875653
  0.1167392777905605  0.5163105777608468  0.2957608480477175
  0.8979909070359112  0.4791946140882898  0.6919393007345200
  0.2831542011111686  0.1180737579201889  0.5395535114107126
  0.7273492132388477  0.8753621431222431  0.4428285788087468
  0.3954024120833313  0.2042256958679561  0.9718963139542706
  0.6175019158322972  0.7876136242517335  0.0262592890561156
  0.1917579133785328  0.0219314176644635  0.3946788890688388
  0.7683155512392168  0.9912827457736446  0.6250759870294025
  0.9999346450692063  0.3961878200839284  0.1838839045822144
  0.0013645661155778  0.6056931857181375  0.7949505376701266
 
             NaN             NaN             NaN
             NaN             NaN             NaN
             NaN             NaN             NaN
             NaN             NaN             NaN
             NaN             NaN             NaN
             NaN             NaN             NaN
             NaN             NaN             NaN
             NaN             NaN             NaN
             NaN             NaN             NaN
             NaN             NaN             NaN
             NaN             NaN             NaN
             NaN             NaN             NaN
             NaN             NaN             NaN
             NaN             NaN             NaN
             NaN             NaN             NaN
             NaN             NaN             NaN
             NaN             NaN             NaN
             NaN             NaN             NaN
             NaN             NaN             NaN
             NaN             NaN             NaN
             NaN             NaN             NaN
             NaN             NaN             NaN
             NaN             NaN             NaN
             NaN             NaN             NaN
             NaN             NaN             NaN
             NaN             NaN             NaN
             NaN             NaN             NaN
             NaN             NaN             NaN
             NaN             NaN             NaN
             NaN             NaN             NaN
             NaN             NaN             NaN
             NaN             NaN             NaN
             NaN             NaN             NaN
             NaN             NaN             NaN
             NaN             NaN             NaN
             NaN             NaN             NaN
             NaN             NaN             NaN
             NaN             NaN             NaN
