Na2 Ca2 V4 P4 S2 O24
1.0
8.995687 0.280240 0.118734
4.444395 7.794772 0.153426
4.362701 2.654701 7.342058
Ca Na V P S O
2 2 4 4 2 24
direct
0.429066 0.160432 0.714103 Ca
-0.002939 0.986155 0.014585 Ca
0.679367 0.449156 0.278343 Na
0.599557 0.889843 0.243832 Na
0.353118 0.353634 0.341866 V
0.649765 0.644820 0.634375 V
0.147092 0.154996 0.140570 V
0.851874 0.850195 0.854319 V
0.958735 0.543811 0.247329 P
0.758648 0.028327 0.441889 P
0.465340 0.749738 0.030100 P
0.542770 0.251928 0.953234 P
0.046945 0.455778 0.738630 S
0.243269 0.964445 0.553811 S
0.229045 0.431044 0.586051 O
0.771251 0.565044 0.408937 O
0.582661 0.211385 0.428979 O
0.411616 0.793828 0.549286 O
0.447242 0.568333 0.183635 O
0.557976 0.433530 0.800277 O
0.920561 0.072105 0.264801 O
0.093247 0.924212 0.731821 O
0.076293 0.267080 0.894835 O
0.929873 0.736413 0.086772 O
0.277849 0.918904 0.055290 O
0.732437 0.087196 0.923658 O
0.496269 0.244326 0.146906 O
0.513500 0.759629 0.834430 O
0.118040 0.505539 0.295187 O
0.899169 0.484556 0.690134 O
0.280498 0.112358 0.548116 O
0.728639 0.873586 0.443328 O
0.392557 0.208988 -0.040850 O
0.614568 0.783105 0.036718 O
0.190573 1.024103 0.395975 O
0.775681 0.985852 0.623456 O
0.987435 0.395014 0.187519 O
0.009114 0.600300 0.797461 O
