Mn16 Zn8 O32
1.0
        8.5961799622         0.0000000000         0.0000000000
        0.0000000000         8.5961799622         0.0000000000
        0.0000000000         0.0000000000         8.5961799622
  Ca  Mn       O
  1   16      32
Direct
   0.2500000000000000    0.7500000000000000   -0.2500000000000000 Ca
     0.125000000         0.625000000         0.125000000
     0.125000000         0.875000000         0.375000000
     0.375000000         0.875000000         0.125000000
     0.375000000         0.625000000         0.375000000
     0.125000000         0.125000000         0.625000000
     0.125000000         0.375000000         0.875000000
     0.375000000         0.375000000         0.625000000
     0.375000000         0.125000000         0.875000000
     0.625000000         0.625000000         0.625000000
     0.625000000         0.875000000         0.875000000
     0.875000000         0.875000000         0.625000000
     0.875000000         0.625000000         0.875000000
     0.625000000         0.125000000         0.125000000
     0.625000000         0.375000000         0.375000000
     0.875000000         0.375000000         0.125000000
     0.875000000         0.125000000         0.375000000
     0.114124000         0.385876000         0.114124000
     0.635876000         0.135876000         0.364124000
     0.364124000         0.864124000         0.364124000
     0.864124000         0.135876000         0.135876000
     0.385876000         0.385876000         0.385876000
     0.385876000         0.114124000         0.114124000
     0.135876000         0.864124000         0.135876000
     0.114124000         0.114124000         0.385876000
     0.114124000         0.885876000         0.614124000
     0.635876000         0.635876000         0.864124000
     0.364124000         0.364124000         0.864124000
     0.864124000         0.635876000         0.635876000
     0.385876000         0.885876000         0.885876000
     0.385876000         0.614124000         0.614124000
     0.135876000         0.364124000         0.635876000
     0.114124000         0.614124000         0.885876000
     0.614124000         0.385876000         0.614124000
     0.135876000         0.135876000         0.864124000
     0.864124000         0.864124000         0.864124000
     0.364124000         0.135876000         0.635876000
     0.885876000         0.385876000         0.885876000
     0.885876000         0.114124000         0.614124000
     0.635876000         0.864124000         0.635876000
     0.614124000         0.114124000         0.885876000
     0.614124000         0.885876000         0.114124000
     0.135876000         0.635876000         0.364124000
     0.864124000         0.364124000         0.364124000
     0.364124000         0.635876000         0.135876000
     0.885876000         0.885876000         0.385876000
     0.885876000         0.614124000         0.114124000
     0.635876000         0.364124000         0.135876000
     0.614124000         0.614124000         0.385876000
