Li32 Co32 S64
1.0
  10.9469295882288389    0.0000165634906300    0.0000000785239464
   0.0000162098748098   10.9468972071647581    0.0000000911743548
   0.0000001992118096    0.0000001466496918   19.4859802017853667
Li Co S
31 32 64
direct
   0.5000000015363576    0.5000000041727150    0.4999976832308847 Li
   0.0000000017940250    0.2500000109956116    0.1249992063096577 Li
   0.0000000017940250    0.2500000109956116    0.6249992063096578 Li
   0.0000000017940250    0.7500000109956116    0.1249992063096577 Li
   0.0000000017940250    0.7500000109956115    0.6249992063096577 Li
   0.5000000017940250    0.2500000109956116    0.1249992063096577 Li
   0.5000000017940250    0.7500000109956116    0.1249992063096577 Li
   0.5000000017940249    0.7500000109956116    0.6249992063096577 Li
   0.0000000015363576    0.5000000041727148    0.9999976832308846 Li
   0.0000000015363576    0.5000000041727148    0.4999976832308847 Li
   0.0000000015363576    0.0000000041727146    0.9999976832308846 Li
   0.0000000015363576    0.0000000041727148    0.4999976832308846 Li
   0.5000000015363576    0.5000000041727150    0.9999976832308846 Li
   0.5000000015363576    0.0000000041727148    0.9999976832308846 Li
   0.5000000015363576    0.0000000041727148    0.4999976832308846 Li
   0.2499999977738925    0.4999999930468058    0.3750012323576881 Li
   0.2499999977738925    0.4999999930468058    0.8750012323576881 Li
   0.2499999977738925    0.9999999930468058    0.3750012323576882 Li
   0.2499999977738925    0.9999999930468056    0.8750012323576880 Li
   0.7499999977738925    0.4999999930468058    0.3750012323576881 Li
   0.7499999977738926    0.4999999930468058    0.8750012323576881 Li
   0.7499999977738925    0.9999999930468059    0.3750012323576882 Li
   0.7499999977738924    0.9999999930468059    0.8750012323576882 Li
   0.2500000012391578    0.2500000022246355    0.2500031395753882 Li
   0.2500000012391578    0.2500000022246355    0.7500031395753882 Li
   0.2500000012391578    0.7500000022246354    0.2500031395753882 Li
   0.2500000012391578    0.7500000022246355    0.7500031395753882 Li
   0.7500000012391578    0.2500000022246354    0.2500031395753882 Li
   0.7500000012391578    0.2500000022246355    0.7500031395753882 Li
   0.7500000012391577    0.7500000022246354    0.2500031395753882 Li
   0.7500000012391578    0.7500000022246355    0.7500031395753882 Li
   0.0000000025202524    0.4999999998723753    0.2500007430667304 Co
   0.0000000025202524    0.4999999998723753    0.7500007430667304 Co
   0.0000000025202524    0.9999999998723753    0.2500007430667304 Co
   0.0000000025202524    0.9999999998723752    0.7500007430667304 Co
   0.5000000025202525    0.4999999998723754    0.2500007430667304 Co
   0.5000000025202523    0.4999999998723754    0.7500007430667304 Co
   0.5000000025202523    0.9999999998723753    0.2500007430667304 Co
   0.5000000025202523    0.9999999998723752    0.7500007430667304 Co
   0.4999999989903832    0.2499999970355326    0.3750016778657135 Co
   0.4999999989903833    0.2499999970355326    0.8750016778657136 Co
   0.4999999989903831    0.7499999970355324    0.3750016778657135 Co
   0.4999999989903832    0.7499999970355326    0.8750016778657135 Co
   0.9999999989903829    0.2499999970355326    0.3750016778657135 Co
   0.9999999989903834    0.2499999970355326    0.8750016778657136 Co
   0.9999999989903831    0.7499999970355327    0.3750016778657135 Co
   0.9999999989903831    0.7499999970355326    0.8750016778657136 Co
   0.2500000062664466    0.0000000067851497    0.1249986044428346 Co
   0.2500000062664465    0.0000000067851496    0.6249986044428346 Co
   0.2500000062664465    0.5000000067851497    0.1249986044428346 Co
   0.2500000062664466    0.5000000067851497    0.6249986044428346 Co
   0.7500000062664466    0.0000000067851497    0.1249986044428346 Co
   0.7500000062664466    0.0000000067851497    0.6249986044428346 Co
   0.7500000062664466    0.5000000067851497    0.1249986044428346 Co
   0.7500000062664464    0.5000000067851498    0.6249986044428346 Co
   0.2499999968393962    0.2500000010072236    0.4999990513989175 Co
   0.2499999968393962    0.2500000010072236    0.9999990513989174 Co
   0.2499999968393962    0.7500000010072236    0.4999990513989174 Co
   0.2499999968393962    0.7500000010072236    0.9999990513989174 Co
   0.7499999968393963    0.2500000010072236    0.4999990513989175 Co
   0.7499999968393961    0.2500000010072237    0.9999990513989175 Co
   0.7499999968393961    0.7500000010072237    0.4999990513989174 Co
   0.7499999968393963    0.7500000010072236    0.9999990513989174 Co
   0.1250178174074548    0.4021142260455604    0.1874916267140436 S
   0.1250178174074549    0.4021142260455604    0.6874916267140436 S
   0.1250178174074549    0.9021142260455604    0.1874916267140436 S
   0.1250178174074548    0.9021142260455602    0.6874916267140435 S
   0.6250178174074548    0.4021142260455604    0.1874916267140436 S
   0.6250178174074549    0.4021142260455604    0.6874916267140436 S
   0.6250178174074548    0.9021142260455604    0.1874916267140436 S
   0.6250178174074548    0.9021142260455605    0.6874916267140436 S
   0.1249825020388654    0.3478858418620441    0.4374926796661842 S
   0.1249825020388654    0.3478858418620440    0.9374926796661841 S
   0.1249825020388654    0.8478858418620441    0.4374926796661842 S
   0.1249825020388654    0.8478858418620440    0.9374926796661842 S
   0.6249825020388654    0.3478858418620441    0.4374926796661842 S
   0.6249825020388654    0.3478858418620441    0.9374926796661843 S
   0.6249825020388655    0.8478858418620441    0.4374926796661842 S
   0.6249825020388654    0.8478858418620442    0.9374926796661842 S
   0.1521127322207387    0.1249818873900017    0.0625059423486218 S
   0.1521127322207387    0.1249818873900018    0.5625059423486218 S
   0.1521127322207387    0.6249818873900017    0.0625059423486218 S
   0.1521127322207387    0.6249818873900017    0.5625059423486217 S
   0.6521127322207387    0.1249818873900018    0.0625059423486218 S
   0.6521127322207386    0.1249818873900017    0.5625059423486218 S
   0.6521127322207386    0.6249818873900017    0.0625059423486218 S
   0.6521127322207385    0.6249818873900017    0.5625059423486217 S
   0.0978837844622376    0.1250167256312913    0.3125090873865905 S
   0.0978837844622376    0.1250167256312913    0.8125090873865904 S
   0.0978837844622376    0.6250167256312913    0.3125090873865905 S
   0.0978837844622376    0.6250167256312912    0.8125090873865904 S
   0.5978837844622376    0.1250167256312913    0.3125090873865905 S
   0.5978837844622374    0.1250167256312913    0.8125090873865904 S
   0.5978837844622376    0.6250167256312913    0.3125090873865905 S
   0.5978837844622376    0.6250167256312914    0.8125090873865904 S
   0.3478872670753504    0.3750181148745189    0.0625059414979787 S
   0.3478872670753504    0.3750181148745189    0.5625059414979787 S
   0.3478872670753504    0.8750181148745189    0.0625059414979787 S
   0.3478872670753504    0.8750181148745187    0.5625059414979786 S
   0.8478872670753503    0.3750181148745190    0.0625059414979787 S
   0.8478872670753503    0.3750181148745190    0.5625059414979787 S
   0.8478872670753503    0.8750181148745190    0.0625059414979787 S
   0.8478872670753503    0.8750181148745189    0.5625059414979786 S
   0.4021162209724755    0.3749832646576582    0.3125090824671077 S
   0.4021162209724756    0.3749832646576582    0.8125090824671078 S
   0.4021162209724755    0.8749832646576582    0.3125090824671077 S
   0.4021162209724755    0.8749832646576583    0.8125090824671077 S
   0.9021162209724755    0.3749832646576582    0.3125090824671077 S
   0.9021162209724755    0.3749832646576582    0.8125090824671078 S
   0.9021162209724755    0.8749832646576582    0.3125090824671077 S
   0.9021162209724755    0.8749832646576583    0.8125090824671077 S
   0.3749821899013544    0.0978857775685742    0.1874916236774495 S
   0.3749821899013543    0.0978857775685742    0.6874916236774495 S
   0.3749821899013543    0.5978857775685742    0.1874916236774496 S
   0.3749821899013543    0.5978857775685742    0.6874916236774495 S
   0.8749821899013542    0.0978857775685742    0.1874916236774495 S
   0.8749821899013543    0.0978857775685742    0.6874916236774495 S
   0.8749821899013543    0.5978857775685743    0.1874916236774496 S
   0.8749821899013543    0.5978857775685743    0.6874916236774495 S
   0.3750174789616188    0.1521141468303055    0.4374926779942167 S
   0.3750174789616187    0.1521141468303055    0.9374926779942168 S
   0.3750174789616187    0.6521141468303054    0.4374926779942166 S
   0.3750174789616188    0.6521141468303054    0.9374926779942166 S
   0.8750174789616186    0.1521141468303055    0.4374926779942167 S
   0.8750174789616187    0.1521141468303055    0.9374926779942166 S
   0.8750174789616187    0.6521141468303056    0.4374926779942166 S
   0.8750174789616187    0.6521141468303056    0.9374926779942166 S
