Li16 In16 Ge16 O64
1.0
  10.1375961304000004    0.0000000000000000    0.0000000000000000
   0.0000000000000000   12.3489475249999998    0.0000000000000000
   0.0000000000000000    0.0000000000000000   10.8904438019000001
Li In Ge O
15 16 16 64
direct
   0.7500000000000000    0.7500000000000000    0.5000000000000000 Li
   0.0000000000000000    0.0000000000000000    0.0000000000000000 Li
   0.0000000000000000    0.5000000000000000    0.0000000000000000 Li
   0.4999999999999999    0.0000000000000000    0.0000000000000000 Li
   0.4999999999999999    0.5000000000000000    0.0000000000000000 Li
   0.0000000000000000    0.2500000000000000    0.0000000000000000 Li
   0.0000000000000000    0.7500000000000000    0.0000000000000000 Li
   0.4999999999999999    0.2500000000000000    0.0000000000000000 Li
   0.4999999999999999    0.7500000000000000    0.0000000000000000 Li
   0.2500000000000000    0.0000000000000000    0.5000000000000000 Li
   0.2500000000000000    0.5000000000000000    0.5000000000000000 Li
   0.7500000000000000    0.0000000000000000    0.5000000000000000 Li
   0.2500000000000000    0.2500000000000000    0.5000000000000000 Li
   0.2500000000000000    0.7500000000000000    0.5000000000000000 Li
   0.7500000000000000    0.2500000000000000    0.5000000000000000 Li
   0.0036605000000000    0.3750000000000000    0.7277950050000002 In
   0.0036605000000000    0.8750000000000000    0.7277950050000002 In
   0.5036605000000000    0.3750000000000000    0.7277950050000002 In
   0.5036605000000000    0.8750000000000000    0.7277950050000002 In
   0.2463395000000000    0.3750000000000000    0.2277950050000000 In
   0.2463395000000000    0.8750000000000000    0.2277950050000000 In
   0.7463394999999999    0.3750000000000000    0.2277950050000000 In
   0.7463394999999999    0.8750000000000000    0.2277950050000000 In
   0.4963394999999999    0.1250000000000000    0.2722049950000000 In
   0.4963394999999999    0.6250000000000000    0.2722049950000000 In
   0.9963395000000000    0.1250000000000000    0.2722049950000000 In
   0.9963395000000000    0.6250000000000000    0.2722049950000000 In
   0.2536605000000000    0.1250000000000000    0.7722049949999999 In
   0.2536605000000000    0.6250000000000000    0.7722049949999999 In
   0.7536605000000000    0.1250000000000000    0.7722049949999999 In
   0.7536605000000000    0.6250000000000000    0.7722049949999999 In
   0.2791250050000000    0.3750000000000000    0.9130020140000001 Ge
   0.2791250050000000    0.8750000000000000    0.9130020140000001 Ge
   0.7791250049999999    0.3750000000000000    0.9130020140000001 Ge
   0.7791250049999999    0.8750000000000000    0.9130020140000001 Ge
   0.4708749950000000    0.3750000000000000    0.4130020140000000 Ge
   0.4708749950000000    0.8750000000000000    0.4130020140000000 Ge
   0.9708749949999999    0.3750000000000000    0.4130020140000000 Ge
   0.9708749949999999    0.8750000000000000    0.4130020140000000 Ge
   0.2208749950000000    0.1250000000000000    0.0869980010000000 Ge
   0.2208749950000000    0.6250000000000000    0.0869980010000000 Ge
   0.7208749950000000    0.1250000000000000    0.0869980010000000 Ge
   0.7208749950000000    0.6250000000000000    0.0869980010000000 Ge
   0.0291249995000000    0.1250000000000000    0.5869979860000000 Ge
   0.0291249995000000    0.6250000000000000    0.5869979860000000 Ge
   0.5291249995000000    0.1250000000000000    0.5869979860000000 Ge
   0.5291249995000000    0.6250000000000000    0.5869979860000000 Ge
   0.3864499925000000    0.2660810055000000    0.3339299860000000 O
   0.3864499925000000    0.7660810055000001    0.3339299860000000 O
   0.8864499924999999    0.2660810055000000    0.3339299860000000 O
   0.8864499924999999    0.7660810055000001    0.3339299860000000 O
   0.1135500000000000    0.2339189945000000    0.6660699839999999 O
   0.1135500000000000    0.7339189945000001    0.6660699839999999 O
   0.6135499999999999    0.2339189945000000    0.6660699839999999 O
   0.6135499999999999    0.7339189945000001    0.6660699839999999 O
   0.3635500074999999    0.2660810055000000    0.8339300160000002 O
   0.3635500074999999    0.7660810055000001    0.8339300160000002 O
   0.8635500074999999    0.2660810055000000    0.8339300160000002 O
   0.8635500074999999    0.7660810055000001    0.8339300160000002 O
   0.3864499925000000    0.4839189945000000    0.3339299860000000 O
   0.3864499925000000    0.9839189945000001    0.3339299860000000 O
   0.8864499924999999    0.4839189945000000    0.3339299860000000 O
   0.8864499924999999    0.9839189945000001    0.3339299860000000 O
   0.1364499925000000    0.0160809995000000    0.1660699990000000 O
   0.1364499925000000    0.5160809995000001    0.1660699990000000 O
   0.6364499924999999    0.0160809995000000    0.1660699990000000 O
   0.6364499924999999    0.5160809995000001    0.1660699990000000 O
   0.3930059969999999    0.1250000000000000    0.0940330030000000 O
   0.3930059969999999    0.6250000000000000    0.0940330030000000 O
   0.8930059969999999    0.1250000000000000    0.0940330030000000 O
   0.8930059969999999    0.6250000000000000    0.0940330030000000 O
   0.1364499925000000    0.2339189945000000    0.1660699990000000 O
   0.1364499925000000    0.7339189945000001    0.1660699990000000 O
   0.6364499924999999    0.2339189945000000    0.1660699990000000 O
   0.6364499924999999    0.7339189945000001    0.1660699990000000 O
   0.1135500000000000    0.0160809995000000    0.6660699839999999 O
   0.1135500000000000    0.5160809995000001    0.6660699839999999 O
   0.6135499999999999    0.0160809995000000    0.6660699839999999 O
   0.6135499999999999    0.5160809995000001    0.6660699839999999 O
   0.1069940030000000    0.3750000000000000    0.9059669970000001 O
   0.1069940030000000    0.8750000000000000    0.9059669970000001 O
   0.6069940029999999    0.3750000000000000    0.9059669970000001 O
   0.6069940029999999    0.8750000000000000    0.9059669970000001 O
   0.3569940030000000    0.1250000000000000    0.5940330029999999 O
   0.3569940030000000    0.6250000000000000    0.5940330029999999 O
   0.8569940030000001    0.1250000000000000    0.5940330029999999 O
   0.8569940030000001    0.6250000000000000    0.5940330029999999 O
   0.3947469890000000    0.3750000000000000    0.5589349870000001 O
   0.3947469890000000    0.8750000000000000    0.5589349870000001 O
   0.8947469889999998    0.3750000000000000    0.5589349870000001 O
   0.8947469889999998    0.8750000000000000    0.5589349870000001 O
   0.1430059970000000    0.3750000000000000    0.4059669970000001 O
   0.1430059970000000    0.8750000000000000    0.4059669970000001 O
   0.6430059969999999    0.3750000000000000    0.4059669970000001 O
   0.6430059969999999    0.8750000000000000    0.4059669970000001 O
   0.3552530110000000    0.3750000000000000    0.0589350010000000 O
   0.3552530110000000    0.8750000000000000    0.0589350010000000 O
   0.8552530110000000    0.3750000000000000    0.0589350010000000 O
   0.8552530110000000    0.8750000000000000    0.0589350010000000 O
   0.1447470040000000    0.1250000000000000    0.9410650130000001 O
   0.1447470040000000    0.6250000000000000    0.9410650130000001 O
   0.6447470040000000    0.1250000000000000    0.9410650130000001 O
   0.6447470040000000    0.6250000000000000    0.9410650130000001 O
   0.1052530035000000    0.1250000000000000    0.4410650130000000 O
   0.1052530035000000    0.6250000000000000    0.4410650130000000 O
   0.6052530035000000    0.1250000000000000    0.4410650130000000 O
   0.6052530035000000    0.6250000000000000    0.4410650130000000 O
   0.3635500074999999    0.4839189945000000    0.8339300160000002 O
   0.3635500074999999    0.9839189945000001    0.8339300160000002 O
   0.8635500074999999    0.4839189945000000    0.8339300160000002 O
   0.8635500074999999    0.9839189945000001    0.8339300160000002 O
