Ca1 V4 S6 O24
1.0
7.343562 -0.040241 5.099555
2.443795 6.541204 5.601279
0.082761 -0.605050 8.921224
Ca V S O
1 4 6 24
direct
0.506200 0.480648 0.505429 Ca
0.646040 0.644217 0.643478 V
0.145820 0.149393 0.146620 V
0.847204 0.849484 0.846360 V
0.352075 0.349986 0.348863 V
0.951269 0.247908 0.534212 S
0.460399 0.044252 0.746813 S
0.532715 0.952644 0.249869 S
0.746201 0.461965 0.041541 S
0.249029 0.534623 0.950542 S
0.043788 0.745703 0.460478 S
0.377254 0.620846 0.747134 O
0.952197 0.331103 0.009690 O
0.748913 0.374212 0.625494 O
0.013072 0.950157 0.327721 O
0.616302 0.747671 0.378293 O
0.330178 0.011009 0.952305 O
0.663239 0.981556 0.044648 O
0.248165 0.616578 0.377258 O
0.043938 0.666153 0.982498 O
0.369602 0.246453 0.619937 O
0.985094 0.042610 0.666183 O
0.619603 0.374811 0.245730 O
0.954348 0.282609 0.349385 O
0.495060 0.901257 0.691165 O
0.339747 0.974247 0.283944 O
0.690227 0.488230 0.902657 O
0.282344 0.346407 0.961816 O
0.904684 0.688211 0.489059 O
0.094170 0.304712 0.497963 O
0.646798 0.040383 0.710188 O
0.510622 0.090390 0.304304 O
0.711848 0.651605 0.026574 O
0.305922 0.503492 0.091212 O
0.026023 0.714561 0.650781 O
