K8 Mn16 O32                             
   1.00000000000000     
     8.9417975165701051   -0.0000597676985258   -0.0001600093560173
    -0.0000597808247453    8.9416739459227408   -0.0000247113945435
    -0.0001599655691830   -0.0000247363846474    8.9407595225897456
  K               Mn              O             
     7    16    32
Direct
   0.5000010924503897    0.5000005621183732    0.9999964296958197 K
  0.5000030131910336  0.9999942285542289  0.4999973371580779
  0.2500000329862218  0.2499938102230814  0.2499981349255265
  0.0000003397537327  0.9999998517984707  0.9999981069974027
  0.7500006384757611  0.2499979559977774  0.7500018799812196
  0.9999983743314189  0.5000028144219328  0.5000036856038577
  0.7499969938572022  0.7500077716027747  0.2500042091311059
  0.3749860324961745  0.8749831482529586  0.1250147150172509
  0.1250132506466599  0.8749835864714370  0.3749877252738827
  0.1250101731430817  0.6250101975860929  0.1250107625578210
  0.3749890976744581  0.6250127519718092  0.3749902320212115
  0.3749890325291219  0.3749934183402885  0.6250125923932117
  0.1250096902349966  0.3749914339815277  0.8749909434737830
  0.1250124981447200  0.1250110283112775  0.6250139302766513
  0.3749864704701906  0.1250142139560140  0.8749867695480305
  0.8749894495552724  0.8749870834977145  0.6250101676314301
  0.6250120932243490  0.8749859279626477  0.8749874257248464
  0.6250070784397437  0.6250105011275267  0.6250089185565102
  0.8749913450900948  0.6250076273687313  0.8749921335990010
  0.8749931361453065  0.3749953812581737  0.1250043934704976
  0.6250071822834542  0.3749965972946256  0.3749918753148052
  0.6250104120443183  0.1250099542727057  0.1250080042847799
  0.8749917845286532  0.1250068779257987  0.3749905141782293
  0.3480487171932864  0.8480400617473194  0.3480428807846891
  0.0980632107917003  0.4019213427495174  0.0980736260357631
  0.8480432513782148  0.1519564581985051  0.1519586519710003
  0.6519570474448813  0.1519414319044756  0.3480293399247927
  0.4019249706248758  0.4019342083680542  0.4019263272940634
  0.1519489894323129  0.8480541201359273  0.1519671715318793
  0.0980654315917349  0.0980662981903180  0.4019220305418330
  0.4019346647257862  0.0980768827066498  0.0980723544633975
  0.3480531349718916  0.3480466926461929  0.8480407979531677
  0.0980706292331064  0.9019169061115235  0.5980620473480158
  0.8480567158095766  0.6519582775713459  0.6519618500846676
  0.6519532710359641  0.6519527135962022  0.8480409090875298
  0.4019274071841608  0.9019260158692788  0.9019358200221319
  0.1519507091889665  0.3480509094856714  0.6519628772248964
  0.0980720759227083  0.5980775383610251  0.9019314522004720
  0.4019173161240772  0.5980819346774524  0.5980633912309230
  0.8480512047164197  0.8480474834133460  0.8480315702922994
  0.5980759298715626  0.4019251611077408  0.5980668143027472
  0.3480534466731555  0.1519482331066726  0.6519637486587442
  0.1519531646514949  0.1519505136892647  0.8480406087820072
  0.9019161368539841  0.4019247389562253  0.9019440307609159
  0.6519600298263839  0.8480525061755912  0.6519578883176180
  0.5980799093744764  0.0980782798467672  0.9019451418285627
  0.9019162339853111  0.0980706505723674  0.5980624210460519
  0.8480556351794988  0.3480428172599730  0.3480319103763634
  0.5980767977769545  0.9019367214463188  0.0980724324986539
  0.3480570457350254  0.6519483339324097  0.1519650277933096
  0.1519522852556889  0.6519544883220263  0.3480474058672058
  0.9019243991055390  0.9019294782213336  0.4019332192588152
  0.6519579395895718  0.3480409956182342  0.1519454083107377
  0.5980676937843157  0.5980785912106441  0.4019265968499042
  0.9019170329344419  0.5980673231726215  0.0980724495701111
 
  0.00000000E+00  0.00000000E+00  0.00000000E+00
  0.00000000E+00  0.00000000E+00  0.00000000E+00
  0.00000000E+00  0.00000000E+00  0.00000000E+00
  0.00000000E+00  0.00000000E+00  0.00000000E+00
  0.00000000E+00  0.00000000E+00  0.00000000E+00
  0.00000000E+00  0.00000000E+00  0.00000000E+00
  0.00000000E+00  0.00000000E+00  0.00000000E+00
  0.00000000E+00  0.00000000E+00  0.00000000E+00
  0.00000000E+00  0.00000000E+00  0.00000000E+00
  0.00000000E+00  0.00000000E+00  0.00000000E+00
  0.00000000E+00  0.00000000E+00  0.00000000E+00
  0.00000000E+00  0.00000000E+00  0.00000000E+00
  0.00000000E+00  0.00000000E+00  0.00000000E+00
  0.00000000E+00  0.00000000E+00  0.00000000E+00
  0.00000000E+00  0.00000000E+00  0.00000000E+00
  0.00000000E+00  0.00000000E+00  0.00000000E+00
  0.00000000E+00  0.00000000E+00  0.00000000E+00
  0.00000000E+00  0.00000000E+00  0.00000000E+00
  0.00000000E+00  0.00000000E+00  0.00000000E+00
  0.00000000E+00  0.00000000E+00  0.00000000E+00
  0.00000000E+00  0.00000000E+00  0.00000000E+00
  0.00000000E+00  0.00000000E+00  0.00000000E+00
  0.00000000E+00  0.00000000E+00  0.00000000E+00
  0.00000000E+00  0.00000000E+00  0.00000000E+00
  0.00000000E+00  0.00000000E+00  0.00000000E+00
  0.00000000E+00  0.00000000E+00  0.00000000E+00
  0.00000000E+00  0.00000000E+00  0.00000000E+00
  0.00000000E+00  0.00000000E+00  0.00000000E+00
  0.00000000E+00  0.00000000E+00  0.00000000E+00
  0.00000000E+00  0.00000000E+00  0.00000000E+00
  0.00000000E+00  0.00000000E+00  0.00000000E+00
  0.00000000E+00  0.00000000E+00  0.00000000E+00
  0.00000000E+00  0.00000000E+00  0.00000000E+00
  0.00000000E+00  0.00000000E+00  0.00000000E+00
  0.00000000E+00  0.00000000E+00  0.00000000E+00
  0.00000000E+00  0.00000000E+00  0.00000000E+00
  0.00000000E+00  0.00000000E+00  0.00000000E+00
  0.00000000E+00  0.00000000E+00  0.00000000E+00
  0.00000000E+00  0.00000000E+00  0.00000000E+00
  0.00000000E+00  0.00000000E+00  0.00000000E+00
  0.00000000E+00  0.00000000E+00  0.00000000E+00
  0.00000000E+00  0.00000000E+00  0.00000000E+00
  0.00000000E+00  0.00000000E+00  0.00000000E+00
  0.00000000E+00  0.00000000E+00  0.00000000E+00
  0.00000000E+00  0.00000000E+00  0.00000000E+00
  0.00000000E+00  0.00000000E+00  0.00000000E+00
  0.00000000E+00  0.00000000E+00  0.00000000E+00
  0.00000000E+00  0.00000000E+00  0.00000000E+00
  0.00000000E+00  0.00000000E+00  0.00000000E+00
  0.00000000E+00  0.00000000E+00  0.00000000E+00
  0.00000000E+00  0.00000000E+00  0.00000000E+00
  0.00000000E+00  0.00000000E+00  0.00000000E+00
  0.00000000E+00  0.00000000E+00  0.00000000E+00
  0.00000000E+00  0.00000000E+00  0.00000000E+00
  0.00000000E+00  0.00000000E+00  0.00000000E+00
  0.00000000E+00  0.00000000E+00  0.00000000E+00
