Na2 Ca2 V4 P2 S4 O24                    
   1.00000000000000     
     8.9719850000000001    0.3729460000000000    0.1744100000000000
     4.2844850000000001    7.8922210000000002    0.1822400000000000
     4.1647569999999998    2.5937239999999999    7.4228959999999997
   Ca   Na   V    P    S    O 
     2     2     4     2     4    24
Direct
  0.5383254426430948  0.4719138171380550  0.4824305826383154
  0.0111141371413469  0.9862283227270758  0.0163842951056066
  0.4205345385356327  0.0758103229789408  0.7550224975487644
  0.5978149544499545  0.8962494957370214  0.2525510773368961
  0.3533748897005370  0.3566506049643349  0.3576341148267907
  0.6564036600948413  0.6477094014680309  0.6465580199174291
  0.1472721724182106  0.1465514365892857  0.1472353276720844
  0.8521106121427254  0.8478854384068439  0.8566148531210371
  0.7592907199736253  0.0359004585323609  0.4464846102768610
  0.4644097442494022  0.7435953097159951  0.0572040442965821
  0.0530157928992317  0.4467703242850072  0.7513978021719961
  0.9575917787431065  0.5479557395363102  0.2499217790282503
  0.2466493332831245  0.9585624963804970  0.5594159634463335
  0.5449655679156595  0.2548349918899085  0.9468154442782181
  0.2369905086653245  0.4303051470562974  0.6004256564142759
  0.7732567762933804  0.5727721669895133  0.4017062818011200
  0.5838506549806951  0.2171081133728745  0.4430279453230597
  0.4110777209709461  0.7810969427788818  0.5601186855054886
  0.4435901339731377  0.5784774556652890  0.2361213290803864
  0.5783146019445546  0.4030076474729289  0.7671519263013056
  0.9147903856678737  0.0751314599793558  0.2633026028344597
  0.0947713106923818  0.9264575887917997  0.7355840573312125
  0.0827196975432187  0.2599801722794854  0.8995781842893330
  0.9338193470804548  0.7301806591624002  0.0966761612939303
  0.2748561311985131  0.9091599427587415  0.0709636722745160
  0.7232660200565115  0.0904939296460700  0.9488919048200615
  0.4892593440829959  0.3101518166993897  0.1017774076717436
  0.5103476025155658  0.7114237754256036  0.8832591831489658
  0.1006601351538976  0.5170561446273602  0.3070469913363674
  0.9131416125912409  0.4756888117938349  0.6899901536130991
  0.2946530566078159  0.1004568142410918  0.5487882308216823
  0.7169115628304621  0.8845663460273506  0.4557466837347425
  0.4051915429048652  0.2015940648530251  0.9613828941531843
  0.6084160219427918  0.7996678613497914  0.0438825866377636
  0.1981920413565833  0.0143744626421489  0.3996304250764393
  0.7957553185908263  0.9950004844431741  0.6160486945920081
  0.9897781321419626  0.4017908547933630  0.1960608147340568
  0.0077335142847252  0.5887353863275001  0.8185863771581866
 
             NaN             NaN             NaN
             NaN             NaN             NaN
             NaN             NaN             NaN
             NaN             NaN             NaN
             NaN             NaN             NaN
             NaN             NaN             NaN
             NaN             NaN             NaN
             NaN             NaN             NaN
             NaN             NaN             NaN
             NaN             NaN             NaN
             NaN             NaN             NaN
             NaN             NaN             NaN
             NaN             NaN             NaN
             NaN             NaN             NaN
             NaN             NaN             NaN
             NaN             NaN             NaN
             NaN             NaN             NaN
             NaN             NaN             NaN
             NaN             NaN             NaN
             NaN             NaN             NaN
             NaN             NaN             NaN
             NaN             NaN             NaN
             NaN             NaN             NaN
             NaN             NaN             NaN
             NaN             NaN             NaN
             NaN             NaN             NaN
             NaN             NaN             NaN
             NaN             NaN             NaN
             NaN             NaN             NaN
             NaN             NaN             NaN
             NaN             NaN             NaN
             NaN             NaN             NaN
             NaN             NaN             NaN
             NaN             NaN             NaN
             NaN             NaN             NaN
             NaN             NaN             NaN
             NaN             NaN             NaN
             NaN             NaN             NaN
