Na2 Ca2 V4 P2 S4 O24
1.0
8.971985 0.372946 0.174410
4.284485 7.892221 0.182240
4.164757 2.593724 7.422896
Ca Na V P S O
2 2 4 2 4 24
direct
0.551736 0.464557 0.494970 Ca
0.004069 0.988837 0.020566 Ca
0.420722 0.081561 0.750296 Na
0.592388 0.898371 0.251554 Na
0.351133 0.356852 0.357056 V
0.651891 0.654421 0.639306 V
0.145150 0.150303 0.143105 V
0.846147 0.846360 0.860629 V
0.753565 0.040241 0.445138 P
0.459616 0.747394 0.052791 P
0.046596 0.450711 0.750159 S
0.953650 0.548444 0.249482 S
0.240770 0.962591 0.559299 S
0.540219 0.258585 0.942918 S
0.230091 0.430607 0.599819 O
0.769744 0.568071 0.401296 O
0.583042 0.224771 0.441932 O
0.403667 0.784271 0.556643 O
0.428630 0.584667 0.229465 O
0.571891 0.409768 0.766381 O
0.914537 0.075566 0.266450 O
0.089134 0.930600 0.735951 O
0.071933 0.265674 0.900055 O
0.928415 0.733405 0.099838 O
0.273101 0.916860 0.060966 O
0.720116 0.095571 0.940916 O
0.483739 0.307021 0.102406 O
0.513494 0.718562 0.874814 O
0.094727 0.514359 0.311023 O
0.905268 0.483253 0.688608 O
0.293384 0.100359 0.549447 O
0.708369 0.895282 0.445156 O
0.402237 0.205248 0.954238 O
0.602734 0.796648 0.051172 O
0.186950 0.024152 0.401112 O
0.788119 0.984747 0.620906 O
0.991270 0.406791 0.186479 O
0.006781 0.592553 0.814113 O
