Ca8 Cr12 F42
1.0
7.506049 -0.024090 -0.547854
-3.657813 6.641513 0.201098
0.868562 0.091823 18.706112
Ca Cr F
8 12 42
direct
0.818656 0.463900 0.329316 Ca
0.527623 0.831343 0.681416 Ca
0.601246 0.126855 0.003621 Ca
0.017880 0.809743 0.663464 Ca
0.108682 0.664509 1.007871 Ca
0.901931 0.819411 0.170579 Ca
0.863100 0.923411 0.845017 Ca
0.235417 0.208436 0.501309 Ca
0.307111 0.970060 0.331535 Cr
0.012830 0.304246 0.661588 Cr
0.621946 0.653312 -0.010207 Cr
0.353206 0.983530 0.827899 Cr
0.959819 0.332860 0.161660 Cr
0.702518 0.670678 0.506585 Cr
0.433850 0.825862 0.162701 Cr
0.206314 0.684759 0.500630 Cr
0.309362 0.473439 0.828841 Cr
0.814055 0.465397 0.825538 Cr
0.707918 0.171709 0.506868 Cr
0.450393 0.323317 0.163623 Cr
0.735699 0.127729 0.612276 F
0.898670 0.676332 0.921568 F
0.485367 0.231010 0.281113 F
0.164882 0.702412 0.396470 F
0.444959 0.788515 0.056315 F
0.273634 0.477180 0.720945 F
0.731134 0.935583 0.951615 F
0.980541 0.773116 0.277378 F
0.131929 0.144919 0.616609 F
0.877115 0.760952 0.052882 F
0.857578 0.970051 0.725088 F
0.211771 0.106637 0.393934 F
0.538721 0.384300 0.025591 F
0.693694 0.206364 0.406736 F
0.895638 0.469574 0.690173 F
0.353391 0.545800 0.933414 F
0.247745 0.697180 0.607025 F
0.403029 0.835725 0.264894 F
0.755661 0.439839 0.171832 F
0.605501 0.373553 0.526749 F
0.642150 0.241130 0.887183 F
0.529813 0.861771 0.809083 F
0.402462 0.569354 0.491370 F
0.134301 0.687858 0.139123 F
0.988574 0.351190 0.262931 F
0.686507 0.707040 0.611421 F
0.317817 0.922634 0.935692 F
0.343585 0.985103 0.719579 F
0.726906 0.620406 0.409808 F
0.925375 0.339245 0.052092 F
0.144432 0.202894 0.156483 F
0.792482 0.962960 0.491327 F
0.002916 0.739952 0.787193 F
0.203764 0.134256 0.839768 F
-0.001177 0.772059 0.530744 F
0.733643 1.005070 0.164041 F
0.011517 0.361582 0.837993 F
0.524302 0.608528 0.181292 F
0.402745 -0.013234 0.507020 F
0.417912 0.074107 0.118450 F
0.605849 0.560757 0.814528 F
0.011488 0.373908 0.508881 F
