Mg16 Fe16 Si16 O64
1.0
   9.6100677335496272   -0.0000039848108584   -0.0000206687293066
  -0.0000007998826962   10.4441461332564742   -0.0000418104525449
  -0.0000277412194016   -0.0000436011194038   12.2455783785216745
Mg Fe Mg Si O
1  16 14 16 64
direct
   0.4999999997760902    0.0000009902709195    0.7500003713875394 Mg
   0.4916256247926007    0.2800695340819388    0.1250014758018239 Fe
   0.4916256247926007    0.2800695340819388    0.6250014758018240 Fe
   0.9916256247926009    0.2800695340819388    0.1250014758018239 Fe
   0.9916256247926005    0.2800695340819388    0.6250014758018240 Fe
   0.2416262194173910    0.2199321603518811    0.3750009218066560 Fe
   0.2416262194173911    0.2199321603518811    0.8750009218066559 Fe
   0.7416262194173910    0.2199321603518811    0.3750009218066560 Fe
   0.7416262194173910    0.2199321603518811    0.8750009218066560 Fe
   0.0083747457867353    0.7199317249636294    0.3749998680340383 Fe
   0.0083747457867353    0.7199317249636294    0.8749998680340383 Fe
   0.5083747457867354    0.7199317249636293    0.3749998680340384 Fe
   0.5083747457867352    0.7199317249636293    0.8749998680340384 Fe
   0.2583742846152894    0.7800681142631800    0.1250004438580455 Fe
   0.2583742846152894    0.7800681142631801    0.6250004438580455 Fe
   0.7583742846152894    0.7800681142631800    0.1250004438580455 Fe
   0.7583742846152893    0.7800681142631801    0.6250004438580455 Fe
   0.2499997796974718    0.5000002700207986    0.2499991872997142 Mg
   0.2499997796974718    0.5000002700207986    0.7499991872997144 Mg
   0.7499997796974719    0.5000002700207986    0.2499991872997142 Mg
   0.7499997796974719    0.5000002700207985    0.7499991872997144 Mg
   0.2499997483456191    0.4999994935842622    0.4999994131398112 Mg
   0.2499997483456191    0.4999994935842622    0.9999994131398112 Mg
   0.7499997483456191    0.4999994935842622    0.4999994131398112 Mg
   0.7499997483456190    0.4999994935842621    0.9999994131398112 Mg
   0.4999999997760902    0.0000009902709195    0.2500003713875394 Mg
   0.9999999997760900    0.0000009902709195    0.2500003713875394 Mg
   0.9999999997760902    0.0000009902709195    0.7500003713875395 Mg
   0.0000004565060792    0.9999989801321973    0.0000006852000603 Mg
   0.0000004565060792    0.9999989801321973    0.5000006852000602 Mg
   0.5000004565060790    0.9999989801321973    0.0000006852000603 Mg
   0.0359173433439501    0.5946109477225647    0.1249981067270518 Si
   0.0359173433439501    0.5946109477225647    0.6249981067270519 Si
   0.5359173433439501    0.5946109477225646    0.1249981067270518 Si
   0.5359173433439501    0.5946109477225647    0.6249981067270519 Si
   0.2140791413299218    0.0946115013274920    0.1249993048344784 Si
   0.2140791413299219    0.0946115013274920    0.6249993048344784 Si
   0.7140791413299219    0.0946115013274920    0.1249993048344784 Si
   0.7140791413299219    0.0946115013274920    0.6249993048344785 Si
   0.4640842534503378    0.4053897819653756    0.3749998468479063 Si
   0.4640842534503378    0.4053897819653756    0.8749998468479064 Si
   0.9640842534503378    0.4053897819653756    0.3749998468479064 Si
   0.9640842534503377    0.4053897819653756    0.8749998468479064 Si
   0.2859187978008499    0.9053887961487063    0.3750028931714767 Si
   0.2859187978008499    0.9053887961487062    0.8750028931714767 Si
   0.7859187978008498    0.9053887961487062    0.3750028931714767 Si
   0.7859187978008498    0.9053887961487063    0.8750028931714767 Si
   0.3665518156751376    0.5866357417374886    0.1250014894489162 O
   0.3665518156751376    0.5866357417374886    0.6250014894489162 O
   0.8665518156751376    0.5866357417374886    0.1250014894489162 O
   0.8665518156751375    0.5866357417374884    0.6250014894489163 O
   0.3834513105493755    0.0866347218477728    0.1250026115908476 O
   0.3834513105493755    0.0866347218477728    0.6250026115908477 O
   0.8834513105493755    0.0866347218477728    0.1250026115908476 O
   0.8834513105493754    0.0866347218477728    0.6250026115908477 O
   0.1334475874383898    0.4133640060621744    0.3749975071616981 O
   0.1334475874383898    0.4133640060621745    0.8749975071616982 O
   0.6334475874383897    0.4133640060621744    0.3749975071616981 O
   0.6334475874383897    0.4133640060621744    0.8749975071616982 O
   0.1165500376922992    0.9133650445174978    0.3749972978192809 O
   0.1165500376922992    0.9133650445174977    0.8749972978192810 O
   0.6165500376922991    0.9133650445174977    0.3749972978192809 O
   0.6165500376922991    0.9133650445174979    0.8749972978192810 O
   0.1367393227587997    0.9508985040177435    0.1249985883447380 O
   0.1367393227587997    0.9508985040177435    0.6249985883447381 O
   0.6367393227587995    0.9508985040177435    0.1249985883447380 O
   0.6367393227587996    0.9508985040177435    0.6249985883447381 O
   0.1132621622263343    0.4508983566299207    0.1249969510454605 O
   0.1132621622263343    0.4508983566299207    0.6249969510454606 O
   0.6132621622263342    0.4508983566299207    0.1249969510454605 O
   0.6132621622263342    0.4508983566299206    0.6249969510454606 O
   0.3632614585786094    0.0491016827514699    0.3750029148828170 O
   0.3632614585786094    0.0491016827514699    0.8750029148828169 O
   0.8632614585786095    0.0491016827514699    0.3750029148828170 O
   0.8632614585786093    0.0491016827514699    0.8750029148828169 O
   0.3867372993348859    0.5491021774778915    0.3750017205326799 O
   0.3867372993348859    0.5491021774778915    0.8750017205326800 O
   0.8867372993348858    0.5491021774778915    0.3750017205326799 O
   0.8867372993348858    0.5491021774778914    0.8750017205326800 O
   0.1082186664242357    0.6630096611106779    0.0166390802039054 O
   0.1082186664242357    0.6630096611106779    0.5166390802039055 O
   0.6082186664242357    0.6630096611106778    0.0166390802039054 O
   0.6082186664242357    0.6630096611106778    0.5166390802039055 O
   0.1417747999315253    0.1630184283497584    0.2333550859135620 O
   0.1417747999315253    0.1630184283497584    0.7333550859135620 O
   0.6417747999315252    0.1630184283497584    0.2333550859135620 O
   0.6417747999315253    0.1630184283497584    0.7333550859135621 O
   0.3917730652215781    0.3369790366320088    0.2666440403130395 O
   0.3917730652215781    0.3369790366320089    0.7666440403130396 O
   0.8917730652215780    0.3369790366320089    0.2666440403130395 O
   0.8917730652215781    0.3369790366320088    0.7666440403130397 O
   0.3582192691805517    0.8369910241030069    0.4833612538935555 O
   0.3582192691805516    0.8369910241030067    0.9833612538935556 O
   0.8582192691805516    0.8369910241030067    0.4833612538935555 O
   0.8582192691805516    0.8369910241030069    0.9833612538935557 O
   0.3917781895600853    0.3369882912359614    0.4833561160504730 O
   0.3917781895600854    0.3369882912359614    0.9833561160504730 O
   0.8917781895600853    0.3369882912359614    0.4833561160504730 O
   0.8917781895600853    0.3369882912359614    0.9833561160504730 O
   0.3582287386086485    0.8369790810049977    0.2666483593657177 O
   0.3582287386086485    0.8369790810049976    0.7666483593657177 O
   0.8582287386086485    0.8369790810049976    0.2666483593657177 O
   0.8582287386086483    0.8369790810049978    0.7666483593657177 O
   0.1082287407559015    0.6630217854030178    0.2333520354342618 O
   0.1082287407559015    0.6630217854030178    0.7333520354342619 O
   0.6082287407559015    0.6630217854030178    0.2333520354342618 O
   0.6082287407559015    0.6630217854030177    0.7333520354342619 O
   0.1417771412012989    0.1630101622856799    0.0166424298904459 O
   0.1417771412012989    0.1630101622856799    0.5166424298904460 O
   0.6417771412012988    0.1630101622856799    0.0166424298904459 O
   0.6417771412012989    0.1630101622856799    0.5166424298904461 O
