Ca64 Rh128 O256
1.0
  12.4910907743999999    0.0000000000000000    0.0000000000000000
   0.0000000000000000   18.0747776032000012    0.0000000000000000
   0.0000000000000000    0.0000000000000000   21.5753593443999989
Ca Rh O
63 128 256
direct
   0.6875000000000000    0.6326909810000000    0.9193786084999999 Ca
   0.1875000000000000    0.3826909660000000    0.3306213915000000 Ca
   0.1875000000000000    0.3826909660000000    0.8306213915000000 Ca
   0.1875000000000000    0.8826909660000000    0.3306213915000000 Ca
   0.1875000000000000    0.8826909660000000    0.8306213915000000 Ca
   0.4375000000000001    0.3826909660000000    0.3306213915000000 Ca
   0.4375000000000001    0.3826909660000000    0.8306213915000000 Ca
   0.4375000000000001    0.8826909660000000    0.3306213915000000 Ca
   0.4375000000000001    0.8826909660000000    0.8306213915000000 Ca
   0.6875000000000000    0.3826909660000000    0.3306213915000000 Ca
   0.6875000000000000    0.3826909660000000    0.8306213915000000 Ca
   0.6875000000000000    0.8826909660000000    0.3306213915000000 Ca
   0.6875000000000000    0.8826909660000000    0.8306213915000000 Ca
   0.9375000000000000    0.3826909660000000    0.3306213915000000 Ca
   0.9375000000000000    0.3826909660000000    0.8306213915000000 Ca
   0.9375000000000000    0.8826909660000000    0.3306213915000000 Ca
   0.9375000000000000    0.8826909660000000    0.8306213915000000 Ca
   0.0625000000000000    0.1173090265000000    0.1693786085000000 Ca
   0.0625000000000000    0.1173090265000000    0.6693786085000000 Ca
   0.0625000000000000    0.6173090265000000    0.1693786085000000 Ca
   0.0625000000000000    0.6173090265000000    0.6693786085000000 Ca
   0.3125000000000000    0.1173090265000000    0.1693786085000000 Ca
   0.3125000000000000    0.1173090265000000    0.6693786085000000 Ca
   0.3125000000000000    0.6173090265000000    0.1693786085000000 Ca
   0.3125000000000000    0.6173090265000000    0.6693786085000000 Ca
   0.5625000000000000    0.1173090265000000    0.1693786085000000 Ca
   0.5625000000000000    0.1173090265000000    0.6693786085000000 Ca
   0.5625000000000000    0.6173090265000000    0.1693786085000000 Ca
   0.5625000000000000    0.6173090265000000    0.6693786085000000 Ca
   0.8125000000000000    0.1173090265000000    0.1693786085000000 Ca
   0.8125000000000000    0.1173090265000000    0.6693786085000000 Ca
   0.8125000000000000    0.6173090265000000    0.1693786085000000 Ca
   0.8125000000000000    0.6173090265000000    0.6693786085000000 Ca
   0.1875000000000000    0.1326909810000000    0.4193786085000000 Ca
   0.1875000000000000    0.1326909810000000    0.9193786084999999 Ca
   0.1875000000000000    0.6326909810000000    0.4193786085000000 Ca
   0.1875000000000000    0.6326909810000000    0.9193786084999999 Ca
   0.4375000000000001    0.1326909810000000    0.4193786085000000 Ca
   0.4375000000000001    0.1326909810000000    0.9193786084999999 Ca
   0.4375000000000001    0.6326909810000000    0.4193786085000000 Ca
   0.6875000000000000    0.1326909810000000    0.4193786085000000 Ca
   0.6875000000000000    0.1326909810000000    0.9193786084999999 Ca
   0.6875000000000000    0.6326909810000000    0.4193786085000000 Ca
   0.9375000000000000    0.1326909810000000    0.4193786085000000 Ca
   0.9375000000000000    0.1326909810000000    0.9193786084999999 Ca
   0.9375000000000000    0.6326909810000000    0.4193786085000000 Ca
   0.9375000000000000    0.6326909810000000    0.9193786084999999 Ca
   0.0625000000000000    0.3673090340000000    0.0806213915000000 Ca
   0.0625000000000000    0.3673090340000000    0.5806213914999999 Ca
   0.0625000000000000    0.8673090339999999    0.0806213915000000 Ca
   0.0625000000000000    0.8673090339999999    0.5806213914999999 Ca
   0.3125000000000000    0.3673090340000000    0.0806213915000000 Ca
   0.3125000000000000    0.3673090340000000    0.5806213914999999 Ca
   0.3125000000000000    0.8673090339999999    0.0806213915000000 Ca
   0.3125000000000000    0.8673090339999999    0.5806213914999999 Ca
   0.5625000000000000    0.3673090340000000    0.0806213915000000 Ca
   0.5625000000000000    0.3673090340000000    0.5806213914999999 Ca
   0.5625000000000000    0.8673090339999999    0.0806213915000000 Ca
   0.5625000000000000    0.8673090339999999    0.5806213914999999 Ca
   0.8125000000000000    0.3673090340000000    0.0806213915000000 Ca
   0.8125000000000000    0.3673090340000000    0.5806213914999999 Ca
   0.8125000000000000    0.8673090339999999    0.0806213915000000 Ca
   0.8125000000000000    0.8673090339999999    0.5806213914999999 Ca
   0.0625000000000000    0.2956313790000000    0.4509438575000000 Rh
   0.0625000000000000    0.2956313790000000    0.9509438575000001 Rh
   0.0625000000000000    0.7956313790000000    0.4509438575000000 Rh
   0.0625000000000000    0.7956313790000000    0.9509438575000001 Rh
   0.3125000000000000    0.2956313790000000    0.4509438575000000 Rh
   0.3125000000000000    0.2956313790000000    0.9509438575000001 Rh
   0.3125000000000000    0.7956313790000000    0.4509438575000000 Rh
   0.3125000000000000    0.7956313790000000    0.9509438575000001 Rh
   0.5625000000000000    0.2956313790000000    0.4509438575000000 Rh
   0.5625000000000000    0.2956313790000000    0.9509438575000001 Rh
   0.5625000000000000    0.7956313790000000    0.4509438575000000 Rh
   0.5625000000000000    0.7956313790000000    0.9509438575000001 Rh
   0.8125000000000000    0.2956313790000000    0.4509438575000000 Rh
   0.8125000000000000    0.2956313790000000    0.9509438575000001 Rh
   0.8125000000000000    0.7956313790000000    0.4509438575000000 Rh
   0.8125000000000000    0.7956313790000000    0.9509438575000001 Rh
   0.1875000000000000    0.2043686060000000    0.0490561535000000 Rh
   0.1875000000000000    0.2043686060000000    0.5490561534999999 Rh
   0.1875000000000000    0.7043686060000001    0.0490561535000000 Rh
   0.1875000000000000    0.7043686060000001    0.5490561534999999 Rh
   0.4375000000000001    0.2043686060000000    0.0490561535000000 Rh
   0.4375000000000001    0.2043686060000000    0.5490561534999999 Rh
   0.4375000000000001    0.7043686060000001    0.0490561535000000 Rh
   0.4375000000000001    0.7043686060000001    0.5490561534999999 Rh
   0.6875000000000000    0.2043686060000000    0.0490561535000000 Rh
   0.6875000000000000    0.2043686060000000    0.5490561534999999 Rh
   0.6875000000000000    0.7043686060000001    0.0490561535000000 Rh
   0.6875000000000000    0.7043686060000001    0.5490561534999999 Rh
   0.9375000000000000    0.2043686060000000    0.0490561535000000 Rh
   0.9375000000000000    0.2043686060000000    0.5490561534999999 Rh
   0.9375000000000000    0.7043686060000001    0.0490561535000000 Rh
   0.9375000000000000    0.7043686060000001    0.5490561534999999 Rh
   0.0625000000000000    0.0456313900000000    0.2990561425000000 Rh
   0.0625000000000000    0.0456313900000000    0.7990561425000000 Rh
   0.0625000000000000    0.5456313899999999    0.2990561425000000 Rh
   0.0625000000000000    0.5456313899999999    0.7990561425000000 Rh
   0.3125000000000000    0.0456313900000000    0.2990561425000000 Rh
   0.3125000000000000    0.0456313900000000    0.7990561425000000 Rh
   0.3125000000000000    0.5456313899999999    0.2990561425000000 Rh
   0.3125000000000000    0.5456313899999999    0.7990561425000000 Rh
   0.5625000000000000    0.0456313900000000    0.2990561425000000 Rh
   0.5625000000000000    0.0456313900000000    0.7990561425000000 Rh
   0.5625000000000000    0.5456313899999999    0.2990561425000000 Rh
   0.5625000000000000    0.5456313899999999    0.7990561425000000 Rh
   0.8125000000000000    0.0456313900000000    0.2990561425000000 Rh
   0.8125000000000000    0.0456313900000000    0.7990561425000000 Rh
   0.8125000000000000    0.5456313899999999    0.2990561425000000 Rh
   0.8125000000000000    0.5456313899999999    0.7990561425000000 Rh
   0.1875000000000000    0.4543686210000000    0.2009438425000000 Rh
   0.1875000000000000    0.4543686210000000    0.7009438425000000 Rh
   0.1875000000000000    0.9543686209999999    0.2009438425000000 Rh
   0.1875000000000000    0.9543686209999999    0.7009438425000000 Rh
   0.4375000000000001    0.4543686210000000    0.2009438425000000 Rh
   0.4375000000000001    0.4543686210000000    0.7009438425000000 Rh
   0.4375000000000001    0.9543686209999999    0.2009438425000000 Rh
   0.4375000000000001    0.9543686209999999    0.7009438425000000 Rh
   0.6875000000000000    0.4543686210000000    0.2009438425000000 Rh
   0.6875000000000000    0.4543686210000000    0.7009438425000000 Rh
   0.6875000000000000    0.9543686209999999    0.2009438425000000 Rh
   0.6875000000000000    0.9543686209999999    0.7009438425000000 Rh
   0.9375000000000000    0.4543686210000000    0.2009438425000000 Rh
   0.9375000000000000    0.4543686210000000    0.7009438425000000 Rh
   0.9375000000000000    0.9543686209999999    0.2009438425000000 Rh
   0.9375000000000000    0.9543686209999999    0.7009438425000000 Rh
   0.1875000000000000    0.4735527935000001    0.4419374464999999 Rh
   0.1875000000000000    0.4735527935000001    0.9419374464999999 Rh
   0.1875000000000000    0.9735527934999999    0.4419374464999999 Rh
   0.1875000000000000    0.9735527934999999    0.9419374464999999 Rh
   0.4375000000000001    0.4735527935000001    0.4419374464999999 Rh
   0.4375000000000001    0.4735527935000001    0.9419374464999999 Rh
   0.4375000000000001    0.9735527934999999    0.4419374464999999 Rh
   0.4375000000000001    0.9735527934999999    0.9419374464999999 Rh
   0.6875000000000000    0.4735527935000001    0.4419374464999999 Rh
   0.6875000000000000    0.4735527935000001    0.9419374464999999 Rh
   0.6875000000000000    0.9735527934999999    0.4419374464999999 Rh
   0.6875000000000000    0.9735527934999999    0.9419374464999999 Rh
   0.9375000000000000    0.4735527935000001    0.4419374464999999 Rh
   0.9375000000000000    0.4735527935000001    0.9419374464999999 Rh
   0.9375000000000000    0.9735527934999999    0.4419374464999999 Rh
   0.9375000000000000    0.9735527934999999    0.9419374464999999 Rh
   0.0625000000000000    0.0264472105000000    0.0580625610000000 Rh
   0.0625000000000000    0.0264472105000000    0.5580625610000000 Rh
   0.0625000000000000    0.5264472105000000    0.0580625610000000 Rh
   0.0625000000000000    0.5264472105000000    0.5580625610000000 Rh
   0.3125000000000000    0.0264472105000000    0.0580625610000000 Rh
   0.3125000000000000    0.0264472105000000    0.5580625610000000 Rh
   0.3125000000000000    0.5264472105000000    0.0580625610000000 Rh
   0.3125000000000000    0.5264472105000000    0.5580625610000000 Rh
   0.5625000000000000    0.0264472105000000    0.0580625610000000 Rh
   0.5625000000000000    0.0264472105000000    0.5580625610000000 Rh
   0.5625000000000000    0.5264472105000000    0.0580625610000000 Rh
   0.5625000000000000    0.5264472105000000    0.5580625610000000 Rh
   0.8125000000000000    0.0264472105000000    0.0580625610000000 Rh
   0.8125000000000000    0.0264472105000000    0.5580625610000000 Rh
   0.8125000000000000    0.5264472105000000    0.0580625610000000 Rh
   0.8125000000000000    0.5264472105000000    0.5580625610000000 Rh
   0.1875000000000000    0.2235527935000000    0.3080625534999999 Rh
   0.1875000000000000    0.2235527935000000    0.8080625535000000 Rh
   0.1875000000000000    0.7235527935000000    0.3080625534999999 Rh
   0.1875000000000000    0.7235527935000000    0.8080625535000000 Rh
   0.4375000000000001    0.2235527935000000    0.3080625534999999 Rh
   0.4375000000000001    0.2235527935000000    0.8080625535000000 Rh
   0.4375000000000001    0.7235527935000000    0.3080625534999999 Rh
   0.4375000000000001    0.7235527935000000    0.8080625535000000 Rh
   0.6875000000000000    0.2235527935000000    0.3080625534999999 Rh
   0.6875000000000000    0.2235527935000000    0.8080625535000000 Rh
   0.6875000000000000    0.7235527935000000    0.3080625534999999 Rh
   0.6875000000000000    0.7235527935000000    0.8080625535000000 Rh
   0.9375000000000000    0.2235527935000000    0.3080625534999999 Rh
   0.9375000000000000    0.2235527935000000    0.8080625535000000 Rh
   0.9375000000000000    0.7235527935000000    0.3080625534999999 Rh
   0.9375000000000000    0.7235527935000000    0.8080625535000000 Rh
   0.0625000000000000    0.2764472065000000    0.1919374465000000 Rh
   0.0625000000000000    0.2764472065000000    0.6919374465000000 Rh
   0.0625000000000000    0.7764472065000000    0.1919374465000000 Rh
   0.0625000000000000    0.7764472065000000    0.6919374465000000 Rh
   0.3125000000000000    0.2764472065000000    0.1919374465000000 Rh
   0.3125000000000000    0.2764472065000000    0.6919374465000000 Rh
   0.3125000000000000    0.7764472065000000    0.1919374465000000 Rh
   0.3125000000000000    0.7764472065000000    0.6919374465000000 Rh
   0.5625000000000000    0.2764472065000000    0.1919374465000000 Rh
   0.5625000000000000    0.2764472065000000    0.6919374465000000 Rh
   0.5625000000000000    0.7764472065000000    0.1919374465000000 Rh
   0.5625000000000000    0.7764472065000000    0.6919374465000000 Rh
   0.8125000000000000    0.2764472065000000    0.1919374465000000 Rh
   0.8125000000000000    0.2764472065000000    0.6919374465000000 Rh
   0.8125000000000000    0.7764472065000000    0.1919374465000000 Rh
   0.8125000000000000    0.7764472065000000    0.6919374465000000 Rh
   0.0625000000000000    0.2939032314999999    0.2866166830000000 O
   0.0625000000000000    0.2939032314999999    0.7866166829999999 O
   0.0625000000000000    0.7939032315000000    0.2866166830000000 O
   0.0625000000000000    0.7939032315000000    0.7866166829999999 O
   0.3125000000000000    0.2939032314999999    0.2866166830000000 O
   0.3125000000000000    0.2939032314999999    0.7866166829999999 O
   0.3125000000000000    0.7939032315000000    0.2866166830000000 O
   0.3125000000000000    0.7939032315000000    0.7866166829999999 O
   0.5625000000000000    0.2939032314999999    0.2866166830000000 O
   0.5625000000000000    0.2939032314999999    0.7866166829999999 O
   0.5625000000000000    0.7939032315000000    0.2866166830000000 O
   0.5625000000000000    0.7939032315000000    0.7866166829999999 O
   0.8125000000000000    0.2939032314999999    0.2866166830000000 O
   0.8125000000000000    0.2939032314999999    0.7866166829999999 O
   0.8125000000000000    0.7939032315000000    0.2866166830000000 O
   0.8125000000000000    0.7939032315000000    0.7866166829999999 O
   0.1875000000000000    0.2060967835000000    0.2133833170000000 O
   0.1875000000000000    0.2060967835000000    0.7133833169999999 O
   0.1875000000000000    0.7060967835000000    0.2133833170000000 O
   0.1875000000000000    0.7060967835000000    0.7133833169999999 O
   0.4375000000000001    0.2060967835000000    0.2133833170000000 O
   0.4375000000000001    0.2060967835000000    0.7133833169999999 O
   0.4375000000000001    0.7060967835000000    0.2133833170000000 O
   0.4375000000000001    0.7060967835000000    0.7133833169999999 O
   0.6875000000000000    0.2060967835000000    0.2133833170000000 O
   0.6875000000000000    0.2060967835000000    0.7133833169999999 O
   0.6875000000000000    0.7060967835000000    0.2133833170000000 O
   0.6875000000000000    0.7060967835000000    0.7133833169999999 O
   0.9375000000000000    0.2060967835000000    0.2133833170000000 O
   0.9375000000000000    0.2060967835000000    0.7133833169999999 O
   0.9375000000000000    0.7060967835000000    0.2133833170000000 O
   0.9375000000000000    0.7060967835000000    0.7133833169999999 O
   0.0625000000000000    0.0439032205000000    0.4633833170000000 O
   0.0625000000000000    0.0439032205000000    0.9633833170000000 O
   0.0625000000000000    0.5439032205000001    0.4633833170000000 O
   0.0625000000000000    0.5439032205000001    0.9633833170000000 O
   0.3125000000000000    0.0439032205000000    0.4633833170000000 O
   0.3125000000000000    0.0439032205000000    0.9633833170000000 O
   0.3125000000000000    0.5439032205000001    0.4633833170000000 O
   0.3125000000000000    0.5439032205000001    0.9633833170000000 O
   0.5625000000000000    0.0439032205000000    0.4633833170000000 O
   0.5625000000000000    0.0439032205000000    0.9633833170000000 O
   0.5625000000000000    0.5439032205000001    0.4633833170000000 O
   0.5625000000000000    0.5439032205000001    0.9633833170000000 O
   0.8125000000000000    0.0439032205000000    0.4633833170000000 O
   0.8125000000000000    0.0439032205000000    0.9633833170000000 O
   0.8125000000000000    0.5439032205000001    0.4633833170000000 O
   0.8125000000000000    0.5439032205000001    0.9633833170000000 O
   0.1875000000000000    0.4560967685000000    0.0366166905000000 O
   0.1875000000000000    0.4560967685000000    0.5366166904999999 O
   0.1875000000000000    0.9560967685000000    0.0366166905000000 O
   0.1875000000000000    0.9560967685000000    0.5366166904999999 O
   0.4375000000000001    0.4560967685000000    0.0366166905000000 O
   0.4375000000000001    0.4560967685000000    0.5366166904999999 O
   0.4375000000000001    0.9560967685000000    0.0366166905000000 O
   0.4375000000000001    0.9560967685000000    0.5366166904999999 O
   0.6875000000000000    0.4560967685000000    0.0366166905000000 O
   0.6875000000000000    0.4560967685000000    0.5366166904999999 O
   0.6875000000000000    0.9560967685000000    0.0366166905000000 O
   0.6875000000000000    0.9560967685000000    0.5366166904999999 O
   0.9375000000000000    0.4560967685000000    0.0366166905000000 O
   0.9375000000000000    0.4560967685000000    0.5366166904999999 O
   0.9375000000000000    0.9560967685000000    0.0366166905000000 O
   0.9375000000000000    0.9560967685000000    0.5366166904999999 O
   0.0625000000000000    0.4798974990000000    0.1444584430000000 O
   0.0625000000000000    0.4798974990000000    0.6444584430000000 O
   0.0625000000000000    0.9798974990000000    0.1444584430000000 O
   0.0625000000000000    0.9798974990000000    0.6444584430000000 O
   0.3125000000000000    0.4798974990000000    0.1444584430000000 O
   0.3125000000000000    0.4798974990000000    0.6444584430000000 O
   0.3125000000000000    0.9798974990000000    0.1444584430000000 O
   0.3125000000000000    0.9798974990000000    0.6444584430000000 O
   0.5625000000000000    0.4798974990000000    0.1444584430000000 O
   0.5625000000000000    0.4798974990000000    0.6444584430000000 O
   0.5625000000000000    0.9798974990000000    0.1444584430000000 O
   0.5625000000000000    0.9798974990000000    0.6444584430000000 O
   0.8125000000000000    0.4798974990000000    0.1444584430000000 O
   0.8125000000000000    0.4798974990000000    0.6444584430000000 O
   0.8125000000000000    0.9798974990000000    0.1444584430000000 O
   0.8125000000000000    0.9798974990000000    0.6444584430000000 O
   0.1875000000000000    0.0201025100000000    0.3555415570000000 O
   0.1875000000000000    0.0201025100000000    0.8555415570000000 O
   0.1875000000000000    0.5201025100000000    0.3555415570000000 O
   0.1875000000000000    0.5201025100000000    0.8555415570000000 O
   0.4375000000000001    0.0201025100000000    0.3555415570000000 O
   0.4375000000000001    0.0201025100000000    0.8555415570000000 O
   0.4375000000000001    0.5201025100000000    0.3555415570000000 O
   0.4375000000000001    0.5201025100000000    0.8555415570000000 O
   0.6875000000000000    0.0201025100000000    0.3555415570000000 O
   0.6875000000000000    0.0201025100000000    0.8555415570000000 O
   0.6875000000000000    0.5201025100000000    0.3555415570000000 O
   0.6875000000000000    0.5201025100000000    0.8555415570000000 O
   0.9375000000000000    0.0201025100000000    0.3555415570000000 O
   0.9375000000000000    0.0201025100000000    0.8555415570000000 O
   0.9375000000000000    0.5201025100000000    0.3555415570000000 O
   0.9375000000000000    0.5201025100000000    0.8555415570000000 O
   0.0625000000000000    0.2298974840000000    0.1055415495000000 O
   0.0625000000000000    0.2298974840000000    0.6055415494999999 O
   0.0625000000000000    0.7298974840000000    0.1055415495000000 O
   0.0625000000000000    0.7298974840000000    0.6055415494999999 O
   0.3125000000000000    0.2298974840000000    0.1055415495000000 O
   0.3125000000000000    0.2298974840000000    0.6055415494999999 O
   0.3125000000000000    0.7298974840000000    0.1055415495000000 O
   0.3125000000000000    0.7298974840000000    0.6055415494999999 O
   0.5625000000000000    0.2298974840000000    0.1055415495000000 O
   0.5625000000000000    0.2298974840000000    0.6055415494999999 O
   0.5625000000000000    0.7298974840000000    0.1055415495000000 O
   0.5625000000000000    0.7298974840000000    0.6055415494999999 O
   0.8125000000000000    0.2298974840000000    0.1055415495000000 O
   0.8125000000000000    0.2298974840000000    0.6055415494999999 O
   0.8125000000000000    0.7298974840000000    0.1055415495000000 O
   0.8125000000000000    0.7298974840000000    0.6055415494999999 O
   0.1875000000000000    0.2701025009999999    0.3944584430000000 O
   0.1875000000000000    0.2701025009999999    0.8944584430000000 O
   0.1875000000000000    0.7701025009999999    0.3944584430000000 O
   0.1875000000000000    0.7701025009999999    0.8944584430000000 O
   0.4375000000000001    0.2701025009999999    0.3944584430000000 O
   0.4375000000000001    0.2701025009999999    0.8944584430000000 O
   0.4375000000000001    0.7701025009999999    0.3944584430000000 O
   0.4375000000000001    0.7701025009999999    0.8944584430000000 O
   0.6875000000000000    0.2701025009999999    0.3944584430000000 O
   0.6875000000000000    0.2701025009999999    0.8944584430000000 O
   0.6875000000000000    0.7701025009999999    0.3944584430000000 O
   0.6875000000000000    0.7701025009999999    0.8944584430000000 O
   0.9375000000000000    0.2701025009999999    0.3944584430000000 O
   0.9375000000000000    0.2701025009999999    0.8944584430000000 O
   0.9375000000000000    0.7701025009999999    0.3944584430000000 O
   0.9375000000000000    0.7701025009999999    0.8944584430000000 O
   0.0625000000000000    0.4409753380000000    0.2636987565000000 O
   0.0625000000000000    0.4409753380000000    0.7636987565000000 O
   0.0625000000000000    0.9409753379999999    0.2636987565000000 O
   0.0625000000000000    0.9409753379999999    0.7636987565000000 O
   0.3125000000000000    0.4409753380000000    0.2636987565000000 O
   0.3125000000000000    0.4409753380000000    0.7636987565000000 O
   0.3125000000000000    0.9409753379999999    0.2636987565000000 O
   0.3125000000000000    0.9409753379999999    0.7636987565000000 O
   0.5625000000000000    0.4409753380000000    0.2636987565000000 O
   0.5625000000000000    0.4409753380000000    0.7636987565000000 O
   0.5625000000000000    0.9409753379999999    0.2636987565000000 O
   0.5625000000000000    0.9409753379999999    0.7636987565000000 O
   0.8125000000000000    0.4409753380000000    0.2636987565000000 O
   0.8125000000000000    0.4409753380000000    0.7636987565000000 O
   0.8125000000000000    0.9409753379999999    0.2636987565000000 O
   0.8125000000000000    0.9409753379999999    0.7636987565000000 O
   0.1875000000000000    0.0590246765000000    0.2363012285000000 O
   0.1875000000000000    0.0590246765000000    0.7363012284999999 O
   0.1875000000000000    0.5590246765000000    0.2363012285000000 O
   0.1875000000000000    0.5590246765000000    0.7363012284999999 O
   0.4375000000000001    0.0590246765000000    0.2363012285000000 O
   0.4375000000000001    0.0590246765000000    0.7363012284999999 O
   0.4375000000000001    0.5590246765000000    0.2363012285000000 O
   0.4375000000000001    0.5590246765000000    0.7363012284999999 O
   0.6875000000000000    0.0590246765000000    0.2363012285000000 O
   0.6875000000000000    0.0590246765000000    0.7363012284999999 O
   0.6875000000000000    0.5590246765000000    0.2363012285000000 O
   0.6875000000000000    0.5590246765000000    0.7363012284999999 O
   0.9375000000000000    0.0590246765000000    0.2363012285000000 O
   0.9375000000000000    0.0590246765000000    0.7363012284999999 O
   0.9375000000000000    0.5590246765000000    0.2363012285000000 O
   0.9375000000000000    0.5590246765000000    0.7363012284999999 O
   0.0625000000000000    0.1909753235000000    0.4863012435000000 O
   0.0625000000000000    0.1909753235000000    0.9863012434999999 O
   0.0625000000000000    0.6909753234999999    0.4863012435000000 O
   0.0625000000000000    0.6909753234999999    0.9863012434999999 O
   0.3125000000000000    0.1909753235000000    0.4863012435000000 O
   0.3125000000000000    0.1909753235000000    0.9863012434999999 O
   0.3125000000000000    0.6909753234999999    0.4863012435000000 O
   0.3125000000000000    0.6909753234999999    0.9863012434999999 O
   0.5625000000000000    0.1909753235000000    0.4863012435000000 O
   0.5625000000000000    0.1909753235000000    0.9863012434999999 O
   0.5625000000000000    0.6909753234999999    0.4863012435000000 O
   0.5625000000000000    0.6909753234999999    0.9863012434999999 O
   0.8125000000000000    0.1909753235000000    0.4863012435000000 O
   0.8125000000000000    0.1909753235000000    0.9863012434999999 O
   0.8125000000000000    0.6909753234999999    0.4863012435000000 O
   0.8125000000000000    0.6909753234999999    0.9863012434999999 O
   0.1875000000000000    0.3090246620000000    0.0136987650000000 O
   0.1875000000000000    0.3090246620000000    0.5136987650000000 O
   0.1875000000000000    0.8090246620000000    0.0136987650000000 O
   0.1875000000000000    0.8090246620000000    0.5136987650000000 O
   0.4375000000000001    0.3090246620000000    0.0136987650000000 O
   0.4375000000000001    0.3090246620000000    0.5136987650000000 O
   0.4375000000000001    0.8090246620000000    0.0136987650000000 O
   0.4375000000000001    0.8090246620000000    0.5136987650000000 O
   0.6875000000000000    0.3090246620000000    0.0136987650000000 O
   0.6875000000000000    0.3090246620000000    0.5136987650000000 O
   0.6875000000000000    0.8090246620000000    0.0136987650000000 O
   0.6875000000000000    0.8090246620000000    0.5136987650000000 O
   0.9375000000000000    0.3090246620000000    0.0136987650000000 O
   0.9375000000000000    0.3090246620000000    0.5136987650000000 O
   0.9375000000000000    0.8090246620000000    0.0136987650000000 O
   0.9375000000000000    0.8090246620000000    0.5136987650000000 O
   0.1875000000000000    0.3464202285000000    0.1663055120000000 O
   0.1875000000000000    0.3464202285000000    0.6663055119999999 O
   0.1875000000000000    0.8464202284999999    0.1663055120000000 O
   0.1875000000000000    0.8464202284999999    0.6663055119999999 O
   0.4375000000000001    0.3464202285000000    0.1663055120000000 O
   0.4375000000000001    0.3464202285000000    0.6663055119999999 O
   0.4375000000000001    0.8464202284999999    0.1663055120000000 O
   0.4375000000000001    0.8464202284999999    0.6663055119999999 O
   0.6875000000000000    0.3464202285000000    0.1663055120000000 O
   0.6875000000000000    0.3464202285000000    0.6663055119999999 O
   0.6875000000000000    0.8464202284999999    0.1663055120000000 O
   0.6875000000000000    0.8464202284999999    0.6663055119999999 O
   0.9375000000000000    0.3464202285000000    0.1663055120000000 O
   0.9375000000000000    0.3464202285000000    0.6663055119999999 O
   0.9375000000000000    0.8464202284999999    0.1663055120000000 O
   0.9375000000000000    0.8464202284999999    0.6663055119999999 O
   0.0625000000000000    0.1535797715000000    0.3336944880000000 O
   0.0625000000000000    0.1535797715000000    0.8336944880000000 O
   0.0625000000000000    0.6535797714999999    0.3336944880000000 O
   0.0625000000000000    0.6535797714999999    0.8336944880000000 O
   0.3125000000000000    0.1535797715000000    0.3336944880000000 O
   0.3125000000000000    0.1535797715000000    0.8336944880000000 O
   0.3125000000000000    0.6535797714999999    0.3336944880000000 O
   0.3125000000000000    0.6535797714999999    0.8336944880000000 O
   0.5625000000000000    0.1535797715000000    0.3336944880000000 O
   0.5625000000000000    0.1535797715000000    0.8336944880000000 O
   0.5625000000000000    0.6535797714999999    0.3336944880000000 O
   0.5625000000000000    0.6535797714999999    0.8336944880000000 O
   0.8125000000000000    0.1535797715000000    0.3336944880000000 O
   0.8125000000000000    0.1535797715000000    0.8336944880000000 O
   0.8125000000000000    0.6535797714999999    0.3336944880000000 O
   0.8125000000000000    0.6535797714999999    0.8336944880000000 O
   0.1875000000000000    0.0964202285000000    0.0836944880000000 O
   0.1875000000000000    0.0964202285000000    0.5836944879999999 O
   0.1875000000000000    0.5964202285000000    0.0836944880000000 O
   0.1875000000000000    0.5964202285000000    0.5836944879999999 O
   0.4375000000000001    0.0964202285000000    0.0836944880000000 O
   0.4375000000000001    0.0964202285000000    0.5836944879999999 O
   0.4375000000000001    0.5964202285000000    0.0836944880000000 O
   0.4375000000000001    0.5964202285000000    0.5836944879999999 O
   0.6875000000000000    0.0964202285000000    0.0836944880000000 O
   0.6875000000000000    0.0964202285000000    0.5836944879999999 O
   0.6875000000000000    0.5964202285000000    0.0836944880000000 O
   0.6875000000000000    0.5964202285000000    0.5836944879999999 O
   0.9375000000000000    0.0964202285000000    0.0836944880000000 O
   0.9375000000000000    0.0964202285000000    0.5836944879999999 O
   0.9375000000000000    0.5964202285000000    0.0836944880000000 O
   0.9375000000000000    0.5964202285000000    0.5836944879999999 O
   0.0625000000000000    0.4035797715000000    0.4163055120000000 O
   0.0625000000000000    0.4035797715000000    0.9163055120000001 O
   0.0625000000000000    0.9035797715000000    0.4163055120000000 O