Ca1 V4 P6 O24                           
   1.00000000000000     
     2.6258880000000002    7.0771600000000001    4.5080920000000004
     0.2117020000000000    0.1541320000000000    8.7893629999999998
     7.5408109999999997    0.1538210000000000    4.5157160000000003
   Ca   V    P    O 
     1     4     6    24
Direct
  0.4457583193663319  0.5512243269093529  0.5031484946863534
  0.6428223107029860  0.6465205071845176  0.6486936309464443
  0.1389849062421890  0.1451927585588130  0.1415899970257687
  0.8501648527422057  0.8609064958290238  0.8562016395145072
  0.3461476386138044  0.3554887329556618  0.3554340652457151
  0.2444895729242351  0.5320614756082860  0.9665015883937982
  0.0251610504690497  0.7579706958684852  0.4619545432068203
  0.9580494610354366  0.2533263122080179  0.5329234033818380
  0.4630999790097716  0.0419163968259641  0.7478644780757909
  0.5279844173029207  0.9654770808874242  0.2494486986333589
  0.7416896573281929  0.4723619971218288  0.0383763476407429
  0.5755511973173921  0.7723362820412488  0.4142061334550692
  0.2937393586668788  0.0456380755610559  0.9389371159119474
  0.4049236613912136  0.5856915356938485  0.7714455340243840
  0.9337839920559664  0.3081320928684383  0.0424061032853556
  0.7618884235313966  0.4143452535892225  0.5775603269388209
  0.0260332294974526  0.9493746588456573  0.2956550922855559
  0.9556900805641576  0.0604384583192230  0.6988746279075240
  0.5781993655126120  0.4278398661394480  0.2323309818787229
  0.6982493096998370  0.9616222844320522  0.0606537666035590
  0.2203882452021335  0.5972577311612243  0.4102190802234417
  0.0529588713628083  0.6962764984012869  0.9582915871034212
  0.4136894442322678  0.2388984726978743  0.5877213274487124
  0.2503453754601704  0.3438536877604168  0.9869067145668200
  0.8649370732924245  0.7078461055217649  0.4937910368249434
  0.9950664308874949  0.2443683293504500  0.3448578768700462
  0.4962204520228445  0.8767910994686687  0.7037358428003042
  0.3469785122869000  0.9759439471827602  0.2484102572667567
  0.7011231717130477  0.4972379453940404  0.8734834563518082
  0.2849592649647378  0.5055107280500668  0.1305112709680203
  0.0102007854289262  0.7568603512789283  0.6457851807336827
  0.1197224140089263  0.2980861233019136  0.5083493222727555
  0.6468147663776327  0.0173758180920748  0.7549969796413987
  0.4924777026152515  0.1315093040111077  0.2943439397734837
  0.7437034091763335  0.6613127047420572  0.0078444165451421
 
             NaN             NaN             NaN
             NaN             NaN             NaN
             NaN             NaN             NaN
             NaN             NaN             NaN
             NaN             NaN             NaN
             NaN             NaN             NaN
             NaN             NaN             NaN
             NaN             NaN             NaN
             NaN             NaN             NaN
             NaN             NaN             NaN
             NaN             NaN             NaN
             NaN             NaN             NaN
             NaN             NaN             NaN
             NaN             NaN             NaN
             NaN             NaN             NaN
             NaN             NaN             NaN
             NaN             NaN             NaN
             NaN             NaN             NaN
             NaN             NaN             NaN
             NaN             NaN             NaN
             NaN             NaN             NaN
             NaN             NaN             NaN
             NaN             NaN             NaN
             NaN             NaN             NaN
             NaN             NaN             NaN
             NaN             NaN             NaN
             NaN             NaN             NaN
             NaN             NaN             NaN
             NaN             NaN             NaN
             NaN             NaN             NaN
             NaN             NaN             NaN
             NaN             NaN             NaN
             NaN             NaN             NaN
             NaN             NaN             NaN
             NaN             NaN             NaN
