Ca1 V4 P6 O24
1.0
2.625888 7.077160 4.508092
0.211702 0.154132 8.789363
7.540811 0.153821 4.515716
Ca V P O
1 4 6 24
direct
0.465866 0.544327 0.513279 Ca
0.645579 0.643380 0.644403 V
0.139424 0.141109 0.140180 V
0.853158 0.854257 0.855126 V
0.351852 0.350463 0.351207 V
0.247833 0.529226 0.961074 P
0.034699 0.747020 0.465391 P
0.960573 0.248821 0.528442 P
0.464430 0.033596 0.747477 P
0.530501 0.962349 0.247274 P
0.746848 0.464463 0.035047 P
0.578485 0.766728 0.408738 O
0.298672 0.036260 0.938996 O
0.408482 0.579083 0.765324 O
0.937264 0.296142 0.037063 O
0.767439 0.410246 0.578009 O
0.038467 0.937565 0.297479 O
0.957337 0.057544 0.695848 O
0.585498 0.417645 0.230130 O
0.696276 0.958866 0.055929 O
0.227763 0.585155 0.416423 O
0.058036 0.698487 0.957250 O
0.415032 0.229256 0.586799 O
0.241808 0.345992 0.983796 O
0.869718 0.702886 0.498383 O
0.982673 0.246250 0.343563 O
0.493121 0.871724 0.701004 O
0.343024 -0.011579 0.246011 O
0.698917 0.496805 0.872288 O
0.294867 0.496150 0.124538 O
0.013290 0.751271 0.649204 O
0.126039 0.290189 0.498141 O
0.650885 1.007571 0.750205 O
0.502345 0.123944 0.293568 O
0.753750 0.648686 0.009185 O
