Ca1 Mn4 S6 O24                          
   1.00000000000000     
     7.8929570000000000    0.0369610000000000    4.9720250000000004
     2.7841250000000000    7.0863610000000001    4.8329480000000000
     0.5396210000000000    0.0913950000000000    9.0694020000000002
   Ca   Mn   S    O 
     1     4     6    24
Direct
  0.3201942704773986  0.6916784107168079  0.5396126235354838
  0.6578260496272313  0.6404746383939713  0.6499787289203850
  0.1411467889991953  0.1587343112105195  0.1429055808279537
  0.8224246352429708  0.8598622121114353  0.8431336277505244
  0.3568307269035150  0.3483527917934305  0.3559174426039842
  0.9696612666808275  0.2317963571826452  0.5341369716536949
  0.4354356227326488  0.0525488770236668  0.7566340017203240
  0.5529482810503785  0.9524547908737561  0.2426203743255679
  0.7425935685944203  0.4732734390410410  0.0483656666891774
  0.2585600367997980  0.5181470372485770  0.9604224583944981
  0.0274057788367198  0.7660198899117101  0.4440874378094821
  0.4242786992819257  0.5649749951941919  0.7751313204513601
  0.9369386559119200  0.3492876670579249  0.0194183487723231
  0.7894266373338883  0.3614228814512027  0.6193077700849235
  0.0047303778192500  0.9690086571256077  0.3237003789966985
  0.6060964312565849  0.7596562589626267  0.3891497328509504
  0.2904044064952083  0.0258605367326794  0.9636594456612692
  0.6992622255390325  0.9649320473749654  0.0424823081109992
  0.2269199737396895  0.6445344185565970  0.3738899220624221
  0.0914623333008191  0.6628702126624930  0.9201397288155698
  0.3606748670750251  0.2454445322736505  0.6290508950802154
  0.9780497409504516  0.0258017899205748  0.6562789023534650
  0.6072653787343538  0.4013151548873723  0.2448879552341610
  0.9881515886646841  0.2739372574503752  0.3384852744221966
  0.4667404985336571  0.9018502455890240  0.7097345716015987
  0.3716013162548534  0.9677922870081449  0.2662873487895213
  0.6975013564245510  0.5045638461129632  0.9003679733008387
  0.2851756705604108  0.3276452264462134  0.9790546034607428
  0.9016281605430926  0.7107695714564300  0.4529967747184084
  0.1283908918836538  0.2460016077214617  0.5165869682670853
  0.6106957792189376  0.0362390365999487  0.7408937821676418
  0.5328322598608889  0.1024528299052715  0.2791132869904487
  0.7142600655099903  0.6658689451967532  0.0327998001157815
  0.2641181599969135  0.5076999131195782  0.1228562378800229
 -0.0090157141535372  0.7310727590711245  0.6468041828141795
 
             NaN             NaN             NaN
             NaN             NaN             NaN
             NaN             NaN             NaN
             NaN             NaN             NaN
             NaN             NaN             NaN
             NaN             NaN             NaN
             NaN             NaN             NaN
             NaN             NaN             NaN
             NaN             NaN             NaN
             NaN             NaN             NaN
             NaN             NaN             NaN
             NaN             NaN             NaN
             NaN             NaN             NaN
             NaN             NaN             NaN
             NaN             NaN             NaN
             NaN             NaN             NaN
             NaN             NaN             NaN
             NaN             NaN             NaN
             NaN             NaN             NaN
             NaN             NaN             NaN
             NaN             NaN             NaN
             NaN             NaN             NaN
             NaN             NaN             NaN
             NaN             NaN             NaN
             NaN             NaN             NaN
             NaN             NaN             NaN
             NaN             NaN             NaN
             NaN             NaN             NaN
             NaN             NaN             NaN
             NaN             NaN             NaN
             NaN             NaN             NaN
             NaN             NaN             NaN
             NaN             NaN             NaN
             NaN             NaN             NaN
             NaN             NaN             NaN
