Ca1 Mn4 S6 O24
1.0
7.892957 0.036961 4.972025
2.784125 7.086361 4.832948
0.539621 0.091395 9.069402
Ca Mn S O
1 4 6 24
direct
0.378172 0.682207 0.559655 Ca
0.655425 0.644175 0.646378 Mn
0.148963 0.150968 0.143266 Mn
0.826872 0.850131 0.845640 Mn
0.355411 0.350150 0.348181 Mn
0.958050 0.241502 0.531812 S
0.438251 0.047659 0.751995 S
0.547684 0.952722 0.240999 S
0.746578 0.462970 0.046098 S
0.253773 0.524898 0.953681 S
0.040695 0.754955 0.455393 S
0.403807 0.585756 0.760014 O
0.936180 0.329662 0.019997 O
0.778172 0.378540 0.604991 O
0.026316 0.955721 0.323393 O
0.612621 0.763517 0.381676 O
0.301768 0.020060 0.958994 O
0.686939 0.969237 0.038280 O
0.229310 0.622592 0.382704 O
0.074310 0.670714 0.953884 O
0.363895 0.240831 0.623885 O
0.959245 0.042687 0.666114 O
0.607818 0.394496 0.245030 O
0.983963 0.274257 0.337746 O
0.457804 0.900703 0.707246 O
0.365904 0.967317 0.271191 O
0.693657 0.501722 0.901083 O
0.270563 0.343425 0.963730 O
0.895838 0.715727 0.475901 O
0.112811 0.257076 0.518171 O
0.619540 0.025435 0.725509 O
0.527602 0.104675 0.276159 O
0.727824 0.648273 0.033277 O
0.287517 0.492945 0.108247 O
0.011740 0.728315 0.650052 O
