Ca16 Ni32 O64
1.0
  10.9285300000000003    0.0000000000000000    0.0000000000000007
   0.0000000000000018   11.1807060000000007    0.0000000000000006
   0.0000000000000000    0.0000000000000000   10.5575039999999998
Ca Ni O
15 32 64
direct
   0.5000000000000000    0.5000000000000000    0.4182120000000000 Ca
   0.5000000000000000    0.0000000000000000    0.4182120000000000 Ca
   0.5000000000000000    0.0000000000000000    0.9182120000000000 Ca
   0.5000000000000000    0.5000000000000000    0.9182120000000000 Ca
   0.0000000000000000    0.2500000000000000    0.0817880000000000 Ca
   0.0000000000000000    0.2500000000000000    0.5817880000000001 Ca
   0.0000000000000000    0.7500000000000000    0.0817880000000000 Ca
   0.0000000000000000    0.7500000000000000    0.5817880000000000 Ca
   0.0000000000000000    0.0000000000000000    0.2892650000000000 Ca
   0.0000000000000000    0.0000000000000000    0.7892649999999999 Ca
   0.0000000000000000    0.5000000000000000    0.2892650000000000 Ca
   0.0000000000000000    0.5000000000000000    0.7892649999999999 Ca
   0.5000000000000001    0.2500000000000000    0.7107350000000000 Ca
   0.5000000000000000    0.7500000000000000    0.2107350000000000 Ca
   0.5000000000000000    0.7500000000000000    0.7107350000000000 Ca
   0.2431630000000000    0.2500000000000000    0.2547330000000000 Ni
   0.2431630000000000    0.2500000000000000    0.7547330000000000 Ni
   0.2431630000000000    0.7500000000000000    0.2547330000000000 Ni
   0.2431630000000000    0.7500000000000000    0.7547330000000000 Ni
   0.7431630000000000    0.0000000000000000    0.2452670000000000 Ni
   0.7431630000000000    0.0000000000000000    0.7452670000000000 Ni
   0.7431630000000000    0.5000000000000000    0.2452670000000000 Ni
   0.7431630000000000    0.5000000000000000    0.7452670000000000 Ni
   0.7568369999999999    0.2500000000000000    0.2547330000000000 Ni
   0.7568369999999999    0.2500000000000000    0.7547330000000000 Ni
   0.7568370000000000    0.7500000000000000    0.2547330000000000 Ni
   0.7568370000000000    0.7500000000000000    0.7547330000000000 Ni
   0.2568370000000000    0.0000000000000000    0.2452670000000000 Ni
   0.2568370000000000    0.0000000000000000    0.7452670000000000 Ni
   0.2568370000000000    0.5000000000000000    0.2452670000000000 Ni
   0.2568370000000000    0.5000000000000000    0.7452670000000000 Ni
   0.2500000000000000    0.3750000000000000    0.0000000000000000 Ni
   0.2500000000000000    0.3750000000000000    0.5000000000000000 Ni
   0.2500000000000000    0.8750000000000001    0.0000000000000000 Ni
   0.2500000000000000    0.8750000000000001    0.4999999999999999 Ni
   0.2500000000000001    0.1250000000000000    0.0000000000000000 Ni
   0.2500000000000001    0.1250000000000000    0.5000000000000000 Ni
   0.2500000000000000    0.6250000000000000    0.0000000000000000 Ni
   0.2500000000000000    0.6250000000000000    0.4999999999999999 Ni
   0.7499999999999999    0.3750000000000000    0.0000000000000000 Ni
   0.7499999999999999    0.3750000000000000    0.5000000000000000 Ni
   0.7500000000000000    0.8750000000000001    0.0000000000000000 Ni
   0.7500000000000000    0.8750000000000001    0.5000000000000000 Ni
   0.7500000000000000    0.1250000000000000    0.0000000000000000 Ni
   0.7500000000000000    0.1250000000000000    0.5000000000000000 Ni
   0.7500000000000000    0.6250000000000000    0.0000000000000000 Ni
   0.7500000000000000    0.6250000000000000    0.5000000000000000 Ni
   0.1536460000000000    0.2500000000000000    0.4300285000000000 O
   0.1536460000000000    0.2500000000000000    0.9300285000000000 O
   0.1536460000000000    0.7500000000000000    0.4300285000000000 O
   0.1536460000000000    0.7500000000000000    0.9300285000000000 O
   0.6536459999999999    0.0000000000000000    0.0699715000000000 O
   0.6536459999999999    0.0000000000000000    0.5699715000000000 O
   0.6536459999999999    0.5000000000000000    0.0699715000000000 O
   0.6536459999999999    0.5000000000000000    0.5699715000000000 O
   0.8463540000000001    0.2500000000000000    0.4300285000000000 O
   0.8463540000000001    0.2500000000000000    0.9300285000000000 O
   0.8463540000000001    0.7500000000000000    0.4300285000000000 O
   0.8463540000000001    0.7500000000000000    0.9300284999999999 O
   0.3463540000000000    0.0000000000000000    0.0699715000000000 O
   0.3463540000000000    0.0000000000000000    0.5699715000000001 O
   0.3463540000000000    0.5000000000000000    0.0699715000000000 O
   0.3463540000000000    0.5000000000000000    0.5699715000000000 O
   0.3508940000000000    0.3737475000000000    0.3180350000000000 O
   0.3508940000000000    0.3737475000000000    0.8180350000000000 O
   0.3508940000000000    0.8737475000000001    0.3180350000000000 O
   0.3508940000000000    0.8737475000000001    0.8180350000000000 O
   0.3508940000000000    0.1262525000000000    0.3180350000000000 O
   0.3508940000000000    0.1262525000000000    0.8180350000000000 O
   0.3508940000000000    0.6262525000000000    0.3180350000000000 O
   0.3508940000000000    0.6262525000000000    0.8180350000000000 O
   0.8508939999999999    0.3762525000000000    0.1819650000000000 O
   0.8508939999999999    0.3762525000000000    0.6819649999999999 O
   0.8508940000000000    0.8762525000000000    0.1819650000000000 O
   0.8508940000000000    0.8762525000000000    0.6819649999999999 O
   0.6491060000000000    0.1262525000000000    0.3180350000000001 O
   0.6491060000000000    0.1262525000000000    0.8180350000000001 O
   0.6491059999999998    0.6262525000000000    0.3180350000000001 O
   0.6491059999999998    0.6262525000000000    0.8180350000000001 O
   0.1491060000000000    0.1237475000000000    0.1819650000000000 O
   0.1491060000000000    0.1237475000000000    0.6819649999999999 O
   0.1491060000000000    0.6237475000000000    0.1819650000000000 O
   0.1491060000000000    0.6237475000000000    0.6819649999999999 O
   0.6491059999999998    0.3737475000000000    0.3180350000000000 O
   0.6491059999999998    0.3737475000000000    0.8180350000000001 O
   0.6491060000000000    0.8737475000000001    0.3180350000000001 O
   0.6491060000000000    0.8737475000000001    0.8180350000000001 O
   0.8508940000000000    0.1237475000000000    0.1819650000000000 O
   0.8508940000000000    0.1237475000000000    0.6819650000000000 O
   0.8508940000000000    0.6237475000000000    0.1819650000000000 O
   0.8508940000000000    0.6237475000000000    0.6819649999999999 O
   0.1491060000000000    0.3762525000000000    0.1819650000000000 O
   0.1491060000000000    0.3762525000000000    0.6819650000000000 O
   0.1491060000000000    0.8762525000000000    0.1819650000000000 O
   0.1491060000000000    0.8762525000000000    0.6819650000000000 O
   0.1600520000000000    0.0000000000000000    0.4252560000000000 O
   0.1600520000000000    0.0000000000000000    0.9252560000000000 O
   0.1600520000000000    0.5000000000000000    0.4252560000000000 O
   0.1600520000000000    0.5000000000000000    0.9252560000000000 O
   0.6600520000000000    0.2500000000000000    0.0747440000000000 O
   0.6600520000000000    0.2500000000000000    0.5747440000000000 O
   0.6600520000000000    0.7500000000000000    0.0747440000000000 O
   0.6600520000000000    0.7500000000000000    0.5747440000000000 O
   0.8399479999999999    0.0000000000000000    0.4252560000000000 O
   0.8399479999999999    0.0000000000000000    0.9252560000000000 O
   0.8399480000000000    0.5000000000000000    0.4252560000000000 O
   0.8399480000000000    0.5000000000000000    0.9252560000000000 O
   0.3399480000000000    0.2500000000000000    0.0747440000000000 O
   0.3399480000000000    0.2500000000000000    0.5747440000000000 O
   0.3399480000000000    0.7500000000000000    0.0747440000000000 O
   0.3399480000000000    0.7500000000000000    0.5747440000000000 O
