Ca1 Mn12 F42                            
   1.00000000000000     
     7.3198439999999998   -0.0304220000000000   -0.0563370000000000
    -3.6853150000000001    6.3800059999999998    0.0163090000000000
     0.0922520000000000   -0.0399930000000000   17.4823549999999983
   Ca   Mn   F 
     1    12    42
Direct
  0.4872883508090571  0.6031760805379199  0.6851503956875998
  0.3030552164015930  0.0129746404774015  0.3268082134757569
  0.7038159682138047  0.7159572331270151  0.0047258254694540
 -0.0236223895035430  0.2668447145206803  0.6695185481051037
  0.3219319469186707  0.9727200706140468  0.8403750297410902
  0.6843255572530307  0.6662821056776399  0.4814942060847917
  1.0097344109756539  0.3669709965656486  0.1677710974665912
  0.6684843941065357  0.1608282779186492  0.4867940243969865
  0.5097322818011115  0.3674075514078304  0.1681890222097234
  0.8180164017635112  0.4729683259946541  0.8369811390605462
  0.3074450724325754  0.4668150347221568  0.8574061115810027
  0.1767783348122912  0.6563794711149882  0.4922050360414611
  0.5099768337585669  0.8679211000360990  0.1672913149246583
  0.5710372129834479  0.8344307185999376  0.0659393479574854
  0.1942014046189461  0.3768266083337348  0.7543641627975022
  0.2077762606479488  0.7746494975736563  0.3843316893550137
  0.4433372970603187  0.2720191553047504  0.2697178129462521
  0.7847293500784839  0.5698960445397341  0.9401334725824282
  0.7752409668264433  0.1908021390890824  0.5876044821807732
  0.8101069960537730  0.0123685756499455  0.7122984582370604
  0.1950021517055907  0.1186042500648878  0.3884811568939333
  0.9290797894219286  0.8255798137921062  0.0613992279115173
  0.1522783899453467  0.1976769241981787  0.6249333153114818
  0.0930055118916975  0.9015266139677716  0.2628261551641208
  0.7905263543095594  0.9217817874886205  0.9400799499035448
  0.1637102650435129  0.5412744702600247  0.6227827667057897
  0.4542614673073923  0.9038427187392789  0.2686964810877995
  0.4270213523942041  0.5655381203329798  0.9540024058124659
  0.8431665260518524  0.3900406442300257  0.7257796938417267
  0.5647909788189750  0.1410275428619521  0.3860869363906032
  0.5745007237852245  0.4606376146858304  0.0673568467285870
  0.3819721205020052  0.5754619264843726  0.4749216232660224
  0.2227483226316669  0.6582931202317998  0.1503224842050059
  0.3991625427164965  0.7491019704655056  0.8134120076423975
  0.6147298049170380  0.1901425633556337  0.8600442746008162
  0.5986757986476192  0.3749545665589021  0.5105665976824943
  0.7957237694674724  0.4425562765421047  0.1871647924957383
  0.7074998473985148  0.6215506024170104  0.3853950239825936
  0.9458969996630772  0.3368844638622771  0.0692092456638609
  0.3586395552223511  0.0562892689063592  0.7428912130482785
  0.2885070946739642  0.8866579631757774  0.9359647987920778
  0.6682305542293019  0.7188369266154595  0.5846764392864976
  0.0734652648594817  0.3967784672977109  0.2662776731277786
  0.9719959672815031  0.7383991144774655  0.5085048961573656
  0.7981124884676841  0.0752929008114940  0.1845743158630784
  0.2530116160918691  0.1883254956141475  0.8716025508015341
  0.0297644867045786  0.7571495694765796  0.8149924725276110
  0.7442238234083515  0.9518622913670109  0.4630125710448599
  0.2231913457737371  0.2905219636169306  0.1490775927247485
  0.5993241673783037  0.5272998887309279  0.7977304444878244
  0.9590909977017871  0.3891101646743308  0.4619564700798713
  0.4524026650771847  0.1009412397198347  0.1377081550665372
  0.3929270473606582  0.9261083212066955  0.5255629620658683
  0.5669184058261357  0.6336931994801411  0.1981259389894713
  0.0233679499974283  0.4230008744829379  0.8784272101551449
 
             NaN             NaN             NaN
             NaN             NaN             NaN
             NaN             NaN             NaN
             NaN             NaN             NaN
             NaN             NaN             NaN
             NaN             NaN             NaN
             NaN             NaN             NaN
             NaN             NaN             NaN
             NaN             NaN             NaN
             NaN             NaN             NaN
             NaN             NaN             NaN
             NaN             NaN             NaN
             NaN             NaN             NaN
             NaN             NaN             NaN
             NaN             NaN             NaN
             NaN             NaN             NaN
             NaN             NaN             NaN
             NaN             NaN             NaN
             NaN             NaN             NaN
             NaN             NaN             NaN
             NaN             NaN             NaN
             NaN             NaN             NaN
             NaN             NaN             NaN
             NaN             NaN             NaN
             NaN             NaN             NaN
             NaN             NaN             NaN
             NaN             NaN             NaN
             NaN             NaN             NaN
             NaN             NaN             NaN
             NaN             NaN             NaN
             NaN             NaN             NaN
             NaN             NaN             NaN
             NaN             NaN             NaN
             NaN             NaN             NaN
             NaN             NaN             NaN
             NaN             NaN             NaN
             NaN             NaN             NaN
             NaN             NaN             NaN
             NaN             NaN             NaN
             NaN             NaN             NaN
             NaN             NaN             NaN
             NaN             NaN             NaN
             NaN             NaN             NaN
             NaN             NaN             NaN
             NaN             NaN             NaN
             NaN             NaN             NaN
             NaN             NaN             NaN
             NaN             NaN             NaN
             NaN             NaN             NaN
             NaN             NaN             NaN
             NaN             NaN             NaN
             NaN             NaN             NaN
             NaN             NaN             NaN
             NaN             NaN             NaN
             NaN             NaN             NaN
