Ca1 Mn12 F42
1.0
7.319844 -0.030422 -0.056337
-3.685315 6.380006 0.016309
0.092252 -0.039993 17.482355
Ca Mn F
1 12 42
direct
0.498621 0.609106 0.666828 Ca
0.295210 1.004799 0.329377 Mn
0.705897 0.707270 0.004769 Mn
0.000250 0.298217 0.667305 Mn
0.346757 0.994650 0.838665 Mn
0.654560 0.649647 0.494403 Mn
0.998747 0.352683 0.166825 Mn
0.651113 0.149546 0.491722 Mn
0.499957 0.354178 0.166514 Mn
0.848801 0.494352 0.837917 Mn
0.350493 0.496706 0.841442 Mn
0.152460 0.647171 0.496269 Mn
0.497531 0.853232 0.166992 Mn
0.561622 0.816536 0.065123 F
0.263997 0.442840 0.735770 F
0.192558 0.769118 0.392888 F
0.438977 0.257773 0.268471 F
0.811643 0.574135 0.941738 F
0.748748 0.183219 0.595482 F
0.858159 0.063114 0.721830 F
0.197868 0.122842 0.390499 F
0.920073 0.809286 0.066999 F
0.141515 0.203085 0.612867 F
0.078852 0.891884 0.268068 F
0.805116 0.921905 0.943629 F
0.134139 0.555325 0.609537 F
0.434569 0.885187 0.269223 F
0.444784 0.564103 0.943705 F
0.865172 0.420309 0.724914 F
0.557445 0.124507 0.389353 F
0.561667 0.447229 0.064346 F
0.364049 0.571696 0.477591 F
0.211445 0.643632 0.148259 F
0.435107 0.796853 0.813408 F
0.632571 0.201181 0.857844 F
0.566955 0.361698 0.519657 F
0.786825 0.432148 0.184550 F
0.687769 0.609214 0.398271 F
0.934562 0.318723 0.068193 F
0.388297 0.069428 0.735530 F
0.308837 0.915574 0.934062 F
0.617943 0.681583 0.598050 F
0.062824 0.386675 0.265452 F
0.940893 0.722233 0.518024 F
0.784705 0.062273 0.185279 F
0.265531 0.196344 0.856960 F
0.065033 0.786928 0.813275 F
0.732329 0.932474 0.476999 F
0.212074 0.275016 0.149092 F
0.624874 0.544370 0.801323 F
0.938857 0.377955 0.464469 F
0.443242 0.084795 0.136576 F
0.373315 0.917860 0.534088 F
0.554579 0.621673 0.196819 F
0.069618 0.441463 0.866849 F
