Na2 Ca2 V4 Si2 P4 O24                   
   1.00000000000000     
     8.8810059999999993    0.1400370000000000    0.0832730000000000
     4.3151489999999999    7.7036230000000003    0.0872380000000000
     4.4363679999999999    2.5695229999999998    7.2049420000000000
   Ca   Na   V    Si   P    O 
     2     2     4     2     4    24
Direct
  0.7370414971559694  0.4131256624797017  0.1623877453140169
  0.0060852653489927  0.9872590109777575  0.0048850633527010
  0.1939099039416443  0.7258399709367263  0.4401884681160649
  0.8591897390120076  0.2514669230723961  0.6014371921603260
  0.3541697792129545  0.3533975978050599  0.3601782457282608
  0.6196673926258471  0.6469734896652368  0.6497805165783870
  0.1576757590480337  0.1498452129932305  0.1399372689652018
  0.8476123072744408  0.8514044611573668  0.8621167723319783
  0.4488368509262656  0.7579480239793063  0.0342645259959440
  0.5437219647862767  0.2524465809242820  0.9663519409966282
  0.0229341258206887  0.4592098620426879  0.7527874702265287
  0.9637356936471586  0.5475713979282723  0.2509429598267546
  0.7413676064806367  0.0341161327199074  0.4707955541848571
  0.2500471840100290  0.9644858589387245  0.5403217468840112
  0.2055430737585678  0.4237432118638436  0.5904156126750301
  0.7812488250868159  0.5683210564495174  0.4179506714714367
  0.5772824860370778  0.2197825908132823  0.4459061713880139
  0.4184090617258783  0.7865190313331367  0.5488358724502832
  0.4284600892131999  0.5788930016213568  0.2306635908930546
  0.5648430097037820  0.4284409444375833  0.7704758246467160
  0.9043955055004347  0.0738900519948201  0.2770634751584100
  0.0805314790234398  0.9413998472167008  0.7261859731378634
  0.0314451235021527  0.2855187205809693  0.9372285511779442
  0.9458345879936046  0.7242518592532028  0.0769061451605148
  0.2569060723647194  0.9303235729058467  0.0727985480800904
  0.7363182693918640  0.0768790127552562  0.9339518906781112
  0.5178557373688149  0.2936306543237985  0.1403743406424568
  0.4750325688974789  0.7239828973115056  0.8571355082636342
  0.1315443864267425  0.5142793204524638  0.2855537153393908
  0.8516382840157031  0.4842518023493322  0.7280201721419307
  0.2814263175166644  0.1350116257285089  0.5081681515004119
  0.7127141133980642  0.8628228849136850  0.5016806237365214
  0.3621588078023690  0.2113021641345688  0.0086547213618803
  0.6426415925788755  0.7688773893567407  1.0040248839696329
  0.1938467945982565  1.0019529520504526  0.3817201703608574
  0.7924079683683178  0.0084786200440001  0.6267951596684036
  0.9855831264298353  0.3768618129892444  0.2191221117416531
  0.0012282387833423  0.6309533873285876  0.7779158650445763
 
             NaN             NaN             NaN
             NaN             NaN             NaN
             NaN             NaN             NaN
             NaN             NaN             NaN
             NaN             NaN             NaN
             NaN             NaN             NaN
             NaN             NaN             NaN
             NaN             NaN             NaN
             NaN             NaN             NaN
             NaN             NaN             NaN
             NaN             NaN             NaN
             NaN             NaN             NaN
             NaN             NaN             NaN
             NaN             NaN             NaN
             NaN             NaN             NaN
             NaN             NaN             NaN
             NaN             NaN             NaN
             NaN             NaN             NaN
             NaN             NaN             NaN
             NaN             NaN             NaN
             NaN             NaN             NaN
             NaN             NaN             NaN
             NaN             NaN             NaN
             NaN             NaN             NaN
             NaN             NaN             NaN
             NaN             NaN             NaN
             NaN             NaN             NaN
             NaN             NaN             NaN
             NaN             NaN             NaN
             NaN             NaN             NaN
             NaN             NaN             NaN
             NaN             NaN             NaN
             NaN             NaN             NaN
             NaN             NaN             NaN
             NaN             NaN             NaN
             NaN             NaN             NaN
             NaN             NaN             NaN
             NaN             NaN             NaN
