Na2 Ca2 V4 Si2 P4 O24
1.0
8.881006 0.140037 0.083273
4.315149 7.703623 0.087238
4.436368 2.569523 7.204942
Ca Na V Si P O
2 2 4 2 4 24
direct
0.647542 0.443489 0.265319 Ca
1.003371 0.989391 0.001573 Ca
0.293420 0.610159 0.493846 Na
0.873341 0.252316 0.596331 Na
0.354973 0.358000 0.346198 V
0.625285 0.652510 0.651190 V
0.152996 0.148158 0.138232 V
0.847156 0.854757 0.855079 V
0.448437 0.757646 0.038137 Si
0.542634 0.254099 0.957346 Si
0.026270 0.463557 0.747637 P
0.962216 0.545776 0.244172 P
0.740486 0.045026 0.463712 P
0.250467 0.962345 0.530004 P
0.205020 0.432795 0.579607 O
0.784321 0.571559 0.416527 O
0.575628 0.231065 0.441424 O
0.416720 0.781807 0.550386 O
0.426719 0.581954 0.235403 O
0.563809 0.423892 0.756470 O
0.903728 0.074296 0.269702 O
0.081578 0.948628 0.718092 O
0.044532 0.284309 0.924297 O
0.942673 0.723773 0.071317 O
0.258107 0.933963 0.058417 O
0.734783 0.077355 0.930230 O
0.518728 0.302347 0.125911 O
0.482387 0.709257 0.863707 O
0.133280 0.512697 0.272630 O
0.853123 0.487180 0.727564 O
0.289857 0.133981 0.485297 O
0.703775 0.875520 0.502503 O
0.357651 0.211166 0.010907 O
0.638367 0.781933 0.995079 O
0.195938 0.987954 0.376305 O
0.792905 0.020365 0.618566 O
-0.020119 0.373675 0.221817 O
1.004115 0.633297 0.774594 O
