Ca9 Cr12 F42
1.0
7.471688 0.064807 -0.487112
-3.560116 6.614442 0.210791
1.017299 0.213053 18.736697
Ca Cr F
9 12 42
direct
0.821928 0.505297 0.318230 Ca
0.531077 0.843892 0.682238 Ca
0.584490 0.087523 0.008039 Ca
0.019957 0.813153 0.663667 Ca
0.822935 0.002740 0.349230 Ca
0.109547 0.603533 0.980234 Ca
0.972221 0.850170 0.156651 Ca
0.845343 0.901391 0.845647 Ca
0.224771 0.200750 0.499044 Ca
0.323321 0.993490 0.337559 Cr
0.012115 0.305135 0.658287 Cr
0.635010 0.629135 0.997718 Cr
0.346371 0.986010 0.828531 Cr
0.943857 0.319234 0.162250 Cr
0.700723 0.678115 0.505597 Cr
0.445786 0.817525 0.172341 Cr
0.205259 0.684452 0.496930 Cr
0.321004 0.469307 0.827973 Cr
0.817420 0.453950 0.822583 Cr
0.715081 0.185748 0.505522 Cr
0.449563 0.322922 0.169078 Cr
0.735625 0.123975 0.609668 F
0.877882 0.661331 0.916182 F
0.490499 0.259492 0.291075 F
0.132121 0.712507 0.367249 F
0.381978 0.755975 0.049906 F
0.256839 0.470967 0.722849 F
0.735326 0.912629 0.959943 F
0.892545 0.818625 0.269083 F
0.131819 0.139089 0.615555 F
0.901199 0.712754 0.050656 F
0.854660 0.974059 0.727857 F
0.158892 0.112530 0.380473 F
0.531350 0.353933 0.033692 F
0.751504 0.256154 0.401358 F
0.888877 0.467131 0.688668 F
0.387018 0.534567 0.933309 F
0.265117 0.753883 0.614044 F
0.512790 0.905029 0.300093 F
0.756896 0.444134 0.178580 F
0.564612 0.336967 0.524509 F
0.662307 0.225751 0.888085 F
0.516511 0.848184 0.811313 F
0.407504 0.581662 0.482819 F
0.152200 0.685839 0.190279 F
0.928663 0.278395 0.267143 F
0.687646 0.711872 0.611185 F
0.311556 0.915916 0.932245 F
0.352674 0.010504 0.724264 F
0.732915 0.677327 0.400298 F
0.919356 0.328774 0.054192 F
0.144518 0.204338 0.155577 F
0.859155 0.030178 0.476561 F
0.002913 0.734347 0.785901 F
0.180008 0.125766 0.843054 F
0.995187 0.770622 0.525825 F
0.731940 0.959478 0.138802 F
0.053031 0.428135 0.862590 F
0.484393 0.583772 0.199053 F
0.370788 0.972508 0.470869 F
0.409217 0.054571 0.135206 F
0.602095 0.534947 0.801801 F
0.049096 0.400909 0.528307 F
