Ca1 Co16 F48
1.0
10.732692 -0.006508 -0.039010
-0.004049 7.491061 -0.001599
-0.035895 -0.002546 10.431694
Ca Co F
1 16 48
direct
0.528075 1.250749 0.493087 Ca
-0.000114 0.500686 0.248532 Co
-0.000641 0.499523 0.751573 Co
0.495959 0.506814 0.235404 Co
0.495312 0.507562 0.761893 Co
0.243806 -0.002337 0.499772 Co
0.245988 0.998604 -0.001090 Co
0.760286 -0.014433 0.500154 Co
0.753024 -0.000349 -0.000923 Co
0.498784 -0.007405 0.237982 Co
0.498522 -0.002911 0.759766 Co
0.000355 0.000278 0.247128 Co
1.000326 -0.000586 0.752411 Co
0.244924 0.499685 -0.000499 Co
0.244532 0.504669 0.500908 Co
0.752643 0.500409 -0.001508 Co
0.755749 0.501905 0.499825 Co
0.491954 0.250817 0.208563 F
0.485123 0.253287 0.707263 F
0.987734 0.253507 0.204412 F
0.991828 0.249612 0.703133 F
0.240014 0.259586 0.048467 F
0.257041 0.249857 0.546215 F
0.741398 0.249477 0.044805 F
0.744080 0.258066 0.546444 F
0.013148 0.747555 0.295505 F
0.008265 0.748916 0.799748 F
0.510279 0.748382 0.293615 F
0.515401 0.750326 0.804701 F
0.257822 0.751279 0.452625 F
0.252233 0.739935 0.949936 F
0.754454 0.737937 0.448882 F
0.760172 0.751224 0.949923 F
0.341376 0.553315 0.143934 F
0.358648 0.547970 0.647235 F
0.850305 0.550214 0.151518 F
0.848895 0.553498 0.645030 F
0.099080 0.958635 0.095984 F
0.100773 0.952763 0.601643 F
0.603150 0.952161 0.094112 F
0.601970 0.978253 0.596185 F
0.148011 0.050519 0.348594 F
0.152374 0.048938 0.846990 F
0.643695 0.054960 0.357251 F
0.647957 0.050502 0.845653 F
0.400565 0.454267 0.396509 F
0.390801 0.453672 0.908689 F
0.898121 0.457422 0.406494 F
0.898044 0.450542 0.897598 F
0.147914 0.449241 0.350775 F
0.151517 0.448289 0.854088 F
0.649174 0.442993 0.359105 F
0.645286 0.451523 0.849026 F
0.400715 0.045011 0.399672 F
0.397610 0.041637 0.908154 F
0.902097 0.039662 0.403164 F
0.900808 0.048677 0.902485 F
0.346253 0.950114 0.148848 F
0.360099 0.955233 0.650313 F
0.849404 0.951657 0.153577 F
0.850916 0.945886 0.654252 F
0.101546 0.546236 0.092857 F
0.101500 0.546642 0.605000 F
0.602738 0.548256 0.095596 F
0.604235 0.528686 0.592564 F
