Ca9 Mn12 F42                            
   1.00000000000000     
     7.6107760000000004   -0.0835090000000000    0.0023770000000000
    -3.8829110000000000    6.6525819999999998    0.0369680000000000
     0.0235430000000000    0.1225470000000000   18.6225360000000002
   Ca   Mn   F 
     9    12    42
Direct
  0.4090878500152186  0.4444300021954695  0.3204967985988099
  0.5040556751683792  0.8735395458083719  0.6806172762326423
  0.2105696815434085  0.6747002399244868  0.0199029190309599
  0.5332683198876328  0.3813730129012983  0.6687252803636830
  0.8346956603579015  0.0146902116155717  0.3355110585238126
  0.1681711969216663  0.1380254667609958  0.0042657998957200
  0.8623416757042915  0.0591335770730041  0.8364615414513346
  1.0356583459058484  0.8224008560653930  0.1807033837289087
  0.1719009940272973  0.1777221568449519  0.5062979980344358
  0.3042203575421172  0.9443026151442334  0.3511987488412262
  0.0356552945137411  0.3760078756223829  0.6590944862016193
  0.6935964251291775  0.6577729729815017 -0.0015862048751103
  0.3468113059354025  0.0261125644491350  0.8425498908197500
  1.0023875711857930  0.3025222473918040  0.1646614727549461
  0.6605447537886019  0.6974318842290107  0.5006176811603928
  0.5041821573549784  0.8048601580985467  0.1769262479252749
  0.1494549553306562  0.6740961495294019  0.5058603159841542
  0.3595285298702265  0.5246657473809383  0.8350916456542625
  0.8572626519022012  0.5256674192139925  0.8305031622487727
  0.6670198478697593  0.1901862787383337  0.4920350858180728
  0.4986111915149332  0.2893840371807798  0.1541500441804591
  0.5892147150460355  0.1355107956482006  0.6043390167833570
  0.8803016655656722  0.5754220127172538  0.9440625897332944
  0.3961680151445785  0.1661853062048385  0.2616141841224282
  0.1240010513299290  0.6622065291518415  0.3955181023416090
  0.5350991018315855  0.7440388121721070  0.0708238171986655
  0.3107654804855454  0.5190518154827884  0.7210310778125409
  0.8500317393960197  0.9503586247674870  0.9511503797372702
  0.0116644991401650  0.8546680961519323  0.2949484398420884
  0.2105516631651638  0.2472516538776671  0.6206785894897712
  0.9850346003088193  0.7974667050658976  0.0619279741713255
  0.8461749136109462  0.0937237039615941  0.7160712591349342
  0.1975476445084455  0.1686951281055877  0.3868307897210771
  0.5007886571445775  0.3635229177034363  0.0428666809685578
  0.6371106830736165  0.1655891414110787  0.3761218925456317
  0.8551595346130508  0.4676664349965056  0.7095288820602093
  0.4042907959469224  0.5941441295653388  0.9440186744354291
  0.2141762703732962  0.6915910820365332  0.6151743753500739
  0.4703467108575322  0.8203194625151391  0.2902173909697832
  0.8044844266281668  0.4181578074335689  0.1705633684432752
  0.5602008108535880  0.3861893033018416  0.5118597904255200
  0.6603215107441618  0.2087999607631482  0.8589261317438098
  0.5078130952351874  0.8381240621251780  0.8111938743508501
  0.3404176416711548  0.5485545570087442  0.4844682807604417
  0.1861886629863724  0.6235792246543421  0.1571267100895208
  0.0784406128997695  0.3153910249880994  0.2736165969506315
  0.6186969788648961  0.6956009505329674  0.6136993464404712
  0.2967870685053390  0.9487720481567988  0.9528828633843092
  0.3962956555233332  0.0818112246156329  0.7340185412094421
  0.6615206760034580  0.6853973615299656  0.3850837741058646
  0.0485187234082888  0.3410747683141247  0.0486785447348908
  0.1731952079577101  0.1581570415842526  0.1359302307197955
  0.8176024019031956  1.0264150571214585  0.4643726135737183
  0.0192872824162338  0.8443182915836462  0.8207741451064459
  0.2303289266558701  0.2168495534238479  0.8793424794952842
  0.9716522223536341  0.8159419158939701  0.5196857447123600
  0.8135343886975699  0.9857117730612078  0.1990438107635816
  0.0510371244056196  0.4127868513161888  0.8379380692220776
  0.5370368374236779  0.5529691453348556  0.2081252362184865
  0.3521835912596847  0.9868126405799814  0.4753677611952074
  0.4000225678229196  0.9889273380459253  0.1277024494172900
  0.5970815898888970  0.5096157114073085  0.7909447949801430
  0.9608446587248269  0.3585731783438882  0.5413099459465904
 
             NaN             NaN             NaN
             NaN             NaN             NaN
             NaN             NaN             NaN
             NaN             NaN             NaN
             NaN             NaN             NaN
             NaN             NaN             NaN
             NaN             NaN             NaN
             NaN             NaN             NaN
             NaN             NaN             NaN
             NaN             NaN             NaN
             NaN             NaN             NaN
             NaN             NaN             NaN
             NaN             NaN             NaN
             NaN             NaN             NaN
             NaN             NaN             NaN
             NaN             NaN             NaN
             NaN             NaN             NaN
             NaN             NaN             NaN
             NaN             NaN             NaN
             NaN             NaN             NaN
             NaN             NaN             NaN
             NaN             NaN             NaN
             NaN             NaN             NaN
             NaN             NaN             NaN
             NaN             NaN             NaN
             NaN             NaN             NaN
             NaN             NaN             NaN
             NaN             NaN             NaN
             NaN             NaN             NaN
             NaN             NaN             NaN
             NaN             NaN             NaN
             NaN             NaN             NaN
             NaN             NaN             NaN
             NaN             NaN             NaN
             NaN             NaN             NaN
             NaN             NaN             NaN
             NaN             NaN             NaN
             NaN             NaN             NaN
             NaN             NaN             NaN
             NaN             NaN             NaN
             NaN             NaN             NaN
             NaN             NaN             NaN
             NaN             NaN             NaN
             NaN             NaN             NaN
             NaN             NaN             NaN
             NaN             NaN             NaN
             NaN             NaN             NaN
             NaN             NaN             NaN
             NaN             NaN             NaN
             NaN             NaN             NaN
             NaN             NaN             NaN
             NaN             NaN             NaN
             NaN             NaN             NaN
             NaN             NaN             NaN
             NaN             NaN             NaN
             NaN             NaN             NaN
             NaN             NaN             NaN
             NaN             NaN             NaN
             NaN             NaN             NaN
             NaN             NaN             NaN
             NaN             NaN             NaN
             NaN             NaN             NaN
             NaN             NaN             NaN
