Ca9 Mn12 F42
1.0
7.610776 -0.083509 0.002377
-3.882911 6.652582 0.036968
0.023543 0.122547 18.622536
Ca Mn F
9 12 42
direct
0.520543 0.492174 0.336023 Ca
0.512221 0.855965 0.682658 Ca
0.155739 0.637579 1.001628 Ca
0.530474 0.355666 0.663970 Ca
0.832931 0.002499 0.329686 Ca
0.183250 0.148425 0.003265 Ca
0.865832 0.069456 0.838728 Ca
0.997647 0.797343 0.173981 Ca
0.153853 0.151628 0.507070 Ca
0.329652 0.977840 0.341278 Mn
0.029913 0.373317 0.654157 Mn
0.678577 0.670159 0.002359 Mn
0.338474 0.018653 0.838288 Mn
-0.008674 0.304054 0.157132 Mn
0.659926 0.672199 0.504264 Mn
0.489396 0.806038 0.171385 Mn
0.167761 0.672716 0.497195 Mn
0.354561 0.519198 0.834653 Mn
0.843806 0.523402 0.826292 Mn
0.661987 0.171583 0.497696 Mn
0.483113 0.307121 0.173227 Mn
0.607015 0.124755 0.609014 F
0.840881 0.566943 0.941731 F
0.451917 0.259567 0.290018 F
0.156988 0.672841 0.384709 F
0.529063 0.788350 0.061467 F
0.274617 0.522259 0.726476 F
0.856280 0.956125 0.950399 F
0.036901 0.867827 0.287347 F
0.204349 0.243782 0.620669 F
0.991978 0.808232 0.055303 F
0.853282 0.098387 0.718351 F
0.123126 0.158439 0.391102 F
0.504749 0.377917 0.054961 F
0.688905 0.165702 0.385597 F
0.857142 0.468020 0.708014 F
0.388931 0.559925 0.946783 F
0.242288 0.692729 0.605138 F
0.483977 0.838433 0.288378 F
0.800172 0.428739 0.177378 F
0.548916 0.362594 0.525801 F
0.654712 0.208017 0.851911 F
0.521778 0.831601 0.814082 F
0.342650 0.529594 0.477635 F
0.175349 0.625113 0.135883 F
0.039971 0.324782 0.266002 F
0.619245 0.671684 0.619228 F
0.293842 0.943578 0.948041 F
0.386270 0.054570 0.730125 F
0.687437 0.691984 0.388575 F
0.023722 0.317474 0.041736 F
0.172700 0.167099 0.138081 F
0.784551 0.985194 0.494354 F
0.010716 0.837390 0.818547 F
0.223777 0.209782 0.873119 F
0.976053 0.787875 0.516918 F
0.804078 -0.002139 0.187939 F
0.054732 0.438420 0.859392 F
0.586159 0.604107 0.197803 F
0.349400 -0.000821 0.462742 F
0.374299 0.997523 0.174619 F
0.574040 0.486908 0.782462 F
0.964590 0.366110 0.535353 F
