Ca3 V8 F24                              
   1.00000000000000     
     7.9664729999999997    0.0002450000000000    0.0000360000000000
     0.0002470000000000    8.1175049999999995    0.0000160000000000
     0.0000300000000000    0.0000080000000000    7.8638539999999999
   Ca   V    F 
     3     8    24
Direct
  0.5000331944298965  0.9742125717524358  0.5185364575899460
  0.9999589935209157  0.4840477309411064  0.4980204193202056
  0.5000741159897829  0.9769710147640713  0.0039914418422322
  0.2471674173629362  0.2392990496463035  0.2443164247624382
  0.2465528177185300  0.2393609674935155  0.7536653333658475
  0.2471540841643862  0.7344423104664589  0.2500270672635630
  0.2463481952540761  0.7306078184150940  0.7522419952524293
  0.7528207993082167  0.2391618844656997  0.2443237465493334
  0.7533514714352172  0.2392533463623805  0.7534695245101778
  0.7529622985985100  0.7343545593100810  0.2500543769671975
  0.7535343458985465  0.7305456076895388  0.7522427292382272
  1.0000102804024229  0.2572796412733736  0.3132394519309635
  1.0000083074475583  0.2515115855402226  0.6830905268500925
  1.0000558803248729  0.7010385437015840  0.2882754522567165
  1.0000505446381600  0.7065831866373962  0.7126680793224887
  0.4999853890788968  0.2037991261502644  0.1939122227853392
  0.4999435679053598  0.2080886845186666  0.8021888559309867
  0.5000728929607953  0.7906010523580410  0.2515749454970603
  0.4999829806960784  0.7730324612596184  0.7533271727195865
  0.2065126032035539  0.2838920379772250 -0.0010865445413512
  0.3036906595665446  0.1808992747639597  0.4987721390703406
  0.2657283610057917  0.6952582741873230  1.0014117929055408
  0.2684689906756000  0.7975361399065537  0.5014428884321952
  0.7935054152676589  0.2834478868161051 -0.0012242623527689
  0.6961817125881359  0.1808941213508796  0.4986676058851889
  0.7341763602625095  0.6956055356452809  1.0013389233273799
  0.7317055053169942  0.7970948243396804  0.5014007739836586
  0.2562047466634684  0.9871800190427071  0.1898278773842403
  0.2707636971159081  0.9854766974459127  0.8000183363710488
  0.2450666284774682  0.4858907634086809  0.3156571577476720
  0.2381607195378873  0.4846528508288898  0.6847811118308396
  0.7438772223717636  0.9870963678270636  0.1899629166375931
  0.7291499800135026  0.9854132933614987  0.7995742308728314
  0.7549343138183182  0.4857776383243779  0.3153965119630767
  0.7617863590809392  0.4845654880786291  0.6848721747017051
 
             NaN             NaN             NaN
             NaN             NaN             NaN
             NaN             NaN             NaN
             NaN             NaN             NaN
             NaN             NaN             NaN
             NaN             NaN             NaN
             NaN             NaN             NaN
             NaN             NaN             NaN
             NaN             NaN             NaN
             NaN             NaN             NaN
             NaN             NaN             NaN
             NaN             NaN             NaN
             NaN             NaN             NaN
             NaN             NaN             NaN
             NaN             NaN             NaN
             NaN             NaN             NaN
             NaN             NaN             NaN
             NaN             NaN             NaN
             NaN             NaN             NaN
             NaN             NaN             NaN
             NaN             NaN             NaN
             NaN             NaN             NaN
             NaN             NaN             NaN
             NaN             NaN             NaN
             NaN             NaN             NaN
             NaN             NaN             NaN
             NaN             NaN             NaN
             NaN             NaN             NaN
             NaN             NaN             NaN
             NaN             NaN             NaN
             NaN             NaN             NaN
             NaN             NaN             NaN
             NaN             NaN             NaN
             NaN             NaN             NaN
             NaN             NaN             NaN
