Ca3 V8 F24                              
   1.00000000000000     
     7.9664729999999997    0.0002450000000000    0.0000360000000000
     0.0002470000000000    8.1175049999999995    0.0000160000000000
     0.0000300000000000    0.0000080000000000    7.8638539999999999
   Ca   V    F 
     3     8    24
Direct
  0.5001117703019093  0.9747571375497722  0.5010197201591182
 -0.0000526673060564  0.4836720873891550  0.4997992865256080
  0.5000146206212409  0.9792198846938270  1.0003681265956554
  0.2465320739049374  0.2395333536481081  0.2454338069040516
  0.2466923013589585  0.2394495414613791  0.7544771745905698
  0.2465724684957830  0.7323672245003999  0.2485845844727487
  0.2462689981644541  0.7320588961046339  0.7515892727417651
  0.7535909187369774  0.2395716633208452  0.2449114911262472
  0.7535338051802669  0.2393410506436293  0.7550371931443083
  0.7533646428490171  0.7328434469689036  0.2491834992023390
  0.7536864167576421  0.7326318920707732  0.7508647663540234
 -0.0001402858592187  0.2546866776919341  0.3148453680606235
 -0.0000917676780890  0.2543401476260065  0.6848031768806347
 -0.0001570840935223  0.7043006632239337  0.2916659188655180
 -0.0000362421427525  0.7045587044744586  0.7083206987528020
  0.5000636275430601  0.2053567161185838  0.1956545939480901
  0.4998758028270985  0.2056694677047733  0.8039118168398963
  0.5006605390702582  0.7829167923237506  0.2442852784900328
  0.5004961421753987  0.7822555301593341  0.7558490474538121
  0.2062000760639927  0.2834233018693619  0.0002199800466722
  0.3034704327632582  0.1815656388964086  0.4999259219678348
  0.2593182841171954  0.6927619920053911  0.9996516434249492
  0.2713053530419008  0.7970862414408564  0.5006547278879400
  0.7936726862367592  0.2832605208586246  0.0001277043043365
  0.6962271785694008  0.1813124681023012  0.4999817762981854
  0.7407303982598921  0.6926197756026967  0.9999610999649926
  0.7284125287219725  0.7969586013108373  0.5005164952529965
  0.2618416235366045  0.9869927712366713  0.1942089167822512
  0.2626733043813468  0.9862890534597768  0.8050660002573375
  0.2425472643574388  0.4851530203879204  0.3152445449644435
  0.2421607147485312  0.4856184769870688  0.6846951781471454
  0.7380937629394375 -0.0138528945278909  0.1942616255370181
  0.7372894007790174 -0.0144878839747590  0.8049325739500922
  0.7573423594380944  0.4852784268370518  0.3152644545507938
  0.7577095524251835  0.4857993318505230  0.6846622167610362
 
             NaN             NaN             NaN
             NaN             NaN             NaN
             NaN             NaN             NaN
             NaN             NaN             NaN
             NaN             NaN             NaN
             NaN             NaN             NaN
             NaN             NaN             NaN
             NaN             NaN             NaN
             NaN             NaN             NaN
             NaN             NaN             NaN
             NaN             NaN             NaN
             NaN             NaN             NaN
             NaN             NaN             NaN
             NaN             NaN             NaN
             NaN             NaN             NaN
             NaN             NaN             NaN
             NaN             NaN             NaN
             NaN             NaN             NaN
             NaN             NaN             NaN
             NaN             NaN             NaN
             NaN             NaN             NaN
             NaN             NaN             NaN
             NaN             NaN             NaN
             NaN             NaN             NaN
             NaN             NaN             NaN
             NaN             NaN             NaN
             NaN             NaN             NaN
             NaN             NaN             NaN
             NaN             NaN             NaN
             NaN             NaN             NaN
             NaN             NaN             NaN
             NaN             NaN             NaN
             NaN             NaN             NaN
             NaN             NaN             NaN
             NaN             NaN             NaN
