Ca4 Mn4 P6 O24                          
   1.00000000000000     
     2.6881719999999998    8.1155690000000007    4.6011930000000003
    -0.1122460000000000    0.4626790000000000    8.6458200000000005
     7.6210540000000000    0.4503810000000000    4.1457530000000000
   Ca   Mn   P    O 
     4     4     6    24
Direct
  0.4322310198314873  0.5791733974435637  0.4750526461645053
  0.8872993709171290  1.0015142797319510  0.0974671920861018
  0.3526068969021370  0.7315401044875822  0.0395193337841679
  0.1169230220181785  0.3977227256453769  0.7948101035471529
  0.6859414653440413  0.6565531552129436  0.6110270122686167
  0.1882411242892116  0.1314237503989444  0.1794889827299830
  0.8351522734854833  0.8845084208134164  0.8193402631155889
  0.3166687741786771  0.2986624293326030  0.3797527649448920
  0.2099507737206696  0.5306931192454942  0.9919137143487129
  0.0397698844965424  0.7802668795018011  0.4257185397408279
  0.9671754939131341  0.2368778202157883  0.5970606750027807
  0.4702422224156005  0.0669601802783607  0.7284913441485116
  0.5623979962853529  0.9126641651236533  0.2512150252892751
  0.7310809334885239  0.5005254253595268  0.0010212986195513
  0.5899962315815064  0.7372839733877631  0.4213680630420222
  0.3051276469334418  0.0834058469587577  0.9142319162324428
  0.3074928726191781  0.5273179399562201  0.7845805052217629
  0.8667404477770215  0.3021589611851803  0.0309687970598102
  0.8121883042644754  0.4156999385318480  0.5593837495743311
  0.0874646122791860  0.9319991952693035  0.2371313648728557
  0.9014326724870305  0.0866535053467565  0.7786953661082635
  0.5795685017419090  0.5493013699794935  0.1775451054486860
  0.7327080463899371  0.8735261217003771  0.0796412237539235
  0.2058577547437230  0.5975300054028807  0.4119862919192919
  0.1163167457085886  0.7363997219131989  1.0022356495921052
  0.4153013795959173  0.2516155496377047  0.5764858019197828
  0.0925335056707665  0.4169064272379689  0.0744712807024899
  0.8821493826881109  0.7665264963853736  0.4392971158541688
  0.0775629773828974  0.1545998845893153  0.4311613454403931
  0.4985450391329803  0.8850716742259003  0.7008722116845212
  0.4081571527531135  0.9238131987761884  0.2321178671742123
  0.6426106442809122  0.5331193638645322  0.8744603639211814
  0.3308016985889146  0.4355512638265369  0.1044706096723052
  0.0131487208496445  0.8259341335511141  0.5934272219336093
  0.0880880584498573  0.2824367148018105  0.6238485004637782
  0.6259742641300400  0.0503257271437887  0.7451096231077609
  0.5437830043513173  0.0855980736038610  0.2797411300549181
  0.8366128107822213  0.6336956185170197  0.8865751955311796
 
             NaN             NaN             NaN
             NaN             NaN             NaN
             NaN             NaN             NaN
             NaN             NaN             NaN
             NaN             NaN             NaN
             NaN             NaN             NaN
             NaN             NaN             NaN
             NaN             NaN             NaN
             NaN             NaN             NaN
             NaN             NaN             NaN
             NaN             NaN             NaN
             NaN             NaN             NaN
             NaN             NaN             NaN
             NaN             NaN             NaN
             NaN             NaN             NaN
             NaN             NaN             NaN
             NaN             NaN             NaN
             NaN             NaN             NaN
             NaN             NaN             NaN
             NaN             NaN             NaN
             NaN             NaN             NaN
             NaN             NaN             NaN
             NaN             NaN             NaN
             NaN             NaN             NaN
             NaN             NaN             NaN
             NaN             NaN             NaN
             NaN             NaN             NaN
             NaN             NaN             NaN
             NaN             NaN             NaN
             NaN             NaN             NaN
             NaN             NaN             NaN
             NaN             NaN             NaN
             NaN             NaN             NaN
             NaN             NaN             NaN
             NaN             NaN             NaN
             NaN             NaN             NaN
             NaN             NaN             NaN
             NaN             NaN             NaN
