Ca4 Mn4 P6 O24
1.0
2.688172 8.115569 4.601193
-0.112246 0.462679 8.645820
7.621054 0.450381 4.145753
Ca Mn P O
4 4 6 24
direct
0.451491 0.590091 0.550961 Ca
0.918819 0.986435 0.072474 Ca
0.381394 0.724908 0.076521 Ca
0.122124 0.421184 0.770914 Ca
0.672286 0.659859 0.609821 Mn
0.182425 0.134038 0.169632 Mn
0.815085 0.888937 0.829247 Mn
0.317106 0.326676 0.366096 Mn
0.249138 0.527723 0.972267 P
0.036915 0.769623 0.424483 P
0.963665 0.236870 0.585359 P
0.454350 0.066659 0.728213 P
0.535412 0.913482 0.259298 P
0.749233 0.481916 0.009525 P
0.575087 0.734610 0.418933 O
0.288505 0.092382 0.910465 O
0.360014 0.526767 0.771301 O
0.894725 0.288115 0.005093 O
0.799421 0.407394 0.564977 O
0.088986 0.923748 0.241777 O
0.916785 0.079321 0.767120 O
0.603555 0.487584 0.200332 O
0.702841 0.922496 0.091331 O
0.202196 0.585493 0.404301 O
0.136823 0.730636 0.974868 O
0.408864 0.248165 0.573140 O
0.146064 0.403355 0.048421 O
0.878927 0.765448 0.429326 O
0.055838 0.153575 0.420164 O
0.481289 0.887954 0.702244 O
0.406841 0.910729 0.206105 O
0.658026 0.551826 0.871288 O
0.350106 0.448913 0.098940 O
1.008036 0.796108 0.603411 O
0.090796 0.288764 0.592920 O
0.610055 0.048723 0.744307 O
0.456386 0.083905 0.328964 O
0.842754 0.617629 0.938634 O
