Ca9 Mn12 F42                            
   1.00000000000000     
     7.5945289999999996   -0.0617580000000000    0.0256990000000000
    -3.8556979999999998    6.6306459999999996    0.0131590000000000
     0.0809760000000000    0.0882330000000000   18.7065869999999990
   Ca   Mn   F 
     9    12    42
Direct
  0.6835148662501787  0.4639205130850033  0.3147358075408340
  0.5093613442063938  0.8757747070710845  0.6794097698391811
  0.2106482279703211  0.6756023543694127  0.0222796853353924
  0.5323955206212339  0.3812168924662344  0.6703773044343301
  0.8250683348751511  1.0165198180181683  0.3366722366021524
  0.1627579347060583  0.1408436724040492  0.0029773063313308
  0.8650119763553209  0.0562744625197729  0.8351710716238899
  0.0419766915323757  0.8401684104395128  0.1751973032247038
  0.1791349615789810  0.2103418835667700  0.4986045144800366
  0.2631714095578137  0.9195086195632378  0.3507305267152896
  0.0426413166879930  0.3783413870624562  0.6590841525432543
  0.6862415482132213  0.6577159483196795 -0.0002936333805685
  0.3497944899753688  0.0243766121296862  0.8433449850072110
  0.9788915833322154  0.2960053689618233  0.1650363479331200
  0.6721022960414910  0.7059799756975348  0.4999019479755230
  0.4854480541777188  0.7853832617069187  0.1847633800127617
  0.1503435681129006  0.6847308230367467  0.5081430202499941
  0.3609455358864875  0.5251343150453252  0.8355781907117860
  0.8576786571595160  0.5235729711125984  0.8315323514206771
  0.6714885225752366  0.1933099904241392  0.4935875180401189
  0.4826058710546085  0.2922352663388005  0.1563475835478476
  0.5823115515765428  0.1377779603406906  0.6028440170287648
  0.8684092341390013  0.5719119181405239  0.9437401475067191
  0.3998687481135496  0.1590830429131629  0.2633434331957030
  0.0526842104588921  0.6435538585881863  0.4012112399183524
  0.5237906207970588  0.7350104674043652  0.0749533758659116
  0.3173912241074074  0.5185444598075724  0.7207205350285287
  0.8450597248631249  0.9490362662764787  0.9502418192225761
 -0.0313469630721763  0.7993077932431560  0.2883907192587323
  0.2197040081105068  0.2557433792208267  0.6159091475248305
  0.9816549971484914  0.8000654800069338  0.0595605899283086
  0.8504030889803254  0.0931538172684088  0.7148029606977775
  0.1665567820533558  0.1225985566729113  0.3835203265683322
  0.4950453350184531  0.3614810188881329  0.0449288966841888
  0.6915814647496529  0.2227235180290249  0.3776759719856726
  0.8551504487187874  0.4635785330684464  0.7095355814102975
  0.3980425900589326  0.5907442270089541  0.9451905884640320
  0.2152452008380990  0.6949427576890604  0.6174593300641036
  0.4678435478037286  0.8536057036051713  0.2933524165831289
  0.7880694074958169  0.4298549804669476  0.1844354546523441
  0.5567239679773879  0.3861110930361020  0.5011547558345452
  0.6625464842896205  0.2057286071170561  0.8594195604685623
  0.5108969616470662  0.8369785123287387  0.8105730999827621
  0.3487817471874127  0.5710288337786921  0.4890424660989393
  0.1712709598393517  0.6188115501665565  0.1547966690374316
  0.9995493467826887  0.3010990267437342  0.2717395049963583
  0.6256949952872547  0.6938266603070590  0.6129192088006629
  0.2936869065918905  0.9471718061465005  0.9533819036086882
  0.4005078807229301  0.0822880812485972  0.7350426716034951
  0.6663073267055556  0.6860357446972274  0.3857913102659594
  0.0327677127477711  0.3381360187872457  0.0488657991492624
  0.1665335906014640  0.1671172318216021  0.1353678331228318
  0.8141831913314539  1.0273385597750182  0.4645539606751523
  0.0234507807730650  0.8429394306599098  0.8210010198168567
  0.2308399993682458  0.2162754202125586  0.8793769351458215
  0.9914731539861705  0.8431234822322914  0.5213671430718185
  0.8025162797016245  0.9679879789694771  0.1934934537531642
  0.0526820662371519  0.4109348196842617  0.8364925415318876
  0.5285365226351232  0.5468844890995680  0.2180395882128404
  0.3775359031031982  0.9660473686461492  0.4611025119819715
  0.3915246423070228 -0.0112154605827793  0.1306163163609055
  0.5987554934306258  0.5088026023144918  0.7924459272950938
  0.9654238164368123  0.3618407774686767  0.5420861179999610
 
             NaN             NaN             NaN
             NaN             NaN             NaN
             NaN             NaN             NaN
             NaN             NaN             NaN
             NaN             NaN             NaN
             NaN             NaN             NaN
             NaN             NaN             NaN
             NaN             NaN             NaN
             NaN             NaN             NaN
             NaN             NaN             NaN
             NaN             NaN             NaN
             NaN             NaN             NaN
             NaN             NaN             NaN
             NaN             NaN             NaN
             NaN             NaN             NaN
             NaN             NaN             NaN
             NaN             NaN             NaN
             NaN             NaN             NaN
             NaN             NaN             NaN
             NaN             NaN             NaN
             NaN             NaN             NaN
             NaN             NaN             NaN
             NaN             NaN             NaN
             NaN             NaN             NaN
             NaN             NaN             NaN
             NaN             NaN             NaN
             NaN             NaN             NaN
             NaN             NaN             NaN
             NaN             NaN             NaN
             NaN             NaN             NaN
             NaN             NaN             NaN
             NaN             NaN             NaN
             NaN             NaN             NaN
             NaN             NaN             NaN
             NaN             NaN             NaN
             NaN             NaN             NaN
             NaN             NaN             NaN
             NaN             NaN             NaN
             NaN             NaN             NaN
             NaN             NaN             NaN
             NaN             NaN             NaN
             NaN             NaN             NaN
             NaN             NaN             NaN
             NaN             NaN             NaN
             NaN             NaN             NaN
             NaN             NaN             NaN
             NaN             NaN             NaN
             NaN             NaN             NaN
             NaN             NaN             NaN
             NaN             NaN             NaN
             NaN             NaN             NaN
             NaN             NaN             NaN
             NaN             NaN             NaN
             NaN             NaN             NaN
             NaN             NaN             NaN
             NaN             NaN             NaN
             NaN             NaN             NaN
             NaN             NaN             NaN
             NaN             NaN             NaN
             NaN             NaN             NaN
             NaN             NaN             NaN
             NaN             NaN             NaN
             NaN             NaN             NaN
