Ca9 Mn12 F42
1.0
7.594529 -0.061758 0.025699
-3.855698 6.630646 0.013159
0.080976 0.088233 18.706587
Ca Mn F
9 12 42
direct
0.696384 0.487112 0.326051 Ca
0.510056 0.852815 0.682519 Ca
0.168452 0.648545 1.005863 Ca
0.530628 0.357091 0.664727 Ca
0.824159 -0.003727 0.337083 Ca
0.185724 0.158308 0.001094 Ca
0.864573 0.065836 0.837731 Ca
1.006635 0.822247 0.169898 Ca
0.164894 0.162982 0.504456 Ca
0.313315 0.973861 0.344138 Mn
0.031122 0.367907 0.654883 Mn
0.680294 0.673373 0.001399 Mn
0.338922 0.014824 0.838243 Mn
-0.017383 0.306355 0.158992 Mn
0.664194 0.670087 0.502676 Mn
0.485250 0.808193 0.174461 Mn
0.167889 0.669576 0.498251 Mn
0.353912 0.516452 0.834078 Mn
0.844706 0.522190 0.827265 Mn
0.666098 0.169815 0.500318 Mn
0.484218 0.314578 0.172002 Mn
0.610771 0.123375 0.609811 F
0.846649 0.570538 0.942170 F
0.469278 0.248794 0.286721 F
0.127758 0.666964 0.386040 F
0.518368 0.779308 0.062050 F
0.281704 0.515593 0.724831 F
0.854503 0.959575 0.950262 F
0.019870 0.849179 0.284702 F
0.205152 0.237235 0.619876 F
0.997633 0.818794 0.053016 F
0.851218 0.091658 0.718214 F
0.134554 0.131989 0.387793 F
0.508046 0.382513 0.054695 F
0.715460 0.201468 0.390418 F
0.857597 0.464315 0.708037 F
0.385957 0.554982 0.946515 F
0.238239 0.688291 0.606699 F
0.490444 0.865378 0.291339 F
0.803940 0.452454 0.181629 F
0.547961 0.359101 0.526126 F
0.653938 0.207221 0.852257 F
0.515463 0.829617 0.814329 F
0.347941 0.535356 0.478973 F
0.171861 0.626080 0.139150 F
-0.010209 0.305187 0.269114 F
0.621264 0.672966 0.617317 F
0.297010 0.947532 0.948113 F
0.387780 0.055996 0.730436 F
0.701387 0.675614 0.387882 F
0.022284 0.323339 0.043195 F
0.175352 0.182325 0.139721 F
0.787386 0.982430 0.482615 F
0.010738 0.836358 0.818688 F
0.224069 0.208072 0.872548 F
0.981412 0.793187 0.518395 F
0.802948 -0.008811 0.180296 F
0.052530 0.430618 0.854805 F
0.562680 0.598674 0.204116 F
0.359431 -0.009215 0.463048 F
0.376100 1.004772 0.165076 F
0.580069 0.492322 0.782947 F
0.971482 0.356288 0.536343 F
