Ca8 Cr12 F42                            
   1.00000000000000     
     7.4782279999999997   -0.0109280000000000   -0.5366140000000000
    -3.6312240000000000    6.7103609999999998    0.2222630000000000
     0.8846730000000000    0.1713420000000000   18.5827640000000009
   Ca   Cr   F 
     8    12    42
Direct
  0.9043025736756065  0.4399700540397518  0.3563764893979990
  0.5326941104867525  0.8300451005404946  0.6816963837725327
  0.6013139030860430  0.1274276156040264  0.0033647737962321
  0.0173344116820649  0.8016306089207644  0.6643902845073670
  0.1082844204792938  0.6778187786858820  0.0139634978218894
  0.8889067389359512  0.7901710664553709  0.1823406668289182
  0.8614923961597132  0.9118563460010837  0.8476502428662142
  0.2348664996392028  0.2005752306530514  0.5026869382707518
  0.3203720868206366  0.9964926579647153  0.3300000089348049
  0.0097714682885905  0.2952343714276737  0.6658901224286229
  0.6218894188833839  0.6574837429929450  0.9960988546535672
  0.3529772901951812  0.9802629737316459  0.8281003346567783
  0.9617738513116396  0.3305370831376531  0.1585989905513924
  0.7012345386803713  0.6593601323024412  0.5030808224123079
  0.4402783259659467  0.8308819362012154  0.1663920995178229
  0.2150759214007832  0.6821435685643317  0.5055071208297101
  0.3135632824377704  0.4692614433571198  0.8307850670150745
  0.8181084806619625  0.4627880399409958  0.8276563318072598
  0.6864977118393002  0.1541710830239793  0.5001959577772895
  0.4545069683471764  0.3257049784372491  0.1543287183684255
  0.7448406442374987  0.1201052922973740  0.6174690543991503
  0.8938681478161484  0.6748191140277772  0.9262791226125822
  0.3973237647143402  0.2049549877458494  0.2516110872985016
  0.1935592374186665  0.7007459701919011  0.4008877151637244
  0.4419516437904437  0.7843814001312029  0.0590331805078535
  0.2735987190811748  0.4686485253625085  0.7228194957548797
  0.7321794245222347  0.9351809664285300  0.9548611767985835
  1.0440506285402480  0.8194899375007850  0.2864088188233407
  0.1267643038470148  0.1388134291199126  0.6173527636976760
  0.8716930830990423  0.7605621710644653  0.0612856567875907
  0.8571627719625624  0.9515367621416216  0.7272203867230211
  0.2099429595349265  0.1224849951625492  0.3909394900843880
  0.5327809632804120  0.3920135843051305  0.0385226649221334
  0.5970366299306235  0.1564417966238217  0.3797642422167147
  0.8941239138799909  0.4639682422335478  0.6930990288464233
  0.3642380202620391  0.5453653588929922  0.9348986958809656
  0.2431899485963064  0.6900513089126662  0.6115489445111038
  0.4289971341726100  0.8614812151068103  0.2697032586148730
  0.7562228955990609  0.4302642807406641  0.1750095541476619
  0.6243028377522942  0.3759889879820706  0.5253734920413733
  0.6373984379060560  0.2406512073758368  0.8883701099003822
  0.5322292138373933  0.8604280053326174  0.8107995168566248
  0.3877762339129230  0.5441943133769233  0.4971387011447263
  0.1397976268740314  0.7008453199660081  0.1459056728163673
  1.0054380186198506  0.3458477667756973  0.2615492022415847
  0.6885704540354083  0.7044478559332777  0.6079990013803043
  0.3167092661230410  0.9230406926729738  0.9374437035483277
  0.3433842520247538  0.9800100553386699  0.7194612547433646
  0.7423148922595414  0.5969926889435089  0.4076103341571476
  0.9175379259888820  0.3506418118103706  0.0501609477754642
  0.1602248500861473  0.2341486128301053  0.1373765548125248
  0.7405935205645287  0.9281612143743398  0.4817954400919442
  0.0117743342670438  0.7335259602545767  0.7906761232978238
  0.1991014916916478  0.1268966646743555  0.8393625574573391
  0.0037653304363865  0.7737426611673809  0.5269698660449128
  0.7420427097349853  0.9917382084022309  0.1675195164273794
  0.0167120864692185  0.3618064325233372  0.8424155719296433
  0.5239543014781091  0.5986539418312662  0.1824764578935846
  0.3952096594860114  1.0052904872586321  0.5172138919126958
  0.4258003783692201  0.0771763806806829  0.1128705819418379
  0.6100890668910334  0.5582554798558275  0.8143720610565697
 -0.0251061237441183  0.3228973706978414  0.4722767394686926
 
             NaN             NaN             NaN
             NaN             NaN             NaN
             NaN             NaN             NaN
             NaN             NaN             NaN
             NaN             NaN             NaN
             NaN             NaN             NaN
             NaN             NaN             NaN
             NaN             NaN             NaN
             NaN             NaN             NaN
             NaN             NaN             NaN
             NaN             NaN             NaN
             NaN             NaN             NaN
             NaN             NaN             NaN
             NaN             NaN             NaN
             NaN             NaN             NaN
             NaN             NaN             NaN
             NaN             NaN             NaN
             NaN             NaN             NaN
             NaN             NaN             NaN
             NaN             NaN             NaN
             NaN             NaN             NaN
             NaN             NaN             NaN
             NaN             NaN             NaN
             NaN             NaN             NaN
             NaN             NaN             NaN
             NaN             NaN             NaN
             NaN             NaN             NaN
             NaN             NaN             NaN
             NaN             NaN             NaN
             NaN             NaN             NaN
             NaN             NaN             NaN
             NaN             NaN             NaN
             NaN             NaN             NaN
             NaN             NaN             NaN
             NaN             NaN             NaN
             NaN             NaN             NaN
             NaN             NaN             NaN
             NaN             NaN             NaN
             NaN             NaN             NaN
             NaN             NaN             NaN
             NaN             NaN             NaN
             NaN             NaN             NaN
             NaN             NaN             NaN
             NaN             NaN             NaN
             NaN             NaN             NaN
             NaN             NaN             NaN
             NaN             NaN             NaN
             NaN             NaN             NaN
             NaN             NaN             NaN
             NaN             NaN             NaN
             NaN             NaN             NaN
             NaN             NaN             NaN
             NaN             NaN             NaN
             NaN             NaN             NaN
             NaN             NaN             NaN
             NaN             NaN             NaN
             NaN             NaN             NaN
             NaN             NaN             NaN
             NaN             NaN             NaN
             NaN             NaN             NaN
             NaN             NaN             NaN
             NaN             NaN             NaN
