Ca8 Cr12 F42
1.0
7.478228 -0.010928 -0.536614
-3.631224 6.710361 0.222263
0.884673 0.171342 18.582764
Ca Cr F
8 12 42
direct
0.821849 0.351055 0.333493 Ca
0.529371 0.837792 0.680400 Ca
0.598695 0.120136 0.004445 Ca
0.017755 0.811715 0.662871 Ca
0.109879 0.652418 1.003469 Ca
0.896732 0.796741 0.173220 Ca
0.858719 0.916462 0.845485 Ca
0.241796 0.218482 0.501334 Ca
0.309521 0.976814 0.331255 Cr
0.011583 0.306072 0.661701 Cr
0.625860 0.650394 -0.006508 Cr
0.350881 0.983957 0.827705 Cr
0.957684 0.322331 0.161008 Cr
0.703726 0.677624 0.505165 Cr
0.436964 0.820792 0.164562 Cr
0.209101 0.691643 0.500552 Cr
0.311215 0.472396 0.829828 Cr
0.814737 0.464916 0.825236 Cr
0.707728 0.177562 0.505559 Cr
0.450539 0.317318 0.162233 Cr
0.736865 0.133424 0.612237 F
0.893742 0.673091 0.921344 F
0.464322 0.227598 0.276176 F
0.179949 0.717843 0.396144 F
0.434578 0.778000 0.057230 F
0.267985 0.473216 0.722095 F
0.731236 0.930230 0.954029 F
0.984602 0.801806 0.277741 F
0.131379 0.147831 0.616362 F
0.882904 0.748760 0.054409 F
0.856235 0.969211 0.725147 F
0.201308 0.107942 0.393893 F
0.536861 0.381680 0.030783 F
0.682270 0.195931 0.404100 F
0.893669 0.470894 0.690517 F
0.361714 0.545479 0.934679 F
0.246996 0.699817 0.607936 F
0.425637 0.851975 0.267415 F
0.753527 0.427597 0.172689 F
0.610886 0.382798 0.523146 F
0.642293 0.239666 0.887032 F
0.526994 0.860322 0.809167 F
0.402558 0.574328 0.491883 F
0.139078 0.682813 0.149195 F
0.981230 0.325942 0.262798 F
0.686922 0.709866 0.611023 F
0.316990 0.920448 0.935594 F
0.343034 0.988495 0.719005 F
0.726267 0.641760 0.406751 F
0.922100 0.335375 0.051076 F
0.150226 0.207400 0.150982 F
0.790493 0.967814 0.490016 F
0.004013 0.739197 0.787185 F
0.197245 0.131349 0.840155 F
0.000032 0.777068 0.529432 F
0.735266 0.989512 0.160700 F
0.020185 0.377799 0.845406 F
0.522145 0.599062 0.181651 F
0.404992 -0.000053 0.509892 F
0.420553 0.068278 0.118984 F
0.604917 0.557443 0.811760 F
0.009611 0.370939 0.506262 F
