Ca8 Ti12 F42                            
   1.00000000000000     
     7.4310409999999996   -0.0495610000000000   -0.1554430000000000
    -3.7190660000000002    6.3518670000000004    0.0980350000000000
     0.0755540000000000    0.0884130000000000   18.7291920000000012
   Ca   Ti   F 
     8    12    42
Direct
  0.8729045533752099  0.4222050119619725  0.3363430755757052
  0.5075979487062950  0.3528500425848505  0.6714523396606563
  0.1722102012726399  0.1780995624666387  0.0070217731825211
  0.0129609395859748  0.8367415212453478  0.6699959886432743
  0.6655833061883176  0.1692212522618540  0.9964234851272871
  0.0026057017892047  0.8025303828185274  0.1653966010575611
  0.8227156846229188  0.0151079055724420  0.8208946132465382
  0.1689699579892276  0.1775065471096115  0.4905548602685993
  0.3415607869926940  0.9728441811948700  0.3364453726687231
  0.0010460114201653  0.3379083533315745  0.6445349014184338
  0.6744838795892604  0.6763458175673847  0.9853777813657584
  0.3661602368978557  0.0649075011248327  0.8297891173450491
  0.9772461700922948  0.3075412008970261  0.1642330685954640
  0.7060375689058149  0.6404802936055486  0.5006711801438605
  0.5268850813069216  0.8583274110585920  0.1615374340139695
  0.1516027126592523  0.6237132008633344  0.5108286446938494
  0.3509427851601085  0.4944393995844953  0.8269779126050544
  0.7789044740059378  0.4833071438044119  0.8272541530290692
  0.7154886561751758  0.1904082293571927  0.5110765024920622
  0.5295866917667945  0.3040786328814315  0.1629072101928322
  0.6866993354270888  0.1823647602427854  0.6195889845473335
  0.8083856960563257  0.5092409646536095  0.9425262576877178
  0.4835446450109724  0.2348616899903891  0.2692829450842445
  0.1886338538352203  0.7119657307031418  0.4029745142843810
  0.5653849858131454  0.8341478576405387  0.0516036951046452
  0.2695817971687237  0.4452617321761703  0.7163070418308489
  0.8470275367469325  0.0078437728815516  0.9471385812847800
  0.0764584253390493  0.7999254811244647  0.2796929421611239
  0.1731454850300455  0.1807060391838151  0.6114660987728864
  0.9458411950075335  0.8283773181325190  0.0488675312279592
  0.8876978634988756  0.0557299031098489  0.7053307418940234
  0.2067138845444563  0.1029018103418412  0.3819580331328534
  0.5391604195787202  0.3738982295887330  0.0492251815440433
  0.6082680607537425  0.1389927903607752  0.3994244213184856
  0.8552999628675579  0.4810638283022690  0.7093280328681044
  0.3566454845920289  0.4907659918519037  0.9431748643450691
  0.1670831032301826  0.6565886836201399  0.6186306554561429
  0.4844235203190140  0.8815318184347924  0.2694230951478613
  0.8307913694263535  0.4608343310188485  0.2079480737971822
  0.5303694511375007  0.3246138204563884  0.5226216823722418
  0.6625155926046864  0.1732132921161343  0.8712567607750714
  0.4265915585037124  0.8128228010341063  0.8181534980010671
  0.3783917166553381  0.5500627162189100  0.4957236489643882
  0.2038405123251460  0.6184871464174031  0.1536964706866860
  0.0510030193961665  0.3255636671832635  0.2663517285290666
  0.6944749057702714  0.6637744236695869  0.6107831831816005
  0.3358177591227072  0.0406728613451441  0.9435416413364275
  0.3288347423143508  0.0336840978059408  0.7214823197740196
  0.7230139228757724  0.5834940948988554  0.4004011536981463
  0.9743991198099012  0.3043427437883983  0.0533145373839367
  0.2155467847500749  0.2373102188580677  0.1359058962913540
  0.7894340563224356  0.9536439764930235  0.4945150103805223
 -0.0026412541088394  0.8038329941788461  0.7972410776529654
  0.1724789772216154  0.1771335611886756  0.8442869350566501
  0.0249266439375684  0.8156353136158313  0.5232418988553520
  0.8410328098089145  0.9938406302955850  0.1777948700580689
  0.0271204341268215  0.4165043983965905  0.8258805631778845
  0.5963415142185480  0.6101337516685715  0.1707477252064985
  0.4130510326429513  0.9318592332032005  0.5217584321841832
  0.3540763898648575 -0.0036852632497325  0.1299556648232504
  0.6608253826858718  0.6779357092248971  0.8666067236654522
  0.9873082177823951  0.3384351462097778  0.4450983701910656
 
             NaN             NaN             NaN
             NaN             NaN             NaN
             NaN             NaN             NaN
             NaN             NaN             NaN
             NaN             NaN             NaN
             NaN             NaN             NaN
             NaN             NaN             NaN
             NaN             NaN             NaN
             NaN             NaN             NaN
             NaN             NaN             NaN
             NaN             NaN             NaN
             NaN             NaN             NaN
             NaN             NaN             NaN
             NaN             NaN             NaN
             NaN             NaN             NaN
             NaN             NaN             NaN
             NaN             NaN             NaN
             NaN             NaN             NaN
             NaN             NaN             NaN
             NaN             NaN             NaN
             NaN             NaN             NaN
             NaN             NaN             NaN
             NaN             NaN             NaN
             NaN             NaN             NaN
             NaN             NaN             NaN
             NaN             NaN             NaN
             NaN             NaN             NaN
             NaN             NaN             NaN
             NaN             NaN             NaN
             NaN             NaN             NaN
             NaN             NaN             NaN
             NaN             NaN             NaN
             NaN             NaN             NaN
             NaN             NaN             NaN
             NaN             NaN             NaN
             NaN             NaN             NaN
             NaN             NaN             NaN
             NaN             NaN             NaN
             NaN             NaN             NaN
             NaN             NaN             NaN
             NaN             NaN             NaN
             NaN             NaN             NaN
             NaN             NaN             NaN
             NaN             NaN             NaN
             NaN             NaN             NaN
             NaN             NaN             NaN
             NaN             NaN             NaN
             NaN             NaN             NaN
             NaN             NaN             NaN
             NaN             NaN             NaN
             NaN             NaN             NaN
             NaN             NaN             NaN
             NaN             NaN             NaN
             NaN             NaN             NaN
             NaN             NaN             NaN
             NaN             NaN             NaN
             NaN             NaN             NaN
             NaN             NaN             NaN
             NaN             NaN             NaN
             NaN             NaN             NaN
             NaN             NaN             NaN
             NaN             NaN             NaN
