Ca8 Ti12 F42
1.0
7.431041 -0.049561 -0.155443
-3.719066 6.351867 0.098035
0.075554 0.088413 18.729192
Ca Ti F
8 12 42
direct
0.867243 0.415256 0.334977 Ca
0.507763 0.350147 0.670974 Ca
0.166883 0.173975 0.002382 Ca
0.020391 0.840595 0.666979 Ca
0.656113 0.161020 0.998237 Ca
0.028771 0.830970 0.163782 Ca
0.820579 0.012781 0.822443 Ca
0.171414 0.187097 0.489061 Ca
0.355905 0.987135 0.335869 Ti
0.005296 0.339225 0.645572 Ti
0.671479 0.672886 0.986205 Ti
0.351386 0.051380 0.829914 Ti
0.966725 0.303204 0.166452 Ti
0.706209 0.651611 0.502212 Ti
0.519710 0.849013 0.160634 Ti
0.155446 0.636383 0.509556 Ti
0.347582 0.488501 0.827652 Ti
0.794297 0.490314 0.829183 Ti
0.716626 0.199149 0.507731 Ti
0.525072 0.304218 0.161750 Ti
0.696620 0.196922 0.616676 F
0.808753 0.504050 0.943084 F
0.511258 0.251061 0.270456 F
0.194710 0.732454 0.402449 F
0.563755 0.826631 0.052077 F
0.275311 0.445848 0.717046 F
0.831614 0.002150 0.946668 F
0.075171 0.821070 0.280097 F
0.177355 0.185352 0.611186 F
0.945245 0.830457 0.048283 F
0.891693 0.054410 0.707126 F
0.224987 0.124991 0.381497 F
0.528420 0.371582 0.047698 F
0.624340 0.151803 0.397816 F
0.852363 0.485139 0.713591 F
0.356412 0.497121 0.943288 F
0.166346 0.654929 0.618947 F
0.470244 0.871052 0.266893 F
0.834425 0.482418 0.190629 F
0.536123 0.334672 0.517593 F
0.656642 0.176145 0.867153 F
0.432958 0.809284 0.815595 F
0.379955 0.556468 0.498885 F
0.202096 0.616854 0.152741 F
0.007884 0.322301 0.269942 F
0.697194 0.663187 0.612569 F
0.331806 0.023825 0.944871 F
0.336711 0.029333 0.719256 F
0.712777 0.632245 0.399233 F
0.967406 0.289927 0.055453 F
0.202166 0.215908 0.141619 F
0.798740 0.969111 0.498547 F
0.014194 0.812801 0.800960 F
0.166947 0.173116 0.859832 F
0.025133 0.821848 0.525409 F
0.830950 0.986240 0.182159 F
0.029760 0.413781 0.826872 F
0.567557 0.597275 0.173825 F
0.411843 0.944792 0.520814 F
0.367471 0.001770 0.117997 F
0.662178 0.668755 0.864524 F
0.993056 0.356976 0.448290 F
