Li16 V32 O64
1.0
   9.4221424835554934   -0.0471939182022140    0.0000285219922860
  -0.0484940732063018    9.3830450263848739   -0.0001383617515554
   0.0000113766504410    0.0001259825342194   11.1681583534550448
Li V O
1 32 64
direct
   0.4999996248010047    0.7499999929813729    0.5007118521461911 Li
   0.9999996189555090    0.9999997735985816    0.0011376389404462 V
   0.9999996189555090    0.9999997735985816    0.5011376389404462 V
   0.9999996189555090    0.4999997735985816    0.0011376389404462 V
   0.9999996189555090    0.4999997735985816    0.5011376389404462 V
   0.4999996189555090    0.9999997735985816    0.0011376389404462 V
   0.4999996189555090    0.9999997735985816    0.5011376389404462 V
   0.4999996189555091    0.4999997735985815    0.0011376389404462 V
   0.4999996189555091    0.4999997735985816    0.5011376389404461 V
   0.9999996418822651    0.9999994829048765    0.2517342561524128 V
   0.9999996418822651    0.9999994829048765    0.7517342561524127 V
   0.9999996418822651    0.4999994829048764    0.2517342561524127 V
   0.9999996418822651    0.4999994829048764    0.7517342561524128 V
   0.4999996418822650    0.9999994829048765    0.2517342561524128 V
   0.4999996418822651    0.9999994829048765    0.7517342561524127 V
   0.4999996418822651    0.4999994829048764    0.2517342561524128 V
   0.4999996418822651    0.4999994829048764    0.7517342561524127 V
   0.2499992235209195    0.2499998262393024    0.1326737169751450 V
   0.2499992235209195    0.2499998262393023    0.6326737169751450 V
   0.2499992235209194    0.7499998262393023    0.1326737169751449 V
   0.2499992235209194    0.7499998262393023    0.6326737169751450 V
   0.7499992235209196    0.2499998262393024    0.1326737169751450 V
   0.7499992235209195    0.2499998262393024    0.6326737169751450 V
   0.7499992235209195    0.7499998262393022    0.1326737169751450 V
   0.7499992235209195    0.7499998262393023    0.6326737169751449 V
   0.2500007330131634    0.2499984428715770    0.3726839930816264 V
   0.2500007330131634    0.2499984428715770    0.8726839930816265 V
   0.2500007330131634    0.7499984428715769    0.3726839930816264 V
   0.2500007330131634    0.7499984428715770    0.8726839930816264 V
   0.7500007330131635    0.2499984428715770    0.3726839930816264 V
   0.7500007330131635    0.2499984428715770    0.8726839930816264 V
   0.7500007330131634    0.7499984428715769    0.3726839930816264 V
   0.7500007330131635    0.7499984428715770    0.8726839930816264 V
   0.1575179314307359    0.1398996626472133    0.9982206153802323 O
   0.1575179314307359    0.1398996626472133    0.4982206153802323 O
   0.1575179314307359    0.6398996626472132    0.9982206153802323 O
   0.1575179314307359    0.6398996626472133    0.4982206153802323 O
   0.6575179314307359    0.1398996626472133    0.9982206153802323 O
   0.6575179314307359    0.1398996626472133    0.4982206153802323 O
   0.6575179314307359    0.6398996626472132    0.9982206153802323 O
   0.6575179314307359    0.6398996626472133    0.4982206153802323 O
   0.1538887330222639    0.1400397040425140    0.2465804164616558 O
   0.1538887330222639    0.1400397040425140    0.7465804164616557 O
   0.1538887330222639    0.6400397040425139    0.2465804164616558 O
   0.1538887330222639    0.6400397040425140    0.7465804164616558 O
   0.6538887330222639    0.1400397040425140    0.2465804164616558 O
   0.6538887330222640    0.1400397040425140    0.7465804164616556 O
   0.6538887330222639    0.6400397040425139    0.2465804164616558 O
   0.6538887330222640    0.6400397040425139    0.7465804164616557 O
   0.3424817286600678    0.3601006715340481    0.9982209107294454 O
   0.3424817286600678    0.3601006715340481    0.4982209107294454 O
   0.3424817286600677    0.8601006715340480    0.9982209107294454 O
   0.3424817286600678    0.8601006715340480    0.4982209107294454 O
   0.8424817286600678    0.3601006715340481    0.9982209107294454 O
   0.8424817286600677    0.3601006715340481    0.4982209107294454 O
   0.8424817286600678    0.8601006715340480    0.9982209107294454 O
   0.8424817286600680    0.8601006715340480    0.4982209107294454 O
   0.3461106306214223    0.3599600721497453    0.2465804164985546 O
   0.3461106306214224    0.3599600721497452    0.7465804164985546 O
   0.3461106306214223    0.8599600721497453    0.2465804164985546 O
   0.3461106306214223    0.8599600721497452    0.7465804164985547 O
   0.8461106306214223    0.3599600721497453    0.2465804164985546 O
   0.8461106306214224    0.3599600721497453    0.7465804164985546 O
   0.8461106306214223    0.8599600721497451    0.2465804164985546 O
   0.8461106306214224    0.8599600721497452    0.7465804164985546 O
   0.0926508515560334    0.3879133148688600    0.1225225196034738 O
   0.0926508515560334    0.3879133148688600    0.6225225196034738 O
   0.0926508515560334    0.8879133148688598    0.1225225196034738 O
   0.0926508515560334    0.8879133148688600    0.6225225196034737 O
   0.5926508515560335    0.3879133148688600    0.1225225196034738 O
   0.5926508515560334    0.3879133148688600    0.6225225196034737 O
   0.5926508515560335    0.8879133148688598    0.1225225196034738 O
   0.5926508515560335    0.8879133148688598    0.6225225196034737 O
   0.0929740685809983    0.3878340730358326    0.3782045490609596 O
   0.0929740685809983    0.3878340730358326    0.8782045490609595 O
   0.0929740685809983    0.8878340730358324    0.3782045490609596 O
   0.0929740685809982    0.8878340730358326    0.8782045490609596 O
   0.5929740685809982    0.3878340730358326    0.3782045490609596 O
   0.5929740685809982    0.3878340730358326    0.8782045490609596 O
   0.5929740685809982    0.8878340730358326    0.3782045490609596 O
   0.5929740685809982    0.8878340730358325    0.8782045490609596 O
   0.4073476029987296    0.1120861735822767    0.1225237964970545 O
   0.4073476029987297    0.1120861735822767    0.6225237964970545 O
   0.4073476029987296    0.6120861735822766    0.1225237964970545 O
   0.4073476029987296    0.6120861735822766    0.6225237964970545 O
   0.9073476029987297    0.1120861735822767    0.1225237964970545 O
   0.9073476029987297    0.1120861735822767    0.6225237964970545 O
   0.9073476029987297    0.6120861735822766    0.1225237964970545 O
   0.9073476029987299    0.6120861735822766    0.6225237964970544 O
   0.4070296109568868    0.1121688095437991    0.3782053184728060 O
   0.4070296109568868    0.1121688095437991    0.8782053184728059 O
   0.4070296109568868    0.6121688095437990    0.3782053184728060 O
   0.4070296109568868    0.6121688095437990    0.8782053184728059 O
   0.9070296109568867    0.1121688095437991    0.3782053184728060 O
   0.9070296109568867    0.1121688095437992    0.8782053184728060 O
   0.9070296109568869    0.6121688095437990    0.3782053184728059 O
   0.9070296109568869    0.6121688095437990    0.8782053184728058 O
