Ca8 Ti12 F42                            
   1.00000000000000     
     7.3964949999999998   -0.0405990000000000   -0.0954840000000000
    -3.6913779999999998    6.4594500000000004    0.0468980000000000
     0.2189480000000000    0.0228900000000000   18.6542880000000011
   Ca   Ti   F 
     8    12    42
Direct
  0.6698362919675700  0.1368431820415377  0.9787872838581596
  0.8667187132620469  0.4772484693032870  0.3183950907311864
  0.5371108272578771  0.3342074091973639  0.6454386895106887
  0.1729193239629599  0.1537741060332035  0.9810904252565396
  0.0300152073282813  0.8385185333233539  0.6601745490659212
  0.8441919716530768  0.9637140833296187  0.3162063380767495
  0.0505119184753735  0.8070943317036311  0.1424932499708001
  0.2135873088014295  0.1687580223736551  0.4767447992378897
  0.3585988761549913  0.9780821161301256  0.3064115150231675
  0.0304312666924891  0.3220872958516635  0.6503523452316402
  0.6909216110538547  0.6625011312958202  0.9698020427210372
  0.3456429343660447  0.9874579367704827  0.8206244735307697
  0.9628201638616082  0.2720100513080203  0.1514393729315732
  0.7299721482139384  0.6426009006271755  0.4807782607652775
  0.5369231966575769  0.8374724098536560  0.1467869419457414
  0.1706456231949959  0.6457133539061826  0.4831891041323896
  0.3622231400419056  0.4888221683024850  0.8195285569997288
  0.8426280565399454  0.4897027171194563  0.8218842190847687
  0.7282094106751121  0.1999224291134179  0.4804071497481802
  0.5332494024297881  0.2807563734633617  0.1463353689188194
  0.7420269461618728  0.2019684280438924  0.5943569885685546
  0.8426870630284186  0.4980433083762051  0.9346268145952696
  0.5162718318360765  0.2693320819507152  0.2592084391277624
  0.2005017358668321  0.7126118649057896  0.3717122575713163
  0.5801947756839998  0.8072206568297789  0.0389621605249412
  0.3199807829621119  0.4376605814068524  0.7082776001671430
  0.8410643492116283  0.9774552408874745  0.9322592056669418
  0.0408000531552488  0.8114116563635242  0.2638207650823275
  0.1985020112374566  0.1712923410780325  0.5998521405147976
  0.9593065376582123  0.8192639117813713  0.0321250327547859
  0.9168088144613229  0.0535870531226828  0.6992233537894689
  0.1885768314570307  0.0930889143366953  0.3616812722530448
  0.5420950182359631  0.3523818230583209  0.0318864919482705
  0.6640902801526225  0.1377145505812275  0.3650209805571734
  0.8529067412553875  0.4601461312035162  0.7057206278217233
  0.3719367663841920  0.4912677032610170  0.9331915853725895
  0.1500144098652115  0.6191652447689571  0.6003256923675521
  0.5141755625427008  0.8351922377697609  0.2611442112026480
  0.8441866489493780  0.4639337576392012  0.1796362587333536
  0.5490535053480435  0.3338310101333743  0.5157577257507641
  0.6438065337671238  0.1896363438192581  0.8508085091220173
  0.4279613274556698  0.7802937925068058  0.8098930841503869
  0.4128651469038066  0.5688054223104740  0.4698757861246997
  0.2157440075758369  0.6036771422556838  0.1424388401542257
 -0.0057744737041641  0.2868468959827535  0.2640710524454987
  0.7215955620572263  0.6588103609175436  0.5965074797654067
  0.3320292927190563  0.9776965800986512  0.9344593781798302
  0.3638021361324391  0.0402502310206049  0.7097930320979513
  0.7204577935856088  0.6485229428186509  0.3677942983919582
  0.9791306160010136  0.2732863697222725  0.0405739022354240
  0.2075415833739455  0.1898487420882557  0.1293328471445860
  0.8246429923384940  0.9721464808579867  0.4517131380676640
  0.0460602338104692  0.7865341451340381  0.7862254035835987
  0.2434636747843184  0.1832668008730262  0.8434674647165843
  0.0395896035415438  0.8266971154715415  0.5130337428544799
  0.8469050043159261  0.9605379360148608  0.1802503531797327
  0.0644032592900850  0.4204279606880484  0.8175884556943823
  0.5775568414040585  0.5785865775216682  0.1571177406268250
  0.4179579221105119  0.9592604563244106  0.4811905995074093
  0.3895266774199521  0.9876963293936607  0.0959814624906078
  0.6728245681856507  0.6260628056135333  0.8492845916633394
  0.0402504778578333  0.3332651613984618  0.5077481428797277
 
             NaN             NaN             NaN
             NaN             NaN             NaN
             NaN             NaN             NaN
             NaN             NaN             NaN
             NaN             NaN             NaN
             NaN             NaN             NaN
             NaN             NaN             NaN
             NaN             NaN             NaN
             NaN             NaN             NaN
             NaN             NaN             NaN
             NaN             NaN             NaN
             NaN             NaN             NaN
             NaN             NaN             NaN
             NaN             NaN             NaN
             NaN             NaN             NaN
             NaN             NaN             NaN
             NaN             NaN             NaN
             NaN             NaN             NaN
             NaN             NaN             NaN
             NaN             NaN             NaN
             NaN             NaN             NaN
             NaN             NaN             NaN
             NaN             NaN             NaN
             NaN             NaN             NaN
             NaN             NaN             NaN
             NaN             NaN             NaN
             NaN             NaN             NaN
             NaN             NaN             NaN
             NaN             NaN             NaN
             NaN             NaN             NaN
             NaN             NaN             NaN
             NaN             NaN             NaN
             NaN             NaN             NaN
             NaN             NaN             NaN
             NaN             NaN             NaN
             NaN             NaN             NaN
             NaN             NaN             NaN
             NaN             NaN             NaN
             NaN             NaN             NaN
             NaN             NaN             NaN
             NaN             NaN             NaN
             NaN             NaN             NaN
             NaN             NaN             NaN
             NaN             NaN             NaN
             NaN             NaN             NaN
             NaN             NaN             NaN
             NaN             NaN             NaN
             NaN             NaN             NaN
             NaN             NaN             NaN
             NaN             NaN             NaN
             NaN             NaN             NaN
             NaN             NaN             NaN
             NaN             NaN             NaN
             NaN             NaN             NaN
             NaN             NaN             NaN
             NaN             NaN             NaN
             NaN             NaN             NaN
             NaN             NaN             NaN
             NaN             NaN             NaN
             NaN             NaN             NaN
             NaN             NaN             NaN
             NaN             NaN             NaN
