Ca8 Ti12 F42                            
   1.00000000000000     
     7.3964949999999998   -0.0405990000000000   -0.0954840000000000
    -3.6913779999999998    6.4594500000000004    0.0468980000000000
     0.2189480000000000    0.0228900000000000   18.6542880000000011
   Ca   Ti   F 
     8    12    42
Direct
  0.6780095475755694  0.1295332726102139  0.9711436363724194
  0.8768319554746197  0.4703390598904451  0.3107239044450233
  0.5452601567896785  0.3259039025723323  0.6377462579629479
  0.1806685634493096  0.1466438796985668  0.9723851922074288
  0.0387694548906918  0.8323010623549447  0.6533195958153266
  0.8541285388230453  0.9580874130374661  0.3079474323979537
  0.0588335896507833  0.8001993016908993  0.1343242247720086
  0.2201165015325232  0.1664842760377443  0.4689035876241714
  0.3663877194484241  0.9712319248004453  0.3005646351864009
  0.0393353161427377  0.3153898227749619  0.6391891186119560
  0.6980500435239358  0.6552509001724875  0.9612859060357206
  0.3535070043143388  0.9786317107166437  0.8133546864731319
  0.9715838653168832  0.2655108598814130  0.1433387268138173
  0.7392890950905056  0.6342609159983499  0.4733206770386744
  0.5455719143985918  0.8305619503288477  0.1389816355468121
  0.1787913117344986  0.6388159768541687  0.4768018003264838
  0.3683805672975394  0.4798807913630048  0.8108174979860375
  0.8507483807998737  0.4801617619161991  0.8133345299796300
  0.7357170128289018  0.1897405776056341  0.4739899134362108
  0.5416481450871167  0.2741479962224525  0.1382568974080686
  0.7391545365617779  0.1850337703329785  0.5873224627655474
  0.8502646425114635  0.4899394794035241  0.9262193057606140
  0.5255570596317761  0.2595363936866081  0.2509404620676751
  0.2083482297888372  0.7043043467267861  0.3640834149136452
  0.5878840565175942  0.7989671244549623  0.0304545036044682
  0.3278968698359976  0.4311109181380480  0.6989676742681659
  0.8479129826070545  0.9695266857558877  0.9239135889536928
  0.0513617540647265  0.8051841286655714  0.2557569274755496
  0.2086606153792196  0.1604361938165562  0.5918354578006230
  0.9665215831527502  0.8117891662424885  0.0237461390370891
  0.9277026400234315  0.0505176677828035  0.6906884169319909
  0.1976543081756697  0.0875000019519208  0.3536344974464239
  0.5496510088273626  0.3452558176904290  0.0235730227013649
  0.6741751291108710  0.1316984156098552  0.3573793379348293
  0.8628527987691645  0.4528436214544388  0.6970228023137494
  0.3803204457736075  0.4842019838720907  0.9241128312113460
  0.1629320873914773  0.6240661247434539  0.5930314486823468
  0.5235050470504323  0.8309422246858890  0.2528351405457717
  0.8535624948438785  0.4575524285860867  0.1717401747782704
  0.5579669486101074  0.3253809277306938  0.5073427768608537
  0.6509250882825257  0.1808445867181246  0.8424708215402859
  0.4348792961712108  0.7730911659823798  0.8018814475631254
  0.4171782196381320  0.5560107863977228  0.4618150006413007
  0.2245542993754505  0.5971261244193103  0.1342613871858380
  1.0037821762927235  0.2805589180992883  0.2556766915516624
  0.7318610249896212  0.6510321426567316  0.5883163255899346
  0.3403546618029947  0.9704486932125026  0.9267185185000361
  0.3723993368503788  0.0345967178251192  0.7033469117699525
  0.7323733498626296  0.6435287883126555  0.3601362238410887
  0.9885772442610561  0.2667529244743975  0.0321008977530845
  0.2162584987562534  0.1830534973562103  0.1214191978823443
  0.8373590426370654  0.9713365902560112  0.4442142925270172
  0.0543383281427266  0.7783877743483052  0.7788520509861677
  0.2508018869810839  0.1728737572097990  0.8355268175528714
  0.0488769470406690  0.8208430430459538  0.5026684422097323
  0.8552121686736724  0.9530894877335956  0.1724130022930176
  0.0729774187474354  0.4105981753302761  0.8084644833749722
  0.5858934929903371  0.5717805288601162  0.1495534084502839
  0.4276431178142203  0.9507447234608791  0.4721709793913037
  0.3977429805717412  0.9801266622227572  0.0881617970455705
  0.6787233503774364  0.6159000453615328  0.8402323885799289
  0.0477912757534355  0.3285717520933156  0.5087824704630496
 
             NaN             NaN             NaN
             NaN             NaN             NaN
             NaN             NaN             NaN
             NaN             NaN             NaN
             NaN             NaN             NaN
             NaN             NaN             NaN
             NaN             NaN             NaN
             NaN             NaN             NaN
             NaN             NaN             NaN
             NaN             NaN             NaN
             NaN             NaN             NaN
             NaN             NaN             NaN
             NaN             NaN             NaN
             NaN             NaN             NaN
             NaN             NaN             NaN
             NaN             NaN             NaN
             NaN             NaN             NaN
             NaN             NaN             NaN
             NaN             NaN             NaN
             NaN             NaN             NaN
             NaN             NaN             NaN
             NaN             NaN             NaN
             NaN             NaN             NaN
             NaN             NaN             NaN
             NaN             NaN             NaN
             NaN             NaN             NaN
             NaN             NaN             NaN
             NaN             NaN             NaN
             NaN             NaN             NaN
             NaN             NaN             NaN
             NaN             NaN             NaN
             NaN             NaN             NaN
             NaN             NaN             NaN
             NaN             NaN             NaN
             NaN             NaN             NaN
             NaN             NaN             NaN
             NaN             NaN             NaN
             NaN             NaN             NaN
             NaN             NaN             NaN
             NaN             NaN             NaN
             NaN             NaN             NaN
             NaN             NaN             NaN
             NaN             NaN             NaN
             NaN             NaN             NaN
             NaN             NaN             NaN
             NaN             NaN             NaN
             NaN             NaN             NaN
             NaN             NaN             NaN
             NaN             NaN             NaN
             NaN             NaN             NaN
             NaN             NaN             NaN
             NaN             NaN             NaN
             NaN             NaN             NaN
             NaN             NaN             NaN
             NaN             NaN             NaN
             NaN             NaN             NaN
             NaN             NaN             NaN
             NaN             NaN             NaN
             NaN             NaN             NaN
             NaN             NaN             NaN
             NaN             NaN             NaN
             NaN             NaN             NaN
