K8 Sc16 Se32                            
   1.00000000000000     
    11.9001178303143504    0.0000015581214656   -0.0000069858842204
     0.0000015592717667   11.9001162209047102   -0.0000237859819219
    -0.0000069852575964   -0.0000237845356602   11.9001071194937023
K   Sc   K    Se
1    16     6    32
Direct
   0.4999904555976379    0.4999868624761751    1.0000042941222551 K
  0.1250060059125150  0.8750058614434609  0.3749966633734051
  0.8750076044264086  0.1250066660823238  0.3749974236187176
  0.8750012050460247  0.8750003632813051  0.6250023699691033
  0.1250052811654477  0.1250065474788069  0.6249969924262919
  0.1250051104538547  0.3749895588765312  0.8749990831527460
  0.8750046914614574  0.6250017588720118  0.8749944999052233
  0.8750086894289953  0.3749903593441819  0.1250068466825850
  0.1250058369674145  0.6249973363081049  0.1250071844093270
  0.6250013606920237  0.8750039173281651  0.8749951341545437
  0.3749894835614716  0.1250050436703142  0.8749995672434383
  0.3749891262174776  0.8750071249810047  0.1250065512244420
  0.6249969897088407  0.1250048953097923  0.1250064582214696
  0.6249968667446808  0.3749908455326135  0.3749991628625184
  0.3749889881525701  0.6249966845238748  0.3749981009157313
  0.3749898490020180  0.3749912040535515  0.6249953806494122
  0.6250014165167587  0.6250003633337574  0.6249990798988375
  0.7500041009635984  0.7500059946510538  0.2500039747443278
  0.4999905850005777  0.0000134139998458  0.4999963448329007
  0.2499928909927002  0.7500061331718153  0.7499957502470451
  0.0000122802194750  0.4999872039809682  0.4999964779431106
  0.2499936490317985  0.2499938982036200  0.2500036734344477
  0.0000124476612304  0.0000130371439913  0.0000037726801907
  0.8962059613440437  0.1038031872267364  0.6037946197536525
  0.1038028477857475  0.8962073994811025  0.6037942457827951
  0.1038019285024006  0.1038018963752287  0.3961988499418725
  0.8962064262266038  0.8962074798282700  0.3961982849751859
  0.3537527067766236  0.1462411028400198  0.6462447939512450
  0.1462409683050004  0.3537534974699812  0.6462447802780512
  0.1462414341379341  0.1462412286194466  0.8537520698716755
  0.3537537160035801  0.3537541476972184  0.8537529607295388
  0.8962074894613644  0.6037911334804180  0.1037990978272953
  0.1038016957415162  0.3961999083556230  0.1037987145008700
  0.1038022338155353  0.6037910255192528  0.8962083770528602
  0.8962067701489588  0.3961989987775246  0.8962078258463310
  0.3537536226248306  0.6462498760605753  0.1462462686300891
  0.1462411469543299  0.8537543065278368  0.1462470826435258
  0.1462412210143077  0.6462506517101232  0.3537556727660549
  0.3537528983027701  0.8537546371677051  0.3537560151063286
  0.3962011052245505  0.1038007382965834  0.1037978888706940
  0.6037902554627107  0.8962084531106881  0.1037986185673530
  0.6037903164155534  0.1038016837311100  0.8962086536924040
  0.3962001489555662  0.8962084590822806  0.8962084783878784
  0.8537540686487430  0.1462424630661206  0.1462485168414069
  0.6462517465909103  0.3537526907260209  0.1462479974650837
  0.6462522587712123  0.1462428261021283  0.3537546629443809
  0.8537541628773274  0.3537524286941959  0.3537548700674168
  0.3961984848340590  0.6037922748034341  0.6037946988526963
  0.6037920796023816  0.3961975131406302  0.6037950329170066
  0.6037917728430725  0.6037920275842972  0.3961975738510596
  0.3961993288618861  0.3961987162051347  0.3961981955952714
  0.8537544415377588  0.6462518625381247  0.6462458039273362
  0.6462520282610468  0.8537534794714792  0.6462458534100219
  0.6462516035718249  0.6462511454621929  0.8537517476249724
  0.8537543066107488  0.8537535742229186  0.8537513111321507
 
  0.00000000E+00  0.00000000E+00  0.00000000E+00
  0.00000000E+00  0.00000000E+00  0.00000000E+00
  0.00000000E+00  0.00000000E+00  0.00000000E+00
  0.00000000E+00  0.00000000E+00  0.00000000E+00
  0.00000000E+00  0.00000000E+00  0.00000000E+00
  0.00000000E+00  0.00000000E+00  0.00000000E+00
  0.00000000E+00  0.00000000E+00  0.00000000E+00
  0.00000000E+00  0.00000000E+00  0.00000000E+00
  0.00000000E+00  0.00000000E+00  0.00000000E+00
  0.00000000E+00  0.00000000E+00  0.00000000E+00
  0.00000000E+00  0.00000000E+00  0.00000000E+00
  0.00000000E+00  0.00000000E+00  0.00000000E+00
  0.00000000E+00  0.00000000E+00  0.00000000E+00
  0.00000000E+00  0.00000000E+00  0.00000000E+00
  0.00000000E+00  0.00000000E+00  0.00000000E+00
  0.00000000E+00  0.00000000E+00  0.00000000E+00
  0.00000000E+00  0.00000000E+00  0.00000000E+00
  0.00000000E+00  0.00000000E+00  0.00000000E+00
  0.00000000E+00  0.00000000E+00  0.00000000E+00
  0.00000000E+00  0.00000000E+00  0.00000000E+00
  0.00000000E+00  0.00000000E+00  0.00000000E+00
  0.00000000E+00  0.00000000E+00  0.00000000E+00
  0.00000000E+00  0.00000000E+00  0.00000000E+00
  0.00000000E+00  0.00000000E+00  0.00000000E+00
  0.00000000E+00  0.00000000E+00  0.00000000E+00
  0.00000000E+00  0.00000000E+00  0.00000000E+00
  0.00000000E+00  0.00000000E+00  0.00000000E+00
  0.00000000E+00  0.00000000E+00  0.00000000E+00
  0.00000000E+00  0.00000000E+00  0.00000000E+00
  0.00000000E+00  0.00000000E+00  0.00000000E+00
  0.00000000E+00  0.00000000E+00  0.00000000E+00
  0.00000000E+00  0.00000000E+00  0.00000000E+00
  0.00000000E+00  0.00000000E+00  0.00000000E+00
  0.00000000E+00  0.00000000E+00  0.00000000E+00
  0.00000000E+00  0.00000000E+00  0.00000000E+00
  0.00000000E+00  0.00000000E+00  0.00000000E+00
  0.00000000E+00  0.00000000E+00  0.00000000E+00
  0.00000000E+00  0.00000000E+00  0.00000000E+00
  0.00000000E+00  0.00000000E+00  0.00000000E+00
  0.00000000E+00  0.00000000E+00  0.00000000E+00
  0.00000000E+00  0.00000000E+00  0.00000000E+00
  0.00000000E+00  0.00000000E+00  0.00000000E+00
  0.00000000E+00  0.00000000E+00  0.00000000E+00
  0.00000000E+00  0.00000000E+00  0.00000000E+00
  0.00000000E+00  0.00000000E+00  0.00000000E+00
  0.00000000E+00  0.00000000E+00  0.00000000E+00
  0.00000000E+00  0.00000000E+00  0.00000000E+00
  0.00000000E+00  0.00000000E+00  0.00000000E+00
  0.00000000E+00  0.00000000E+00  0.00000000E+00
  0.00000000E+00  0.00000000E+00  0.00000000E+00
  0.00000000E+00  0.00000000E+00  0.00000000E+00
  0.00000000E+00  0.00000000E+00  0.00000000E+00
  0.00000000E+00  0.00000000E+00  0.00000000E+00
  0.00000000E+00  0.00000000E+00  0.00000000E+00
  0.00000000E+00  0.00000000E+00  0.00000000E+00
  0.00000000E+00  0.00000000E+00  0.00000000E+00
