Li6 Si12 P18 O72                        
   1.00000000000000     
     8.1533478872909892   -0.0000052054121873    0.0000005175820514
    -4.0766779399432451    7.0610089945218970   -0.0000038919498172
     0.0000012716069551   -0.0000103665474917   20.1491647686440913
   Li   Si   P    O 
     5    12    18    72
Direct
  0.6666667485945368  0.3333331859627862  0.3333335772784167
  0.9999999398258268  0.9999999763425222  0.9999999666353148
  0.9999999063353968  0.9999998596624948  0.4999999833870561
  0.6666664912840261  0.3333330113974355  0.8333334449105791
  0.3333330671744790  0.6666666163240009  0.6666663947403890
  0.9999998402466233  0.9999997832863912  0.1403183530325620
  0.0000003637993302  0.0000007251701533  0.8596816986190632
  0.9999999985336245  0.0000004843258807  0.3596809392321205
  0.0000000339313644  0.9999993522189783  0.6403189179049136
  0.6666663582045516  0.3333329500877511  0.4736522750485577
  0.6666661971575465  0.3333329686961974  0.1930150172981229
  0.6666662541172528  0.3333331614656814  0.6930149122597342
  0.6666679317047866  0.3333346500971572  0.9736523328146731
  0.3333337446037490  0.6666669892359138  0.8069849466233663
  0.3333326070451008  0.6666661789588986  0.5263478007038245
  0.3333325876920696  0.6666658453365670  0.0263478261341987
  0.3333342599266302  0.6666674864433446  0.3069850608227895
  0.2843013448722758  0.9999997108695098  0.2499992730854785
  0.7156985010968384  0.0000000270552363  0.7500002020395584
  0.9999988942435252  0.2843009768814824  0.2499991558892489
  0.0000012697596432  0.7156994559351801  0.7500007167824236
  0.7156990232437366  0.7156985205735253  0.2499993377654306
  0.2843010559444039  0.2843017453750605  0.7500004666981894
  0.9509674818726097  0.3333343062641276  0.5833318221231210
  0.3823692370282004  0.3333351538787355  0.0833324102383912
  0.6666651439883253  0.6176314661837736  0.5833322615801322
  0.6666655384502391  0.0490333511882923  0.0833318524654345
  0.3823663453787063  0.0490306548317463  0.5833321583329010
  0.9509681839135027  0.6176324828969513  0.0833329231259086
  0.6176306962986686  0.6666644723941459  0.9166674735966751
  0.0490325795910280  0.6666656275629563  0.4166680674688550
  0.3333350030693225  0.9509670072601892  0.9166679807451459
  0.3333345250678548  0.3823682920174747  0.4166677044648424
  0.0490322002461809  0.3823681608974496  0.9166670986860410
  0.6176331343542572  0.9509687123213766  0.4166683225209340
  0.1701327388714233  0.9785619063597721  0.1871208232696731
  0.8298679380645524  0.0214375722769944  0.8128788806083165
  0.0214374631511021  0.1915697905180380  0.1871210102457610
  0.9785629031649350  0.8084316004686514  0.8128789839793384
  0.8084292519339513  0.8298662285031995  0.1871206341251863
  0.1915706143747755  0.1701337440002035  0.8128794565213298
  0.9785644233281161  0.1701342517080988  0.3128781063172212
  0.0214368198709778  0.8298665674335339  0.6871219539797266
  0.1915690763577089  0.0214354140923234  0.3128779294466497
  0.8084303853438186  0.9785629079627114  0.6871218983854135
  0.8298664304494281  0.8084311180468262  0.3128780633196158
  0.1701334529963106  0.1915691949586034  0.6871219240982214
  0.8368005543493666  0.3118950701011443  0.5204562757365707
  0.4965309657402344  0.3547672749612190  0.1462129188029238
  0.6881031569996523  0.5249025168968799  0.5204567220341971
  0.6452324161525667  0.1417643222637111  0.1462117130207332
  0.4750944811831062  0.1631949618248854  0.5204552964741964
  0.8582347907699344  0.5034685876846297  0.1462124215760241
  0.6452326783730555  0.5034681717558058  0.6462132891158703
  0.6881066608439426  0.1632005332291442  0.0204561467482023
  0.8582352742281429  0.3547676640675448  0.6462124012895742
  0.4750971364275358  0.3118966572276847  0.0204568120363717
  0.4965317755541534  0.1417655145923504  0.6462122187640347
  0.8368051830616778  0.5249058453506308  0.0204558410887330
  0.5034690843664222  0.6452329523060101  0.8537873062383099
  0.1631984954738215  0.6881040765697719  0.4795434789917579
  0.3547672212533968  0.8582354426701073  0.8537883705350424
  0.3118967579202163  0.4750969929292239  0.4795430411073269
  0.1417652175130613  0.4965313922159282  0.8537876259324477
  0.5249039232996466  0.8368038809988647  0.4795448901792128
  0.3118937963836785  0.8367997794967934  0.9795440995355307
  0.3547669599739152  0.4965315950986522  0.3537865414601598
  0.5249029600627111  0.6881035232450472  0.9795434319259826
  0.1417649286415212  0.6452326153375338  0.3537872726226823
  0.1631971992979189  0.4750951544879669  0.9795441067214838
  0.5034684138776768  0.8582342756410739  0.3537881243847920
  0.1834046684135728  0.1549804493057536  0.0839863362484365
  0.8165957379177016  0.8450199401538043  0.9160138231864323
  0.8450201422786421  0.0284252441959651  0.0839860463286684
  0.1549802419556627  0.9715755850198065  0.9160139745088713
  0.9715763161799345  0.8165954848715629  0.0839865134635929
  0.0284237760686779  0.1834047223672997  0.9160135670648017
  0.1549805709683838  0.1834049837135510  0.4160135018499886
  0.8450192006629891  0.8165944704978187  0.5839863689860465
  0.0284242906768668  0.8450189614648167  0.4160134180531827
  0.9715745736491215  0.1549802974807264  0.5839863900159585
  0.8165948381296744  0.9715760318612610  0.4160140706385960
  0.1834047481837899  0.0284238422671166  0.5839862020332163
  0.8500755899614703  0.4883141205008812  0.4173188652629065
  0.4832595468450194  0.1783514132151893  0.2493469158677399
  0.5116868214779444  0.3617619376783949  0.4173188924667315
  0.8216484981722161  0.3049076566984468  0.2493466771795170
  0.6382385298592652  0.1499253796441309  0.4173186250635439
  0.6950923394732413  0.5167400483237898  0.2493474436789640
  0.8216479798302103  0.5167400428272799  0.7493474991402422
  0.5116852142433927  0.1499241629072898  0.9173194821067128
  0.6950920812528665  0.1783519669879539  0.7493470713191854
  0.6382383898228667  0.4883135264075946  0.9173191818220516
  0.4832605731708028  0.3049076427029718  0.7493475358883970
  0.8500751850851742  0.3617614914305634  0.9173181626676552
  0.5167406370061229  0.8216489186692328  0.7506530254473418
  0.1499245324985026  0.5116855929972459  0.5826810576922838
  0.1783511997299598  0.6950924046476956  0.7506533956902004
  0.4883130588016371  0.6382378083448472  0.5826809807792515
  0.3049076178374506  0.4832601288099525  0.7506525994339412
  0.3617604354787147  0.8500740972871981  0.5826817058945792
  0.4883146972295336  0.8500753834817303  0.0826807889706842
  0.1783522414243635  0.4832606370147872  0.2506524702667718
  0.3617613419017687  0.5116865940287454  0.0826810277347008
  0.3049082270689425  0.8216480129594075  0.2506527005880343
  0.1499257337760085  0.6382394248218333  0.0826820424662102
  0.5167391626481077  0.6950923258309629  0.2506524291723125
 
  0.00000000E+00  0.00000000E+00  0.00000000E+00
  0.00000000E+00  0.00000000E+00  0.00000000E+00
  0.00000000E+00  0.00000000E+00  0.00000000E+00
  0.00000000E+00  0.00000000E+00  0.00000000E+00
  0.00000000E+00  0.00000000E+00  0.00000000E+00
  0.00000000E+00  0.00000000E+00  0.00000000E+00
  0.00000000E+00  0.00000000E+00  0.00000000E+00
  0.00000000E+00  0.00000000E+00  0.00000000E+00
  0.00000000E+00  0.00000000E+00  0.00000000E+00
  0.00000000E+00  0.00000000E+00  0.00000000E+00
  0.00000000E+00  0.00000000E+00  0.00000000E+00
  0.00000000E+00  0.00000000E+00  0.00000000E+00
  0.00000000E+00  0.00000000E+00  0.00000000E+00
  0.00000000E+00  0.00000000E+00  0.00000000E+00
  0.00000000E+00  0.00000000E+00  0.00000000E+00
  0.00000000E+00  0.00000000E+00  0.00000000E+00
  0.00000000E+00  0.00000000E+00  0.00000000E+00
  0.00000000E+00  0.00000000E+00  0.00000000E+00
  0.00000000E+00  0.00000000E+00  0.00000000E+00
  0.00000000E+00  0.00000000E+00  0.00000000E+00
  0.00000000E+00  0.00000000E+00  0.00000000E+00
  0.00000000E+00  0.00000000E+00  0.00000000E+00
  0.00000000E+00  0.00000000E+00  0.00000000E+00
  0.00000000E+00  0.00000000E+00  0.00000000E+00
  0.00000000E+00  0.00000000E+00  0.00000000E+00
  0.00000000E+00  0.00000000E+00  0.00000000E+00
  0.00000000E+00  0.00000000E+00  0.00000000E+00
  0.00000000E+00  0.00000000E+00  0.00000000E+00
  0.00000000E+00  0.00000000E+00  0.00000000E+00
  0.00000000E+00  0.00000000E+00  0.00000000E+00
  0.00000000E+00  0.00000000E+00  0.00000000E+00
  0.00000000E+00  0.00000000E+00  0.00000000E+00
  0.00000000E+00  0.00000000E+00  0.00000000E+00
  0.00000000E+00  0.00000000E+00  0.00000000E+00
  0.00000000E+00  0.00000000E+00  0.00000000E+00
  0.00000000E+00  0.00000000E+00  0.00000000E+00
  0.00000000E+00  0.00000000E+00  0.00000000E+00
  0.00000000E+00  0.00000000E+00  0.00000000E+00
  0.00000000E+00  0.00000000E+00  0.00000000E+00
  0.00000000E+00  0.00000000E+00  0.00000000E+00
  0.00000000E+00  0.00000000E+00  0.00000000E+00
  0.00000000E+00  0.00000000E+00  0.00000000E+00
  0.00000000E+00  0.00000000E+00  0.00000000E+00
  0.00000000E+00  0.00000000E+00  0.00000000E+00
  0.00000000E+00  0.00000000E+00  0.00000000E+00
  0.00000000E+00  0.00000000E+00  0.00000000E+00
  0.00000000E+00  0.00000000E+00  0.00000000E+00
  0.00000000E+00  0.00000000E+00  0.00000000E+00
  0.00000000E+00  0.00000000E+00  0.00000000E+00
  0.00000000E+00  0.00000000E+00  0.00000000E+00
  0.00000000E+00  0.00000000E+00  0.00000000E+00
  0.00000000E+00  0.00000000E+00  0.00000000E+00
  0.00000000E+00  0.00000000E+00  0.00000000E+00
  0.00000000E+00  0.00000000E+00  0.00000000E+00
  0.00000000E+00  0.00000000E+00  0.00000000E+00
  0.00000000E+00  0.00000000E+00  0.00000000E+00
  0.00000000E+00  0.00000000E+00  0.00000000E+00
  0.00000000E+00  0.00000000E+00  0.00000000E+00
  0.00000000E+00  0.00000000E+00  0.00000000E+00
  0.00000000E+00  0.00000000E+00  0.00000000E+00
  0.00000000E+00  0.00000000E+00  0.00000000E+00
  0.00000000E+00  0.00000000E+00  0.00000000E+00
  0.00000000E+00  0.00000000E+00  0.00000000E+00
  0.00000000E+00  0.00000000E+00  0.00000000E+00
  0.00000000E+00  0.00000000E+00  0.00000000E+00
  0.00000000E+00  0.00000000E+00  0.00000000E+00
  0.00000000E+00  0.00000000E+00  0.00000000E+00
  0.00000000E+00  0.00000000E+00  0.00000000E+00
  0.00000000E+00  0.00000000E+00  0.00000000E+00
  0.00000000E+00  0.00000000E+00  0.00000000E+00
  0.00000000E+00  0.00000000E+00  0.00000000E+00
  0.00000000E+00  0.00000000E+00  0.00000000E+00
  0.00000000E+00  0.00000000E+00  0.00000000E+00
  0.00000000E+00  0.00000000E+00  0.00000000E+00
  0.00000000E+00  0.00000000E+00  0.00000000E+00
  0.00000000E+00  0.00000000E+00  0.00000000E+00
  0.00000000E+00  0.00000000E+00  0.00000000E+00
  0.00000000E+00  0.00000000E+00  0.00000000E+00
  0.00000000E+00  0.00000000E+00  0.00000000E+00
  0.00000000E+00  0.00000000E+00  0.00000000E+00
  0.00000000E+00  0.00000000E+00  0.00000000E+00
  0.00000000E+00  0.00000000E+00  0.00000000E+00
  0.00000000E+00  0.00000000E+00  0.00000000E+00
  0.00000000E+00  0.00000000E+00  0.00000000E+00
  0.00000000E+00  0.00000000E+00  0.00000000E+00
  0.00000000E+00  0.00000000E+00  0.00000000E+00
  0.00000000E+00  0.00000000E+00  0.00000000E+00
  0.00000000E+00  0.00000000E+00  0.00000000E+00
  0.00000000E+00  0.00000000E+00  0.00000000E+00
  0.00000000E+00  0.00000000E+00  0.00000000E+00
  0.00000000E+00  0.00000000E+00  0.00000000E+00
  0.00000000E+00  0.00000000E+00  0.00000000E+00
  0.00000000E+00  0.00000000E+00  0.00000000E+00
  0.00000000E+00  0.00000000E+00  0.00000000E+00
  0.00000000E+00  0.00000000E+00  0.00000000E+00
  0.00000000E+00  0.00000000E+00  0.00000000E+00
  0.00000000E+00  0.00000000E+00  0.00000000E+00
  0.00000000E+00  0.00000000E+00  0.00000000E+00
  0.00000000E+00  0.00000000E+00  0.00000000E+00
  0.00000000E+00  0.00000000E+00  0.00000000E+00
  0.00000000E+00  0.00000000E+00  0.00000000E+00
  0.00000000E+00  0.00000000E+00  0.00000000E+00
  0.00000000E+00  0.00000000E+00  0.00000000E+00
  0.00000000E+00  0.00000000E+00  0.00000000E+00
  0.00000000E+00  0.00000000E+00  0.00000000E+00
  0.00000000E+00  0.00000000E+00  0.00000000E+00
  0.00000000E+00  0.00000000E+00  0.00000000E+00
  0.00000000E+00  0.00000000E+00  0.00000000E+00
