Mg8 Cr16 S32
1.0
       10.1778821945         0.0000000000         0.0000000000
        0.0000000000        10.1778821945         0.0000000000
        0.0000000000         0.0000000000        10.1778821945
   Mg   Cr    S
    7   16   32
Direct
     0.750000000         0.750000000         0.750000000
     0.250000000         0.250000000         0.750000000
     0.000000000         0.000000000         0.500000000
     0.250000000         0.750000000         0.250000000
     0.000000000         0.500000000         0.000000000
     0.750000000         0.250000000         0.250000000
     0.500000000         0.000000000         0.000000000
     0.875000000         0.625000000         0.375000000
     0.875000000         0.875000000         0.125000000
     0.625000000         0.875000000         0.375000000
     0.625000000         0.625000000         0.125000000
     0.875000000         0.125000000         0.875000000
     0.875000000         0.375000000         0.625000000
     0.625000000         0.375000000         0.875000000
     0.625000000         0.125000000         0.625000000
     0.375000000         0.625000000         0.875000000
     0.375000000         0.875000000         0.625000000
     0.125000000         0.875000000         0.875000000
     0.125000000         0.625000000         0.625000000
     0.375000000         0.125000000         0.375000000
     0.375000000         0.375000000         0.125000000
     0.125000000         0.375000000         0.375000000
     0.125000000         0.125000000         0.125000000
     0.112381957         0.387618035         0.612381935
     0.137618035         0.137618035         0.362381965
     0.862381935         0.862381935         0.362381965
     0.862381935         0.137618035         0.637618065
     0.387618035         0.387618035         0.887618065
     0.387618035         0.112381957         0.612381935
     0.137618035         0.862381935         0.637618065
     0.112381957         0.112381957         0.887618065
     0.112381957         0.887618065         0.112381957
     0.137618035         0.637618065         0.862381935
     0.862381935         0.362381965         0.862381935
     0.862381935         0.637618065         0.137618035
     0.387618035         0.887618065         0.387618035
     0.387618035         0.612381935         0.112381957
     0.137618035         0.362381965         0.137618035
     0.112381957         0.612381935         0.387618035
     0.612381935         0.387618035         0.112381957
     0.637618065         0.137618035         0.862381935
     0.362381965         0.862381935         0.862381935
     0.362381965         0.137618035         0.137618035
     0.887618065         0.387618035         0.387618035
     0.887618065         0.112381957         0.112381957
     0.637618065         0.862381935         0.137618035
     0.612381935         0.112381957         0.387618035
     0.612381935         0.887618065         0.612381935
     0.637618065         0.637618065         0.362381965
     0.362381965         0.362381965         0.362381965
     0.362381965         0.637618065         0.637618065
     0.887618065         0.887618065         0.887618065
     0.887618065         0.612381935         0.612381935
     0.637618065         0.362381965         0.637618065
     0.612381935         0.612381935         0.887618065
