Sr8 Ti16 S32
1.0
   3.5972287718103932   -6.2310065182860805   -0.0002451191232696
   6.6619932908760138   12.1547206303683311    0.0322664940598542
   0.0360228277265724    0.0207147593529720   14.3097410810202774
Sr Ti S
1 16 32
direct
   0.5000000002068853    0.4999999991657802    0.7500000001467414 Sr
   0.0000000000666134    0.0000000001500738    0.0000000004329372 Ti
   0.0000000000666134    0.0000000001500738    0.5000000004329372 Ti
   0.0000000000666134    0.5000000001500737    0.0000000004329372 Ti
   0.0000000000666134    0.5000000001500737    0.5000000004329372 Ti
   0.5000000000666134    0.0000000001500737    0.0000000004329372 Ti
   0.5000000000666134    0.0000000001500738    0.5000000004329372 Ti
   0.5000000000666134    0.5000000001500737    0.0000000004329373 Ti
   0.5000000000666133    0.5000000001500737    0.5000000004329372 Ti
   0.4999999994798366    0.2499999995820090    0.4999999998124913 Ti
   0.4999999994798365    0.2499999995820090    0.9999999998124912 Ti
   0.4999999994798366    0.7499999995820090    0.4999999998124913 Ti
   0.4999999994798367    0.7499999995820090    0.9999999998124912 Ti
   0.9999999994798365    0.2499999995820090    0.4999999998124913 Ti
   0.9999999994798366    0.2499999995820090    0.9999999998124912 Ti
   0.9999999994798365    0.7499999995820090    0.4999999998124913 Ti
   0.9999999994798365    0.7499999995820089    0.9999999998124912 Ti
   0.1690547471395796    0.1690497348609199    0.3981804510350244 S
   0.1690547471395797    0.1690497348609199    0.8981804510350242 S
   0.1690547471395796    0.6690497348609199    0.3981804510350244 S
   0.1690547471395797    0.6690497348609199    0.8981804510350242 S
   0.6690547471395795    0.1690497348609199    0.3981804510350244 S
   0.6690547471395797    0.1690497348609199    0.8981804510350243 S
   0.6690547471395796    0.6690497348609199    0.3981804510350244 S
   0.6690547471395795    0.6690497348609198    0.8981804510350243 S
   0.1705163409009884    0.4205459892851309    0.4007719497440760 S
   0.1705163409009885    0.4205459892851308    0.9007719497440759 S
   0.1705163409009885    0.9205459892851309    0.4007719497440760 S
   0.1705163409009885    0.9205459892851309    0.9007719497440759 S
   0.6705163409009884    0.4205459892851308    0.4007719497440760 S
   0.6705163409009886    0.4205459892851308    0.9007719497440760 S
   0.6705163409009887    0.9205459892851310    0.4007719497440760 S
   0.6705163409009882    0.9205459892851308    0.9007719497440760 S
   0.3294836583258700    0.0794540107439587    0.0992280512475432 S
   0.3294836583258701    0.0794540107439587    0.5992280512475431 S
   0.3294836583258700    0.5794540107439587    0.0992280512475432 S
   0.3294836583258700    0.5794540107439587    0.5992280512475431 S
   0.8294836583258701    0.0794540107439587    0.0992280512475432 S
   0.8294836583258700    0.0794540107439587    0.5992280512475432 S
   0.8294836583258700    0.5794540107439587    0.0992280512475432 S
   0.8294836583258700    0.5794540107439586    0.5992280512475432 S
   0.3309452530616285    0.3309502648791174    0.1018195482241530 S
   0.3309452530616285    0.3309502648791174    0.6018195482241531 S
   0.3309452530616285    0.8309502648791174    0.1018195482241531 S
   0.3309452530616285    0.8309502648791174    0.6018195482241531 S
   0.8309452530616285    0.3309502648791173    0.1018195482241531 S
   0.8309452530616284    0.3309502648791174    0.6018195482241531 S
   0.8309452530616284    0.8309502648791174    0.1018195482241531 S
   0.8309452530616284    0.8309502648791174    0.6018195482241531 S
