Pr16 Mg8 S32
1.0
       11.5615262985         0.0000000000         0.0000000000
        0.0000000000        11.5615262985         0.0000000000
        0.0000000000         0.0000000000        11.5615262985
Mg   Pr   Mg    S
1   16    6   32
Direct
   0.7500000000000000    0.2500000000000000    0.2500000000000000 Mg
     0.375000000         0.125000000         0.375000000
     0.875000000         0.875000000         0.125000000
     0.625000000         0.875000000         0.375000000
     0.125000000         0.125000000         0.125000000
     0.375000000         0.625000000         0.875000000
     0.875000000         0.375000000         0.625000000
     0.625000000         0.375000000         0.875000000
     0.125000000         0.625000000         0.625000000
     0.875000000         0.125000000         0.875000000
     0.375000000         0.875000000         0.625000000
     0.125000000         0.875000000         0.875000000
     0.625000000         0.125000000         0.625000000
     0.875000000         0.625000000         0.375000000
     0.375000000         0.375000000         0.125000000
     0.125000000         0.375000000         0.375000000
     0.625000000         0.625000000         0.125000000
     0.000000000         0.000000000         0.500000000
     0.250000000         0.750000000         0.250000000
     0.000000000         0.500000000         0.000000000
     0.250000000         0.250000000         0.750000000
     0.500000000         0.000000000         0.000000000
     0.750000000         0.750000000         0.750000000
     0.377202004         0.877201974         0.377202004
     0.877201974         0.122798003         0.122798003
     0.122798003         0.877201974         0.122798003
     0.622798026         0.122798003         0.377202004
     0.127202004         0.127202004         0.372797996
     0.127202004         0.372797996         0.127202004
     0.372797996         0.127202004         0.127202004
     0.372797996         0.372797996         0.372797996
     0.377202004         0.377202004         0.877201974
     0.877201974         0.622798026         0.622798026
     0.122798003         0.377202004         0.622798026
     0.622798026         0.622798026         0.877201974
     0.127202004         0.627201974         0.872798026
     0.127202004         0.872798026         0.627201974
     0.372797996         0.627201974         0.627201974
     0.372797996         0.872798026         0.872798026
     0.877201974         0.877201974         0.877201974
     0.377202004         0.122798003         0.622798026
     0.622798026         0.877201974         0.622798026
     0.122798003         0.122798003         0.877201974
     0.627201974         0.127202004         0.872798026
     0.627201974         0.372797996         0.627201974
     0.872798026         0.127202004         0.627201974
     0.872798026         0.372797996         0.872798026
     0.877201974         0.377202004         0.377202004
     0.377202004         0.622798026         0.122798003
     0.622798026         0.377202004         0.122798003
     0.122798003         0.622798026         0.377202004
     0.627201974         0.627201974         0.372797996
     0.627201974         0.872798026         0.127202004
     0.872798026         0.627201974         0.127202004
     0.872798026         0.872798026         0.372797996
