K64 V32 P32 C32 O224
1.0
  11.2757730483999996    0.0000000000000000    0.0000000000000000
   0.0000000000000000   13.4572324751999997    0.0000000000000000
  -0.0942662436000000    0.0000000000000000   39.1660356977999982
K V P C O
63 32 32 32 224
direct
   0.3729465010000000    0.0111790000000000    0.4406394960000000 K
   0.1270534990000000    0.2611790000000000    0.0593605005000000 K
   0.1270534990000000    0.2611790000000000    0.5593605005000000 K
   0.1270534990000000    0.7611790000000001    0.0593605005000000 K
   0.1270534990000000    0.7611790000000001    0.5593605005000000 K
   0.6270534990000000    0.2611790000000000    0.0593605005000000 K
   0.6270534990000000    0.2611790000000000    0.5593605005000000 K
   0.6270534990000000    0.7611790000000001    0.0593605005000000 K
   0.6270534990000000    0.7611790000000001    0.5593605005000000 K
   0.1271020025000000    0.2611869870000000    0.3093925120000000 K
   0.1271020025000000    0.2611869870000000    0.8093925120000001 K
   0.1271020025000000    0.7611869870000000    0.3093925120000000 K
   0.1271020025000000    0.7611869870000000    0.8093925120000001 K
   0.6271020024999999    0.2611869870000000    0.3093925120000000 K
   0.6271020024999999    0.2611869870000000    0.8093925120000001 K
   0.6271020024999999    0.7611869870000000    0.3093925120000000 K
   0.6271020024999999    0.7611869870000000    0.8093925120000001 K
   0.1269875020000000    0.4888415040000000    0.0593709985000000 K
   0.1269875020000000    0.4888415040000000    0.5593709985000000 K
   0.1269875020000000    0.9888415039999999    0.0593709985000000 K
   0.1269875020000000    0.9888415039999999    0.5593709985000000 K
   0.6269875020000000    0.4888415040000000    0.0593709985000000 K
   0.6269875020000000    0.4888415040000000    0.5593709985000000 K
   0.6269875020000000    0.9888415039999999    0.0593709985000000 K
   0.6269875020000000    0.9888415039999999    0.5593709985000000 K
   0.1271824985000000    0.4887824955000000    0.3093594910000000 K
   0.1271824985000000    0.4887824955000000    0.8093594910000000 K
   0.1271824985000000    0.9887824955000000    0.3093594910000000 K
   0.1271824985000000    0.9887824955000000    0.8093594910000000 K
   0.6271824985000000    0.4887824955000000    0.3093594910000000 K
   0.6271824985000000    0.4887824955000000    0.8093594910000000 K
   0.6271824985000000    0.9887824955000000    0.3093594910000000 K
   0.6271824985000000    0.9887824955000000    0.8093594910000000 K
   0.3728174865000000    0.2387824955000000    0.1906404940000000 K
   0.3728174865000000    0.2387824955000000    0.6906404940000000 K
   0.3728174865000000    0.7387824955000000    0.1906404940000000 K
   0.3728174865000000    0.7387824955000000    0.6906404940000000 K
   0.8728174865000000    0.2387824955000000    0.1906404940000000 K
   0.8728174864999999    0.2387824955000000    0.6906404940000000 K
   0.8728174865000000    0.7387824955000000    0.1906404940000000 K
   0.8728174864999999    0.7387824955000000    0.6906404940000000 K
   0.3730125130000000    0.2388415040000000    0.9406290054999999 K
   0.3730125129999999    0.7388415040000000    0.4406290055000000 K
   0.3730125130000000    0.7388415040000000    0.9406290054999999 K
   0.8730125129999999    0.2388415040000000    0.4406290055000000 K
   0.8730125129999999    0.2388415040000000    0.9406290054999999 K
   0.8730125129999999    0.7388415040000000    0.4406290055000000 K
   0.8730125129999999    0.7388415040000000    0.9406290054999999 K
   0.3728980124999999    0.0111870000000000    0.1906075030000000 K
   0.3728980124999999    0.0111870000000000    0.6906075030000001 K
   0.3728980124999999    0.5111869999999999    0.1906075030000000 K
   0.3728980124999999    0.5111869999999999    0.6906075030000001 K
   0.8728980124999999    0.0111870000000000    0.1906075030000000 K
   0.8728980124999999    0.0111870000000000    0.6906075030000001 K
   0.8728980124999999    0.5111869999999999    0.1906075030000000 K
   0.8728980124999999    0.5111869999999999    0.6906075030000001 K
   0.3729465010000000    0.0111790000000000    0.9406394960000000 K
   0.3729465010000000    0.5111789999999999    0.4406394960000000 K
   0.3729465010000000    0.5111789999999999    0.9406394960000000 K
   0.8729465010000000    0.0111790000000000    0.4406394960000000 K
   0.8729465009999998    0.0111790000000000    0.9406394960000000 K
   0.8729465010000000    0.5111789999999999    0.4406394960000000 K
   0.8729465009999998    0.5111789999999999    0.9406394960000000 K
   0.3632115125000000    0.1249395015000000    0.3395630120000000 V
   0.3632115125000000    0.1249395015000000    0.8395630120000001 V
   0.3632115125000000    0.6249395015000000    0.3395630120000000 V
   0.3632115125000000    0.6249395015000000    0.8395630120000001 V
   0.8632115124999999    0.1249395015000000    0.3395630120000000 V
   0.8632115124999999    0.1249395015000000    0.8395630120000001 V
   0.8632115124999999    0.6249395015000000    0.3395630120000000 V
   0.8632115124999999    0.6249395015000000    0.8395630120000001 V
   0.1368975045000000    0.3749915065000000    0.4104970100000000 V
   0.1368975045000000    0.3749915065000000    0.9104970100000001 V
   0.1368975045000000    0.8749915064999999    0.4104970100000000 V
   0.1368975045000000    0.8749915064999999    0.9104970100000001 V
   0.6368975044999999    0.3749915065000000    0.4104970100000000 V
   0.6368975044999999    0.3749915065000000    0.9104970100000001 V
   0.6368975044999999    0.8749915064999999    0.4104970100000000 V
   0.6368975044999999    0.8749915064999999    0.9104970100000001 V
   0.3631024955000000    0.1249914990000000    0.0895029975000000 V
   0.3631024955000000    0.1249914990000000    0.5895029975000000 V
   0.3631024955000000    0.6249914990000001    0.0895029975000000 V
   0.3631024955000000    0.6249914990000001    0.5895029975000000 V
   0.8631024955000000    0.1249914990000000    0.0895029975000000 V
   0.8631024954999998    0.1249914990000000    0.5895029975000000 V
   0.8631024955000000    0.6249914990000001    0.0895029975000000 V
   0.8631024954999998    0.6249914990000001    0.5895029975000000 V
   0.1367885025000000    0.3749395015000000    0.1604370030000000 V
   0.1367885025000000    0.3749395015000000    0.6604370030000001 V
   0.1367885025000000    0.8749395015000000    0.1604370030000000 V
   0.1367885025000000    0.8749395015000000    0.6604370030000001 V
   0.6367885025000000    0.3749395015000000    0.1604370030000000 V
   0.6367885025000000    0.3749395015000000    0.6604370030000001 V
   0.6367885025000000    0.8749395015000000    0.1604370030000000 V
   0.6367885025000000    0.8749395015000000    0.6604370030000001 V
   0.3890244959999999    0.3749600055000000    0.1081620010000000 P
   0.3890244959999999    0.3749600055000000    0.6081620010000000 P
   0.3890244959999999    0.8749600055000000    0.1081620010000000 P
   0.3890244959999999    0.8749600055000000    0.6081620010000000 P
   0.8890244960000000    0.3749600055000000    0.1081620010000000 P
   0.8890244959999999    0.3749600055000000    0.6081620010000000 P
   0.8890244960000000    0.8749600055000000    0.1081620010000000 P
   0.8890244959999999    0.8749600055000000    0.6081620010000000 P
   0.3891809879999999    0.3749729990000000    0.3581754865000000 P
   0.3891809879999999    0.3749729990000000    0.8581754865000000 P
   0.3891809879999999    0.8749729989999999    0.3581754865000000 P
   0.3891809879999999    0.8749729989999999    0.8581754865000000 P
   0.8891809879999999    0.3749729990000000    0.3581754865000000 P
   0.8891809879999998    0.3749729990000000    0.8581754865000000 P
   0.8891809879999999    0.8749729989999999    0.3581754865000000 P
   0.8891809879999998    0.8749729989999999    0.8581754865000000 P
   0.1108189970000000    0.1249729990000000    0.1418244990000000 P
   0.1108189970000000    0.1249729990000000    0.6418244989999999 P
   0.1108189970000000    0.6249729989999999    0.1418244990000000 P
   0.1108189970000000    0.6249729989999999    0.6418244989999999 P
   0.6108189970000000    0.1249729990000000    0.1418244990000000 P
   0.6108189970000000    0.1249729990000000    0.6418244989999999 P
   0.6108189970000000    0.6249729989999999    0.1418244990000000 P
   0.6108189970000000    0.6249729989999999    0.6418244989999999 P
   0.1109754965000000    0.1249599980000000    0.3918380140000000 P
   0.1109754965000000    0.1249599980000000    0.8918380140000002 P
   0.1109754965000000    0.6249599980000000    0.3918380140000000 P
   0.1109754965000000    0.6249599980000000    0.8918380140000002 P
   0.6109754964999999    0.1249599980000000    0.3918380140000000 P
   0.6109754964999999    0.1249599980000000    0.8918380140000002 P
   0.6109754964999999    0.6249599980000000    0.3918380140000000 P
   0.6109754964999999    0.6249599980000000    0.8918380140000002 P
   0.3847214879999999    0.1249945015000000    0.0260820000000000 C
   0.3847214879999999    0.1249945015000000    0.5260820000000000 C
   0.3847214879999999    0.6249945015000000    0.0260820000000000 C
   0.3847214879999999    0.6249945015000000    0.5260820000000000 C
   0.8847214879999999    0.1249945015000000    0.0260820000000000 C
   0.8847214879999999    0.1249945015000000    0.5260820000000000 C
   0.8847214879999999    0.6249945015000000    0.0260820000000000 C
   0.8847214879999999    0.6249945015000000    0.5260820000000000 C
   0.3847435115000000    0.1250005065000000    0.2760744990000000 C
   0.3847435115000000    0.1250005065000000    0.7760744989999999 C
   0.3847435115000000    0.6250005064999999    0.2760744990000000 C
   0.3847435115000000    0.6250005064999999    0.7760744989999999 C
   0.8847435114999999    0.1250005065000000    0.2760744990000000 C
   0.8847435114999999    0.1250005065000000    0.7760744989999999 C
   0.8847435114999999    0.6250005064999999    0.2760744990000000 C
   0.8847435114999999    0.6250005064999999    0.7760744989999999 C
   0.1152565030000000    0.3750005064999999    0.2239255010000000 C
   0.1152565030000000    0.3750005064999999    0.7239255010000000 C
   0.1152565030000000    0.8750005064999999    0.2239255010000000 C
   0.1152565030000000    0.8750005064999999    0.7239255010000000 C
   0.6152565030000000    0.3750005064999999    0.2239255010000000 C
   0.6152565030000000    0.3750005064999999    0.7239255010000000 C
   0.6152565030000000    0.8750005064999999    0.2239255010000000 C
   0.6152565030000000    0.8750005064999999    0.7239255010000000 C
   0.1152784975000000    0.3749944865000000    0.4739179910000000 C
   0.1152784975000000    0.3749944865000000    0.9739179910000000 C
   0.1152784975000000    0.8749944865000000    0.4739179910000000 C
   0.1152784975000000    0.8749944865000000    0.9739179910000000 C
   0.6152784975000000    0.3749944865000000    0.4739179910000000 C
   0.6152784975000000    0.3749944865000000    0.9739179910000000 C
   0.6152784975000000    0.8749944865000000    0.4739179910000000 C
   0.6152784975000000    0.8749944865000000    0.9739179910000000 C
   0.1042540000000000    0.3750210105000000    0.0056735000000000 O
   0.1042540000000000    0.3750210105000000    0.5056735000000000 O
   0.1042540000000000    0.8750210104999999    0.0056735000000000 O
   0.1042540000000000    0.8750210104999999    0.5056735000000000 O
   0.6042540000000000    0.3750210105000000    0.0056735000000000 O
   0.6042540000000000    0.3750210105000000    0.5056735000000000 O
   0.6042540000000000    0.8750210104999999    0.0056735000000000 O
   0.6042540000000000    0.8750210104999999    0.5056735000000000 O
   0.1042409985000000    0.3749915065000000    0.2556540070000000 O
   0.1042409985000000    0.3749915065000000    0.7556540070000001 O
   0.1042409985000000    0.8749915064999999    0.2556540070000000 O
   0.1042409985000000    0.8749915064999999    0.7556540070000001 O
   0.6042409985000000    0.3749915065000000    0.2556540070000000 O
   0.6042409985000000    0.3749915065000000    0.7556540070000001 O
   0.6042409985000000    0.8749915064999999    0.2556540070000000 O
   0.6042409985000000    0.8749915064999999    0.7556540070000001 O
   0.3957589865000000    0.1249914990000000    0.2443459930000000 O
   0.3957589865000000    0.1249914990000000    0.7443459930000000 O
   0.3957589865000000    0.6249914990000001    0.2443459930000000 O
   0.3957589865000000    0.6249914990000001    0.7443459930000000 O
   0.8957589864999999    0.1249914990000000    0.2443459930000000 O
   0.8957589865000001    0.1249914990000000    0.7443459930000000 O
   0.8957589864999999    0.6249914990000001    0.2443459930000000 O
   0.8957589865000001    0.6249914990000001    0.7443459930000000 O
   0.3957459924999999    0.1250209955000000    0.4943265020000000 O
   0.3957459924999999    0.1250209955000000    0.9943265020000001 O
   0.3957459924999999    0.6250209955000000    0.4943265020000000 O
   0.3957459924999999    0.6250209955000000    0.9943265020000001 O
   0.8957459924999999    0.1250209955000000    0.4943265020000000 O
   0.8957459925000000    0.1250209955000000    0.9943265020000001 O
   0.8957459924999999    0.6250209955000000    0.4943265020000000 O
   0.8957459925000000    0.6250209955000000    0.9943265020000001 O
   0.2818380000000000    0.1249864995000000    0.0422725005000000 O
   0.2818380000000000    0.1249864995000000    0.5422725005000001 O
   0.2818380000000000    0.6249864995000000    0.0422725005000000 O
   0.2818380000000000    0.6249864995000000    0.5422725005000001 O
   0.7818379999999999    0.1249864995000000    0.0422725005000000 O
   0.7818380000000000    0.1249864995000000    0.5422725005000001 O
   0.7818379999999999    0.6249864995000000    0.0422725005000000 O
   0.7818380000000000    0.6249864995000000    0.5422725005000001 O
   0.2818599939999999    0.1252705010000000    0.2922435105000000 O
   0.2818599939999999    0.1252705010000000    0.7922435105000001 O
   0.2818599939999999    0.6252705010000000    0.2922435105000000 O
   0.2818599939999999    0.6252705010000000    0.7922435105000001 O
   0.7818599939999999    0.1252705010000000    0.2922435105000000 O
   0.7818599939999999    0.1252705010000000    0.7922435105000001 O
   0.7818599939999999    0.6252705010000000    0.2922435105000000 O
   0.7818599939999999    0.6252705010000000    0.7922435105000001 O
   0.2181400060000000    0.3752704860000000    0.2077565045000000 O
   0.2181400060000000    0.3752704860000000    0.7077565045000000 O
   0.2181400060000000    0.8752704860000000    0.2077565045000000 O
   0.2181400060000000    0.8752704860000000    0.7077565045000000 O
   0.7181400059999999    0.3752704860000000    0.2077565045000000 O
   0.7181400059999999    0.3752704860000000    0.7077565045000000 O
   0.7181400059999999    0.8752704860000000    0.2077565045000000 O
   0.7181400059999999    0.8752704860000000    0.7077565045000000 O
   0.2181620000000000    0.3749864995000000    0.4577274920000000 O
   0.2181620000000000    0.3749864995000000    0.9577274920000000 O
   0.2181620000000000    0.8749864995000000    0.4577274920000000 O
   0.2181620000000000    0.8749864995000000    0.9577274920000000 O
   0.7181620000000001    0.3749864995000000    0.4577274920000000 O
   0.7181619999999999    0.3749864995000000    0.9577274920000000 O
   0.7181620000000001    0.8749864995000000    0.4577274920000000 O
   0.7181619999999999    0.8749864995000000    0.9577274920000000 O
   0.4750530124999999    0.1249660030000000    0.0478900000000000 O
   0.4750530124999999    0.1249660030000000    0.5478900000000000 O
   0.4750530124999999    0.6249660029999999    0.0478900000000000 O
   0.4750530124999999    0.6249660029999999    0.5478900000000000 O
   0.9750530125000000    0.1249660030000000    0.0478900000000000 O
   0.9750530125000000    0.1249660030000000    0.5478900000000000 O
   0.9750530125000000    0.6249660029999999    0.0478900000000000 O
   0.9750530125000000    0.6249660029999999    0.5478900000000000 O
   0.4750260115000000    0.1247539965000000    0.2979204955000000 O
   0.4750260115000000    0.1247539965000000    0.7979204955000001 O
   0.4750260115000000    0.6247539965000000    0.2979204955000000 O
   0.4750260115000000    0.6247539965000000    0.7979204955000001 O
   0.9750260114999999    0.1247539965000000    0.2979204955000000 O
   0.9750260115000000    0.1247539965000000    0.7979204955000001 O
   0.9750260114999999    0.6247539965000000    0.2979204955000000 O
   0.9750260115000000    0.6247539965000000    0.7979204955000001 O
   0.0249739995000000    0.3747540115000000    0.2020795045000000 O
   0.0249739995000000    0.3747540115000000    0.7020795045000000 O
   0.0249739995000000    0.8747540115000000    0.2020795045000000 O
   0.0249739995000000    0.8747540115000000    0.7020795045000000 O
   0.5249739995000000    0.3747540115000000    0.2020795045000000 O
   0.5249739995000000    0.3747540115000000    0.7020795045000000 O
   0.5249739995000000    0.8747540115000000    0.2020795045000000 O
   0.5249739995000000    0.8747540115000000    0.7020795045000000 O
   0.0249470005000000    0.3749659955000000    0.4521099925000000 O
   0.0249470005000000    0.3749659955000000    0.9521099924999999 O
   0.0249470005000000    0.8749659955000000    0.4521099925000000 O
   0.0249470005000000    0.8749659955000000    0.9521099924999999 O
   0.5249470004999999    0.3749659955000000    0.4521099925000000 O
   0.5249470005000000    0.3749659955000000    0.9521099924999999 O
   0.5249470004999999    0.8749659955000000    0.4521099925000000 O
   0.5249470005000000    0.8749659955000000    0.9521099924999999 O
   0.1951050015000000    0.1250460000000000    0.1104020030000000 O
   0.1951050015000000    0.1250460000000000    0.6104020030000000 O
   0.1951050015000000    0.6250460000000000    0.1104020030000000 O
   0.1951050015000000    0.6250460000000000    0.6104020030000000 O
   0.6951050015000000    0.1250460000000000    0.1104020030000000 O
   0.6951050015000000    0.1250460000000000    0.6104020030000000 O
   0.6951050015000000    0.6250460000000000    0.1104020030000000 O
   0.6951050015000000    0.6250460000000000    0.6104020030000000 O
   0.1952240020000000    0.1249189975000000    0.3604795040000000 O
   0.1952240020000000    0.1249189975000000    0.8604795040000001 O
   0.1952240020000000    0.6249189975000000    0.3604795040000000 O
   0.1952240020000000    0.6249189975000000    0.8604795040000001 O
   0.6952240020000000    0.1249189975000000    0.3604795040000000 O
   0.6952240020000000    0.1249189975000000    0.8604795040000001 O
   0.6952240020000000    0.6249189975000000    0.3604795040000000 O
   0.6952240020000000    0.6249189975000000    0.8604795040000001 O
   0.3047760130000000    0.3749189975000000    0.1395204960000000 O
   0.3047760130000000    0.3749189975000000    0.6395204960000000 O
   0.3047760130000000    0.8749189974999999    0.1395204960000000 O
   0.3047760130000000    0.8749189974999999    0.6395204960000000 O
   0.8047760130000000    0.3749189975000000    0.1395204960000000 O
   0.8047760130000000    0.3749189975000000    0.6395204960000000 O
   0.8047760130000000    0.8749189974999999    0.1395204960000000 O
   0.8047760130000000    0.8749189974999999    0.6395204960000000 O
   0.3048950135000000    0.3750460150000000    0.3895980120000000 O
   0.3048950135000000    0.3750460150000000    0.8895980120000000 O
   0.3048950135000000    0.8750460149999999    0.3895980120000000 O
   0.3048950135000000    0.8750460149999999    0.8895980120000000 O
   0.8048950134999999    0.3750460150000000    0.3895980120000000 O
   0.8048950134999999    0.3750460150000000    0.8895980120000000 O
   0.8048950134999999    0.8750460149999999    0.3895980120000000 O
   0.8048950134999999    0.8750460149999999    0.8895980120000000 O
   0.0218610000000000    0.3754819930000000    0.1194925010000000 O
   0.0218610000000000    0.3754819930000000    0.6194925010000000 O
   0.0218610000000000    0.8754819929999998    0.1194925010000000 O
   0.0218610000000000    0.8754819929999998    0.6194925010000000 O
   0.5218609999999999    0.3754819930000000    0.1194925010000000 O
   0.5218609999999999    0.3754819930000000    0.6194925010000000 O
   0.5218609999999999    0.8754819929999998    0.1194925010000000 O
   0.5218609999999999    0.8754819929999998    0.6194925010000000 O
   0.0220205000000000    0.3750300110000000    0.3695105015000000 O
   0.0220205000000000    0.3750300110000000    0.8695105015000000 O
   0.0220205000000000    0.8750300110000001    0.3695105015000000 O
   0.0220205000000000    0.8750300110000001    0.8695105015000000 O
   0.5220205000000000    0.3750300110000000    0.3695105015000000 O
   0.5220205000000000    0.3750300110000000    0.8695105015000000 O
   0.5220205000000000    0.8750300110000001    0.3695105015000000 O
   0.5220205000000000    0.8750300110000001    0.8695105015000000 O
   0.4779795110000000    0.1250299960000000    0.1304894985000000 O
   0.4779795110000000    0.1250299960000000    0.6304894985000000 O
   0.4779795110000000    0.6250299960000000    0.1304894985000000 O
   0.4779795110000000    0.6250299960000000    0.6304894985000000 O
   0.9779795109999999    0.1250299960000000    0.1304894985000000 O
   0.9779795109999999    0.1250299960000000    0.6304894985000000 O
   0.9779795109999999    0.6250299960000000    0.1304894985000000 O
   0.9779795109999999    0.6250299960000000    0.6304894985000000 O
   0.4781390129999999    0.1254819930000000    0.3805074990000000 O
   0.4781390129999999    0.1254819930000000    0.8805074990000000 O
   0.4781390129999999    0.6254819930000000    0.3805074990000000 O
   0.4781390129999999    0.6254819930000000    0.8805074990000000 O
   0.9781390129999999    0.1254819930000000    0.3805074990000000 O
   0.9781390129999999    0.1254819930000000    0.8805074990000000 O
   0.9781390129999999    0.6254819930000000    0.3805074990000000 O
   0.9781390129999999    0.6254819930000000    0.8805074990000000 O
   0.3659434914999999    0.4696629940000000    0.0862059965000000 O
   0.3659434914999999    0.4696629940000000    0.5862059965000000 O
   0.3659434914999999    0.9696629940000000    0.0862059965000000 O
   0.3659434914999999    0.9696629940000000    0.5862059965000000 O
   0.8659434914999999    0.4696629940000000    0.0862059965000000 O
   0.8659434914999999    0.4696629940000000    0.5862059965000000 O
   0.8659434914999999    0.9696629940000000    0.0862059965000000 O
   0.8659434914999999    0.9696629940000000    0.5862059965000000 O
   0.3662995099999999    0.4696730075000000    0.3361965120000000 O
   0.3662995099999999    0.4696730075000000    0.8361965120000000 O
   0.3662995099999999    0.9696730075000000    0.3361965120000000 O
   0.3662995099999999    0.9696730075000000    0.8361965120000000 O
   0.8662995099999999    0.4696730075000000    0.3361965120000000 O
   0.8662995099999999    0.4696730075000000    0.8361965120000000 O
   0.8662995099999999    0.9696730075000000    0.3361965120000000 O
   0.8662995099999999    0.9696730075000000    0.8361965120000000 O
   0.3665409980000000    0.2802464960000000    0.0861610025000000 O
   0.3665409980000000    0.2802464960000000    0.5861610025000000 O
   0.3665409980000000    0.7802464960000000    0.0861610025000000 O
   0.3665409980000000    0.7802464960000000    0.5861610025000000 O
   0.8665409980000000    0.2802464960000000    0.0861610025000000 O
   0.8665409980000001    0.2802464960000000    0.5861610025000000 O
   0.8665409980000000    0.7802464960000000    0.0861610025000000 O
   0.8665409980000001    0.7802464960000000    0.5861610025000000 O
   0.3662540020000000    0.2802920045000000    0.3361895085000000 O
   0.3662540020000000    0.2802920045000000    0.8361895085000001 O
   0.3662540020000000    0.7802920045000000    0.3361895085000000 O
   0.3662540020000000    0.7802920045000000    0.8361895085000001 O
   0.8662540020000000    0.2802920045000000    0.3361895085000000 O
   0.8662540019999998    0.2802920045000000    0.8361895085000001 O
   0.8662540020000000    0.7802920045000000    0.3361895085000000 O
   0.8662540019999998    0.7802920045000000    0.8361895085000001 O
   0.1337005050000000    0.2196729930000000    0.1638035030000000 O
   0.1337005050000000    0.2196729930000000    0.6638035030000000 O
   0.1337005050000000    0.7196729930000000    0.1638035030000000 O
   0.1337005050000000    0.7196729930000000    0.6638035030000000 O
   0.6337005050000000    0.2196729930000000    0.1638035030000000 O
   0.6337005050000000    0.2196729930000000    0.6638035030000000 O
   0.6337005050000000    0.7196729930000000    0.1638035030000000 O
   0.6337005050000000    0.7196729930000000    0.6638035030000000 O
   0.1340564935000000    0.2196629940000000    0.4137940110000000 O
   0.1340564935000000    0.2196629940000000    0.9137940110000000 O
   0.1340564935000000    0.7196629940000000    0.4137940110000000 O
   0.1340564935000000    0.7196629940000000    0.9137940110000000 O
   0.6340564934999999    0.2196629940000000    0.4137940110000000 O
   0.6340564934999999    0.2196629940000000    0.9137940110000000 O
   0.6340564934999999    0.7196629940000000    0.4137940110000000 O
   0.6340564934999999    0.7196629940000000    0.9137940110000000 O
   0.1337459980000000    0.0302920005000000    0.1638105065000000 O
   0.1337459980000000    0.0302920005000000    0.6638105065000001 O
   0.1337459980000000    0.5302920004999999    0.1638105065000000 O
   0.1337459980000000    0.5302920004999999    0.6638105065000001 O
   0.6337459980000000    0.0302920005000000    0.1638105065000000 O
   0.6337459980000000    0.0302920005000000    0.6638105065000001 O
   0.6337459980000000    0.5302920004999999    0.1638105065000000 O
   0.6337459980000000    0.5302920004999999    0.6638105065000001 O
   0.1334590020000000    0.0302465000000000    0.4138390124999999 O
   0.1334590020000000    0.0302465000000000    0.9138390124999999 O
   0.1334590020000000    0.5302465000000000    0.4138390124999999 O
   0.1334590020000000    0.5302465000000000    0.9138390124999999 O
   0.6334590019999999    0.0302465000000000    0.4138390124999999 O
   0.6334590019999999    0.0302465000000000    0.9138390124999999 O
   0.6334590019999999    0.5302465000000000    0.4138390124999999 O
   0.6334590019999999    0.5302465000000000    0.9138390124999999 O
