Li14 P6 Se22                            
   1.00000000000000     
     6.6377681805913511    0.0010530894524479    0.0719406118763995
    -2.7962042525612354   12.7969999956416167    0.0313419040140862
    -3.0517555905703460   -4.6174810818897791   11.9698569453261285
   Li   P    Se
    13     6    22
Direct
  0.7575176170739211  0.6667263201312205  0.0985576949967071
  0.2030030525155393  0.0221642787993360  0.7504227470356422
  0.7006817853287751  0.3330383701201541  0.5052647817054157
  0.5986210596518621  0.8613146900648891  0.8802271790394547
  0.6939172081702738  0.1745679289149291  0.6988947845718571
  0.3060827910547693  0.8254320717976361  0.3011052153423057
  0.7969969469573622  0.9778357222962368  0.2495772540166156
  0.8348718200005735  0.3785500867371471  0.1108907060727960
  0.9061818247708906  0.7003622407788010  0.7025202549399876
  0.1651281760616522  0.6214499132161968  0.8891092937548923
  0.4013789414522136  0.1386853084010033  0.1197728227393098
  0.2993182140118258  0.6669616305415627  0.4947352211902449
  0.0938181733999176  0.2996377598307514  0.2974797465813928
  0.4711312627122827  0.4710218810058195  0.2695166415013237
  0.8170326021096210  0.7777357652754369  0.4489670736878013
  0.8511499111092500  0.1624533239537105  0.9391037242705009
  0.1488500819314501  0.8375466759258241  0.0608962774955293
  0.5288687414497824  0.5289781289315010  0.7304833542945228
  0.1829673932484421  0.2222642397128712  0.5510329238708767
  0.9025900830650943  0.8172338120538449  0.3101071784118630
  0.1686202891764689  0.5084642654700483  0.2922156169068428
  0.7580030226901002  0.5885004493820556  0.4233701175171746
  0.4446827236331035  0.1589217353310862  0.5095052469562750
  0.5339591300000323  0.4746555249035477  0.1126164796686441
  0.4660408709428284  0.5253444754727172  0.8873835256223176
  0.5553172408368994  0.8410782546570463  0.4904947385196043
  0.0992170879706205  0.8155143129002109  0.5984387224477505
  0.3878957881254821  0.9810290787137148  0.2066374546600131
  0.1795496583553475  0.1442476876411205  0.9416018451584898
  0.4867922845581987  0.3138212012108377  0.3010564782557865
  0.9007829202539825  0.1844856799109008  0.4015612740887933
  0.2419969794258436  0.4114995372454995  0.5766298696423555
  0.7963787997275897  0.1724587330735055  0.1025824657635096
  0.6121042530815597  0.0189709394463528  0.7933625680950341
  0.8204502928863441  0.8557523129098676  0.0583981535593882
  0.0974099225073269  0.1827661876796791  0.6898928143209762
  0.8336588762403719  0.3187305244443557  0.9062286206730584
  0.8313797230026794  0.4915357358778716  0.7077843947792668
  0.5132077181879385  0.6861788134720939  0.6989435275435837
  0.2036212165184502  0.8275412637800214  0.8974175130882402
  0.1663411323851808  0.6812694582984058  0.0937713903513031
 
  0.00000000E+00  0.00000000E+00  0.00000000E+00
  0.00000000E+00  0.00000000E+00  0.00000000E+00
  0.00000000E+00  0.00000000E+00  0.00000000E+00
  0.00000000E+00  0.00000000E+00  0.00000000E+00
  0.00000000E+00  0.00000000E+00  0.00000000E+00
  0.00000000E+00  0.00000000E+00  0.00000000E+00
  0.00000000E+00  0.00000000E+00  0.00000000E+00
  0.00000000E+00  0.00000000E+00  0.00000000E+00
  0.00000000E+00  0.00000000E+00  0.00000000E+00
  0.00000000E+00  0.00000000E+00  0.00000000E+00
  0.00000000E+00  0.00000000E+00  0.00000000E+00
  0.00000000E+00  0.00000000E+00  0.00000000E+00
  0.00000000E+00  0.00000000E+00  0.00000000E+00
  0.00000000E+00  0.00000000E+00  0.00000000E+00
  0.00000000E+00  0.00000000E+00  0.00000000E+00
  0.00000000E+00  0.00000000E+00  0.00000000E+00
  0.00000000E+00  0.00000000E+00  0.00000000E+00
  0.00000000E+00  0.00000000E+00  0.00000000E+00
  0.00000000E+00  0.00000000E+00  0.00000000E+00
  0.00000000E+00  0.00000000E+00  0.00000000E+00
  0.00000000E+00  0.00000000E+00  0.00000000E+00
  0.00000000E+00  0.00000000E+00  0.00000000E+00
  0.00000000E+00  0.00000000E+00  0.00000000E+00
  0.00000000E+00  0.00000000E+00  0.00000000E+00
  0.00000000E+00  0.00000000E+00  0.00000000E+00
  0.00000000E+00  0.00000000E+00  0.00000000E+00
  0.00000000E+00  0.00000000E+00  0.00000000E+00
  0.00000000E+00  0.00000000E+00  0.00000000E+00
  0.00000000E+00  0.00000000E+00  0.00000000E+00
  0.00000000E+00  0.00000000E+00  0.00000000E+00
  0.00000000E+00  0.00000000E+00  0.00000000E+00
  0.00000000E+00  0.00000000E+00  0.00000000E+00
  0.00000000E+00  0.00000000E+00  0.00000000E+00
  0.00000000E+00  0.00000000E+00  0.00000000E+00
  0.00000000E+00  0.00000000E+00  0.00000000E+00
  0.00000000E+00  0.00000000E+00  0.00000000E+00
  0.00000000E+00  0.00000000E+00  0.00000000E+00
  0.00000000E+00  0.00000000E+00  0.00000000E+00
  0.00000000E+00  0.00000000E+00  0.00000000E+00
  0.00000000E+00  0.00000000E+00  0.00000000E+00
  0.00000000E+00  0.00000000E+00  0.00000000E+00
  0.00000000E+00  0.00000000E+00  0.00000000E+00
