Ca8 Ti12 F42                            
   1.00000000000000     
     7.3326549999999999   -0.0489330000000000   -0.1238650000000000
    -3.6669399999999999    6.4988650000000003    0.0599490000000000
     0.1502390000000000    0.0194770000000000   18.8753549999999990
   Ca   Ti   F 
     8    12    42
Direct
  0.7806176666256356  0.9871085762781614  0.8442786756751778
  0.8234566925226066  0.5071549580786291  0.3649943693587726
  0.4974739590235824  0.3713222632567307  0.6848108141392949
  0.1490600639760844  0.1819756532585491  1.0061188905560465
  0.0020580949807987  0.8572614321431467  0.6887232680874665
  0.8105086547709719  1.0039678235612417  0.3535850570489315
  0.0016650815356583  0.8311910967385522  0.1801658419389058
  0.1722390140735749  0.1949950891032005  0.5131006372960963
  0.3201106746992660  1.0088734282547918  0.3474713678241366
 -0.0087506681815095  0.3498134773232680  0.6729971070015651
  0.6468747423494238  0.6820276490945921  0.0169628574015123
  0.3361644601059881  0.0730963292032045  0.8488737997756138
  0.9757931668188677  0.3224221982257259  0.1885504818735128
  0.6856537308144527  0.6705276818507894  0.5168650794689751
  0.4971572870577887  0.8457355442590874  0.1871476280430009
  0.1288939572900622  0.6715710521209701  0.5190091028576551
  0.3264013162014181  0.5068837412784668  0.8449537319677006
  0.7763833494806271  0.5076300939715832  0.8434747429056121
  0.6842715347273026  0.2254132627951862  0.5184292447469339
  0.4996320317869492  0.3255066914809942  0.1818188334430977
  0.6807340753713487  0.2138237217329271  0.6307588693422180
  0.7607900839430898  0.5732930931002731  0.9461848518535630
  0.5162897696876677  0.2844786069093793  0.2921420500466375
  0.1588551811410956  0.7426632619639816  0.4083382421772957
  0.5349324882083898  0.7993489013587437  0.0846755059237961
  0.2551404934531337  0.4619504460152139  0.7378703182435410
  0.8012784966217521  0.9593886918088178  0.9606125591242287
 -0.0084975973052033  0.8295916792682826  0.2999936039428511
  0.1605469097444891  0.1902531963089595  0.6346351384277116
  0.9415401934737890  0.8555754454956428  0.0679933904525443
  0.8802485091732292  0.0784411910000857  0.7323554288566227
  0.1521587735644296  0.1330847084432678  0.3965084773488957
  0.4728763008612721  0.3950356336762958  0.0749445071217061
  0.6265384888851182  0.1649936199222901  0.4052780600691364
  0.8387843204951489  0.4935202958403958  0.7332108939765225
  0.3712894845805669  0.5253126901891653  0.9556089906747727
  0.1305093686291649  0.6641464135233797  0.6322778820578523
  0.4888504175776441  0.8890649963424969  0.2980172468413411
  0.8159142843521555  0.4756384761023879  0.1619476022716208
  0.5086947761866578  0.3649220510658003  0.5529737090578746
  0.6519240570413813  0.2004319953672285  0.8590191088810785
  0.4117309636293502  0.8204359632256562  0.8407296247123599
  0.3628294044938237  0.5875447139341761  0.5034908643062650
  0.1876726962819905  0.6324799894537118  0.1956295282934231
  0.9391400274587346  0.3268067664034079  0.2996289512979169
  0.6802631142313398  0.6878111185880895  0.6314003320022998
  0.3097983782159513  0.0356156066393008  0.9514310641013458
  0.3301196364637526  0.0574937135721377  0.7389300709097114
  0.6785419654397177  0.6892868796444668  0.4043798284427665
  0.0199769576372457  0.2972803925845576  0.0869287383206615
  0.1937571273119333  0.2280258442816522  0.2044721487923148
  0.7907828354278476  1.0073599859277924  0.4898527507594070
  0.0144424877487445  0.8352530409377181  0.8241261642202081
  0.1395851922245737  0.1972457331849722  0.8731004583842752
 -0.0032343551299776  0.8527421201653324  0.5495267315611958
  0.8130642650633209  1.0083648840884050  0.2096508009479082
  0.0348355870481063  0.4764121847459680  0.8605185259897421
  0.5817820530467547  0.6226321457777054  0.2076766198724452
  0.3720128276717158  0.9890574812628870  0.5153755101885046
  0.3574200895155619  0.0150288409066948  0.1516646469130508
  0.6292236128915807  0.6574588384368697  0.7962117964031675
 -0.0022447957929004  0.3595998242629801  0.5548506181149876
 
             NaN             NaN             NaN
             NaN             NaN             NaN
             NaN             NaN             NaN
             NaN             NaN             NaN
             NaN             NaN             NaN
             NaN             NaN             NaN
             NaN             NaN             NaN
             NaN             NaN             NaN
             NaN             NaN             NaN
             NaN             NaN             NaN
             NaN             NaN             NaN
             NaN             NaN             NaN
             NaN             NaN             NaN
             NaN             NaN             NaN
             NaN             NaN             NaN
             NaN             NaN             NaN
             NaN             NaN             NaN
             NaN             NaN             NaN
             NaN             NaN             NaN
             NaN             NaN             NaN
             NaN             NaN             NaN
             NaN             NaN             NaN
             NaN             NaN             NaN
             NaN             NaN             NaN
             NaN             NaN             NaN
             NaN             NaN             NaN
             NaN             NaN             NaN
             NaN             NaN             NaN
             NaN             NaN             NaN
             NaN             NaN             NaN
             NaN             NaN             NaN
             NaN             NaN             NaN
             NaN             NaN             NaN
             NaN             NaN             NaN
             NaN             NaN             NaN
             NaN             NaN             NaN
             NaN             NaN             NaN
             NaN             NaN             NaN
             NaN             NaN             NaN
             NaN             NaN             NaN
             NaN             NaN             NaN
             NaN             NaN             NaN
             NaN             NaN             NaN
             NaN             NaN             NaN
             NaN             NaN             NaN
             NaN             NaN             NaN
             NaN             NaN             NaN
             NaN             NaN             NaN
             NaN             NaN             NaN
             NaN             NaN             NaN
             NaN             NaN             NaN
             NaN             NaN             NaN
             NaN             NaN             NaN
             NaN             NaN             NaN
             NaN             NaN             NaN
             NaN             NaN             NaN
             NaN             NaN             NaN
             NaN             NaN             NaN
             NaN             NaN             NaN
             NaN             NaN             NaN
             NaN             NaN             NaN
             NaN             NaN             NaN
