Ca8 Ti12 F42                            
   1.00000000000000     
     7.3326549999999999   -0.0489330000000000   -0.1238650000000000
    -3.6669399999999999    6.4988650000000003    0.0599490000000000
     0.1502390000000000    0.0194770000000000   18.8753549999999990
   Ca   Ti   F 
     8    12    42
Direct
  0.7958724552406737  0.9739595227601916  0.8305386226284251
  0.8403965939694746  0.4963607665862186  0.3513223814032714
  0.5146492055713391  0.3584235174496964  0.6713704371279492
  0.1591238521684841  0.1687113396347236 -0.0065039391137065
  0.0200006636786802  0.8452535642777920  0.6757320549511653
  0.8233888677306024  0.9921410030025783  0.3400656936160784
  0.0158898921072008  0.8214235509312522  0.1668401704383884
  0.1891853350407338  0.1835932225094586  0.4995642594034024
  0.3342182216317441 -0.0017344545819324  0.3339277891254058
  0.0088207220748815  0.3372133756817610  0.6594916415663058
  0.6607578586465049  0.6695123990604640  0.0029206503232411
  0.3506954088633257  0.0591816875554655  0.8362361793935632
  0.9844796458157876  0.3082031088470415  0.1741583725058651
  0.7027092774198713  0.6589825026106402  0.5031320418297170
  0.5118464665568725  0.8374454623920997  0.1720372178557824
  0.1462328351948408  0.6602059322363538  0.5051589789266547
  0.3421593304327734  0.4928401373641629  0.8314229626573719
  0.7919783571305462  0.4928438647283397  0.8299500114921687
  0.7014000850750522  0.2141214400171663  0.5045301563911918
  0.5104386023428196  0.3142234610045608  0.1679079657022833
  0.6976785084274376  0.2015340821624885  0.6169828595244324
  0.7745037790474337  0.5607017808693094  0.9332234006489555
  0.5258788545824850  0.2746009104703084  0.2787633427622544
  0.1762570013300253  0.7320443512011459  0.3945992583835130
  0.5466674772208093  0.7874312629032996  0.0699067015752781
  0.2726543471867334  0.4497139122358303  0.7241916230648728
  0.8157878024707832  0.9453047637965861  0.9468694047370564
  1.0067763803999292  0.8186712214623251  0.2867561208398643
  0.1778700159150485  0.1777091397849380  0.6211273257641096
  0.9524188623632011  0.8397344019606603  0.0550084624379347
  0.8971418037258377  0.0662039814193829  0.7187365347872263
  0.1656611092227993  0.1209376482587198  0.3831434566202145
  0.4867833806406296  0.3827353322002724  0.0612865088341930
  0.6414315198304639  0.1547882005383425  0.3911981770885201
  0.8554037462277625  0.4803115364731381  0.7199388503723635
  0.3836788931237062  0.5100875537161018  0.9422026688127311
  0.1473155591064156  0.6525247966711173  0.6186684976689166
  0.5020267792399175  0.8802541218943435  0.2835131870770101
  0.8260731559434479  0.4655137064261766  0.1563953674221701
  0.5255688851557977  0.3533557793609056  0.5393590379403059
  0.6672086119619550  0.1882957591065436  0.8470460254993823
  0.4270806748564482  0.8066291874867553  0.8278435548113549
  0.3802155020930782  0.5765889492155496  0.4901688895870031
  0.2023907173695387  0.6199593477287877  0.1786229827712401
  0.9584488472241195  0.3167994670188837  0.2865354052353007
  0.6988452732339383  0.6754674036936159  0.6180096159568433
  0.3205677972183035  0.0222874087264367  0.9384797303043777
  0.3480939329239306  0.0452054740084875  0.7260737859772964
  0.6940419611922538  0.6773973251114822  0.3907439259043612
  0.0086420595366637  0.2740164096814175  0.0730805274751440
  0.2027020851229734  0.2149666098228204  0.1852146496375948
  0.8066239643200664 -0.0039171879836169  0.4759700745461469
  0.0307535850582494  0.8215534681585684  0.8104146705557810
  0.1548117516457395  0.1840055210595078  0.8591818907292458
  0.0139376244940051  0.8416543637621394  0.5354111228824753
  0.8253873715772605 -0.0050188177489211  0.1980495439804131
  0.0495363508243342  0.4620674023933460  0.8467626312836528
  0.5883882678106060  0.6103602976097819  0.1930260287465157
  0.3893107040193107  0.9776801817986454  0.5017740215624537
  0.3701693837242133  0.0049382250861959  0.1377031702671329
  0.6451749269446287  0.6440091066328633  0.7830733705726485
  0.0150288361702617  0.3479959827611964  0.5411569760956515
 
             NaN             NaN             NaN
             NaN             NaN             NaN
             NaN             NaN             NaN
             NaN             NaN             NaN
             NaN             NaN             NaN
             NaN             NaN             NaN
             NaN             NaN             NaN
             NaN             NaN             NaN
             NaN             NaN             NaN
             NaN             NaN             NaN
             NaN             NaN             NaN
             NaN             NaN             NaN
             NaN             NaN             NaN
             NaN             NaN             NaN
             NaN             NaN             NaN
             NaN             NaN             NaN
             NaN             NaN             NaN
             NaN             NaN             NaN
             NaN             NaN             NaN
             NaN             NaN             NaN
             NaN             NaN             NaN
             NaN             NaN             NaN
             NaN             NaN             NaN
             NaN             NaN             NaN
             NaN             NaN             NaN
             NaN             NaN             NaN
             NaN             NaN             NaN
             NaN             NaN             NaN
             NaN             NaN             NaN
             NaN             NaN             NaN
             NaN             NaN             NaN
             NaN             NaN             NaN
             NaN             NaN             NaN
             NaN             NaN             NaN
             NaN             NaN             NaN
             NaN             NaN             NaN
             NaN             NaN             NaN
             NaN             NaN             NaN
             NaN             NaN             NaN
             NaN             NaN             NaN
             NaN             NaN             NaN
             NaN             NaN             NaN
             NaN             NaN             NaN
             NaN             NaN             NaN
             NaN             NaN             NaN
             NaN             NaN             NaN
             NaN             NaN             NaN
             NaN             NaN             NaN
             NaN             NaN             NaN
             NaN             NaN             NaN
             NaN             NaN             NaN
             NaN             NaN             NaN
             NaN             NaN             NaN
             NaN             NaN             NaN
             NaN             NaN             NaN
             NaN             NaN             NaN
             NaN             NaN             NaN
             NaN             NaN             NaN
             NaN             NaN             NaN
             NaN             NaN             NaN
             NaN             NaN             NaN
             NaN             NaN             NaN
