Lu16 Mg8 S32
1.0
       10.9306983948         0.0000000000         0.0000000000
        0.0000000000        10.9306983948         0.0000000000
        0.0000000000         0.0000000000        10.9306983948
  Mg Lu   Mg    S
  1  16    6   32
Direct
   0.5000000000000000    0.5000000000000000    0.5000000000000000 Mg
     0.125000000         0.125000000         0.125000000
     0.375000000         0.375000000         0.125000000
     0.375000000         0.625000000         0.875000000
     0.125000000         0.875000000         0.875000000
     0.125000000         0.625000000         0.625000000
     0.375000000         0.875000000         0.625000000
     0.375000000         0.125000000         0.375000000
     0.125000000         0.375000000         0.375000000
     0.625000000         0.125000000         0.625000000
     0.875000000         0.375000000         0.625000000
     0.875000000         0.625000000         0.375000000
     0.625000000         0.875000000         0.375000000
     0.625000000         0.625000000         0.125000000
     0.875000000         0.875000000         0.125000000
     0.875000000         0.125000000         0.875000000
     0.625000000         0.375000000         0.875000000
     0.500000000         0.000000000         0.000000000
     0.250000000         0.750000000         0.250000000
     0.250000000         0.250000000         0.750000000
     0.000000000         0.000000000         0.500000000
     0.000000000         0.500000000         0.000000000
     0.750000000         0.250000000         0.250000000
     0.380992502         0.619007468         0.119007491
     0.369007498         0.869007468         0.869007468
     0.369007498         0.130992517         0.130992517
     0.619007468         0.619007468         0.880992532
     0.380992502         0.880992532         0.380992502
     0.130992517         0.369007498         0.130992517
     0.130992517         0.130992517         0.369007498
     0.619007468         0.380992502         0.119007491
     0.380992502         0.119007491         0.619007468
     0.369007498         0.369007498         0.369007498
     0.369007498         0.630992532         0.630992532
     0.619007468         0.119007491         0.380992502
     0.380992502         0.380992502         0.880992532
     0.130992517         0.869007468         0.630992532
     0.130992517         0.630992532         0.869007468
     0.619007468         0.880992532         0.619007468
     0.880992532         0.619007468         0.619007468
     0.869007468         0.869007468         0.369007498
     0.869007468         0.130992517         0.630992532
     0.119007491         0.619007468         0.380992502
     0.880992532         0.880992532         0.880992532
     0.630992532         0.369007498         0.630992532
     0.630992532         0.130992517         0.869007468
     0.119007491         0.380992502         0.619007468
     0.880992532         0.119007491         0.119007491
     0.869007468         0.369007498         0.869007468
     0.869007468         0.630992532         0.130992517
     0.119007491         0.119007491         0.880992532
     0.880992532         0.380992502         0.380992502
     0.630992532         0.869007468         0.130992517
     0.630992532         0.630992532         0.369007498
     0.119007491         0.880992532         0.119007491
