Dy16 Mg8 Se32
1.0
       11.6181278229         0.0000000000         0.0000000000
        0.0000000000        11.6181278229         0.0000000000
        0.0000000000         0.0000000000        11.6181278229
Mg   Dy   Mg   Se
1   16    6   32
Direct
     0.750000000         0.750000000         0.750000000
     0.375000000         0.125000000         0.375000000
     0.875000000         0.875000000         0.125000000
     0.625000000         0.875000000         0.375000000
     0.125000000         0.125000000         0.125000000
     0.375000000         0.625000000         0.875000000
     0.875000000         0.375000000         0.625000000
     0.625000000         0.375000000         0.875000000
     0.125000000         0.625000000         0.625000000
     0.875000000         0.125000000         0.875000000
     0.375000000         0.875000000         0.625000000
     0.125000000         0.875000000         0.875000000
     0.625000000         0.125000000         0.625000000
     0.875000000         0.625000000         0.375000000
     0.375000000         0.375000000         0.125000000
     0.125000000         0.375000000         0.375000000
     0.625000000         0.625000000         0.125000000
     0.000000000         0.000000000         0.500000000
     0.250000000         0.750000000         0.250000000
     0.000000000         0.500000000         0.000000000
     0.250000000         0.250000000         0.750000000
     0.500000000         0.000000000         0.000000000
     0.750000000         0.250000000         0.250000000
     0.379540771         0.879540741         0.379540771
     0.879540741         0.120459244         0.120459244
     0.120459244         0.879540741         0.120459244
     0.620459259         0.120459244         0.379540771
     0.129540756         0.129540756         0.370459229
     0.129540756         0.370459229         0.129540756
     0.370459229         0.129540756         0.129540756
     0.370459229         0.370459229         0.370459229
     0.379540771         0.379540771         0.879540741
     0.879540741         0.620459259         0.620459259
     0.120459244         0.379540771         0.620459259
     0.620459259         0.620459259         0.879540741
     0.129540756         0.629540741         0.870459259
     0.129540756         0.870459259         0.629540741
     0.370459229         0.629540741         0.629540741
     0.370459229         0.870459259         0.870459259
     0.879540741         0.879540741         0.879540741
     0.379540771         0.120459244         0.620459259
     0.620459259         0.879540741         0.620459259
     0.120459244         0.120459244         0.879540741
     0.629540741         0.129540756         0.870459259
     0.629540741         0.370459229         0.629540741
     0.870459259         0.129540756         0.629540741
     0.870459259         0.370459229         0.870459259
     0.879540741         0.379540771         0.379540771
     0.379540771         0.620459259         0.120459244
     0.620459259         0.379540771         0.120459244
     0.120459244         0.620459259         0.379540771
     0.629540741         0.629540741         0.370459229
     0.629540741         0.870459259         0.129540756
     0.870459259         0.629540741         0.129540756
     0.870459259         0.870459259         0.370459229
