Ca8 V12 F42
1.0
7.503187 0.033219 0.061479
-3.729241 6.501371 -0.054183
-0.456318 0.616251 18.459974
Ca V F
8 12 42
direct
0.825904 -0.001732 0.335299 Ca
0.497216 0.849426 0.666314 Ca
0.608080 0.131577 0.998771 Ca
0.993785 0.825946 0.663143 Ca
0.139241 0.620571 0.005613 Ca
0.936688 0.769943 0.169176 Ca
0.857587 0.008442 0.839519 Ca
0.196283 0.223325 0.498156 Ca
0.324031 0.994686 0.332175 V
1.005663 0.329698 0.667529 V
0.649817 0.648658 0.996491 V
0.331146 0.990287 0.826846 V
0.976082 0.296172 0.163101 V
0.687078 0.686013 0.501125 V
0.473981 0.803806 0.166457 V
0.180451 0.686485 0.502049 V
0.334878 0.499410 0.830361 V
0.829090 0.491675 0.829379 V
0.679600 0.178902 0.499547 V
0.471399 0.297853 0.159965 V
0.737027 0.182513 0.609500 F
0.805205 0.509119 0.941546 F
0.437849 0.232113 0.264424 F
0.203262 0.753293 0.398161 F
0.489856 0.765291 0.054835 F
0.285223 0.487071 0.720815 F
0.755269 0.943575 0.951617 F
0.047937 0.879301 0.276955 F
0.116278 0.162158 0.614850 F
0.932312 0.751063 0.049270 F
0.842978 0.023788 0.719107 F
0.166103 0.108361 0.389253 F
0.527491 0.366998 0.049114 F
0.598835 0.109540 0.391683 F
0.879119 0.488556 0.719259 F
0.368047 0.541045 0.941528 F
0.155327 0.625389 0.614991 F
0.478516 0.880028 0.273405 F
0.777115 0.406428 0.170269 F
0.561231 0.370244 0.507430 F
0.635657 0.181707 0.856817 F
0.463387 0.814537 0.803654 F
0.379049 0.579289 0.497468 F
0.162225 0.617802 0.143040 F
-0.005145 0.285975 0.269327 F
0.674196 0.715206 0.614414 F
0.309000 0.921388 0.940403 F
0.318371 0.989905 0.711683 F
0.710106 0.699873 0.394745 F
0.924245 0.300529 0.050072 F
0.170200 0.186522 0.145852 F
0.808661 0.997298 0.487550 F
0.019231 0.806764 0.807070 F
0.218573 0.185123 0.845978 F
0.992658 0.798984 0.528526 F
0.786305 -0.016689 0.175747 F
0.027111 0.383448 0.850554 F
0.570699 0.595293 0.187115 F
0.396768 0.963849 0.539282 F
0.419768 0.024823 0.119422 F
0.638498 0.607910 0.816848 F
0.983782 0.385155 0.479413 F
