Na48 Fe16 P16 C16 O112
1.0
   0.0000000000000000   10.4359020000000005    0.0000000000000000
  13.3625840000000000    0.0000000000000000    0.0000000000000000
   0.0000000000000000   -0.1941339999999966  -18.1722339999999924
Na Fe P C O
47 16 16 16 112
direct
   0.3831105000000000    0.3750000000000000    0.4582620000000000 Na
   0.3831105000000000    0.3750000000000000    0.9582620000000001 Na
   0.3831105000000000    0.8749999999999999    0.4582620000000000 Na
   0.3831105000000000    0.8749999999999999    0.9582620000000001 Na
   0.8831104999999999    0.3750000000000000    0.4582620000000000 Na
   0.8831105000000000    0.3750000000000000    0.9582620000000001 Na
   0.8831104999999999    0.8749999999999999    0.4582620000000000 Na
   0.8831105000000000    0.8749999999999999    0.9582620000000001 Na
   0.6254220000000000    0.2519685000000000    0.8689455000000001 Na
   0.6254220000000000    0.7519685000000000    0.3689455000000000 Na
   0.6254220000000000    0.7519685000000000    0.8689455000000001 Na
   0.1254219999999999    0.2519685000000000    0.3689455000000000 Na
   0.1254219999999999    0.2519685000000000    0.8689455000000001 Na
   0.1254219999999999    0.7519685000000000    0.3689455000000000 Na
   0.1254219999999999    0.7519685000000000    0.8689455000000001 Na
   0.3745779999999999    0.0019685000000001    0.1310545000000000 Na
   0.3745780000000000    0.0019685000000001    0.6310545000000000 Na
   0.3745779999999999    0.5019685000000000    0.1310545000000000 Na
   0.3745780000000000    0.5019685000000000    0.6310545000000000 Na
   0.8745780000000000    0.0019685000000001    0.1310545000000000 Na
   0.8745779999999999    0.0019685000000001    0.6310545000000000 Na
   0.8745780000000000    0.5019685000000000    0.1310545000000000 Na
   0.8745779999999999    0.5019685000000000    0.6310545000000000 Na
   0.3745779999999999    0.2480314999999999    0.1310545000000000 Na
   0.3745780000000000    0.2480314999999999    0.6310545000000000 Na
   0.3745779999999999    0.7480314999999998    0.1310545000000000 Na
   0.3745780000000000    0.7480314999999998    0.6310545000000000 Na
   0.8745780000000000    0.2480314999999999    0.1310545000000000 Na
   0.8745779999999999    0.2480314999999999    0.6310545000000000 Na
   0.8745780000000000    0.7480314999999998    0.1310545000000000 Na
   0.8745779999999999    0.7480314999999998    0.6310545000000000 Na
   0.1254220000000001    0.4980314999999999    0.3689455000000000 Na
   0.1254220000000001    0.4980314999999999    0.8689455000000001 Na
   0.1254220000000001    0.9980314999999998    0.3689455000000000 Na
   0.1254220000000001    0.9980314999999998    0.8689455000000001 Na
   0.6254220000000000    0.4980314999999999    0.3689455000000000 Na
   0.6254220000000000    0.4980314999999999    0.8689455000000001 Na
   0.6254220000000000    0.9980314999999998    0.3689455000000000 Na
   0.6254220000000000    0.9980314999999998    0.8689455000000001 Na
   0.1168895000000000    0.1250000000000000    0.0417380000000000 Na
   0.1168895000000000    0.1250000000000000    0.5417380000000001 Na
   0.1168895000000000    0.6250000000000000    0.0417380000000000 Na
   0.1168895000000000    0.6250000000000000    0.5417380000000001 Na
   0.6168895000000000    0.1250000000000000    0.0417380000000000 Na
   0.6168895000000000    0.1250000000000000    0.5417380000000001 Na
   0.6168895000000000    0.6250000000000000    0.0417380000000000 Na
   0.6168895000000000    0.6250000000000000    0.5417380000000001 Na
   0.1090465000000000    0.3750000000000000    0.1771285000000000 Fe
   0.1090465000000000    0.3750000000000000    0.6771285000000000 Fe
   0.1090465000000000    0.8749999999999999    0.1771285000000000 Fe
   0.1090465000000000    0.8749999999999999    0.6771285000000000 Fe
   0.6090464999999999    0.3750000000000000    0.1771285000000000 Fe
   0.6090464999999999    0.3750000000000000    0.6771285000000000 Fe
   0.6090464999999999    0.8749999999999999    0.1771285000000000 Fe
   0.6090464999999999    0.8749999999999999    0.6771285000000000 Fe
   0.3909535000000000    0.1250000000000000    0.3228715000000000 Fe
   0.3909535000000000    0.1250000000000000    0.8228715000000000 Fe
   0.3909535000000000    0.6250000000000000    0.3228715000000000 Fe
   0.3909535000000000    0.6250000000000000    0.8228715000000000 Fe
   0.8909535000000001    0.1250000000000000    0.3228715000000000 Fe
   0.8909535000000000    0.1250000000000000    0.8228715000000000 Fe
   0.8909535000000001    0.6250000000000000    0.3228715000000000 Fe
   0.8909535000000000    0.6250000000000000    0.8228715000000000 Fe
   0.1488520000000000    0.1250000000000000    0.2082020000000000 P
   0.1488520000000000    0.1250000000000000    0.7082020000000000 P
   0.1488520000000000    0.6250000000000000    0.2082020000000000 P
   0.1488520000000000    0.6250000000000000    0.7082020000000000 P
   0.6488520000000001    0.1250000000000000    0.2082020000000000 P
   0.6488520000000001    0.1250000000000000    0.7082020000000000 P
   0.6488520000000001    0.6250000000000000    0.2082020000000000 P
   0.6488520000000001    0.6250000000000000    0.7082020000000000 P
   0.3511480000000000    0.3750000000000000    0.2917980000000000 P
   0.3511480000000000    0.3750000000000000    0.7917980000000000 P
   0.3511480000000000    0.8749999999999999    0.2917980000000000 P
   0.3511480000000000    0.8749999999999999    0.7917980000000000 P
   0.8511479999999999    0.3750000000000000    0.2917980000000000 P
   0.8511480000000000    0.3750000000000000    0.7917980000000000 P
   0.8511479999999999    0.8749999999999999    0.2917980000000000 P
   0.8511480000000000    0.8749999999999999    0.7917980000000000 P
   0.1358955000000000    0.3750000000000000    0.0312110000000000 C
   0.1358955000000000    0.3750000000000000    0.5312110000000000 C
   0.1358955000000000    0.8749999999999999    0.0312110000000000 C
   0.1358955000000000    0.8749999999999999    0.5312110000000000 C
   0.6358954999999999    0.3750000000000000    0.0312110000000000 C
   0.6358954999999999    0.3750000000000000    0.5312110000000000 C
   0.6358954999999999    0.8749999999999999    0.0312110000000000 C
   0.6358954999999999    0.8749999999999999    0.5312110000000000 C
   0.3641044999999999    0.1250000000000000    0.4687890000000001 C
   0.3641044999999999    0.1250000000000000    0.9687890000000001 C
   0.3641044999999999    0.6250000000000000    0.4687890000000001 C
   0.3641044999999999    0.6250000000000000    0.9687890000000001 C
   0.8641044999999999    0.1250000000000000    0.4687890000000001 C
   0.8641045000000001    0.1250000000000000    0.9687890000000001 C
   0.8641044999999999    0.6250000000000000    0.4687890000000001 C
   0.8641045000000001    0.6250000000000000    0.9687890000000001 C
   0.0236815000000000    0.3750000000000000    0.0621900000000000 O
   0.0236815000000000    0.3750000000000000    0.5621900000000001 O
   0.0236815000000000    0.8749999999999999    0.0621900000000000 O
   0.0236815000000000    0.8749999999999999    0.5621900000000001 O
   0.5236815000000000    0.3750000000000000    0.0621900000000000 O
   0.5236815000000000    0.3750000000000000    0.5621900000000001 O
   0.5236815000000000    0.8749999999999999    0.0621900000000000 O
   0.5236815000000000    0.8749999999999999    0.5621900000000001 O
   0.4763185000000000    0.1250000000000000    0.4378100000000000 O
   0.4763185000000000    0.1250000000000000    0.9378100000000001 O
   0.4763185000000000    0.6250000000000000    0.4378100000000000 O
   0.4763185000000000    0.6250000000000000    0.9378100000000001 O
   0.9763185000000000    0.1250000000000000    0.4378100000000000 O
   0.9763185000000000    0.1250000000000000    0.9378100000000001 O
   0.9763185000000000    0.6250000000000000    0.4378100000000000 O
   0.9763185000000000    0.6250000000000000    0.9378100000000001 O
   0.2383220000000000    0.3750000000000000    0.0728655000000001 O
   0.2383220000000000    0.3750000000000000    0.5728655000000000 O
   0.2383220000000000    0.8749999999999999    0.0728655000000001 O
   0.2383220000000000    0.8749999999999999    0.5728655000000000 O
   0.7383220000000000    0.3750000000000000    0.0728655000000001 O
   0.7383220000000000    0.3750000000000000    0.5728655000000000 O
   0.7383220000000000    0.8749999999999999    0.0728655000000001 O
   0.7383220000000000    0.8749999999999999    0.5728655000000000 O
   0.2616780000000000    0.1250000000000000    0.4271345000000000 O
   0.2616780000000000    0.1250000000000000    0.9271345000000001 O
   0.2616780000000000    0.6250000000000000    0.4271345000000000 O
   0.2616780000000000    0.6250000000000000    0.9271345000000001 O
   0.7616780000000000    0.1250000000000000    0.4271345000000000 O
   0.7616780000000001    0.1250000000000000    0.9271345000000001 O
   0.7616780000000000    0.6250000000000000    0.4271345000000000 O
   0.7616780000000001    0.6250000000000000    0.9271345000000001 O
   0.1451145000000001    0.3750000000000000    0.4600255000000000 O
   0.1451145000000001    0.3750000000000000    0.9600254999999999 O
   0.1451145000000001    0.8749999999999999    0.4600255000000000 O
   0.1451145000000001    0.8749999999999999    0.9600254999999999 O
   0.6451145000000001    0.3750000000000000    0.4600255000000000 O
   0.6451144999999999    0.3750000000000000    0.9600254999999999 O
   0.6451145000000001    0.8749999999999999    0.4600255000000000 O
   0.6451144999999999    0.8749999999999999    0.9600254999999999 O
   0.3548855000000000    0.1250000000000000    0.0399745000000000 O
   0.3548855000000000    0.1250000000000000    0.5399745000000000 O
   0.3548855000000000    0.6250000000000000    0.0399745000000000 O
   0.3548855000000000    0.6250000000000000    0.5399745000000000 O
   0.8548854999999999    0.1250000000000000    0.0399745000000000 O
   0.8548854999999999    0.1250000000000000    0.5399745000000000 O
   0.8548854999999999    0.6250000000000000    0.0399745000000000 O
   0.8548854999999999    0.6250000000000000    0.5399745000000000 O
   0.1089760000000000    0.0319185000000000    0.1610665000000000 O
   0.1089760000000000    0.0319185000000000    0.6610665000000001 O
   0.1089760000000000    0.5319185000000000    0.1610665000000000 O
   0.1089760000000000    0.5319185000000000    0.6610665000000001 O
   0.6089760000000000    0.0319185000000000    0.1610665000000000 O
   0.6089760000000000    0.0319185000000000    0.6610665000000001 O
   0.6089760000000000    0.5319185000000000    0.1610665000000000 O
   0.6089760000000000    0.5319185000000000    0.6610665000000001 O
   0.3910239999999999    0.2819184999999999    0.3389335000000000 O
   0.3910239999999999    0.2819184999999999    0.8389335000000001 O
   0.3910239999999999    0.7819184999999998    0.3389335000000000 O
   0.3910239999999999    0.7819184999999998    0.8389335000000001 O
   0.8910239999999997    0.2819184999999999    0.3389335000000000 O
   0.8910239999999998    0.2819184999999999    0.8389335000000001 O
   0.8910239999999997    0.7819184999999998    0.3389335000000000 O
   0.8910239999999998    0.7819184999999998    0.8389335000000001 O
   0.3910239999999999    0.4680814999999999    0.3389335000000000 O
   0.3910239999999999    0.4680814999999999    0.8389335000000001 O
   0.3910239999999999    0.9680814999999998    0.3389335000000000 O
   0.3910239999999999    0.9680814999999998    0.8389335000000001 O
   0.8910239999999997    0.4680814999999999    0.3389335000000000 O
   0.8910239999999998    0.4680814999999999    0.8389335000000001 O
   0.8910239999999997    0.9680814999999998    0.3389335000000000 O
   0.8910239999999998    0.9680814999999998    0.8389335000000001 O
   0.1089760000000000    0.2180815000000000    0.1610665000000000 O
   0.1089760000000000    0.2180815000000000    0.6610665000000001 O
   0.1089760000000000    0.7180815000000000    0.1610665000000000 O
   0.1089760000000000    0.7180815000000000    0.6610665000000001 O
   0.6089760000000000    0.2180815000000000    0.1610665000000000 O
   0.6089760000000000    0.2180815000000000    0.6610665000000001 O
   0.6089760000000000    0.7180815000000000    0.1610665000000000 O
   0.6089760000000000    0.7180815000000000    0.6610665000000001 O
   0.0843755000000000    0.1250000000000000    0.2842200000000001 O
   0.0843755000000000    0.1250000000000000    0.7842200000000001 O
   0.0843755000000000    0.6250000000000000    0.2842200000000001 O
   0.0843755000000000    0.6250000000000000    0.7842200000000001 O
   0.5843755000000000    0.1250000000000000    0.2842200000000001 O
   0.5843755000000000    0.1250000000000000    0.7842200000000001 O
   0.5843755000000000    0.6250000000000000    0.2842200000000001 O
   0.5843755000000000    0.6250000000000000    0.7842200000000001 O
   0.4156245000000000    0.3750000000000000    0.2157800000000000 O
   0.4156245000000000    0.3750000000000000    0.7157800000000001 O
   0.4156245000000000    0.8749999999999999    0.2157800000000000 O
   0.4156245000000000    0.8749999999999999    0.7157800000000001 O
   0.9156245000000000    0.3750000000000000    0.2157800000000000 O
   0.9156244999999998    0.3750000000000000    0.7157800000000001 O
   0.9156245000000000    0.8749999999999999    0.2157800000000000 O
   0.9156244999999998    0.8749999999999999    0.7157800000000001 O
   0.2023965000000000    0.3750000000000000    0.2812365000000000 O
   0.2023965000000000    0.3750000000000000    0.7812365000000000 O
   0.2023965000000000    0.8749999999999999    0.2812365000000000 O
   0.2023965000000000    0.8749999999999999    0.7812365000000000 O
   0.7023964999999999    0.3750000000000000    0.2812365000000000 O
   0.7023964999999999    0.3750000000000000    0.7812365000000000 O
   0.7023964999999999    0.8749999999999999    0.2812365000000000 O
   0.7023964999999999    0.8749999999999999    0.7812365000000000 O
   0.2976035000000000    0.1250000000000000    0.2187635000000000 O
   0.2976035000000000    0.1250000000000000    0.7187635000000000 O
   0.2976035000000000    0.6250000000000000    0.2187635000000000 O
   0.2976035000000000    0.6250000000000000    0.7187635000000000 O
   0.7976034999999999    0.1250000000000000    0.2187635000000000 O
   0.7976035000000000    0.1250000000000000    0.7187635000000000 O
   0.7976034999999999    0.6250000000000000    0.2187635000000000 O
   0.7976035000000000    0.6250000000000000    0.7187635000000000 O
