Mg16 Zn16 Si16 O64
1.0
   9.6529061246967576    0.0000000044428006   -0.0000003035928454
   0.0000000115534860   10.3606286337911015   -0.0000000859899449
  -0.0000003850064614   -0.0000000861413128   12.1667020536816590
Mg Zn Si O
15 16 16 64
direct
   0.5000000005196590    0.0000000021208635    0.7500000002565520 Mg
   0.2499999985526813    0.4999999986273664    0.2499999994800639 Mg
   0.2499999985526813    0.4999999986273664    0.7499999994800638 Mg
   0.7499999985526813    0.4999999986273663    0.2499999994800639 Mg
   0.7499999985526813    0.4999999986273664    0.7499999994800638 Mg
   0.2499999985279829    0.4999999988123704    0.0000000006088534 Mg
   0.2499999985279829    0.4999999988123703    0.5000000006088533 Mg
   0.7499999985279828    0.4999999988123703    0.0000000006088534 Mg
   0.7499999985279828    0.4999999988123703    0.5000000006088533 Mg
   0.0000000005196590    0.0000000021208635    0.2500000002565521 Mg
   0.0000000005196590    0.0000000021208635    0.7500000002565520 Mg
   0.5000000005196590    0.0000000021208635    0.2500000002565521 Mg
   0.0000000004677716    0.0000000020429880    0.4999999996912975 Mg
   0.0000000004677716    0.0000000020429880    0.9999999996912974 Mg
   0.5000000004677716    0.0000000020429880    0.9999999996912976 Mg
   0.4942596465475154    0.2814265854821087    0.1250000027986750 Zn
   0.4942596465475155    0.2814265854821087    0.6250000027986750 Zn
   0.9942596465475154    0.2814265854821087    0.1250000027986750 Zn
   0.9942596465475156    0.2814265854821087    0.6250000027986750 Zn
   0.2442596469208737    0.2185734154525676    0.3750000072549148 Zn
   0.2442596469208738    0.2185734154525676    0.8750000072549149 Zn
   0.7442596469208738    0.2185734154525676    0.3750000072549148 Zn
   0.7442596469208737    0.2185734154525676    0.8750000072549147 Zn
   0.0057403547335398    0.7185734138563191    0.3749999972266487 Zn
   0.0057403547335398    0.7185734138563190    0.8749999972266486 Zn
   0.5057403547335397    0.7185734138563190    0.3749999972266487 Zn
   0.5057403547335397    0.7185734138563190    0.8749999972266487 Zn
   0.2557403556475464    0.7814265862314256    0.1249999926039571 Zn
   0.2557403556475463    0.7814265862314257    0.6249999926039570 Zn
   0.7557403556475464    0.7814265862314256    0.1249999926039571 Zn
   0.7557403556475464    0.7814265862314256    0.6249999926039570 Zn
   0.0364734051982083    0.5941637574641306    0.1250000030496423 Si
   0.0364734051982083    0.5941637574641305    0.6250000030496422 Si
   0.5364734051982083    0.5941637574641305    0.1250000030496423 Si
   0.5364734051982083    0.5941637574641305    0.6250000030496422 Si
   0.2135265984242735    0.0941637604098773    0.1249999990670609 Si
   0.2135265984242735    0.0941637604098773    0.6249999990670609 Si
   0.7135265984242736    0.0941637604098773    0.1249999990670609 Si
   0.7135265984242735    0.0941637604098773    0.6249999990670609 Si
   0.4635266000111038    0.4058362392507107    0.3749999968319279 Si
   0.4635266000111037    0.4058362392507107    0.8749999968319279 Si
   0.9635266000111038    0.4058362392507107    0.3749999968319280 Si
   0.9635266000111038    0.4058362392507107    0.8749999968319279 Si
   0.2864734038272018    0.9058362437184257    0.3750000011665051 Si
   0.2864734038272019    0.9058362437184257    0.8750000011665050 Si
   0.7864734038272020    0.9058362437184257    0.3750000011665051 Si
   0.7864734038272019    0.9058362437184257    0.8750000011665050 Si
   0.3676308198910228    0.5882529092462363    0.1249999992738750 O
   0.3676308198910228    0.5882529092462362    0.6249999992738750 O
   0.8676308198910228    0.5882529092462362    0.1249999992738750 O
   0.8676308198910228    0.5882529092462362    0.6249999992738751 O
   0.3823691780010421    0.0882529124273930    0.1250000005602878 O
   0.3823691780010421    0.0882529124273930    0.6250000005602877 O
   0.8823691780010421    0.0882529124273930    0.1250000005602878 O
   0.8823691780010420    0.0882529124273930    0.6250000005602877 O
   0.1323691779230316    0.4117470875716052    0.3750000006935217 O
   0.1323691779230316    0.4117470875716052    0.8750000006935217 O
   0.6323691779230316    0.4117470875716051    0.3750000006935217 O
   0.6323691779230315    0.4117470875716051    0.8750000006935216 O
   0.1176308210087633    0.9117470902260010    0.3749999992998240 O
   0.1176308210087633    0.9117470902260009    0.8749999992998240 O
   0.6176308210087633    0.9117470902260009    0.3749999992998241 O
   0.6176308210087633    0.9117470902260009    0.8749999992998240 O
   0.1367407393929696    0.9485683642680627    0.1250000020111841 O
   0.1367407393929696    0.9485683642680628    0.6250000020111840 O
   0.6367407393929695    0.9485683642680627    0.1250000020111841 O
   0.6367407393929696    0.9485683642680627    0.6250000020111840 O
   0.1132592611141981    0.4485683652564063    0.1249999964089099 O
   0.1132592611141981    0.4485683652564063    0.6249999964089098 O
   0.6132592611141982    0.4485683652564062    0.1249999964089099 O
   0.6132592611141980    0.4485683652564062    0.6249999964089099 O
   0.3632592638133758    0.0514316338865086    0.3749999979720826 O
   0.3632592638133758    0.0514316338865086    0.8749999979720825 O
   0.8632592638133758    0.0514316338865086    0.3749999979720826 O
   0.8632592638133757    0.0514316338865086    0.8749999979720825 O
   0.3867407373531221    0.5514316337219540    0.3750000037543479 O
   0.3867407373531222    0.5514316337219540    0.8750000037543477 O
   0.8867407373531222    0.5514316337219540    0.3750000037543479 O
   0.8867407373531221    0.5514316337219539    0.8750000037543479 O
   0.1104478664926453    0.6621197190746742    0.0162898616539344 O
   0.1104478664926453    0.6621197190746740    0.5162898616539343 O
   0.6104478664926454    0.6621197190746740    0.0162898616539344 O
   0.6104478664926453    0.6621197190746740    0.5162898616539344 O
   0.1395521333514544    0.1621197172558126    0.2337101398633727 O
   0.1395521333514545    0.1621197172558126    0.7337101398633726 O
   0.6395521333514544    0.1621197172558126    0.2337101398633727 O
   0.6395521333514543    0.1621197172558126    0.7337101398633726 O
   0.3895521297663577    0.3378802888431593    0.2662898508653057 O
   0.3895521297663577    0.3378802888431593    0.7662898508653057 O
   0.8895521297663578    0.3378802888431593    0.2662898508653058 O
   0.8895521297663579    0.3378802888431593    0.7662898508653057 O
   0.3604478684138002    0.8378802860661311    0.4837101486456098 O
   0.3604478684138002    0.8378802860661310    0.9837101486456098 O
   0.8604478684138003    0.8378802860661310    0.4837101486456098 O
   0.8604478684138002    0.8378802860661310    0.9837101486456098 O
   0.3895521328471432    0.3378802819286193    0.4837101361242054 O
   0.3895521328471432    0.3378802819286193    0.9837101361242053 O
   0.8895521328471432    0.3378802819286193    0.4837101361242055 O
   0.8895521328471433    0.3378802819286193    0.9837101361242054 O
   0.3604478634224328    0.8378802816548258    0.2662898543687859 O
   0.3604478634224328    0.8378802816548259    0.7662898543687858 O
   0.8604478634224328    0.8378802816548258    0.2662898543687859 O
   0.8604478634224328    0.8378802816548259    0.7662898543687858 O
   0.1104478697635543    0.6621197120829692    0.2337101516916782 O
   0.1104478697635543    0.6621197120829690    0.7337101516916781 O
   0.6104478697635541    0.6621197120829692    0.2337101516916782 O
   0.6104478697635540    0.6621197120829690    0.7337101516916781 O
   0.1395521280667218    0.1621197130204806    0.0162898567769681 O
   0.1395521280667218    0.1621197130204806    0.5162898567769680 O
   0.6395521280667218    0.1621197130204806    0.0162898567769681 O
   0.6395521280667218    0.1621197130204805    0.5162898567769680 O
