Ca1 V12 F42                             
   1.00000000000000     
     7.3759040000000002   -0.0068310000000000   -0.1074180000000000
    -3.6790280000000002    6.4007250000000004    0.1138200000000000
     0.2620880000000000    0.0715670000000000   17.4964119999999994
   Ca   V    F 
     1    12    42
Direct
  0.8336681787768364  0.0763452937310703  0.3410454877187666
  0.2841448276426206  0.9958454380110486  0.3284282847371935
  0.7229847684733188  0.7230914105751087  0.9974555916535692
  0.9962248588952274  0.2808981601756342  0.6695577817035162
  0.3563730621746967  0.0024970432640972  0.8334364546646479
  0.6300919656309389  0.6412000433191948  0.4985415075398357
  0.0155273941247816  0.3703032234210553  0.1659027495368613
  0.6270337226098045  0.1440456925665345  0.5069515821952657
  0.5148310776979640  0.3659511182153332  0.1668443325625138
  0.8559211446247746  0.5027614398226877  0.8327986933113245
  0.3556303858456021  0.5022403696328839  0.8338586844852868
  0.1321950448980702  0.6405527138846409  0.4996752676570947
  0.5160045804689787  0.8638926446175750  0.1657341549040880
  0.5889739305887668  0.8365483425822197  0.0625788213769907
  0.2477681499824821  0.4264373070071286  0.7302666860935535
  0.1756599825982536  0.7535973782049662  0.3953888458067730
  0.4386456078844246  0.2555109205060813  0.2720081499792480
  0.8272687702103477  0.5781670302356875  0.9358991158918712
  0.7443893351866666  0.1685835865458478  0.6069234857373973
  0.8803845623691686  0.0726007187072170  0.7354943335694291
  0.1272824658196695  0.0981615359700902  0.3809710223919521
  0.9392159918970278  0.8186468007408297  0.0593333025158464
  0.1133345440077275  0.1844851733424929  0.6061227501714435
  0.0753840268629729  0.8746621046010081  0.2610272968962016
  0.8120157607219468  0.9330790138902701  0.9322216135640741
  0.0971835882009319  0.5318761321994755  0.6025566596250391
  0.4744833351076331  0.9044800619961504  0.2769312185473396
  0.4602167560281602  0.5716107231305120  0.9371205962246514
  0.8874779843560041  0.4335947012257301  0.7295406347070134
  0.5395770944881407  0.1227907831762588  0.3976746579611894
  0.5774960344873759  0.4682922717759354  0.0629697965737190
  0.3379690239180259  0.5566453380802865  0.4787011696267069
  0.2241114706884572  0.6582984368939635  0.1532464292092550
  0.4363418298084350  0.7918660823662415  0.8138648613546515
  0.6468860893333598  0.2133318709055651  0.8530894452743306
  0.5464891204850137  0.3556116024091326  0.5197708974379075
  0.8037755523849663  0.4478899329756293  0.1865243319583152
  0.6755953991312554  0.6445575764785284  0.3955408005967221
  0.9364261018210486  0.3213225290986558  0.0696210362619392
  0.3937647527428272  0.0748736489662964  0.7353546530249764
  0.3208210676722235  0.9301975832745776  0.9315101469031203
  0.6028417451358432  0.7055599300794403  0.5932965046251266
  0.0483946113942750  0.3741189176255691  0.2745427347070750
  0.9194383688537303  0.7178069751185171  0.5161128035331655
  0.8076332867481035  0.0692088354094123  0.1949720984133321
  0.2749702501399741  0.2114950967681249  0.8531768399656502
  0.0661576933956470  0.7933236503173949  0.8132440210167925
  0.7159519385052646  0.9456689958596991  0.4710673138611846
  0.2242290747388764  0.2888876930607417  0.1526931730912545
  0.6303166164090305  0.5526036972971720  0.8025182370334311
  0.9047071488427477  0.3609926188560930  0.4649965052004568
  0.4672987503928081  0.0919088062101387  0.1382082513786500
  0.3516371499499012  0.9144764359973163  0.5337273441094434
  0.5672945549802703  0.6401905695250699  0.1990260939056055
  0.0805777391836989  0.4523124599549144  0.8640096349406844
 
             NaN             NaN             NaN
             NaN             NaN             NaN
             NaN             NaN             NaN
             NaN             NaN             NaN
             NaN             NaN             NaN
             NaN             NaN             NaN
             NaN             NaN             NaN
             NaN             NaN             NaN
             NaN             NaN             NaN
             NaN             NaN             NaN
             NaN             NaN             NaN
             NaN             NaN             NaN
             NaN             NaN             NaN
             NaN             NaN             NaN
             NaN             NaN             NaN
             NaN             NaN             NaN
             NaN             NaN             NaN
             NaN             NaN             NaN
             NaN             NaN             NaN
             NaN             NaN             NaN
             NaN             NaN             NaN
             NaN             NaN             NaN
             NaN             NaN             NaN
             NaN             NaN             NaN
             NaN             NaN             NaN
             NaN             NaN             NaN
             NaN             NaN             NaN
             NaN             NaN             NaN
             NaN             NaN             NaN
             NaN             NaN             NaN
             NaN             NaN             NaN
             NaN             NaN             NaN
             NaN             NaN             NaN
             NaN             NaN             NaN
             NaN             NaN             NaN
             NaN             NaN             NaN
             NaN             NaN             NaN
             NaN             NaN             NaN
             NaN             NaN             NaN
             NaN             NaN             NaN
             NaN             NaN             NaN
             NaN             NaN             NaN
             NaN             NaN             NaN
             NaN             NaN             NaN
             NaN             NaN             NaN
             NaN             NaN             NaN
             NaN             NaN             NaN
             NaN             NaN             NaN
             NaN             NaN             NaN
             NaN             NaN             NaN
             NaN             NaN             NaN
             NaN             NaN             NaN
             NaN             NaN             NaN
             NaN             NaN             NaN
             NaN             NaN             NaN
