Ca1 V12 F42                             
   1.00000000000000     
     7.3759040000000002   -0.0068310000000000   -0.1074180000000000
    -3.6790280000000002    6.4007250000000004    0.1138200000000000
     0.2620880000000000    0.0715670000000000   17.4964119999999994
   Ca   V    F 
     1    12    42
Direct
  0.8340101730117842  0.0879050470895857  0.3423411794038065
  0.2830255778701121 -0.0050599315947289  0.3279103806676109
  0.7257925034879579  0.7263458270698635  0.9969492525992893
 -0.0051798279595216  0.2778591775426903  0.6699573644159298
  0.3581678056527189  1.0023355823316857  0.8333799358899417
  0.6247103892745873  0.6355850758089425  0.4988992725721249
  1.0183583932401818  0.3754119135862005  0.1658366876390314
  0.6230416422643246  0.1393594476551681  0.5076141283098188
  0.5170564927286200  0.3697130957373453  0.1670003656048639
  0.8573220346112905  0.5028796443517864  0.8328534758705243
  0.3567351339428392  0.5017556438037406  0.8338498887833692
  0.1282265895509128  0.6373004277189709  0.4995763200595147
  0.5197114126092119  0.8684255738098303  0.1655028396176300
  0.5925242822303070  0.8402496272129099  0.0623453583819743
  0.2469001604400616  0.4238359737108984  0.7305217093925539
  0.1726534545019224  0.7525421732507147  0.3956449074242325
  0.4362908665930884  0.2561233593064342  0.2717565845819804
  0.8298065589759936  0.5807347401008944  0.9357028700044716
  0.7428876483841618  0.1645035227700561  0.6070849706480791
  0.8787485674826643  0.0702969650460855  0.7362093831617784
  0.1222486561207733  0.0942243333473688  0.3795596227417222
  0.9439836349313822  0.8252191240236488  0.0579423438653189
  0.1117341441562256  0.1806358172669808  0.6067631127449100
  0.0794364373795808  0.8707761516697160  0.2593500558474802
  0.8121786401424566  0.9346676335866057  0.9310710328174103
  0.0943687876315557  0.5276226504537955  0.6022804660391815
  0.4786252607279432  0.9090585380258274  0.2769788331336686
  0.4621482426621412  0.5723468284446878  0.9370221386303873
  0.8873677174612067  0.4319529978533179  0.7296976679809679
  0.5356972183547848  0.1212042799109787  0.3982878285943851
  0.5829830572336887  0.4733687718428815  0.0632375061870169
  0.3331152448175682  0.5523092187136683  0.4783905765568919
  0.2274915847795480  0.6633878023629555  0.1533401350294682
  0.4374946216521450  0.7911770931813907  0.8134829833018218
  0.6484057157597767  0.2137252704387576  0.8535903449825210
  0.5413740788194433  0.3503121556725174  0.5207204266494492
  0.8053678370707938  0.4509514400574964  0.1877317876180576
  0.6695135579872125  0.6345124546559241  0.3965785401507663
  0.9384230055748373  0.3291127595591721  0.0696402683884876
  0.3968008785802531  0.0758793329073642  0.7354493196095924
  0.3223431246663011  0.9287843977918943  0.9313231566549378
  0.5964286635366379  0.6999892514352993  0.5935602627885231
  0.0521264297567400  0.3793056041888943  0.2745750843101590
  0.9140747444294712  0.7122263362309862  0.5168901014563571
  0.8112746456710245  0.0741274940754902  0.1946267451823949
  0.2766535248378698  0.2111893458281000  0.8534432084853185
  0.0680768884323431  0.7930659293703661  0.8128165438712927
  0.7109399520021307  0.9403338262204047  0.4709135959097978
  0.2272091646779505  0.2947049050173716  0.1517864254550076
  0.6314612076361223  0.5521696377313823  0.8024343528332968
  0.9009985474190352  0.3560964902693641  0.4641657140555207
  0.4704283263946438  0.0962827890394263  0.1378811804748754
  0.3473094429000466  0.9106880585775911  0.5343599178552793
  0.5703015019170651  0.6443647834691471  0.1990885646248761
  0.0818603206895993  0.4523386563925190  0.8641574962318016
 
             NaN             NaN             NaN
             NaN             NaN             NaN
             NaN             NaN             NaN
             NaN             NaN             NaN
             NaN             NaN             NaN
             NaN             NaN             NaN
             NaN             NaN             NaN
             NaN             NaN             NaN
             NaN             NaN             NaN
             NaN             NaN             NaN
             NaN             NaN             NaN
             NaN             NaN             NaN
             NaN             NaN             NaN
             NaN             NaN             NaN
             NaN             NaN             NaN
             NaN             NaN             NaN
             NaN             NaN             NaN
             NaN             NaN             NaN
             NaN             NaN             NaN
             NaN             NaN             NaN
             NaN             NaN             NaN
             NaN             NaN             NaN
             NaN             NaN             NaN
             NaN             NaN             NaN
             NaN             NaN             NaN
             NaN             NaN             NaN
             NaN             NaN             NaN
             NaN             NaN             NaN
             NaN             NaN             NaN
             NaN             NaN             NaN
             NaN             NaN             NaN
             NaN             NaN             NaN
             NaN             NaN             NaN
             NaN             NaN             NaN
             NaN             NaN             NaN
             NaN             NaN             NaN
             NaN             NaN             NaN
             NaN             NaN             NaN
             NaN             NaN             NaN
             NaN             NaN             NaN
             NaN             NaN             NaN
             NaN             NaN             NaN
             NaN             NaN             NaN
             NaN             NaN             NaN
             NaN             NaN             NaN
             NaN             NaN             NaN
             NaN             NaN             NaN
             NaN             NaN             NaN
             NaN             NaN             NaN
             NaN             NaN             NaN
             NaN             NaN             NaN
             NaN             NaN             NaN
             NaN             NaN             NaN
             NaN             NaN             NaN
             NaN             NaN             NaN
