Na2 Ca2 V4 Si4 P2 O24                   
   1.00000000000000     
     8.8549290000000003    0.1228100000000000    0.0766210000000000
     4.2747890000000002    7.6604239999999999    0.0549830000000000
     4.4237750000000000    2.5233210000000001    7.2484299999999999
   Ca   Na   V    Si   P    O 
     2     2     4     4     2    24
Direct
  0.5144725246078851  0.6061308835358827  0.4145206484127154
 -0.0038280914717725  1.0083847490205304  0.9985107335483858
  0.1041437103885870  0.7533867256969580  0.3888806991579710
  0.8816377093655912  0.2519336559796031  0.5990249186168074
  0.3670329828395989  0.3573561173953476  0.3494536103494338
  0.6574306707396803  0.6406748447225901  0.6544461502545601
  0.1545539650538631  0.1479833310584840  0.1313411630916202
  0.8450809796365081  0.8574005285464567  0.8562614467272177
  0.0396140022971435  0.4578426227207734  0.7510805936656774
  0.7480672181129068  0.0411001046633995  0.4677948775831240
  0.4601521937216702  0.7563657499604196  0.0340019703331003
  0.5399341230838720  0.2601756560366268  0.9509527572511086
  0.9774575596490683  0.5483697537002467  0.2387720087638371
  0.2539187341477787  0.9673943010886263  0.5330756043925928
  0.2265618129956245  0.4525408305932830  0.5651855950805061
  0.7899193241263812  0.5621316818931088  0.4101160384981181
  0.5649838804897075  0.2183852497551558  0.4372979336883902
  0.4360338334591319  0.8069972233924277  0.5537716919516940
  0.4402910138330242  0.5811843142028932  0.2266905959327472
  0.5611621159909798  0.4315599431728220  0.7527206962824936
  0.9299784372847489  0.0679613216333949  0.2763781720958401
  0.0871869671974496  0.9430232595311270  0.7199335633424562
  0.0653519320337148  0.2712816708866884  0.9287919648529795
  0.9428142473584356  0.7282120016088696  0.0736076873349279
  0.2602093713036305  0.9222147743530431  0.0590976520107725
  0.7384044882132625  0.0871088065494213  0.9338625968830118
  0.4830916355405923  0.3127957079668185  0.1324494174414862
  0.5123175266231679  0.7009015994284226  0.8593587848146202
  0.1296262376933108  0.5425459286093870  0.2793486104389983
  0.8677606322306470  0.4678022631018772  0.7164228671787922
  0.2548485862887265  0.1618197221903556  0.4846431894187291
  0.7507138670844520  0.8353386573106198  0.5074833024033080
  0.3679710123023691  0.1939357004695455  0.0059052384370603
  0.6265389250130758  0.8044371445417511  0.0160450679268995
  0.2286272278182564  0.9554425110215300  0.3776359285946554
  0.7803783993117066  0.0230614715570889  0.6434486307131888
  0.0199558148594922  0.3675497204243262  0.2141699541279949
  0.9810622280835679  0.6525953087974075  0.7850920135340886
 
             NaN             NaN             NaN
             NaN             NaN             NaN
             NaN             NaN             NaN
             NaN             NaN             NaN
             NaN             NaN             NaN
             NaN             NaN             NaN
             NaN             NaN             NaN
             NaN             NaN             NaN
             NaN             NaN             NaN
             NaN             NaN             NaN
             NaN             NaN             NaN
             NaN             NaN             NaN
             NaN             NaN             NaN
             NaN             NaN             NaN
             NaN             NaN             NaN
             NaN             NaN             NaN
             NaN             NaN             NaN
             NaN             NaN             NaN
             NaN             NaN             NaN
             NaN             NaN             NaN
             NaN             NaN             NaN
             NaN             NaN             NaN
             NaN             NaN             NaN
             NaN             NaN             NaN
             NaN             NaN             NaN
             NaN             NaN             NaN
             NaN             NaN             NaN
             NaN             NaN             NaN
             NaN             NaN             NaN
             NaN             NaN             NaN
             NaN             NaN             NaN
             NaN             NaN             NaN
             NaN             NaN             NaN
             NaN             NaN             NaN
             NaN             NaN             NaN
             NaN             NaN             NaN
             NaN             NaN             NaN
             NaN             NaN             NaN
