Na2 Ca2 V4 Si4 P2 O24
1.0
8.854929 0.122810 0.076621
4.274789 7.660424 0.054983
4.423775 2.523321 7.248430
Ca Na V Si P O
2 2 4 4 2 24
direct
0.525290 0.594551 0.437621 Ca
0.006515 0.998616 -0.003553 Ca
0.119325 0.750732 0.392458 Na
0.877810 0.252486 0.596964 Na
0.367403 0.354457 0.352891 V
0.646490 0.641256 0.654348 V
0.150858 0.147517 0.133319 V
0.848280 0.854526 0.852670 V
0.034648 0.456434 0.753327 Si
0.747041 0.039192 0.464758 Si
0.462083 0.749578 0.038973 Si
0.539888 0.251561 0.960171 Si
0.968686 0.542981 0.245237 P
0.253095 0.960870 0.535092 P
0.225067 0.444795 0.571490 O
0.778371 0.560030 0.411554 O
0.568797 0.227461 0.440308 O
0.423448 0.782608 0.557610 O
0.438738 0.577236 0.232240 O
0.562696 0.422155 0.763922 O
0.929507 0.056774 0.275195 O
0.082920 0.944114 0.720199 O
0.059001 0.268889 0.930484 O
0.943217 0.724079 0.077210 O
0.263845 0.918202 0.063281 O
0.738950 0.079585 0.938981 O
0.489195 0.298041 0.141028 O
0.508529 0.700248 0.861396 O
0.122763 0.526092 0.292498 O
0.862745 0.481190 0.708971 O
0.278445 0.139418 0.497445 O
0.721654 0.849257 0.502357 O
0.366870 0.192766 0.006255 O
0.632720 0.803485 1.002879 O
0.213316 0.977057 0.375737 O
0.786632 0.015015 0.639029 O
0.010798 0.365512 0.214470 O
0.987815 0.648632 0.783222 O
