Ca1 Cr12 F42                            
   1.00000000000000     
     7.2320289999999998   -0.0339830000000000   -0.0207120000000000
    -3.5959300000000001    6.3123319999999996   -0.0879860000000000
     0.0278360000000000   -0.1934420000000000   17.3586500000000008
   Ca   Cr   F 
     1    12    42
Direct
  0.6718089843263600  0.8698245995962747  0.7616275519243291
  0.3008201139811637  0.0097307127908976  0.3319328730266909
  0.6916719293353445  0.6776373992613481  0.0008859104757894
  0.0360534421972862  0.3493233036918957  0.6581012215042191
  0.3183887643336248  0.9669681817521945  0.8426772692919077
  0.6651035048862429  0.6814143706182694  0.5006455319712350
  0.9984723195620530  0.3437468850747115  0.1663496062584943
  0.6679846070387917  0.1811739854143948  0.4957476889599052
  0.4984445592886079  0.3441981144132565  0.1672370287817245
  0.8288736714145236  0.4654774263950091  0.8382374378022887
  0.3150398816212246  0.4544934206512705  0.8423230218279912
  0.1650935795976315  0.6848974168124466  0.4991560271997267
  0.4983696211375361  0.8443303766675312  0.1655788603690142
  0.5352229075754295  0.7851622828466782  0.0586813425711752
  0.2721485307614850  0.5013443737470720  0.7346179573841908
  0.2017577418926555  0.7603014713336425  0.3932443567949345
  0.4286090032853369  0.2608574889670693  0.2712160811388739
  0.8267927319691099  0.5461831503394436  0.9427263069276184
  0.7742822039482742  0.2090838559302757  0.5994579732323467
  0.9551536050308288  0.1000967397595415  0.7113313764453639
  0.1982954114904217  0.1236401278134270  0.3951636304878421
  0.9165248736839604  0.8206541459014645  0.0593639203297677
  0.1852356957544084  0.2848820709821416  0.5944181023413002
  0.0829020727979509  0.8795458066828671  0.2695267548532969
  0.7599526204192728  0.8649022389477039  0.9251465728191024
  0.1218422668214295  0.6108658743917162  0.6069923296662639
  0.4523554524184526  0.8961299396659225  0.2705941393193467
  0.4141164421073831  0.4662822093712495  0.9432012574500782
  0.8451688460120846  0.3929726376511539  0.7333294370057584
  0.5675901649272311  0.1463166440268385  0.3920122953387870
  0.5819894902730585  0.4344255039305756  0.0649848086767257
  0.3706918944001948  0.5937059772804426  0.4870196668415794
  0.1999545675568324  0.6374210366585301  0.1531431790315202
  0.3983498054291572  0.7497151146465441  0.8605367359064355
  0.6172651511936200  0.1781443076989083  0.8626223287346692
  0.5908952561040757  0.3930351114547004  0.5214300348616732
  0.7885586584530583  0.4233411108453571  0.1913032518637258
  0.6824629855728309  0.6313877853881793  0.4017464504977581
  0.9289701222011246  0.3162045944755182  0.0674422521097991
  0.4268865798632884 -0.0415113641662574  0.7423912134361328
  0.2469075580981489  0.9719651878260018  0.9398953213752267
  0.6489060198491856  0.7329746143385070  0.6045655838137750
  0.0675640456573279  0.3673732706458166  0.2649206051960704
  0.9623523783727485  0.7778116634937052  0.5137614914585955
  0.7955651049404774  0.0490200132769459  0.1785070224901194
  0.2430245150447239  0.1730208136308559  0.8155013785941317
  0.0314027110671176  0.7533122865272124  0.8116961379794434
  0.7473420752311013  0.9700967954811145  0.4768082782351535
  0.2099788860396928  0.2644665090037742  0.1424194050889407
  0.6113349556359817  0.5441227327576558  0.8077925389708102
  0.9463371881407546  0.4029775889495948  0.4663038966181648
  0.4392050888179442  0.0632440956160431  0.1346203184969295
  0.3901731888867615  0.9651348369810386  0.5296276226666677
  0.5581801839075659  0.6263880965953185  0.1976087282741190
  0.0283614301225301  0.3732748707571723  0.8666899432171359
 
             NaN             NaN             NaN
             NaN             NaN             NaN
             NaN             NaN             NaN
             NaN             NaN             NaN
             NaN             NaN             NaN
             NaN             NaN             NaN
             NaN             NaN             NaN
             NaN             NaN             NaN
             NaN             NaN             NaN
             NaN             NaN             NaN
             NaN             NaN             NaN
             NaN             NaN             NaN
             NaN             NaN             NaN
             NaN             NaN             NaN
             NaN             NaN             NaN
             NaN             NaN             NaN
             NaN             NaN             NaN
             NaN             NaN             NaN
             NaN             NaN             NaN
             NaN             NaN             NaN
             NaN             NaN             NaN
             NaN             NaN             NaN
             NaN             NaN             NaN
             NaN             NaN             NaN
             NaN             NaN             NaN
             NaN             NaN             NaN
             NaN             NaN             NaN
             NaN             NaN             NaN
             NaN             NaN             NaN
             NaN             NaN             NaN
             NaN             NaN             NaN
             NaN             NaN             NaN
             NaN             NaN             NaN
             NaN             NaN             NaN
             NaN             NaN             NaN
             NaN             NaN             NaN
             NaN             NaN             NaN
             NaN             NaN             NaN
             NaN             NaN             NaN
             NaN             NaN             NaN
             NaN             NaN             NaN
             NaN             NaN             NaN
             NaN             NaN             NaN
             NaN             NaN             NaN
             NaN             NaN             NaN
             NaN             NaN             NaN
             NaN             NaN             NaN
             NaN             NaN             NaN
             NaN             NaN             NaN
             NaN             NaN             NaN
             NaN             NaN             NaN
             NaN             NaN             NaN
             NaN             NaN             NaN
             NaN             NaN             NaN
             NaN             NaN             NaN
