Ca1 Cr12 F42
1.0
7.232029 -0.033983 -0.020712
-3.595930 6.312332 -0.087986
0.027836 -0.193442 17.358650
Ca Cr F
1 12 42
direct
0.677359 0.921799 0.753980 Ca
0.284549 0.000919 0.332534 Cr
0.704294 0.690637 0.006912 Cr
0.013989 0.311310 0.660920 Cr
0.352753 0.995319 0.837573 Cr
0.653481 0.655749 0.495038 Cr
0.992948 0.346494 0.168340 Cr
0.654795 0.157988 0.494769 Cr
0.491091 0.343819 0.168380 Cr
0.854141 0.495820 0.835983 Cr
0.352371 0.491742 0.836307 Cr
0.153305 0.658210 0.497148 Cr
0.494376 0.845885 0.168673 Cr
0.559350 0.808429 0.064563 F
0.269036 0.447397 0.728045 F
0.174311 0.747422 0.393477 F
0.427434 0.254613 0.272639 F
0.820059 0.550637 0.941595 F
0.749861 0.195030 0.601653 F
0.876859 0.070129 0.719373 F
0.195111 0.123066 0.397812 F
0.922497 0.794586 0.070339 F
0.127877 0.205788 0.596893 F
0.065376 0.882773 0.270302 F
0.809842 0.912256 0.943317 F
0.140729 0.578333 0.604844 F
0.424863 0.876852 0.271997 F
0.441740 0.551565 0.940225 F
0.888852 0.442673 0.730542 F
0.554886 0.120227 0.391748 F
0.557290 0.431089 0.063859 F
0.360367 0.572836 0.475237 F
0.200941 0.635935 0.147571 F
0.449834 0.789060 0.816731 F
0.654118 0.199257 0.851590 F
0.568742 0.364721 0.515504 F
0.785473 0.431465 0.188746 F
0.691518 0.617694 0.396896 F
0.917144 0.302584 0.069751 F
0.383655 0.046467 0.732972 F
0.325008 0.935221 0.937297 F
0.615525 0.696267 0.597249 F
0.069098 0.388990 0.266611 F
0.945786 0.740777 0.519780 F
0.786499 0.055394 0.188947 F
0.252044 0.196134 0.851554 F
0.053184 0.791176 0.819349 F
0.740435 0.949369 0.478000 F
0.198410 0.257826 0.147912 F
0.635909 0.560963 0.805049 F
0.933521 0.376856 0.465354 F
0.434873 0.064072 0.136507 F
0.380898 0.936210 0.531650 F
0.550941 0.625126 0.200159 F
0.069354 0.426524 0.865530 F
