Na2 Ca2 V4 Si4 P2 O24                   
   1.00000000000000     
     8.8461540000000003    0.1218570000000000    0.0664850000000000
     4.2697760000000002    7.6548920000000003    0.0503790000000000
     4.4109590000000001    2.5211999999999999    7.2324060000000001
   Ca   Na   V    Si   P    O 
     2     2     4     4     2    24
Direct
  0.4570943533536189  0.3457709526360052  0.6462122647239356
  1.0086796023263511  0.9885430022284752  0.0038690966658520
  0.1315260833991739  0.7489631389790448  0.4007267569773301
  0.8973075529978644  0.2506046629855808  0.6027053254025494
  0.3560466363931097  0.3604852116764387  0.3465087934161118
  0.6407093057244840  0.6444720200081996  0.6487945161892705
  0.1509791286674135  0.1448115043703408  0.1361072475706683
  0.8433365848790394  0.8554085361696732  0.8571512264158898
  0.0187469080442846  0.4599885668018704  0.7562753354225925
  0.7486664443951108  0.0347313702983524  0.4644623779469398
  0.4622884470169164  0.7428534940402031  0.0420985528461886
  0.5465373090234523  0.2444312932937505  0.9642686063320055
  0.9659922643813317  0.5431132045770377  0.2438357977257001
  0.2542465238644077  0.9599532576604949  0.5326925879451612
  0.2117085495769586  0.4359784310787265  0.5737609587499237
  0.7840298357722392  0.5530036027611828  0.4134286556010031
  0.5613204419162690  0.2105208164253085  0.4398263019176230
  0.4267497265582746  0.7883436052861351  0.5560636151351204
  0.4366997907865272  0.5720347050381543  0.2367297703334445
  0.5667690262768155  0.4194948997469010  0.7674323138322245
  0.9299678134072883  0.0518828603025257  0.2745767365733026
  0.0836239711671588  0.9384546757064418  0.7190997236771532
  0.0618988703222106  0.2715556850828925  0.9292750479443298
  0.9437246329591108  0.7183487152598446  0.0705155184096121
  0.2682259167817611  0.9193547448550331  0.0649886705859951
  0.7460065758432587  0.0769531174204549  0.9420088198747705
  0.4856795822993701  0.3013693042734894  0.1408075566728684
  0.5006952481051069  0.7016777738774155  0.8619091348208676
  0.1244714132323196  0.5349492384664876  0.2808990280686485
  0.8497894702696607  0.4711662637599403  0.7219641254765957
  0.2638023674374269  0.1481795049983227  0.4936816036592005
  0.7332164629885427  0.8351013694993638  0.5123621383875597
  0.3797172758510884  0.1974408268202920 -0.0197594979647505
  0.6368582167942467  0.7994167872891005  0.9965806445913259
  0.2128789897076678  0.9791520515362628  0.3720746448357891
  0.7664217686728170  0.0377727672605004  0.6406593289411399
  0.0206066167581095  0.3610309870396824  0.2102861151412332
  0.9856257285818750  0.6576530615748758  0.7641056519686368
 
             NaN             NaN             NaN
             NaN             NaN             NaN
             NaN             NaN             NaN
             NaN             NaN             NaN
             NaN             NaN             NaN
             NaN             NaN             NaN
             NaN             NaN             NaN
             NaN             NaN             NaN
             NaN             NaN             NaN
             NaN             NaN             NaN
             NaN             NaN             NaN
             NaN             NaN             NaN
             NaN             NaN             NaN
             NaN             NaN             NaN
             NaN             NaN             NaN
             NaN             NaN             NaN
             NaN             NaN             NaN
             NaN             NaN             NaN
             NaN             NaN             NaN
             NaN             NaN             NaN
             NaN             NaN             NaN
             NaN             NaN             NaN
             NaN             NaN             NaN
             NaN             NaN             NaN
             NaN             NaN             NaN
             NaN             NaN             NaN
             NaN             NaN             NaN
             NaN             NaN             NaN
             NaN             NaN             NaN
             NaN             NaN             NaN
             NaN             NaN             NaN
             NaN             NaN             NaN
             NaN             NaN             NaN
             NaN             NaN             NaN
             NaN             NaN             NaN
             NaN             NaN             NaN
             NaN             NaN             NaN
             NaN             NaN             NaN
