Na2 Ca2 V4 Si4 P2 O24
1.0
8.846154 0.121857 0.066485
4.269776 7.654892 0.050379
4.410959 2.521200 7.232406
Ca Na V Si P O
2 2 4 4 2 24
direct
0.469169 0.408739 0.560201 Ca
-0.004975 0.996706 0.008132 Ca
0.199660 0.700930 0.410783 Na
0.889056 0.250290 0.603105 Na
0.361831 0.357610 0.347931 V
0.644910 0.644643 0.649836 V
0.147327 0.147010 0.136749 V
0.843792 0.856166 0.855576 V
0.031160 0.459792 0.752058 Si
0.746222 0.040998 0.464332 Si
0.459288 0.749755 0.039155 Si
0.538478 0.252094 0.956914 Si
0.964269 0.543735 0.244738 P
0.252415 0.959977 0.534813 P
0.225912 0.442105 0.573976 O
0.775879 0.557807 0.411965 O
0.566859 0.228478 0.439974 O
0.422485 0.781652 0.554730 O
0.436551 0.578818 0.233284 O
0.560713 0.423515 0.759691 O
0.926978 0.058367 0.273883 O
0.083165 0.943514 0.721792 O
0.058670 0.269419 0.927977 O
0.942931 0.723147 0.075491 O
0.262785 0.921772 0.058611 O
0.738648 0.082416 0.935915 O
0.485030 0.306214 0.135657 O
0.504616 0.703113 0.859961 O
0.118565 0.524005 0.294928 O
0.860390 0.481534 0.708045 O
0.280839 0.136891 0.498413 O
0.720555 0.848632 0.506416 O
0.366522 0.193643 0.001215 O
0.630823 0.805446 0.999704 O
0.205145 0.983504 0.377081 O
0.780325 0.020192 0.641007 O
0.008521 0.367106 0.210947 O
0.983528 0.652073 0.782053 O
