Ca1 Ni12 F42                            
   1.00000000000000     
     7.0345449999999996   -0.0056780000000000    0.0021460000000000
    -3.5174949999999998    6.1420800000000000   -0.0950340000000000
    -0.1116630000000000   -0.2281920000000000   16.8067579999999985
   Ca   Ni   F 
     1    12    42
Direct
  0.8814196778630411  0.9495376783561388  0.8088587700645051
  0.3159276835445505  0.0113090748114574  0.3329155923838286
  0.6648320889144879  0.6439744511716678  0.0010755601536486
  0.0216021581458127  0.3517922687003144  0.6562269010330360
  0.3299131142191776  0.9625066344091380  0.8356497308927489
  0.6751755174228390  0.6967739465668320  0.4987529293383272
  1.0021785937889984  0.3395522565379572  0.1693336874688655
  0.6722716301070157  0.1974513417868629  0.4962838923932136
  0.5001350806094318  0.3368290098439626  0.1703328541061564
  0.8248620728839968  0.4537306372828006  0.8353210038798196
  0.3283670244038920  0.4679900960484227  0.8346005130249317
  0.1752334349794081  0.6948125421341800  0.5002187153931130
  0.5036213217853395  0.8381955704577251  0.1687073258314996
  0.5793046917916078  0.8130547584567940  0.0641996345491361
  0.2484006006645399  0.3900065469765036  0.7238598273762986
  0.1738991879976120  0.7648247933680986  0.3905865063579027
  0.4686516393680497  0.2678699262111214  0.2784702526349912
  0.7279975623019226  0.4557411198410481  0.9394367051351979
  0.7694669845378604  0.2970357622111766  0.5994903082943074
  0.8502798949732222  0.0886528854347932  0.6980124906068386
  0.2173048525132795  0.1413210724145287  0.3957752477665756
  0.9104425937662839  0.7431514125937643  0.0556024434327597
  0.1195697587728789  0.2383665901027603  0.5851705367740843
  0.0895823926791377  0.9110087956945754  0.2683942685261766
  0.7896718643567243  0.8719398143432833  0.9359646495893594
  0.1813363232508552  0.6181191207938480  0.6101116312046568
  0.4321033023828316  0.8623543152272054  0.2740384463117405
  0.3993809303912450  0.5408761980991795  0.9447221509535630
  0.9321078977972111  0.4942306316122452  0.7296908812072265
  0.5820976570461439  0.1132004842531108  0.3916661087393364
  0.5211630416670424  0.4013649557553598  0.0624563356164222
  0.3832908504300198  0.6172741852832622  0.4707994603312207
  0.2178742730710808  0.6364566685340247  0.1416937940437587
  0.4068152174425443  0.7603446617308161  0.8029291886667745
  0.5962323395226654  0.1688499546506346  0.7993288097609941
  0.5671682967363134  0.3915970432285389  0.4983038447695852
  0.7968047579894335  0.4410814827853983  0.1853855344838476
  0.7308165090592564  0.6990343493620530  0.3971969654358791
  0.9296453448422943  0.2864601292127117  0.0683023769067074
  0.1846608481762272  0.9466698300445531  0.7431288533164517
  0.4510000852319148  0.9816592313157112  0.9298294589242956
  0.6205067702640569  0.6939879064575406  0.6009359714553292
  0.0750501243416387  0.3935170648893883  0.2701771111944166
  0.9662049132388540  0.7729786417232000  0.5285512050490373
  0.7888997085040466  0.0409621121882392  0.1957209931494582
  0.2538419548342419  0.1693613210483101  0.8659167298004145
  0.0578082100474978  0.7493726273144397  0.8688145722198264
  0.7743484972505665  1.0001016990872416  0.4958205422761152
  0.2043360035650021  0.2341771770711588  0.1548379608431901
  0.6394859397980203  0.5732209371013456  0.8027842720383240
  0.9444096915141471  0.4086302510350753  0.4618856921089793
  0.4461734176066520  0.0526751282592041  0.1354571861387658
  0.4026995682600756  0.9867588252617637  0.5333650408161028
  0.5604859818352816  0.6240769650507658  0.2031578938278224
  0.0087699007610443  0.3306136336643954  0.8590697842004208
 
             NaN             NaN             NaN
             NaN             NaN             NaN
             NaN             NaN             NaN
             NaN             NaN             NaN
             NaN             NaN             NaN
             NaN             NaN             NaN
             NaN             NaN             NaN
             NaN             NaN             NaN
             NaN             NaN             NaN
             NaN             NaN             NaN
             NaN             NaN             NaN
             NaN             NaN             NaN
             NaN             NaN             NaN
             NaN             NaN             NaN
             NaN             NaN             NaN
             NaN             NaN             NaN
             NaN             NaN             NaN
             NaN             NaN             NaN
             NaN             NaN             NaN
             NaN             NaN             NaN
             NaN             NaN             NaN
             NaN             NaN             NaN
             NaN             NaN             NaN
             NaN             NaN             NaN
             NaN             NaN             NaN
             NaN             NaN             NaN
             NaN             NaN             NaN
             NaN             NaN             NaN
             NaN             NaN             NaN
             NaN             NaN             NaN
             NaN             NaN             NaN
             NaN             NaN             NaN
             NaN             NaN             NaN
             NaN             NaN             NaN
             NaN             NaN             NaN
             NaN             NaN             NaN
             NaN             NaN             NaN
             NaN             NaN             NaN
             NaN             NaN             NaN
             NaN             NaN             NaN
             NaN             NaN             NaN
             NaN             NaN             NaN
             NaN             NaN             NaN
             NaN             NaN             NaN
             NaN             NaN             NaN
             NaN             NaN             NaN
             NaN             NaN             NaN
             NaN             NaN             NaN
             NaN             NaN             NaN
             NaN             NaN             NaN
             NaN             NaN             NaN
             NaN             NaN             NaN
             NaN             NaN             NaN
             NaN             NaN             NaN
             NaN             NaN             NaN
