Ca1 Ni12 F42                            
   1.00000000000000     
     7.0345449999999996   -0.0056780000000000    0.0021460000000000
    -3.5174949999999998    6.1420800000000000   -0.0950340000000000
    -0.1116630000000000   -0.2281920000000000   16.8067579999999985
   Ca   Ni   F 
     1    12    42
Direct
  0.8869415854256506  0.9491183669592490  0.8089254315772907
  0.3125353563196983  1.0100505926273127  0.3322889548918023
  0.6675902530580027  0.6466966857516186  0.0015471129269547
  0.0214888497878462  0.3520689233446940  0.6564771353133089
  0.3347731956153508  0.9646402226734575  0.8371440745198582
  0.6731600973528772  0.6950302792178082  0.4984717488073342
  0.9999789127355140  0.3387518450312664  0.1685467486000222
  0.6702091106445747  0.1955333254109905  0.4959407287694086
  0.4982901090532730  0.3366429029891929  0.1697553459127485
  0.8292485739421454  0.4555996336486650  0.8364961018174796
  0.3311545595254648  0.4694131335517256  0.8349917317088668
  0.1729803529801575  0.6925389311674458  0.4995669933869620
  0.5012764864276951  0.8377637626041300  0.1680983826316645
  0.5778256078335884  0.8138915870606510  0.0637734681262009
  0.2507689844331000  0.3942805390414383  0.7237673146856061
  0.1723363700355222  0.7629230237923210  0.3904805440904597
  0.4631934405875064  0.2662704579731087  0.2772268345067513
  0.7347077522611865  0.4603303468984219  0.9407865089066451
  0.7682992240136541  0.2934783686022932  0.5995939541921996
  0.8522857623381135  0.0904008484614008  0.6995158019851173
  0.2130016447452274  0.1391434325122941  0.3949343752059876
  0.9129345700157705  0.7489860135196541  0.0567358312252415
  0.1174535290339143  0.2367059319129848  0.5856274585613486
  0.0855310362061431  0.9081425149585700  0.2676789207718729
  0.7914807675146976  0.8740087745499152  0.9360978714296837
  0.1790946652657718  0.6174182851400647  0.6094882262647600
  0.4295325104181512  0.8614832505791404  0.2732655123528167
  0.4026674787558487  0.5408077212992757  0.9452542629564898
  0.9334460010911345  0.4953330219228456  0.7302276753833790
  0.5792129410582704  0.1142002552024936  0.3909669544183955
  0.5241750904171205  0.4027731780236892  0.0622673281627462
  0.3794137100715838  0.6134560070538212  0.4705730890183043
  0.2154835719841637  0.6355698782054776  0.1406921042983466
  0.4138194633788841  0.7639467539426892  0.8050106726204012
  0.6020984867833209  0.1709665443288949  0.8016099356170903
  0.5643864224910096  0.3885159697033670  0.4996149092995197
  0.7950195383839603  0.4395274360086300  0.1858239619701518
  0.7264567074610012  0.6931537367856418  0.3967225118058897
  0.9250697612215877  0.2859333398908778  0.0676643678185187
  0.1929831776445197 -0.0514433437263368  0.7437682834333299
  0.4520247969670268  0.9844399517616211  0.9322121765664784
  0.6209986091081677  0.6963954974079741  0.6005309389665572
  0.0749621339613677  0.3919950920477142  0.2690943645489641
  0.9654505682403363  0.7718701790777309  0.5277535839625355
  0.7863623474908665  0.0401742872281281  0.1951329245094870
  0.2567177616902407  0.1707365894882127  0.8661655745883199
  0.0619824684317992  0.7517307625549154  0.8694978648276633
  0.7726128670700503  0.9989738152676133  0.4937250040662300
  0.2016802933510632  0.2343688353145575  0.1526786814924083
  0.6431205455365702  0.5736691578176238  0.8035827375581233
  0.9420540374125846  0.4073978146352885  0.4614249420297608
  0.4432688316114756  0.0520678390172866  0.1348453308698589
  0.4006150760354482  0.9831517933597931  0.5329041142356266
  0.5583052266718321  0.6234298631927551  0.2023572938972112
  0.0131686719518473  0.3329824598188404  0.8599943412459026
 
             NaN             NaN             NaN
             NaN             NaN             NaN
             NaN             NaN             NaN
             NaN             NaN             NaN
             NaN             NaN             NaN
             NaN             NaN             NaN
             NaN             NaN             NaN
             NaN             NaN             NaN
             NaN             NaN             NaN
             NaN             NaN             NaN
             NaN             NaN             NaN
             NaN             NaN             NaN
             NaN             NaN             NaN
             NaN             NaN             NaN
             NaN             NaN             NaN
             NaN             NaN             NaN
             NaN             NaN             NaN
             NaN             NaN             NaN
             NaN             NaN             NaN
             NaN             NaN             NaN
             NaN             NaN             NaN
             NaN             NaN             NaN
             NaN             NaN             NaN
             NaN             NaN             NaN
             NaN             NaN             NaN
             NaN             NaN             NaN
             NaN             NaN             NaN
             NaN             NaN             NaN
             NaN             NaN             NaN
             NaN             NaN             NaN
             NaN             NaN             NaN
             NaN             NaN             NaN
             NaN             NaN             NaN
             NaN             NaN             NaN
             NaN             NaN             NaN
             NaN             NaN             NaN
             NaN             NaN             NaN
             NaN             NaN             NaN
             NaN             NaN             NaN
             NaN             NaN             NaN
             NaN             NaN             NaN
             NaN             NaN             NaN
             NaN             NaN             NaN
             NaN             NaN             NaN
             NaN             NaN             NaN
             NaN             NaN             NaN
             NaN             NaN             NaN
             NaN             NaN             NaN
             NaN             NaN             NaN
             NaN             NaN             NaN
             NaN             NaN             NaN
             NaN             NaN             NaN
             NaN             NaN             NaN
             NaN             NaN             NaN
             NaN             NaN             NaN
