Ca1 Fe4 S6 O24                          
   1.00000000000000     
     7.6885839999999996    0.1647890000000000    4.5924730000000000
     2.6779400000000000    7.2101270000000000    4.6079720000000002
     0.2258660000000000    0.1799610000000000    8.9532019999999992
   Ca   Fe   S    O 
     1     4     6    24
Direct
  0.2696673886644024  0.7615725190994160  0.5599804982467178
  0.6646921677881484  0.6306313224717928  0.6484458409686529
  0.1420652268995998  0.1520604976226667  0.1347950177620904
  0.8255747046479457  0.8560175725133653  0.8564621727488719
  0.3556652757771043  0.3530296047444480  0.3580987102263776
  0.9716204299341087  0.2397015752553566  0.5257860527434046
  0.4518674814051559  0.0427919258214220  0.7505406143959990
  0.5436953576645398  0.9600429761554072  0.2502891420334095
  0.7413760086592741  0.4616829622042901  0.0493172726809870
  0.2600218959242219  0.5274627238018403  0.9569821259767116
  0.0283374235891307  0.7494289919923552  0.4477600583972475
  0.4215055989813220  0.5718117552163128  0.7752178968121497
  0.9299055184903730  0.3143844759608385  0.0330496400380939
  0.7894543680310026  0.3640161284072313  0.6146577423618375
  0.0147457935724871  0.9431588161531210  0.3132690211408346
  0.5806811826578316  0.7733887492911893  0.4086186424269863
  0.3044965121736724  0.0224871107776487  0.9425944751766092
  0.6972583236916134  0.9508787479864613  0.0700389535227597
  0.2290891652543806  0.6194727970444086  0.3980726119745945
  0.0901694753825478  0.6876171783208103  0.9141736478886953
  0.3820306926551905  0.2312805016285701  0.6152340385466096
  0.9966102362774831  0.0347164600606108  0.6507329391044113
  0.5994124070445545  0.3996609830791347  0.2347780309966650
  0.9813970678585340  0.2684411299419571  0.3413935925709454
  0.4989908361702350  0.8899319339081667  0.6949635973156690
  0.3596689986554820  0.9841715934185661  0.2561313033359581
  0.6914234299510785  0.4994294124910187  0.8961512997167412
  0.2653601049154616  0.3489209187872843  0.9804732466717522
  0.9020282775029079  0.6865929669756400  0.4550124800958877
  0.1295659583021543  0.2745756776116457  0.5005199306351099
  0.6223784421593295  0.0342092775954701  0.7523616711610829
  0.5220692554719278  0.1118206451948918  0.2875585607468440
  0.7405550741595005  0.6363492261817153  0.0333151300796630
  0.2784564463158663  0.5165555891042035  0.1155579440008013
 -0.0178047563624176  0.7378419303152928  0.6416235033289746
 
             NaN             NaN             NaN
             NaN             NaN             NaN
             NaN             NaN             NaN
             NaN             NaN             NaN
             NaN             NaN             NaN
             NaN             NaN             NaN
             NaN             NaN             NaN
             NaN             NaN             NaN
             NaN             NaN             NaN
             NaN             NaN             NaN
             NaN             NaN             NaN
             NaN             NaN             NaN
             NaN             NaN             NaN
             NaN             NaN             NaN
             NaN             NaN             NaN
             NaN             NaN             NaN
             NaN             NaN             NaN
             NaN             NaN             NaN
             NaN             NaN             NaN
             NaN             NaN             NaN
             NaN             NaN             NaN
             NaN             NaN             NaN
             NaN             NaN             NaN
             NaN             NaN             NaN
             NaN             NaN             NaN
             NaN             NaN             NaN
             NaN             NaN             NaN
             NaN             NaN             NaN
             NaN             NaN             NaN
             NaN             NaN             NaN
             NaN             NaN             NaN
             NaN             NaN             NaN
             NaN             NaN             NaN
             NaN             NaN             NaN
             NaN             NaN             NaN
