Li24 Ru24 O48
1.0
   8.3614530000000009    0.0000000000000000    0.0000000000000006
   0.0000000000000016   10.0469439999999999    0.0000000000000006
   0.0000000000000000    0.0000000000000000   10.3091799999999996
Li Ru O
23 24 48
direct
   0.3333333333333333    0.5000000000000000    0.7500000000000000 Li
   0.1666666666666667    0.2500000000000000    0.0000000000000000 Li
   0.1666666666666667    0.2500000000000000    0.4999999999999999 Li
   0.1666666666666667    0.7500000000000000    0.0000000000000000 Li
   0.1666666666666667    0.7500000000000000    0.4999999999999999 Li
   0.4999999999999999    0.2500000000000000    0.0000000000000000 Li
   0.4999999999999999    0.2500000000000000    0.4999999999999999 Li
   0.4999999999999999    0.7500000000000000    0.0000000000000000 Li
   0.8333333333333334    0.2500000000000000    0.0000000000000000 Li
   0.8333333333333334    0.2500000000000000    0.4999999999999999 Li
   0.8333333333333334    0.7500000000000000    0.0000000000000000 Li
   0.8333333333333334    0.7500000000000000    0.4999999999999999 Li
   0.0000000000000000    0.0000000000000000    0.2500000000000000 Li
   0.0000000000000000    0.0000000000000000    0.7500000000000000 Li
   0.0000000000000000    0.5000000000000000    0.2500000000000000 Li
   0.0000000000000000    0.5000000000000000    0.7500000000000000 Li
   0.3333333333333333    0.0000000000000000    0.2500000000000000 Li
   0.3333333333333333    0.0000000000000000    0.7500000000000000 Li
   0.3333333333333333    0.5000000000000000    0.2500000000000000 Li
   0.6666666666666666    0.0000000000000000    0.2500000000000000 Li
   0.6666666666666666    0.0000000000000000    0.7500000000000000 Li
   0.6666666666666666    0.5000000000000000    0.2500000000000000 Li
   0.6666666666666666    0.5000000000000000    0.7499999999999999 Li
   0.1666666666666667    0.2500000000000000    0.2500000000000000 Ru
   0.1666666666666667    0.2500000000000000    0.7500000000000000 Ru
   0.1666666666666667    0.7500000000000000    0.2500000000000000 Ru
   0.1666666666666667    0.7500000000000000    0.7499999999999999 Ru
   0.4999999999999999    0.2500000000000000    0.2500000000000000 Ru
   0.4999999999999999    0.2500000000000000    0.7500000000000000 Ru
   0.4999999999999999    0.7500000000000000    0.2500000000000000 Ru
   0.4999999999999999    0.7500000000000000    0.7500000000000000 Ru
   0.8333333333333334    0.2500000000000000    0.2500000000000000 Ru
   0.8333333333333334    0.2500000000000000    0.7499999999999999 Ru
   0.8333333333333334    0.7500000000000000    0.2500000000000000 Ru
   0.8333333333333334    0.7500000000000000    0.7500000000000000 Ru
   0.0000000000000000    0.0000000000000000    0.0000000000000000 Ru
   0.0000000000000000    0.0000000000000000    0.4999999999999999 Ru
   0.0000000000000000    0.5000000000000000    0.0000000000000000 Ru
   0.0000000000000000    0.5000000000000000    0.4999999999999999 Ru
   0.3333333333333333    0.0000000000000000    0.0000000000000000 Ru
   0.3333333333333333    0.0000000000000000    0.4999999999999999 Ru
   0.3333333333333333    0.5000000000000000    0.0000000000000000 Ru
   0.3333333333333333    0.5000000000000000    0.5000000000000000 Ru
   0.6666666666666666    0.0000000000000000    0.0000000000000000 Ru
   0.6666666666666666    0.0000000000000000    0.4999999999999999 Ru
   0.6666666666666666    0.5000000000000000    0.0000000000000000 Ru
   0.6666666666666666    0.5000000000000000    0.5000000000000000 Ru
   0.0000000000000000    0.3351970000000000    0.3758839999999998 O
   0.0000000000000000    0.3351970000000000    0.8758839999999998 O
   0.0000000000000000    0.8351970000000001    0.3758839999999998 O
   0.0000000000000000    0.8351970000000001    0.8758839999999998 O
   0.3333333333333333    0.3351970000000000    0.3758839999999998 O
   0.3333333333333333    0.3351970000000000    0.8758839999999998 O
   0.3333333333333333    0.8351970000000001    0.3758839999999998 O
   0.3333333333333333    0.8351970000000001    0.8758839999999998 O
   0.6666666666666666    0.3351970000000000    0.3758839999999998 O
   0.6666666666666666    0.3351970000000000    0.8758839999999998 O
   0.6666666666666667    0.8351970000000001    0.3758839999999998 O
   0.6666666666666667    0.8351970000000001    0.8758839999999998 O
   0.0000000000000000    0.1648030000000000    0.1241160000000002 O
   0.0000000000000000    0.1648030000000000    0.6241160000000001 O
   0.0000000000000000    0.6648029999999999    0.1241160000000001 O
   0.0000000000000000    0.6648029999999999    0.6241160000000001 O
   0.3333333333333333    0.1648030000000000    0.1241160000000002 O
   0.3333333333333333    0.1648030000000000    0.6241160000000001 O
   0.3333333333333334    0.6648029999999999    0.1241160000000001 O
   0.3333333333333334    0.6648029999999999    0.6241160000000002 O
   0.6666666666666666    0.1648030000000000    0.1241160000000002 O
   0.6666666666666666    0.1648030000000000    0.6241160000000001 O
   0.6666666666666666    0.6648029999999999    0.1241160000000001 O
   0.6666666666666666    0.6648029999999999    0.6241160000000001 O
   0.1666666666666667    0.0851970000000000    0.3741160000000002 O
   0.1666666666666667    0.0851970000000000    0.8741160000000001 O
   0.1666666666666667    0.5851970000000000    0.3741160000000002 O
   0.1666666666666667    0.5851970000000000    0.8741160000000000 O
   0.5000000000000000    0.0851970000000000    0.3741160000000001 O
   0.5000000000000000    0.0851970000000000    0.8741160000000001 O
   0.5000000000000000    0.5851970000000000    0.3741160000000002 O
   0.5000000000000000    0.5851970000000000    0.8741160000000002 O
   0.8333333333333333    0.0851970000000000    0.3741160000000002 O
   0.8333333333333333    0.0851970000000000    0.8741160000000000 O
   0.8333333333333334    0.5851970000000000    0.3741160000000002 O
   0.8333333333333334    0.5851970000000000    0.8741160000000002 O
   0.1666666666666667    0.4148030000000000    0.1258839999999999 O
   0.1666666666666667    0.4148030000000000    0.6258839999999999 O
   0.1666666666666667    0.9148029999999999    0.1258839999999999 O
   0.1666666666666667    0.9148029999999999    0.6258839999999999 O
   0.4999999999999999    0.4148030000000000    0.1258839999999999 O
   0.4999999999999999    0.4148030000000000    0.6258839999999999 O
   0.5000000000000000    0.9148029999999999    0.1258839999999999 O
   0.5000000000000000    0.9148029999999999    0.6258839999999999 O
   0.8333333333333333    0.4148030000000000    0.1258839999999999 O
   0.8333333333333333    0.4148030000000000    0.6258839999999998 O
   0.8333333333333333    0.9148029999999999    0.1258839999999999 O
   0.8333333333333333    0.9148029999999999    0.6258839999999999 O
