Na64 Mn128 O256
1.0
  11.4256600000000006    0.0000000000000000    0.0000000000000000
   0.0000000000000000   17.7023089999999996    0.0000000000000000
   0.0000000000000000    0.0000000000000000   22.0429439999999985
Na Mn O
63 128 256
direct
   0.5625000000000000    0.6232100000000000    0.6568730000000000 Na
   0.8125000000000000    0.6232110000000000    0.6687280000000000 Na
   0.0625000000000000    0.6232100000000000    0.6568730000000000 Na
   0.0625000000000000    0.1232110000000000    0.1687280000000000 Na
   0.5625000000000000    0.1232110000000000    0.1687280000000000 Na
   0.0625000000000000    0.1232110000000000    0.6687280000000000 Na
   0.5625000000000000    0.1232110000000000    0.6687280000000000 Na
   0.0625000000000000    0.6232110000000000    0.1687280000000000 Na
   0.5625000000000000    0.6232110000000000    0.1687280000000000 Na
   0.3125000000000000    0.1232110000000000    0.1687280000000000 Na
   0.8125000000000000    0.1232110000000000    0.1687280000000000 Na
   0.3125000000000000    0.1232110000000000    0.6687280000000000 Na
   0.8125000000000000    0.1232110000000000    0.6687280000000000 Na
   0.3125000000000000    0.6232110000000000    0.1687280000000000 Na
   0.8125000000000000    0.6232110000000000    0.1687280000000000 Na
   0.0625000000000000    0.3732110000000000    0.0812720000000000 Na
   0.5625000000000000    0.3732110000000000    0.0812720000000000 Na
   0.0625000000000000    0.3732110000000000    0.5812720000000000 Na
   0.5625000000000000    0.3732110000000000    0.5812720000000000 Na
   0.0625000000000000    0.8732110000000000    0.0812720000000000 Na
   0.5625000000000000    0.8732110000000000    0.0812720000000000 Na
   0.0625000000000000    0.8732110000000000    0.5812720000000000 Na
   0.5625000000000000    0.8732110000000000    0.5812720000000000 Na
   0.3125000000000000    0.3732110000000000    0.0812720000000000 Na
   0.8125000000000000    0.3732110000000000    0.0812720000000000 Na
   0.3125000000000000    0.3732110000000000    0.5812720000000000 Na
   0.8125000000000000    0.3732110000000000    0.5812720000000000 Na
   0.3125000000000000    0.8732110000000000    0.0812720000000000 Na
   0.8125000000000000    0.8732110000000000    0.0812720000000000 Na
   0.3125000000000000    0.8732110000000000    0.5812720000000000 Na
   0.8125000000000000    0.8732110000000000    0.5812720000000000 Na
   0.1875000000000000    0.3767890000000000    0.3312720000000000 Na
   0.6875000000000000    0.3767890000000000    0.3312720000000000 Na
   0.1875000000000000    0.3767890000000000    0.8312720000000001 Na
   0.6875000000000000    0.3767890000000000    0.8312720000000001 Na
   0.1875000000000000    0.8767890000000000    0.3312720000000000 Na
   0.6875000000000000    0.8767890000000000    0.3312720000000000 Na
   0.1875000000000000    0.8767890000000000    0.8312720000000001 Na
   0.6875000000000000    0.8767890000000000    0.8312720000000001 Na
   0.4375000000000001    0.3767890000000000    0.3312720000000000 Na
   0.9375000000000000    0.3767890000000000    0.3312720000000000 Na
   0.4375000000000001    0.3767890000000000    0.8312720000000001 Na
   0.9375000000000000    0.3767890000000000    0.8312720000000001 Na
   0.4375000000000001    0.8767890000000000    0.3312720000000000 Na
   0.9375000000000000    0.8767890000000000    0.3312720000000000 Na
   0.4375000000000001    0.8767890000000000    0.8312720000000001 Na
   0.9375000000000000    0.8767890000000000    0.8312720000000001 Na
   0.1875000000000000    0.1267890000000000    0.4187280000000000 Na
   0.6875000000000000    0.1267890000000000    0.4187280000000000 Na
   0.1875000000000000    0.1267890000000000    0.9187280000000001 Na
   0.6875000000000000    0.1267890000000000    0.9187280000000001 Na
   0.1875000000000000    0.6267890000000000    0.4187280000000000 Na
   0.6875000000000000    0.6267890000000000    0.4187280000000000 Na
   0.1875000000000000    0.6267890000000000    0.9187280000000001 Na
   0.6875000000000000    0.6267890000000000    0.9187280000000001 Na
   0.4375000000000001    0.1267890000000000    0.4187280000000000 Na
   0.9375000000000000    0.1267890000000000    0.4187280000000000 Na
   0.4375000000000001    0.1267890000000000    0.9187280000000001 Na
   0.9375000000000000    0.1267890000000000    0.9187280000000001 Na
   0.4375000000000001    0.6267890000000000    0.4187280000000000 Na
   0.9375000000000000    0.6267890000000000    0.4187280000000000 Na
   0.4375000000000001    0.6267890000000000    0.9187280000000001 Na
   0.9375000000000000    0.6267890000000000    0.9187280000000001 Na
   0.0625000000000000    0.0344260000000000    0.0561240000000000 Mn
   0.5625000000000000    0.0344260000000000    0.0561240000000000 Mn
   0.0625000000000000    0.0344260000000000    0.5561240000000000 Mn
   0.5625000000000000    0.0344260000000000    0.5561240000000000 Mn
   0.0625000000000000    0.5344260000000000    0.0561240000000000 Mn
   0.5625000000000000    0.5344260000000000    0.0561240000000000 Mn
   0.0625000000000000    0.5344260000000000    0.5561240000000000 Mn
   0.5625000000000000    0.5344260000000000    0.5561240000000000 Mn
   0.3125000000000000    0.0344260000000000    0.0561240000000000 Mn
   0.8125000000000000    0.0344260000000000    0.0561240000000000 Mn
   0.3125000000000000    0.0344260000000000    0.5561240000000000 Mn
   0.8125000000000000    0.0344260000000000    0.5561240000000000 Mn
   0.3125000000000000    0.5344260000000000    0.0561240000000000 Mn
   0.8125000000000000    0.5344260000000000    0.0561240000000000 Mn
   0.3125000000000000    0.5344260000000000    0.5561240000000000 Mn
   0.8125000000000000    0.5344260000000000    0.5561240000000000 Mn
   0.0625000000000000    0.2844260000000000    0.1938760000000000 Mn
   0.5625000000000000    0.2844260000000000    0.1938760000000000 Mn
   0.0625000000000000    0.2844260000000000    0.6938760000000000 Mn
   0.5625000000000000    0.2844260000000000    0.6938760000000000 Mn
   0.0625000000000000    0.7844260000000000    0.1938760000000000 Mn
   0.5625000000000000    0.7844260000000000    0.1938760000000000 Mn
   0.0625000000000000    0.7844260000000000    0.6938760000000000 Mn
   0.5625000000000000    0.7844260000000000    0.6938760000000000 Mn
   0.3125000000000000    0.2844260000000000    0.1938760000000000 Mn
   0.8125000000000000    0.2844260000000000    0.1938760000000000 Mn
   0.3125000000000000    0.2844260000000000    0.6938760000000000 Mn
   0.8125000000000000    0.2844260000000000    0.6938760000000000 Mn
   0.3125000000000000    0.7844260000000000    0.1938760000000000 Mn
   0.8125000000000000    0.7844260000000000    0.1938760000000000 Mn
   0.3125000000000000    0.7844260000000000    0.6938760000000000 Mn
   0.8125000000000000    0.7844260000000000    0.6938760000000000 Mn
   0.1875000000000000    0.4655740000000000    0.4438760000000000 Mn
   0.6875000000000000    0.4655740000000000    0.4438760000000000 Mn
   0.1875000000000000    0.4655740000000000    0.9438760000000002 Mn
   0.6875000000000000    0.4655740000000000    0.9438760000000002 Mn
   0.1875000000000000    0.9655740000000002    0.4438760000000000 Mn
   0.6875000000000000    0.9655740000000002    0.4438760000000000 Mn
   0.1875000000000000    0.9655740000000002    0.9438760000000002 Mn
   0.6875000000000000    0.9655740000000002    0.9438760000000002 Mn
   0.4375000000000001    0.4655740000000000    0.4438760000000000 Mn
   0.9375000000000000    0.4655740000000000    0.4438760000000000 Mn
   0.4375000000000001    0.4655740000000000    0.9438760000000002 Mn
   0.9375000000000000    0.4655740000000000    0.9438760000000002 Mn
   0.4375000000000001    0.9655740000000002    0.4438760000000000 Mn
   0.9375000000000000    0.9655740000000002    0.4438760000000000 Mn
   0.4375000000000001    0.9655740000000002    0.9438760000000002 Mn
   0.9375000000000000    0.9655740000000002    0.9438760000000002 Mn
   0.1875000000000000    0.2155740000000000    0.3061240000000000 Mn
   0.6875000000000000    0.2155740000000000    0.3061240000000000 Mn
   0.1875000000000000    0.2155740000000000    0.8061240000000000 Mn
   0.6875000000000000    0.2155740000000000    0.8061240000000000 Mn
   0.1875000000000000    0.7155740000000000    0.3061240000000000 Mn
   0.6875000000000000    0.7155740000000000    0.3061240000000000 Mn
   0.1875000000000000    0.7155740000000000    0.8061240000000000 Mn
   0.6875000000000000    0.7155740000000000    0.8061240000000000 Mn
   0.4375000000000001    0.2155740000000000    0.3061240000000000 Mn
   0.9375000000000000    0.2155740000000000    0.3061240000000000 Mn
   0.4375000000000001    0.2155740000000000    0.8061240000000000 Mn
   0.9375000000000000    0.2155740000000000    0.8061240000000000 Mn
   0.4375000000000001    0.7155740000000000    0.3061240000000000 Mn
   0.9375000000000000    0.7155740000000000    0.3061240000000000 Mn
   0.4375000000000001    0.7155740000000000    0.8061240000000000 Mn
   0.9375000000000000    0.7155740000000000    0.8061240000000000 Mn
   0.0625000000000000    0.0408650000000000    0.2983890000000000 Mn
   0.5625000000000000    0.0408650000000000    0.2983890000000000 Mn
   0.0625000000000000    0.0408650000000000    0.7983890000000000 Mn
   0.5625000000000000    0.0408650000000000    0.7983890000000000 Mn
   0.0625000000000000    0.5408650000000000    0.2983890000000000 Mn
   0.5625000000000000    0.5408650000000000    0.2983890000000000 Mn
   0.0625000000000000    0.5408650000000000    0.7983890000000000 Mn
   0.5625000000000000    0.5408650000000000    0.7983890000000000 Mn
   0.3125000000000000    0.0408650000000000    0.2983890000000000 Mn
   0.8125000000000000    0.0408650000000000    0.2983890000000000 Mn
   0.3125000000000000    0.0408650000000000    0.7983890000000000 Mn
   0.8125000000000000    0.0408650000000000    0.7983890000000000 Mn
   0.3125000000000000    0.5408650000000000    0.2983890000000000 Mn
   0.8125000000000000    0.5408650000000000    0.2983890000000000 Mn
   0.3125000000000000    0.5408650000000000    0.7983890000000000 Mn
   0.8125000000000000    0.5408650000000000    0.7983890000000000 Mn
   0.0625000000000000    0.2908650000000000    0.4516110000000000 Mn
   0.5625000000000000    0.2908650000000000    0.4516110000000000 Mn
   0.0625000000000000    0.2908650000000000    0.9516110000000000 Mn
   0.5625000000000000    0.2908650000000000    0.9516110000000000 Mn
   0.0625000000000000    0.7908650000000000    0.4516110000000000 Mn
   0.5625000000000000    0.7908650000000000    0.4516110000000000 Mn
   0.0625000000000000    0.7908650000000000    0.9516110000000000 Mn
   0.5625000000000000    0.7908650000000000    0.9516110000000000 Mn
   0.3125000000000000    0.2908650000000000    0.4516110000000000 Mn
   0.8125000000000000    0.2908650000000000    0.4516110000000000 Mn
   0.3125000000000000    0.2908650000000000    0.9516110000000000 Mn
   0.8125000000000000    0.2908650000000000    0.9516110000000000 Mn
   0.3125000000000000    0.7908650000000000    0.4516110000000000 Mn
   0.8125000000000000    0.7908650000000000    0.4516110000000000 Mn
   0.3125000000000000    0.7908650000000000    0.9516110000000000 Mn
   0.8125000000000000    0.7908650000000000    0.9516110000000000 Mn
   0.1875000000000000    0.4591350000000001    0.2016110000000000 Mn
   0.6875000000000000    0.4591350000000001    0.2016110000000000 Mn
   0.1875000000000000    0.4591350000000001    0.7016110000000000 Mn
   0.6875000000000000    0.4591350000000001    0.7016110000000000 Mn
   0.1875000000000000    0.9591350000000000    0.2016110000000000 Mn
   0.6875000000000000    0.9591350000000000    0.2016110000000000 Mn
   0.1875000000000000    0.9591350000000000    0.7016110000000000 Mn
   0.6875000000000000    0.9591350000000000    0.7016110000000000 Mn
   0.4375000000000001    0.4591350000000001    0.2016110000000000 Mn
   0.9375000000000000    0.4591350000000001    0.2016110000000000 Mn
   0.4375000000000001    0.4591350000000001    0.7016110000000000 Mn
   0.9375000000000000    0.4591350000000001    0.7016110000000000 Mn
   0.4375000000000001    0.9591350000000000    0.2016110000000000 Mn
   0.9375000000000000    0.9591350000000000    0.2016110000000000 Mn
   0.4375000000000001    0.9591350000000000    0.7016110000000000 Mn
   0.9375000000000000    0.9591350000000000    0.7016110000000000 Mn
   0.1875000000000000    0.2091350000000000    0.0483890000000000 Mn
   0.6875000000000000    0.2091350000000000    0.0483890000000000 Mn
   0.1875000000000000    0.2091350000000000    0.5483890000000000 Mn
   0.6875000000000000    0.2091350000000000    0.5483890000000000 Mn
   0.1875000000000000    0.7091350000000000    0.0483890000000000 Mn
   0.6875000000000000    0.7091350000000000    0.0483890000000000 Mn
   0.1875000000000000    0.7091350000000000    0.5483890000000000 Mn
   0.6875000000000000    0.7091350000000000    0.5483890000000000 Mn
   0.4375000000000001    0.2091350000000000    0.0483890000000000 Mn
   0.9375000000000000    0.2091350000000000    0.0483890000000000 Mn
   0.4375000000000001    0.2091350000000000    0.5483890000000000 Mn
   0.9375000000000000    0.2091350000000000    0.5483890000000000 Mn
   0.4375000000000001    0.7091350000000000    0.0483890000000000 Mn
   0.9375000000000000    0.7091350000000000    0.0483890000000000 Mn
   0.4375000000000001    0.7091350000000000    0.5483890000000000 Mn
   0.9375000000000000    0.7091350000000000    0.5483890000000000 Mn
   0.0625000000000000    0.1442430000000000    0.3261250000000000 O
   0.5625000000000000    0.1442430000000000    0.3261250000000000 O
   0.0625000000000000    0.1442430000000000    0.8261250000000000 O
   0.5625000000000000    0.1442430000000000    0.8261250000000000 O
   0.0625000000000000    0.6442430000000000    0.3261250000000000 O
   0.5625000000000000    0.6442430000000000    0.3261250000000000 O
   0.0625000000000000    0.6442430000000000    0.8261250000000000 O
   0.5625000000000000    0.6442430000000000    0.8261250000000000 O
   0.3125000000000000    0.1442430000000000    0.3261250000000000 O
   0.8125000000000000    0.1442430000000000    0.3261250000000000 O
   0.3125000000000000    0.1442430000000000    0.8261250000000000 O
   0.8125000000000000    0.1442430000000000    0.8261250000000000 O
   0.3125000000000000    0.6442430000000000    0.3261250000000000 O
   0.8125000000000000    0.6442430000000000    0.3261250000000000 O
   0.3125000000000000    0.6442430000000000    0.8261250000000000 O
   0.8125000000000000    0.6442430000000000    0.8261250000000000 O
   0.0625000000000000    0.3942430000000001    0.4238750000000001 O
   0.5625000000000000    0.3942430000000001    0.4238750000000001 O
   0.0625000000000000    0.3942430000000001    0.9238750000000000 O
   0.5625000000000000    0.3942430000000001    0.9238750000000000 O
   0.0625000000000000    0.8942430000000000    0.4238750000000001 O
   0.5625000000000000    0.8942430000000000    0.4238750000000001 O
   0.0625000000000000    0.8942430000000000    0.9238750000000000 O
   0.5625000000000000    0.8942430000000000    0.9238750000000000 O
   0.3125000000000000    0.3942430000000001    0.4238750000000001 O
   0.8125000000000000    0.3942430000000001    0.4238750000000001 O
   0.3125000000000000    0.3942430000000001    0.9238750000000000 O
   0.8125000000000000    0.3942430000000001    0.9238750000000000 O
   0.3125000000000000    0.8942430000000000    0.4238750000000001 O
   0.8125000000000000    0.8942430000000000    0.4238750000000001 O
   0.3125000000000000    0.8942430000000000    0.9238750000000000 O
   0.8125000000000000    0.8942430000000000    0.9238750000000000 O
   0.1875000000000000    0.3557570000000000    0.1738750000000000 O
   0.6875000000000000    0.3557570000000000    0.1738750000000000 O
   0.1875000000000000    0.3557570000000000    0.6738750000000000 O
   0.6875000000000000    0.3557570000000000    0.6738750000000000 O
   0.1875000000000000    0.8557570000000000    0.1738750000000000 O
   0.6875000000000000    0.8557570000000000    0.1738750000000000 O
   0.1875000000000000    0.8557570000000000    0.6738750000000000 O
   0.6875000000000000    0.8557570000000000    0.6738750000000000 O
   0.4375000000000001    0.3557570000000000    0.1738750000000000 O
   0.9375000000000000    0.3557570000000000    0.1738750000000000 O
   0.4375000000000001    0.3557570000000000    0.6738750000000000 O
   0.9375000000000000    0.3557570000000000    0.6738750000000000 O
   0.4375000000000001    0.8557570000000000    0.1738750000000000 O
   0.9375000000000000    0.8557570000000000    0.1738750000000000 O
   0.4375000000000001    0.8557570000000000    0.6738750000000000 O
   0.9375000000000000    0.8557570000000000    0.6738750000000000 O
   0.1875000000000000    0.1057570000000000    0.0761250000000000 O
   0.6875000000000000    0.1057570000000000    0.0761250000000000 O
   0.1875000000000000    0.1057570000000000    0.5761250000000000 O
   0.6875000000000000    0.1057570000000000    0.5761250000000000 O
   0.1875000000000000    0.6057570000000000    0.0761250000000000 O
   0.6875000000000000    0.6057570000000000    0.0761250000000000 O
   0.1875000000000000    0.6057570000000000    0.5761250000000000 O
   0.6875000000000000    0.6057570000000000    0.5761250000000000 O
   0.4375000000000001    0.1057570000000000    0.0761250000000000 O
   0.9375000000000000    0.1057570000000000    0.0761250000000000 O
   0.4375000000000001    0.1057570000000000    0.5761250000000000 O
   0.9375000000000000    0.1057570000000000    0.5761250000000000 O
   0.4375000000000001    0.6057570000000000    0.0761250000000000 O
   0.9375000000000000    0.6057570000000000    0.0761250000000000 O
   0.4375000000000001    0.6057570000000000    0.5761250000000000 O
   0.9375000000000000    0.6057570000000000    0.5761250000000000 O
   0.0625000000000000    0.1917610000000000    0.4898680000000000 O
   0.5625000000000000    0.1917610000000000    0.4898680000000000 O
   0.0625000000000000    0.1917610000000000    0.9898680000000000 O
   0.5625000000000000    0.1917610000000000    0.9898680000000000 O
   0.0625000000000000    0.6917610000000000    0.4898680000000000 O
   0.5625000000000000    0.6917610000000000    0.4898680000000000 O
   0.0625000000000000    0.6917610000000000    0.9898680000000000 O
   0.5625000000000000    0.6917610000000000    0.9898680000000000 O
   0.3125000000000000    0.1917610000000000    0.4898680000000000 O
   0.8125000000000000    0.1917610000000000    0.4898680000000000 O
   0.3125000000000000    0.1917610000000000    0.9898680000000000 O
   0.8125000000000000    0.1917610000000000    0.9898680000000000 O
   0.3125000000000000    0.6917610000000000    0.4898680000000000 O
   0.8125000000000000    0.6917610000000000    0.4898680000000000 O
   0.3125000000000000    0.6917610000000000    0.9898680000000000 O
   0.8125000000000000    0.6917610000000000    0.9898680000000000 O
   0.0625000000000000    0.4417610000000000    0.2601320000000000 O
   0.5625000000000000    0.4417610000000000    0.2601320000000000 O
   0.0625000000000000    0.4417610000000000    0.7601320000000000 O
   0.5625000000000000    0.4417610000000000    0.7601320000000000 O
   0.0625000000000000    0.9417610000000001    0.2601320000000000 O
   0.5625000000000000    0.9417610000000001    0.2601320000000000 O
   0.0625000000000000    0.9417610000000001    0.7601320000000000 O
   0.5625000000000000    0.9417610000000001    0.7601320000000000 O
   0.3125000000000000    0.4417610000000000    0.2601320000000000 O
   0.8125000000000000    0.4417610000000000    0.2601320000000000 O
   0.3125000000000000    0.4417610000000000    0.7601320000000000 O
   0.8125000000000000    0.4417610000000000    0.7601320000000000 O
   0.3125000000000000    0.9417610000000001    0.2601320000000000 O
   0.8125000000000000    0.9417610000000001    0.2601320000000000 O
   0.3125000000000000    0.9417610000000001    0.7601320000000000 O
   0.8125000000000000    0.9417610000000001    0.7601320000000000 O
   0.1875000000000000    0.3082390000000000    0.0101320000000000 O
   0.6875000000000000    0.3082390000000000    0.0101320000000000 O
   0.1875000000000000    0.3082390000000000    0.5101320000000000 O
   0.6875000000000000    0.3082390000000000    0.5101320000000000 O
   0.1875000000000000    0.8082390000000000    0.0101320000000000 O
   0.6875000000000000    0.8082390000000000    0.0101320000000000 O
   0.1875000000000000    0.8082390000000000    0.5101320000000000 O
   0.6875000000000000    0.8082390000000000    0.5101320000000000 O
   0.4375000000000001    0.3082390000000000    0.0101320000000000 O
   0.9375000000000000    0.3082390000000000    0.0101320000000000 O
   0.4375000000000001    0.3082390000000000    0.5101320000000000 O
   0.9375000000000000    0.3082390000000000    0.5101320000000000 O
   0.4375000000000001    0.8082390000000000    0.0101320000000000 O
   0.9375000000000000    0.8082390000000000    0.0101320000000000 O
   0.4375000000000001    0.8082390000000000    0.5101320000000000 O
   0.9375000000000000    0.8082390000000000    0.5101320000000000 O
   0.1875000000000000    0.0582390000000000    0.2398680000000000 O
   0.6875000000000000    0.0582390000000000    0.2398680000000000 O
   0.1875000000000000    0.0582390000000000    0.7398680000000000 O
   0.6875000000000000    0.0582390000000000    0.7398680000000000 O
   0.1875000000000000    0.5582390000000000    0.2398680000000000 O
   0.6875000000000000    0.5582390000000000    0.2398680000000000 O
   0.1875000000000000    0.5582390000000000    0.7398680000000000 O
   0.6875000000000000    0.5582390000000000    0.7398680000000000 O
   0.4375000000000001    0.0582390000000000    0.2398680000000000 O
   0.9375000000000000    0.0582390000000000    0.2398680000000000 O
   0.4375000000000001    0.0582390000000000    0.7398680000000000 O
   0.9375000000000000    0.0582390000000000    0.7398680000000000 O
   0.4375000000000001    0.5582390000000000    0.2398680000000000 O
   0.9375000000000000    0.5582390000000000    0.2398680000000000 O
   0.4375000000000001    0.5582390000000000    0.7398680000000000 O
   0.9375000000000000    0.5582390000000000    0.7398680000000000 O
   0.0625000000000000    0.2364960000000000    0.0997370000000000 O
   0.5625000000000000    0.2364960000000000    0.0997370000000000 O
   0.0625000000000000    0.2364960000000000    0.5997370000000000 O
   0.5625000000000000    0.2364960000000000    0.5997370000000000 O
   0.0625000000000000    0.7364960000000000    0.0997370000000000 O
   0.5625000000000000    0.7364960000000000    0.0997370000000000 O
   0.0625000000000000    0.7364960000000000    0.5997370000000000 O
   0.5625000000000000    0.7364960000000000    0.5997370000000000 O
   0.3125000000000000    0.2364960000000000    0.0997370000000000 O
   0.8125000000000000    0.2364960000000000    0.0997370000000000 O
   0.3125000000000000    0.2364960000000000    0.5997370000000000 O
   0.8125000000000000    0.2364960000000000    0.5997370000000000 O
   0.3125000000000000    0.7364960000000000    0.0997370000000000 O
   0.8125000000000000    0.7364960000000000    0.0997370000000000 O
   0.3125000000000000    0.7364960000000000    0.5997370000000000 O
   0.8125000000000000    0.7364960000000000    0.5997370000000000 O
   0.0625000000000000    0.4864960000000000    0.1502630000000000 O
   0.5625000000000000    0.4864960000000000    0.1502630000000000 O
   0.0625000000000000    0.4864960000000000    0.6502630000000000 O
   0.5625000000000000    0.4864960000000000    0.6502630000000000 O
   0.0625000000000000    0.9864960000000000    0.1502630000000000 O
   0.5625000000000000    0.9864960000000000    0.1502630000000000 O
   0.0625000000000000    0.9864960000000000    0.6502630000000000 O
   0.5625000000000000    0.9864960000000000    0.6502630000000000 O
   0.3125000000000000    0.4864960000000000    0.1502630000000000 O
   0.8125000000000000    0.4864960000000000    0.1502630000000000 O
   0.3125000000000000    0.4864960000000000    0.6502630000000000 O
   0.8125000000000000    0.4864960000000000    0.6502630000000000 O
   0.3125000000000000    0.9864960000000000    0.1502630000000000 O
   0.8125000000000000    0.9864960000000000    0.1502630000000000 O
   0.3125000000000000    0.9864960000000000    0.6502630000000000 O
   0.8125000000000000    0.9864960000000000    0.6502630000000000 O
   0.1875000000000000    0.2635040000000000    0.4002630000000000 O
   0.6875000000000000    0.2635040000000000    0.4002630000000000 O
   0.1875000000000000    0.2635040000000000    0.9002630000000000 O
   0.6875000000000000    0.2635040000000000    0.9002630000000000 O
   0.1875000000000000    0.7635040000000000    0.4002630000000000 O
   0.6875000000000000    0.7635040000000000    0.4002630000000000 O
   0.1875000000000000    0.7635040000000000    0.9002630000000000 O
   0.6875000000000000    0.7635040000000000    0.9002630000000000 O
   0.4375000000000001    0.2635040000000000    0.4002630000000000 O
   0.9375000000000000    0.2635040000000000    0.4002630000000000 O
   0.4375000000000001    0.2635040000000000    0.9002630000000000 O
   0.9375000000000000    0.2635040000000000    0.9002630000000000 O
   0.4375000000000001    0.7635040000000000    0.4002630000000000 O
   0.9375000000000000    0.7635040000000000    0.4002630000000000 O
   0.4375000000000001    0.7635040000000000    0.9002630000000000 O
   0.9375000000000000    0.7635040000000000    0.9002630000000000 O
   0.1875000000000000    0.0135040000000000    0.3497370000000000 O
   0.6875000000000000    0.0135040000000000    0.3497370000000000 O
   0.1875000000000000    0.0135040000000000    0.8497370000000001 O
   0.6875000000000000    0.0135040000000000    0.8497370000000001 O
   0.1875000000000000    0.5135040000000000    0.3497370000000000 O
   0.6875000000000000    0.5135040000000000    0.3497370000000000 O
   0.1875000000000000    0.5135040000000000    0.8497370000000001 O
   0.6875000000000000    0.5135040000000000    0.8497370000000001 O
   0.4375000000000001    0.0135040000000000    0.3497370000000000 O
   0.9375000000000000    0.0135040000000000    0.3497370000000000 O
   0.4375000000000001    0.0135040000000000    0.8497370000000001 O
   0.9375000000000000    0.0135040000000000    0.8497370000000001 O
   0.4375000000000001    0.5135040000000000    0.3497370000000000 O
   0.9375000000000000    0.5135040000000000    0.3497370000000000 O
   0.4375000000000001    0.5135040000000000    0.8497370000000001 O
   0.9375000000000000    0.5135040000000000    0.8497370000000001 O
   0.0625000000000000    0.0347250000000000    0.4577280000000000 O
   0.5625000000000000    0.0347250000000000    0.4577280000000000 O
   0.0625000000000000    0.0347250000000000    0.9577280000000000 O
   0.5625000000000000    0.0347250000000000    0.9577280000000000 O
   0.0625000000000000    0.5347250000000000    0.4577280000000000 O
   0.5625000000000000    0.5347250000000000    0.4577280000000000 O
   0.0625000000000000    0.5347250000000000    0.9577280000000000 O
   0.5625000000000000    0.5347250000000000    0.9577280000000000 O
   0.3125000000000000    0.0347250000000000    0.4577280000000000 O
   0.8125000000000000    0.0347250000000000    0.4577280000000000 O
   0.3125000000000000    0.0347250000000000    0.9577280000000000 O
   0.8125000000000000    0.0347250000000000    0.9577280000000000 O
   0.3125000000000000    0.5347250000000000    0.4577280000000000 O
   0.8125000000000000    0.5347250000000000    0.4577280000000000 O
   0.3125000000000000    0.5347250000000000    0.9577280000000000 O
   0.8125000000000000    0.5347250000000000    0.9577280000000000 O
   0.0625000000000000    0.2847250000000000    0.2922720000000000 O
   0.5625000000000000    0.2847250000000000    0.2922720000000000 O
   0.0625000000000000    0.2847250000000000    0.7922720000000000 O
   0.5625000000000000    0.2847250000000000    0.7922720000000000 O
   0.0625000000000000    0.7847250000000001    0.2922720000000000 O
   0.5625000000000000    0.7847250000000001    0.2922720000000000 O
   0.0625000000000000    0.7847250000000001    0.7922720000000000 O
   0.5625000000000000    0.7847250000000001    0.7922720000000000 O
   0.3125000000000000    0.2847250000000000    0.2922720000000000 O
   0.8125000000000000    0.2847250000000000    0.2922720000000000 O
   0.3125000000000000    0.2847250000000000    0.7922720000000000 O
   0.8125000000000000    0.2847250000000000    0.7922720000000000 O
   0.3125000000000000    0.7847250000000001    0.2922720000000000 O
   0.8125000000000000    0.7847250000000001    0.2922720000000000 O
   0.3125000000000000    0.7847250000000001    0.7922720000000000 O
   0.8125000000000000    0.7847250000000001    0.7922720000000000 O
   0.1875000000000000    0.4652750000000000    0.0422720000000000 O
   0.6875000000000000    0.4652750000000000    0.0422720000000000 O
   0.1875000000000000    0.4652750000000000    0.5422720000000000 O
   0.6875000000000000    0.4652750000000000    0.5422720000000000 O
   0.1875000000000000    0.9652750000000000    0.0422720000000000 O
   0.6875000000000000    0.9652750000000000    0.0422720000000000 O
   0.1875000000000000    0.9652750000000000    0.5422720000000000 O
   0.6875000000000000    0.9652750000000000    0.5422720000000000 O
   0.4375000000000001    0.4652750000000000    0.0422720000000000 O
   0.9375000000000000    0.4652750000000000    0.0422720000000000 O
   0.4375000000000001    0.4652750000000000    0.5422720000000000 O
   0.9375000000000000    0.4652750000000000    0.5422720000000000 O
   0.4375000000000001    0.9652750000000000    0.0422720000000000 O
   0.9375000000000000    0.9652750000000000    0.0422720000000000 O
   0.4375000000000001    0.9652750000000000    0.5422720000000000 O
   0.9375000000000000    0.9652750000000000    0.5422720000000000 O
   0.1875000000000000    0.2152750000000000    0.2077280000000000 O
   0.6875000000000000    0.2152750000000000    0.2077280000000000 O
   0.1875000000000000    0.2152750000000000    0.7077280000000000 O