Ca32 Mn16 O56
1.0
  10.8442420047221368    0.0000000000000000    0.0000000000000006
   0.0000000000000020   12.3338720051666240    0.0000000000000008
   0.0000000000000000    0.0000000000000000   10.1010710000007915
Ca Mn O
31 16 56
direct
   0.8534312500000001    0.8478029999999999    0.3748560000000000 Ca
   0.3534312500000000    0.8478029999999999    0.3748560000000000 Ca
   0.1465687500000001    0.8478029999999999    0.6251440000000000 Ca
   0.1034312500000000    0.6521970000000001    0.3748560000000000 Ca
   0.6034312500000000    0.6521970000000001    0.3748560000000001 Ca
   0.1034312500000000    0.8478029999999999    0.1251440000000000 Ca
   0.6034312500000001    0.8478029999999999    0.1251440000000000 Ca
   0.3965687500000000    0.8478029999999999    0.8748560000000000 Ca
   0.8965687500000000    0.8478029999999999    0.8748559999999999 Ca
   0.3965687500000000    0.6521970000000001    0.6251440000000000 Ca
   0.8965687499999999    0.6521970000000001    0.6251440000000000 Ca
   0.3534312500000000    0.6521970000000001    0.1251440000000000 Ca
   0.8534312499999999    0.6521970000000001    0.1251440000000000 Ca
   0.1465687500000001    0.6521970000000001    0.8748560000000000 Ca
   0.6465687500000000    0.6521970000000001    0.8748560000000000 Ca
   0.3534312500000000    0.1521970000000001    0.3748560000000000 Ca
   0.8534312500000000    0.1521970000000001    0.3748560000000000 Ca
   0.3534312500000000    0.3478029999999999    0.1251440000000000 Ca
   0.8534312499999999    0.3478029999999999    0.1251440000000000 Ca
   0.1465687500000001    0.3478029999999999    0.8748560000000000 Ca
   0.6465687500000000    0.3478029999999999    0.8748560000000000 Ca
   0.1465687500000000    0.1521970000000001    0.6251440000000000 Ca
   0.6465687500000000    0.1521970000000001    0.6251440000000000 Ca
   0.1034312499999999    0.3478029999999999    0.3748560000000000 Ca
   0.6034312499999999    0.3478029999999999    0.3748560000000000 Ca
   0.1034312499999999    0.1521970000000001    0.1251440000000000 Ca
   0.6034312499999999    0.1521970000000001    0.1251440000000000 Ca
   0.3965687500000000    0.1521970000000001    0.8748560000000000 Ca
   0.8965687500000000    0.1521970000000001    0.8748560000000000 Ca
   0.3965687500000001    0.3478029999999999    0.6251440000000000 Ca
   0.8965687499999999    0.3478029999999999    0.6251440000000000 Ca
   0.1161487500000000    0.5000000000000000    0.1246800000000000 Mn
   0.6161487500000000    0.5000000000000000    0.1246800000000000 Mn
   0.3838512499999999    0.0000000000000000    0.6246799999999999 Mn
   0.8838512499999999    0.0000000000000000    0.6246799999999999 Mn
   0.3661487500000000    0.5000000000000000    0.3753200000000000 Mn
   0.8661487500000000    0.5000000000000000    0.3753200000000000 Mn
   0.3838512499999999    0.5000000000000000    0.8753200000000000 Mn
   0.8838512499999999    0.5000000000000000    0.8753200000000000 Mn
   0.3661487500000000    0.0000000000000000    0.1246800000000000 Mn
   0.8661487500000000    0.0000000000000000    0.1246800000000000 Mn
   0.1338512500000000    0.5000000000000000    0.6246799999999999 Mn
   0.6338512500000000    0.5000000000000000    0.6246799999999998 Mn
   0.1161487500000000    0.0000000000000000    0.3753200000000000 Mn
   0.6161487499999999    0.0000000000000000    0.3753200000000000 Mn
   0.1338512500000000    0.0000000000000000    0.8753200000000001 Mn
   0.6338512500000000    0.0000000000000000    0.8753200000000001 Mn
   0.2500000000000000    0.5000000000000000    0.0000000000000000 O
   0.7499999999999999    0.5000000000000000    0.0000000000000000 O
   0.2500000000000000    0.0000000000000000    0.5000000000000000 O
   0.7500000000000000    0.0000000000000000    0.4999999999999999 O
   0.0436795000000000    0.5000000000000000    0.8069830000000001 O
   0.5436795000000000    0.5000000000000000    0.8069830000000001 O
   0.2936794999999999    0.5000000000000000    0.6930170000000000 O
   0.7936794999999999    0.5000000000000000    0.6930170000000000 O
   0.4563205000000000    0.0000000000000000    0.3069830000000000 O
   0.9563205000000000    0.0000000000000000    0.3069830000000001 O
   0.2063205000000000    0.0000000000000000    0.1930170000000000 O
   0.7063205000000000    0.0000000000000000    0.1930170000000000 O
   0.1193425000000000    0.8389305000000000    0.3797949999999999 O
   0.6193425000000000    0.8389305000000000    0.3797949999999999 O
   0.1193425000000000    0.6610695000000000    0.1202050000000001 O
   0.6193424999999999    0.6610695000000000    0.1202050000000001 O
   0.3806575000000000    0.6610695000000000    0.8797949999999998 O
   0.8806574999999999    0.6610695000000000    0.8797949999999998 O
   0.3806575000000000    0.8389305000000000    0.6202050000000001 O
   0.8806574999999999    0.8389305000000000    0.6202050000000001 O
   0.1306575000000000    0.6610695000000000    0.6202050000000001 O
   0.6306575000000000    0.6610695000000000    0.6202050000000001 O
   0.1306575000000000    0.8389305000000000    0.8797949999999998 O
   0.6306575000000000    0.8389305000000000    0.8797949999999998 O
   0.3693425000000000    0.6610695000000000    0.3797949999999999 O
   0.8693424999999998    0.6610695000000000    0.3797949999999999 O
   0.3693425000000000    0.8389305000000000    0.1202050000000001 O
   0.8693425000000000    0.8389305000000000    0.1202050000000001 O
   0.0000000000000000    0.0000000000000000    0.0000000000000000 O
   0.4999999999999999    0.0000000000000000    0.0000000000000000 O
   0.0000000000000000    0.5000000000000000    0.4999999999999999 O
   0.4999999999999999    0.5000000000000000    0.4999999999999999 O
   0.2936795000000000    0.0000000000000000    0.8069830000000000 O
   0.7936795000000000    0.0000000000000000    0.8069829999999999 O
   0.0436795000000000    0.0000000000000000    0.6930170000000000 O
   0.5436795000000000    0.0000000000000000    0.6930170000000000 O
   0.2063205000000000    0.5000000000000000    0.3069830000000000 O
   0.7063204999999999    0.5000000000000000    0.3069830000000000 O
   0.4563205000000000    0.5000000000000000    0.1930170000000000 O
   0.9563204999999999    0.5000000000000000    0.1930170000000000 O
   0.3693425000000000    0.3389305000000000    0.3797949999999999 O
   0.8693424999999998    0.3389305000000000    0.3797949999999999 O
   0.3693424999999999    0.1610695000000000    0.1202050000000001 O
   0.8693424999999999    0.1610695000000000    0.1202050000000001 O
   0.1306575000000000    0.1610695000000000    0.8797949999999999 O
   0.6306575000000000    0.1610695000000000    0.8797949999999999 O
   0.1306575000000000    0.3389305000000000    0.6202050000000001 O
   0.6306575000000000    0.3389305000000000    0.6202050000000001 O
   0.3806574999999999    0.1610695000000000    0.6202050000000001 O
   0.8806575000000000    0.1610695000000000    0.6202050000000001 O
   0.3806575000000000    0.3389305000000000    0.8797949999999999 O
   0.8806574999999999    0.3389305000000000    0.8797949999999998 O
   0.1193425000000000    0.1610695000000000    0.3797949999999999 O
   0.6193424999999999    0.1610695000000000    0.3797949999999999 O
   0.1193425000000000    0.3389305000000000    0.1202050000000001 O
   0.6193424999999999    0.3389305000000000    0.1202050000000001 O
