Na2 Ca2 V4 Si4 P2 O24
1.0
8.885279 0.199125 0.036222
4.354267 7.719219 0.051963
4.426265 2.584127 7.274330
Ca Na V Si P O
2 2 4 4 2 24
direct
0.607070 0.870751 0.254936 Ca
0.021739 1.001859 -0.020197 Ca
0.151461 0.752933 0.395701 Na
0.816617 0.260025 0.582402 Na
0.374162 0.354046 0.364185 V
0.645478 0.638271 0.655420 V
0.150695 0.153844 0.128782 V
0.855358 0.844792 0.851073 V
0.039169 0.454213 0.749178 Si
0.752413 0.028258 0.458487 Si
0.467979 0.748426 0.036222 Si
0.532988 0.256077 0.967360 Si
0.973114 0.541378 0.247345 P
0.245707 0.974084 0.541978 P
0.223842 0.446145 0.566902 O
0.779448 0.565828 0.407972 O
0.571716 0.220056 0.436803 O
0.417568 0.794857 0.565128 O
0.439108 0.565259 0.216606 O
0.560916 0.432448 0.781973 O
0.937166 0.060153 0.277153 O
0.069622 0.950886 0.714830 O
0.060354 0.265414 0.925626 O
0.938329 0.731842 0.084648 O
0.267684 0.916713 0.068920 O
0.729613 0.074213 0.945926 O
0.484037 0.260706 0.168503 O
0.519180 0.725477 0.843472 O
0.129440 0.518946 0.291264 O
0.863531 0.491549 0.703307 O
0.264936 0.145330 0.524520 O
0.725806 0.855124 0.466517 O
0.363223 0.202166 -0.002024 O
0.633148 0.789668 1.026209 O
0.231522 0.993829 0.364618 O
0.779398 -0.006748 0.643507 O
0.008532 0.374420 0.206416 O
0.994365 0.636384 0.793763 O
