Mg16 V16 P16 O64 F16
1.0
  10.4443146165659453    0.0322166939992900   -0.1589399735907884
  -1.4586052264115239   10.6804793006859740   -0.1074180291033780
  -3.9471509407912300   -5.4815466615765454   13.1919214893028993
Mg V P O F
1 16 16 64 16
direct
   0.5419446805104672    0.7173254362239984    0.4125547116743921 Mg
   0.0022976729147631    0.0033497066620794    0.0052512585085195 V
   0.0022976729147630    0.0033497066620794    0.5052512585085195 V
   0.0022976729147630    0.5033497066620795    0.0052512585085195 V
   0.0022976729147630    0.5033497066620793    0.5052512585085195 V
   0.5022976729147631    0.0033497066620794    0.0052512585085195 V
   0.5022976729147630    0.0033497066620795    0.5052512585085195 V
   0.5022976729147630    0.5033497066620795    0.0052512585085195 V
   0.5022976729147630    0.5033497066620793    0.5052512585085195 V
   0.2448569255390971    0.2490333793479462    0.2444401932029697 V
   0.2448569255390970    0.2490333793479462    0.7444401932029696 V
   0.2448569255390970    0.7490333793479462    0.2444401932029696 V
   0.2448569255390970    0.7490333793479462    0.7444401932029696 V
   0.7448569255390972    0.2490333793479462    0.2444401932029697 V
   0.7448569255390970    0.2490333793479463    0.7444401932029697 V
   0.7448569255390971    0.7490333793479462    0.2444401932029697 V
   0.7448569255390970    0.7490333793479462    0.7444401932029697 V
   0.2217312267303797    0.0576750607895983    0.3803215103158022 P
   0.2217312267303797    0.0576750607895983    0.8803215103158022 P
   0.2217312267303797    0.5576750607895983    0.3803215103158021 P
   0.2217312267303797    0.5576750607895983    0.8803215103158022 P
   0.7217312267303798    0.0576750607895983    0.3803215103158021 P
   0.7217312267303797    0.0576750607895983    0.8803215103158022 P
   0.7217312267303796    0.5576750607895983    0.3803215103158021 P
   0.7217312267303797    0.5576750607895983    0.8803215103158022 P
   0.2833905299250100    0.4404344557045760    0.1185569446259732 P
   0.2833905299250099    0.4404344557045760    0.6185569446259731 P
   0.2833905299250099    0.9404344557045758    0.1185569446259732 P
   0.2833905299250098    0.9404344557045758    0.6185569446259731 P
   0.7833905299250099    0.4404344557045760    0.1185569446259732 P
   0.7833905299250099    0.4404344557045760    0.6185569446259732 P
   0.7833905299250099    0.9404344557045760    0.1185569446259732 P
   0.7833905299250098    0.9404344557045761    0.6185569446259732 P
   0.3661276283122444    0.4258768865424704    0.0461494493239617 O
   0.3661276283122444    0.4258768865424704    0.5461494493239617 O
   0.3661276283122444    0.9258768865424704    0.0461494493239617 O
   0.3661276283122443    0.9258768865424702    0.5461494493239616 O
   0.8661276283122443    0.4258768865424704    0.0461494493239617 O
   0.8661276283122444    0.4258768865424704    0.5461494493239616 O
   0.8661276283122444    0.9258768865424702    0.0461494493239616 O
   0.8661276283122443    0.9258768865424704    0.5461494493239616 O
   0.3162571717557703    0.3458457388328537    0.1749004811768660 O
   0.3162571717557702    0.3458457388328537    0.6749004811768659 O
   0.3162571717557703    0.8458457388328536    0.1749004811768659 O
   0.3162571717557702    0.8458457388328536    0.6749004811768659 O
   0.8162571717557703    0.3458457388328537    0.1749004811768659 O
   0.8162571717557703    0.3458457388328537    0.6749004811768660 O
   0.8162571717557703    0.8458457388328537    0.1749004811768660 O
   0.8162571717557702    0.8458457388328535    0.6749004811768660 O
   0.1705874128738992    0.1559808084742954    0.3281412530281191 O
   0.1705874128738991    0.1559808084742954    0.8281412530281190 O
   0.1705874128738991    0.6559808084742954    0.3281412530281191 O
   0.1705874128738991    0.6559808084742953    0.8281412530281190 O
   0.6705874128738992    0.1559808084742954    0.3281412530281191 O
   0.6705874128738991    0.1559808084742955    0.8281412530281191 O
   0.6705874128738990    0.6559808084742954    0.3281412530281191 O
   0.6705874128738991    0.6559808084742954    0.8281412530281190 O
   0.3160729220884216    0.0877674002673941    0.1967896039380649 O
   0.3160729220884216    0.0877674002673941    0.6967896039380650 O
   0.3160729220884216    0.5877674002673942    0.1967896039380649 O
   0.3160729220884216    0.5877674002673940    0.6967896039380650 O
   0.8160729220884215    0.0877674002673941    0.1967896039380649 O
   0.8160729220884215    0.0877674002673941    0.6967896039380649 O
   0.8160729220884216    0.5877674002673942    0.1967896039380649 O
   0.8160729220884215    0.5877674002673940    0.6967896039380649 O
   0.1484063626730635    0.0882787620476503    0.4615763067300331 O
   0.1484063626730635    0.0882787620476503    0.9615763067300330 O
   0.1484063626730635    0.5882787620476502    0.4615763067300330 O
   0.1484063626730635    0.5882787620476502    0.9615763067300330 O
   0.6484063626730635    0.0882787620476503    0.4615763067300331 O
   0.6484063626730635    0.0882787620476502    0.9615763067300330 O
   0.6484063626730635    0.5882787620476502    0.4615763067300330 O
   0.6484063626730634    0.5882787620476502    0.9615763067300330 O
   0.1742686573651709    0.4068728892838309    0.3104209601463618 O
   0.1742686573651708    0.4068728892838309    0.8104209601463618 O
   0.1742686573651709    0.9068728892838309    0.3104209601463618 O
   0.1742686573651708    0.9068728892838308    0.8104209601463618 O
   0.6742686573651709    0.4068728892838309    0.3104209601463618 O
   0.6742686573651708    0.4068728892838309    0.8104209601463618 O
   0.6742686573651708    0.9068728892838308    0.3104209601463618 O
   0.6742686573651707    0.9068728892838308    0.8104209601463618 O
   0.1271649562972551    0.3899575638458496    0.0453378869201453 O
   0.1271649562972550    0.3899575638458496    0.5453378869201454 O
   0.1271649562972551    0.8899575638458496    0.0453378869201454 O
   0.1271649562972550    0.8899575638458495    0.5453378869201453 O
   0.6271649562972551    0.3899575638458496    0.0453378869201453 O
   0.6271649562972551    0.3899575638458496    0.5453378869201454 O
   0.6271649562972550    0.8899575638458496    0.0453378869201453 O
   0.6271649562972550    0.8899575638458495    0.5453378869201453 O
   0.3829119920322375    0.1036312470271424    0.4311801965445250 O
   0.3829119920322375    0.1036312470271425    0.9311801965445251 O
   0.3829119920322375    0.6036312470271423    0.4311801965445250 O
   0.3829119920322375    0.6036312470271424    0.9311801965445251 O
   0.8829119920322375    0.1036312470271424    0.4311801965445250 O
   0.8829119920322375    0.1036312470271424    0.9311801965445250 O
   0.8829119920322375    0.6036312470271423    0.4311801965445249 O
   0.8829119920322374    0.6036312470271423    0.9311801965445250 O
   0.0680436502760271    0.1634847583167547    0.1328620696581166 F
   0.0680436502760271    0.1634847583167547    0.6328620696581165 F
   0.0680436502760271    0.6634847583167547    0.1328620696581166 F
   0.0680436502760271    0.6634847583167547    0.6328620696581165 F
   0.5680436502760271    0.1634847583167547    0.1328620696581166 F
   0.5680436502760271    0.1634847583167547    0.6328620696581166 F
   0.5680436502760271    0.6634847583167547    0.1328620696581166 F
   0.5680436502760271    0.6634847583167547    0.6328620696581166 F
   0.4304377107061905    0.3323189066335547    0.3678051742061535 F
   0.4304377107061905    0.3323189066335547    0.8678051742061536 F
   0.4304377107061905    0.8323189066335547    0.3678051742061534 F
   0.4304377107061904    0.8323189066335547    0.8678051742061536 F
   0.9304377107061905    0.3323189066335547    0.3678051742061535 F
   0.9304377107061904    0.3323189066335547    0.8678051742061534 F
   0.9304377107061904    0.8323189066335547    0.3678051742061534 F
   0.9304377107061904    0.8323189066335546    0.8678051742061534 F
