Ca2 Mn4 S6 O24
1.0
8.091814 0.471495 4.366051
3.077480 7.815941 4.413652
0.164274 0.180825 8.619791
Ca Mn S O
2 4 6 24
direct
0.247805 0.879977 0.555294 Ca
0.969432 1.012298 1.013268 Ca
0.655888 0.626198 0.648748 Mn
0.155917 0.213657 0.095718 Mn
0.827591 0.792235 0.871945 Mn
0.367139 0.360014 0.357639 Mn
0.985239 0.269323 0.513691 S
0.413166 0.014821 0.769947 S
0.568085 0.973213 0.226267 S
0.739005 0.435077 0.073891 S
0.254789 0.569233 0.925975 S
0.026558 0.729885 0.479820 S
0.400690 0.591584 0.740801 O
0.909911 0.264386 0.067271 O
0.796090 0.400027 0.553909 O
-0.011693 0.862961 0.305357 O
0.589220 0.803969 0.382381 O
0.250931 0.035887 0.946099 O
0.726195 0.941272 0.052685 O
0.214969 0.594991 0.443903 O
0.093600 0.749479 0.907964 O
0.388479 0.189356 0.630175 O
1.019023 0.118996 0.689724 O
0.600468 0.406976 0.256085 O
1.022579 0.179725 0.386155 O
0.416300 0.890985 0.707066 O
0.390521 1.030226 0.203921 O
0.675625 0.484691 0.920136 O
0.199308 0.439891 0.945163 O
0.888673 0.653575 0.595726 O
0.117000 0.348252 0.429706 O
0.581455 -0.063255 0.816041 O
0.568087 0.108953 0.263875 O
0.792340 0.567328 0.052645 O
0.311463 0.521435 0.081577 O
0.010701 0.820790 0.596821 O
