Ca16 V32 O64
1.0
  10.1556020163501071    0.0000000000000000   -2.9630857772379198
  -0.0000000000000007   11.9985400000000002    0.0000000000000007
   0.0000000000000000    0.0000000000000000   11.6344499999999993
Ca V O
1 32 64
direct
   0.3447620000000000    0.8749999999999999    0.5025999999999999 Ca
   0.0000000000000000    0.2500000000000000    0.2500000000000000 V
   0.0000000000000000    0.2500000000000000    0.7499999999999999 V
   0.0000000000000000    0.7500000000000000    0.2500000000000000 V
   0.0000000000000000    0.7500000000000000    0.7499999999999999 V
   0.5000000000000000    0.2500000000000000    0.2500000000000000 V
   0.5000000000000000    0.2500000000000000    0.7500000000000000 V
   0.5000000000000000    0.7500000000000000    0.2500000000000000 V
   0.5000000000000000    0.7500000000000000    0.7500000000000000 V
   0.0000000000000000    0.0000000000000000    0.2500000000000000 V
   0.0000000000000000    0.0000000000000000    0.7499999999999999 V
   0.0000000000000000    0.5000000000000000    0.2500000000000000 V
   0.0000000000000000    0.5000000000000000    0.7499999999999999 V
   0.5000000000000000    0.0000000000000000    0.2500000000000000 V
   0.5000000000000000    0.0000000000000000    0.7500000000000000 V
   0.5000000000000000    0.5000000000000000    0.2500000000000000 V
   0.5000000000000000    0.5000000000000000    0.7500000000000000 V
   0.2557245000000000    0.1250000000000000    0.2606205000000000 V
   0.2557245000000000    0.1250000000000000    0.7606205000000000 V
   0.2557245000000000    0.6250000000000000    0.2606205000000000 V
   0.2557245000000000    0.6250000000000000    0.7606204999999999 V
   0.7557244999999999    0.1250000000000000    0.2606205000000000 V
   0.7557244999999999    0.1250000000000000    0.7606204999999999 V
   0.7557244999999999    0.6250000000000000    0.2606205000000000 V
   0.7557244999999999    0.6250000000000000    0.7606204999999999 V
   0.2442755000000000    0.3750000000000000    0.2393795000000000 V
   0.2442755000000000    0.3750000000000000    0.7393795000000000 V
   0.2442755000000000    0.8749999999999999    0.2393795000000000 V
   0.2442755000000000    0.8749999999999999    0.7393795000000000 V
   0.7442754999999999    0.3750000000000000    0.2393795000000000 V
   0.7442754999999999    0.3750000000000000    0.7393795000000000 V
   0.7442755000000000    0.8749999999999999    0.2393795000000000 V
   0.7442755000000000    0.8749999999999999    0.7393795000000000 V
   0.0641040000000000    0.1250000000000000    0.1613975000000000 O
   0.0641040000000000    0.1250000000000000    0.6613975000000000 O
   0.0641040000000000    0.6250000000000000    0.1613975000000000 O
   0.0641040000000000    0.6250000000000000    0.6613975000000000 O
   0.5641040000000000    0.1250000000000000    0.1613975000000000 O
   0.5641040000000000    0.1250000000000000    0.6613975000000000 O
   0.5641040000000000    0.6250000000000000    0.1613975000000000 O
   0.5641040000000000    0.6250000000000000    0.6613975000000000 O
   0.4358960000000000    0.3750000000000000    0.3386025000000000 O
   0.4358960000000000    0.3750000000000000    0.8386025000000000 O
   0.4358960000000001    0.8749999999999999    0.3386025000000000 O
   0.4358960000000001    0.8749999999999999    0.8386024999999999 O
   0.9358959999999998    0.3750000000000000    0.3386024999999999 O
   0.9358959999999998    0.3750000000000000    0.8386024999999999 O
   0.9358960000000000    0.8749999999999999    0.3386025000000000 O
   0.9358960000000000    0.8749999999999999    0.8386024999999999 O
   0.4529474999999999    0.1250000000000000    0.3481235000000000 O
   0.4529474999999999    0.1250000000000000    0.8481234999999998 O
   0.4529475000000000    0.6250000000000000    0.3481235000000000 O
   0.4529475000000000    0.6250000000000000    0.8481234999999998 O
   0.9529475000000001    0.1250000000000000    0.3481235000000000 O
   0.9529475000000001    0.1250000000000000    0.8481234999999999 O
   0.9529475000000001    0.6250000000000000    0.3481235000000000 O
   0.9529475000000001    0.6250000000000000    0.8481234999999999 O
   0.0470525000000000    0.3750000000000000    0.1518765000000000 O
   0.0470525000000000    0.3750000000000000    0.6518765000000000 O
   0.0470525000000000    0.8749999999999999    0.1518765000000000 O
   0.0470525000000000    0.8749999999999999    0.6518765000000000 O
   0.5470524999999999    0.3750000000000000    0.1518764999999999 O
   0.5470524999999999    0.3750000000000000    0.6518765000000000 O
   0.5470525000000001    0.8749999999999999    0.1518765000000000 O
   0.5470525000000001    0.8749999999999999    0.6518765000000000 O
   0.2008310000000000    0.2516050000000000    0.3536825000000000 O
   0.2008310000000000    0.2516050000000000    0.8536825000000000 O
   0.2008310000000000    0.7516050000000000    0.3536825000000000 O
   0.2008310000000000    0.7516050000000000    0.8536825000000000 O
   0.7008310000000000    0.2516050000000000    0.3536825000000000 O
   0.7008310000000000    0.2516050000000000    0.8536825000000000 O
   0.7008310000000000    0.7516050000000000    0.3536825000000000 O
   0.7008310000000000    0.7516050000000000    0.8536825000000000 O
   0.2991690000000000    0.0016050000000000    0.1463175000000000 O
   0.2991690000000000    0.0016050000000000    0.6463175000000000 O
   0.2991690000000000    0.5016050000000000    0.1463175000000000 O
   0.2991690000000000    0.5016050000000000    0.6463174999999999 O
   0.7991689999999999    0.0016050000000000    0.1463175000000000 O
   0.7991689999999999    0.0016050000000000    0.6463175000000000 O
   0.7991689999999999    0.5016050000000000    0.1463175000000000 O
   0.7991689999999999    0.5016050000000000    0.6463174999999999 O
   0.2991690000000000    0.2483950000000000    0.1463175000000000 O
   0.2991690000000000    0.2483950000000000    0.6463175000000000 O
   0.2991690000000000    0.7483949999999999    0.1463175000000000 O
   0.2991690000000000    0.7483949999999999    0.6463174999999999 O
   0.7991689999999999    0.2483950000000000    0.1463175000000000 O
   0.7991689999999999    0.2483950000000000    0.6463175000000000 O
   0.7991689999999999    0.7483949999999999    0.1463175000000000 O
   0.7991689999999999    0.7483949999999999    0.6463174999999999 O
   0.2008310000000000    0.4983949999999999    0.3536825000000000 O
   0.2008310000000000    0.4983949999999999    0.8536825000000000 O
   0.2008310000000000    0.9983949999999999    0.3536825000000000 O
   0.2008310000000000    0.9983949999999999    0.8536825000000000 O
   0.7008309999999999    0.4983949999999999    0.3536825000000000 O
   0.7008309999999999    0.4983949999999999    0.8536824999999999 O
   0.7008310000000000    0.9983949999999999    0.3536825000000000 O
   0.7008310000000000    0.9983949999999999    0.8536824999999999 O
