Na2 Ca2 V4 P2 S4 O24                    
   1.00000000000000     
     8.9700939999999996    0.3742950000000000    0.1886360000000000
     4.2843419999999997    7.8948479999999996    0.1983210000000000
     4.1759259999999996    2.6041699999999999    7.4258369999999996
   Ca   Na   V    P    S    O 
     2     2     4     2     4    24
Direct
  0.4791322611010169  0.4974183554962613  0.5252629152096689
  0.9922327510554807  0.9746787060150195  0.0539440386611550
  0.4071239311714497  0.0742539570326650  0.7572864807737364
  0.5901882953241731  0.9025425941500449  0.2477535591132579
  0.3464936527546983  0.3601552404283581  0.3593306830247650
  0.6520783405132770  0.6661792635286846  0.6381855845546786
  0.1462988483177236  0.1532600494674500  0.1445457622829692
  0.8463308495499814  0.8468682565609372  0.8600050300147762
  0.7505801429225156  0.0472488992141875  0.4457929826816336
  0.4564435755237745  0.7499435231008826  0.0572972263518581
  0.0423715943078682  0.4501216031225933  0.7583988350843470
  0.9519467130810032  0.5515439172285386  0.2562975253081416
  0.2363936461037443  0.9624315203242118  0.5619563807226290
  0.5391108790916647  0.2572615115316903  0.9470679599365550
  0.2214253557252540  0.4380512284316939  0.5990548678832758
  0.7712738667856669  0.5588124318308199  0.4125261751317220
  0.5701132505785048  0.2222600800144882  0.4616808436695174
  0.4094145854071560  0.7892272994809563  0.5537704412948593
  0.4422261539391637  0.5777866453183854  0.2299880878064045
  0.5584701475105307  0.4280566724651222  0.7909510801067944
  0.9021847921965659  0.1039689429202863  0.2656297862201589
  0.0939539596739783  0.9166436551378282  0.7416672076975633
  0.0759330851499177  0.2606883105321653  0.9004671747107283
  0.9129727817093998  0.7363751015915712  0.1067291219386328
  0.2627676181067261  0.9104603460767655  0.0817481782221309
  0.7223899331482467  0.1018349851326747  0.9276411483829015
  0.4796095486874610  0.2686405557647985  0.1292484255108817
  0.5008964188002951  0.7341379238520979  0.8743353095252397
  0.0908049429466424  0.5403717533195895  0.3076313615949245
  0.8941081949035758  0.4889702290216247  0.7037895968151440
  0.2792255346118449  0.1076027804232741  0.5508453022539624
  0.7200184756009652  0.9030020291440489  0.4244804317334395
  0.4022606711537005  0.2176332482947228  0.9365660091110176
  0.5973021773545977  0.8089587436346196  0.0452510712885756
  0.1851825474363069  0.0142638038533931  0.4053152115250722
  0.7939795055491203  0.9718450275767401  0.6200397599471393
  1.0095663013330118  0.4040163169892441  0.1923804344111137
  0.0125283479389180  0.5857014587689010  0.8255195590775444
 
             NaN             NaN             NaN
             NaN             NaN             NaN
             NaN             NaN             NaN
             NaN             NaN             NaN
             NaN             NaN             NaN
             NaN             NaN             NaN
             NaN             NaN             NaN
             NaN             NaN             NaN
             NaN             NaN             NaN
             NaN             NaN             NaN
             NaN             NaN             NaN
             NaN             NaN             NaN
             NaN             NaN             NaN
             NaN             NaN             NaN
             NaN             NaN             NaN
             NaN             NaN             NaN
             NaN             NaN             NaN
             NaN             NaN             NaN
             NaN             NaN             NaN
             NaN             NaN             NaN
             NaN             NaN             NaN
             NaN             NaN             NaN
             NaN             NaN             NaN
             NaN             NaN             NaN
             NaN             NaN             NaN
             NaN             NaN             NaN
             NaN             NaN             NaN
             NaN             NaN             NaN
             NaN             NaN             NaN
             NaN             NaN             NaN
             NaN             NaN             NaN
             NaN             NaN             NaN
             NaN             NaN             NaN
             NaN             NaN             NaN
             NaN             NaN             NaN
             NaN             NaN             NaN
             NaN             NaN             NaN
             NaN             NaN             NaN
