Na2 Ca2 V4 P2 S4 O24
1.0
8.970094 0.374295 0.188636
4.284342 7.894848 0.198321
4.175926 2.604170 7.425837
Ca Na V P S O
2 2 4 2 4 24
direct
0.478164 0.511220 0.531572 Ca
-0.003566 0.992692 0.025856 Ca
0.419937 0.081529 0.750323 Na
0.586764 0.857600 0.272751 Na
0.350143 0.356239 0.356870 V
0.652977 0.656961 0.636492 V
0.145690 0.150814 0.142787 V
0.845470 0.848946 0.860376 V
0.753141 0.042279 0.445561 P
0.457443 0.748234 0.052345 P
0.048234 0.454117 0.749714 S
0.954051 0.549026 0.249929 S
0.241664 0.961007 0.557403 S
0.540643 0.259309 0.941115 S
0.232547 0.430173 0.599361 O
0.769502 0.568949 0.399973 O
0.581524 0.226059 0.442126 O
0.404656 0.781325 0.557470 O
0.426484 0.585913 0.230594 O
0.572257 0.411297 0.764396 O
0.913312 0.080828 0.266902 O
0.090981 0.927678 0.735278 O
0.069878 0.269335 0.900570 O
0.931991 0.733939 0.098085 O
0.270935 0.917911 0.059646 O
0.719311 0.096189 0.942431 O
0.480309 0.310971 0.099945 O
0.509870 0.715768 0.876709 O
0.093908 0.515381 0.312982 O
0.904674 0.492825 0.688644 O
0.294835 0.098761 0.546594 O
0.710200 0.898182 0.441133 O
0.402257 0.207098 0.951130 O
0.601671 0.797599 0.047166 O
0.190127 0.019444 0.399277 O
0.785921 0.984054 0.622345 O
0.995535 0.408206 0.184141 O
0.015439 0.595031 0.811758 O
