Ca1 V4 P6 O24                           
   1.00000000000000     
     2.6241989999999999    7.0853010000000003    4.5073930000000004
     0.2091000000000000    0.1496230000000000    8.7967130000000004
     7.5463079999999998    0.1487480000000000    4.5171330000000003
   Ca   V    P    O 
     1     4     6    24
Direct
  0.3832875316936478  0.6178041454697997  0.5153143399488185
  0.6473733163523188  0.6402247740425561  0.6493598301120616
  0.1396875885133462  0.1455112460645125  0.1406964300902307
  0.8482069627745060  0.8605031808765714  0.8567572058022493
  0.3494041573071155  0.3537609676756544  0.3577568466182511
  0.2455847123953104  0.5285706781357595  0.9706689812998428
  0.0216625400299027  0.7587596569919338  0.4561650517382681
  0.9619773931339555  0.2505118156650646  0.5330102199985760
  0.4642115251312366  0.0395325149088763  0.7481199086881662
  0.5311104979557775  0.9650684093364037  0.2490520368234355
  0.7426849227867429  0.4714316344833344  0.0386215034109084
  0.5756794849089272  0.7740506644158347  0.4171150035987261
  0.2943867020228906  0.0454691958763818  0.9387953937026154
  0.4094522524577368  0.5807674320125210  0.7785842189630733
  0.9345265026223657  0.3084132216897438  0.0446322468655461
  0.7689204230179089  0.4117696753861235  0.5797597265581551
  0.0268986125636455  0.9493696529823564  0.2916041976901958
  0.9596625025140653  0.0562178811882488  0.6962903433876306
  0.5766532126177117  0.4270829599748938  0.2270152918799884
  0.7021004923349073  0.9579318230521694  0.0621462003985240
  0.2169301290483866  0.5969881273635060  0.4077945031829898
  0.0578720708566823  0.6929541870812804  0.9497325873235617
  0.4150417478661675  0.2339429046893760  0.5868775104238352
  0.2543744218023856  0.3400209100210836  0.9890152820116903
  0.8642325158244458  0.7095432542560322  0.4844172166429785
  0.9988596324524875  0.2421050768486209  0.3445239704295689
  0.5015522374627089  0.8706053324588207  0.7074100630338392
  0.3499408040712427  0.9687574579433311  0.2528991678382344
  0.7112815149760497  0.4949016939865026  0.8684151645705849
  0.2781665370288699  0.5061080496617812  0.1365180964358973
  0.0101677940843270  0.7561323019832735  0.6398837988975409
  0.1261505978080554  0.2912570357188822  0.5086682471586850
  0.6459768939905207  0.0168841444909491  0.7578755422999000
  0.4949924750534372  0.1331139414342026  0.2895485548780946
  0.7430918678590889  0.6607667495440295  0.0083632770587919
 
             NaN             NaN             NaN
             NaN             NaN             NaN
             NaN             NaN             NaN
             NaN             NaN             NaN
             NaN             NaN             NaN
             NaN             NaN             NaN
             NaN             NaN             NaN
             NaN             NaN             NaN
             NaN             NaN             NaN
             NaN             NaN             NaN
             NaN             NaN             NaN
             NaN             NaN             NaN
             NaN             NaN             NaN
             NaN             NaN             NaN
             NaN             NaN             NaN
             NaN             NaN             NaN
             NaN             NaN             NaN
             NaN             NaN             NaN
             NaN             NaN             NaN
             NaN             NaN             NaN
             NaN             NaN             NaN
             NaN             NaN             NaN
             NaN             NaN             NaN
             NaN             NaN             NaN
             NaN             NaN             NaN
             NaN             NaN             NaN
             NaN             NaN             NaN
             NaN             NaN             NaN
             NaN             NaN             NaN
             NaN             NaN             NaN
             NaN             NaN             NaN
             NaN             NaN             NaN
             NaN             NaN             NaN
             NaN             NaN             NaN
             NaN             NaN             NaN
