Ca1 V4 P6 O24
1.0
2.624199 7.085301 4.507393
0.209100 0.149623 8.796713
7.546308 0.148748 4.517133
Ca V P O
1 4 6 24
direct
0.434688 0.591712 0.527990 Ca
0.646563 0.642418 0.644378 V
0.138638 0.141566 0.140354 V
0.851492 0.853732 0.855706 V
0.353098 0.350822 0.351448 V
0.247861 0.529021 0.961759 P
0.034934 0.747049 0.465580 P
0.960474 0.249547 0.527418 P
0.463398 0.032830 0.747597 P
0.531180 0.963985 0.246512 P
0.746823 0.463526 0.035670 P
0.577119 0.770153 0.409945 O
0.298273 0.039100 0.938044 O
0.409832 0.576834 0.767091 O
0.935383 0.293708 0.039344 O
0.771764 0.413706 0.574839 O
0.042478 0.935522 0.296006 O
0.953222 0.060090 0.696439 O
0.583569 0.420502 0.228647 O
0.696074 0.957088 0.056145 O
0.223836 0.582529 0.418699 O
0.060720 0.700936 0.953760 O
0.416208 0.226839 0.585352 O
0.238015 0.347711 0.985582 O
0.866364 0.708038 0.500485 O
0.980723 0.245567 0.344360 O
0.488438 0.870833 0.704158 O
0.342451 -0.009266 0.247257 O
0.699871 0.497232 0.871692 O
0.293225 0.495691 0.126198 O
0.016201 0.753263 0.647024 O
0.130104 0.283329 0.497390 O
0.650668 1.003534 0.750872 O
0.505718 0.126371 0.289139 O
0.758095 0.645843 0.008266 O
