Mg8 Co16 O32                            
    1.000000000000000     
     7.9708422442316227    0.0000089755837133   -0.0000090063663915
     0.0000089760916237    7.9708830727165747   -0.0000138628497784
    -0.0000090033959669   -0.0000138609064512    7.9708281899802902
Mg   Co   O 
1    16    32
Direct
  0.2500000000000000  0.7500000000000000  0.7500000000000000
  0.1249997115001236  0.6249991394517664  0.1249984099977581
  0.1250005627361048  0.8750007562290563  0.3750003840581044
  0.3750016089810302  0.6249996828615991  0.3750011650722271
  0.3749992518276528  0.8750006489131863  0.1249996932261368
  0.1249988962932491  0.1249996122316830  0.6249998759309960
  0.1250005505801397  0.3750000054997145  0.8750000506341280
  0.3749998369768477  0.1249998097578384  0.8750014710446123
  0.3749996311684782  0.3750009980896536  0.6250005851096034
  0.6249989138140677  0.6249998488932746  0.6249985836898304
  0.6249994786953579  0.8750003380320379  0.8749990497414188
  0.8750014027951423  0.6249993730535053  0.8750001641458098
  0.8750002223847417  0.8750005129484251  0.6250002417859903
  0.6249987323464339  0.1250008861035354  0.1249994192390318
  0.6250005583860201  0.3750011590422631  0.3749995236083876
  0.8750009456637216  0.1250007683302101  0.3750009911326231
  0.8749999917625217  0.3750003045878643  0.1250005342692120
  0.3905801896954344  0.3905808770784489  0.3905847735106462
  0.8594189688896279  0.1405824713197674  0.1405805716457778
  0.1405836962181510  0.8594165859015845  0.1405826236966021
  0.6405796890954250  0.1405789289832171  0.3594198441220087
  0.1094161995254908  0.3905826743462342  0.1094181900287481
  0.1094193640365475  0.1094193496666449  0.3905817073674100
  0.3905820101590365  0.1094168505185849  0.1094172404907141
  0.3594174751135668  0.8594184143765418  0.3594163050158201
  0.3905832272958634  0.8905811976101958  0.8905829941948014
  0.8594192173793971  0.6405801095984600  0.6405803998886626
  0.1405852903162383  0.3594186374888011  0.6405820352804028
  0.6405793155840200  0.6405807826147694  0.8594198010013017
  0.1094182129748233  0.8905815537577908  0.6094180213389606
  0.1094194500667172  0.6094190314485530  0.8905825194906924
  0.3905819696560187  0.6094157213875064  0.6094187233098367
  0.3594182329243196  0.3594189672601473  0.8594151448392537
  0.8905811951206530  0.3905800786602427  0.8905831620438036
  0.3594186046017853  0.1405840800681801  0.6405814340258829
  0.6405811515310447  0.8594192638851084  0.6405829730271932
  0.1405810083133261  0.1405808289942385  0.8594191210185116
  0.6094156151609056  0.3905807049166228  0.6094203614642666
  0.6094188671105059  0.1094184899471955  0.8905804137688662
  0.8905816801407767  0.1094189880829433  0.6094193863408037
  0.8594169215581857  0.8594197333086129  0.8594189472439808
  0.8905815856687198  0.8905802478786100  0.3905810537439933
  0.3594169149643278  0.6405828548078745  0.1405812097071220
  0.6405838336711511  0.3594194426971526  0.1405804763193856
  0.1405807168769257  0.6405802157767155  0.3594179872941297
  0.6094169015187347  0.8905810049686735  0.1094162785468598
  0.6094191037195600  0.6094207246471228  0.3905809998221841
  0.8905830273354525  0.6094171987112205  0.1094186427706205
  0.8594200678656634  0.3594201452666184  0.3594165149548658
 
  0.00000000E+00  0.00000000E+00  0.00000000E+00
  0.00000000E+00  0.00000000E+00  0.00000000E+00
  0.00000000E+00  0.00000000E+00  0.00000000E+00
  0.00000000E+00  0.00000000E+00  0.00000000E+00
  0.00000000E+00  0.00000000E+00  0.00000000E+00
  0.00000000E+00  0.00000000E+00  0.00000000E+00
  0.00000000E+00  0.00000000E+00  0.00000000E+00
  0.00000000E+00  0.00000000E+00  0.00000000E+00
  0.00000000E+00  0.00000000E+00  0.00000000E+00
  0.00000000E+00  0.00000000E+00  0.00000000E+00
  0.00000000E+00  0.00000000E+00  0.00000000E+00
  0.00000000E+00  0.00000000E+00  0.00000000E+00
  0.00000000E+00  0.00000000E+00  0.00000000E+00
  0.00000000E+00  0.00000000E+00  0.00000000E+00
  0.00000000E+00  0.00000000E+00  0.00000000E+00
  0.00000000E+00  0.00000000E+00  0.00000000E+00
  0.00000000E+00  0.00000000E+00  0.00000000E+00
  0.00000000E+00  0.00000000E+00  0.00000000E+00
  0.00000000E+00  0.00000000E+00  0.00000000E+00
  0.00000000E+00  0.00000000E+00  0.00000000E+00
  0.00000000E+00  0.00000000E+00  0.00000000E+00
  0.00000000E+00  0.00000000E+00  0.00000000E+00
  0.00000000E+00  0.00000000E+00  0.00000000E+00
  0.00000000E+00  0.00000000E+00  0.00000000E+00
  0.00000000E+00  0.00000000E+00  0.00000000E+00
  0.00000000E+00  0.00000000E+00  0.00000000E+00
  0.00000000E+00  0.00000000E+00  0.00000000E+00
  0.00000000E+00  0.00000000E+00  0.00000000E+00
  0.00000000E+00  0.00000000E+00  0.00000000E+00
  0.00000000E+00  0.00000000E+00  0.00000000E+00
  0.00000000E+00  0.00000000E+00  0.00000000E+00
  0.00000000E+00  0.00000000E+00  0.00000000E+00
  0.00000000E+00  0.00000000E+00  0.00000000E+00
  0.00000000E+00  0.00000000E+00  0.00000000E+00
  0.00000000E+00  0.00000000E+00  0.00000000E+00
  0.00000000E+00  0.00000000E+00  0.00000000E+00
  0.00000000E+00  0.00000000E+00  0.00000000E+00
  0.00000000E+00  0.00000000E+00  0.00000000E+00
  0.00000000E+00  0.00000000E+00  0.00000000E+00
  0.00000000E+00  0.00000000E+00  0.00000000E+00
  0.00000000E+00  0.00000000E+00  0.00000000E+00
  0.00000000E+00  0.00000000E+00  0.00000000E+00
  0.00000000E+00  0.00000000E+00  0.00000000E+00
  0.00000000E+00  0.00000000E+00  0.00000000E+00
  0.00000000E+00  0.00000000E+00  0.00000000E+00
  0.00000000E+00  0.00000000E+00  0.00000000E+00
  0.00000000E+00  0.00000000E+00  0.00000000E+00
  0.00000000E+00  0.00000000E+00  0.00000000E+00
