Ca1 Mn12 F42                            
   1.00000000000000     
     7.3159320000000001   -0.0277290000000000   -0.0503320000000000
    -3.6809980000000002    6.3804040000000004    0.0068130000000000
     0.1061360000000000   -0.0575930000000000   17.4864789999999992
   Ca   Mn   F 
     1    12    42
Direct
  0.5048233504874378  0.6989599139447281  0.6939894329892992
  0.3038169322395858  0.0127156921914665  0.3271078325200322
  0.7015387604903813  0.7123837859757632  0.0039144139790371
 -0.0152888148508972  0.2731490976224015  0.6683331498761346
  0.3215635087936525  0.9693612661284757  0.8407343655205591
  0.6800537794107163  0.6614677718806600  0.4843530776667755
  1.0095730063637851  0.3662053558089313  0.1674717645197107
  0.6679632094863673  0.1587900695577238  0.4876408815555698
  0.5097139885999897  0.3665436056178218  0.1681819638559251
  0.8171767470366309  0.4731171242671632  0.8357240159860805
  0.3083420257164331  0.4602306470880863  0.8553552714915756
  0.1753089788553591  0.6551791203011500  0.4921780846052369
  0.5095690843521805  0.8669834281832068  0.1669217920910739
  0.5692805321348327  0.8316450728777747  0.0653681489055837
  0.2112342705938962  0.3863521713279338  0.7494889060543798
  0.2066575644644724  0.7744911427472491  0.3848260658414852
  0.4446804360228847  0.2714455193145894  0.2698935912496908
  0.7847254711857812  0.5665867168640890  0.9393492536538790
  0.7719263222629895  0.1925512537272787  0.5890645018859351
  0.8089078603885006  0.0166212366493534  0.7141350076446780
  0.1972683129340721  0.1202557032132270  0.3888113384926961
  0.9276250144918944  0.8243928026174907  0.0602020113614245
  0.1298470226008792  0.1785927195537766  0.6194213756727935
  0.0938018953059710  0.9024529274595879  0.2631711347355838
  0.7867895251772338  0.9173580037463022  0.9389413749155023
  0.1680113966723797  0.5454050310407900  0.6219841572482719
  0.4538864741779929  0.9028290401407184  0.2685193597910843
  0.4244191984626993  0.5584694863674731  0.9530639788833553
  0.8537339838008419  0.3948427416228948  0.7270308607349674
  0.5656350869578645  0.1363591314609407  0.3866478787986446
  0.5742659308917011  0.4590413886767705  0.0671220924856836
  0.3813363924282935  0.5752738802034807  0.4739365766937351
  0.2222561127972978  0.6573979264393617  0.1501383612290703
  0.4030293244047806  0.7520522374691411  0.8162151906276418
  0.6123667174338649  0.1892022387875525  0.8589956000829750
  0.5960155453825438  0.3710200844358025  0.5088158679877897
  0.7959954087458744  0.4424399333572352  0.1868684797921472
  0.7085466180804328  0.6242189121044345  0.3877638482702042
  0.9461888641216195  0.3359600575927809  0.0688675693656357
  0.3626768532942833  0.0335610864806100  0.7407163973074279
  0.2888370822932463  0.8875394373275097  0.9365429433085919
  0.6543830586695588  0.7022195930728811  0.5880136403293865
  0.0730904257965083  0.3964287415448157  0.2660885723397132
  0.9684651106741567  0.7351681100212387  0.5102611033000587
  0.7978050761267168  0.0746482520477350  0.1840396518635328
  0.2475667452854021  0.1786884327217169  0.8681158438043359
  0.0314120522029887  0.7583876723385127  0.8153286078928917
  0.7441644955236756  0.9487282740799661  0.4668911770002483
  0.2231341422437877  0.2895766191701584  0.1490026551660553
  0.6008970955085353  0.5332658612798458  0.7978208994126528
  0.9590874649618712  0.3874935285855424  0.4624429260003873
  0.4523848910883406  0.1000205200103541  0.1375066713799834
  0.3916175586631770  0.9228543995651934  0.5273679265386485
  0.5667364845579557  0.6331065608024531  0.1979369511768287
  0.0254486917575731  0.4212936427496239  0.8750357087510910
 
             NaN             NaN             NaN
             NaN             NaN             NaN
             NaN             NaN             NaN
             NaN             NaN             NaN
             NaN             NaN             NaN
             NaN             NaN             NaN
             NaN             NaN             NaN
             NaN             NaN             NaN
             NaN             NaN             NaN
             NaN             NaN             NaN
             NaN             NaN             NaN
             NaN             NaN             NaN
             NaN             NaN             NaN
             NaN             NaN             NaN
             NaN             NaN             NaN
             NaN             NaN             NaN
             NaN             NaN             NaN
             NaN             NaN             NaN
             NaN             NaN             NaN
             NaN             NaN             NaN
             NaN             NaN             NaN
             NaN             NaN             NaN
             NaN             NaN             NaN
             NaN             NaN             NaN
             NaN             NaN             NaN
             NaN             NaN             NaN
             NaN             NaN             NaN
             NaN             NaN             NaN
             NaN             NaN             NaN
             NaN             NaN             NaN
             NaN             NaN             NaN
             NaN             NaN             NaN
             NaN             NaN             NaN
             NaN             NaN             NaN
             NaN             NaN             NaN
             NaN             NaN             NaN
             NaN             NaN             NaN
             NaN             NaN             NaN
             NaN             NaN             NaN
             NaN             NaN             NaN
             NaN             NaN             NaN
             NaN             NaN             NaN
             NaN             NaN             NaN
             NaN             NaN             NaN
             NaN             NaN             NaN
             NaN             NaN             NaN
             NaN             NaN             NaN
             NaN             NaN             NaN
             NaN             NaN             NaN
             NaN             NaN             NaN
             NaN             NaN             NaN
             NaN             NaN             NaN
             NaN             NaN             NaN
             NaN             NaN             NaN
             NaN             NaN             NaN
