Ca1 Mn12 F42
1.0
7.315932 -0.027729 -0.050332
-3.680998 6.380404 0.006813
0.106136 -0.057593 17.486479
Ca Mn F
1 12 42
direct
0.495786 0.670701 0.667555 Ca
0.296052 1.006256 0.329495 Mn
0.705322 0.705745 0.004692 Mn
0.000209 0.298616 0.667587 Mn
0.346157 0.993424 0.838356 Mn
0.655193 0.650961 0.494388 Mn
0.998777 0.352672 0.166825 Mn
0.651563 0.151826 0.491645 Mn
0.499953 0.354084 0.166514 Mn
0.848325 0.493090 0.838023 Mn
0.349538 0.494210 0.841508 Mn
0.153018 0.648204 0.496518 Mn
0.497580 0.853187 0.167032 Mn
0.561555 0.815965 0.065197 F
0.263993 0.442476 0.735826 F
0.193941 0.772104 0.393311 F
0.439759 0.258719 0.268448 F
0.811582 0.571701 0.941785 F
0.748652 0.184846 0.595382 F
0.851229 0.060383 0.720850 F
0.199071 0.125404 0.390471 F
0.919652 0.808065 0.066833 F
0.135101 0.199995 0.612096 F
0.079483 0.892955 0.268310 F
0.804537 0.919655 0.943387 F
0.137856 0.558127 0.610948 F
0.434865 0.885548 0.269301 F
0.443986 0.562749 0.943795 F
0.868033 0.421799 0.726142 F
0.558264 0.125750 0.389262 F
0.561073 0.446173 0.064362 F
0.364864 0.573453 0.477354 F
0.211438 0.643405 0.148340 F
0.435316 0.797923 0.811685 F
0.630350 0.198059 0.857712 F
0.567449 0.364373 0.518569 F
0.786893 0.432502 0.184402 F
0.689765 0.611287 0.398269 F
0.934911 0.318130 0.068193 F
0.387663 0.067683 0.735199 F
0.308967 0.912215 0.933454 F
0.617747 0.685124 0.597766 F
0.062517 0.387281 0.265458 F
0.941441 0.722859 0.518477 F
0.784817 0.062510 0.185249 F
0.262516 0.190855 0.857310 F
0.065926 0.787369 0.813097 F
0.733162 0.933405 0.476960 F
0.212039 0.274573 0.149221 F
0.623477 0.544518 0.803238 F
0.942222 0.380174 0.464362 F
0.443411 0.084088 0.136695 F
0.373172 0.916794 0.535895 F
0.554375 0.622148 0.196718 F
0.070574 0.440306 0.867120 F
