Ca8 Cr12 F42
1.0
7.358292 -0.031435 -0.527370
-3.596732 6.753197 0.148084
0.895858 -0.030697 18.625531
Ca Cr F
8 12 42
direct
0.804442 0.901177 0.837875 Ca
0.842385 0.514747 0.314419 Ca
0.561807 0.061056 0.006319 Ca
0.058218 0.864651 0.669334 Ca
0.839086 0.010356 0.345284 Ca
0.092961 0.566969 0.978887 Ca
0.994386 0.851525 0.153821 Ca
0.271136 0.249872 0.503547 Ca
0.343549 0.011724 0.343171 Cr
0.980755 0.283102 0.664575 Cr
0.625067 0.607563 0.997255 Cr
0.318306 0.973680 0.835914 Cr
0.944166 0.308715 0.160349 Cr
0.731160 0.715233 0.500258 Cr
0.451384 0.808083 0.173680 Cr
0.213402 0.716805 0.497514 Cr
0.307528 0.456474 0.826629 Cr
0.803619 0.451632 0.817221 Cr
0.737599 0.217708 0.498211 Cr
0.454538 0.318773 0.167562 Cr
0.737519 0.164064 0.598837 F
0.821510 0.567599 0.914588 F
0.495049 0.262828 0.290596 F
0.175788 0.734924 0.386266 F
0.368394 0.741292 0.051702 F
0.227999 0.425124 0.726259 F
0.721008 0.884800 0.959276 F
0.932604 0.832404 0.269980 F
0.135118 0.162388 0.611404 F
0.900680 0.696676 0.048366 F
0.887792 0.003734 0.730474 F
0.176597 0.128708 0.386945 F
0.523761 0.336040 0.033158 F
0.763842 0.265334 0.393607 F
0.844276 0.415484 0.715687 F
0.367952 0.512239 0.934974 F
0.195963 0.712486 0.601436 F
0.519297 0.914842 0.298842 F
0.764716 0.440160 0.179403 F
0.641879 0.421803 0.513619 F
0.595230 0.165029 0.880898 F
0.449256 0.804456 0.823070 F
0.422525 0.608903 0.492928 F
0.156854 0.678414 0.196705 F
0.945561 0.282993 0.266669 F
0.759721 0.746962 0.601505 F
0.262998 0.881052 0.936338 F
0.357337 0.058617 0.739817 F
0.734712 0.679586 0.393679 F
0.901761 0.301674 0.051538 F
0.146966 0.198757 0.151795 F
0.785935 0.990672 0.469902 F
0.039948 0.766681 0.798150 F
0.166336 0.121243 0.856776 F
0.038960 0.850397 0.502622 F
0.739958 0.947632 0.140846 F
0.022346 0.393148 0.859378 F
0.495328 0.580217 0.198936 F
0.437182 0.048472 0.484779 F
0.401213 0.040181 0.137917 F
0.604588 0.555686 0.799787 F
0.038800 0.375636 0.501853 F
