Ca1 V4 P6 O24                           
   1.00000000000000     
     2.6225100000000001    7.0934419999999996    4.5066940000000004
     0.2064970000000000    0.1451150000000000    8.8040640000000003
     7.5518060000000000    0.1436750000000000    4.5185500000000003
   Ca   V    P    O 
     1     4     6    24
Direct
  0.3283505847037546  0.6785172990155989  0.5356998446033479
  0.6522317998340780  0.6348492771340172  0.6469182293145243
  0.1402708852752405  0.1464181463835037  0.1388392996495836
  0.8437670523484835  0.8604493367808232  0.8581444560607526
  0.3519566460731574  0.3539933923016161  0.3598434834312790
  0.2485313112865717  0.5252221660036716  0.9727214420294745
  0.0198068612737719  0.7563884355629372  0.4528007359528576
  0.9661112395136767  0.2476287821837523  0.5319156127477596
  0.4644282207668256  0.0362546388749867  0.7489738345324337
  0.5337476743527138  0.9655225715222449  0.2485911543096015
  0.7440782744300315  0.4708583453685025  0.0373042128576828
  0.5728930461287896  0.7753285372961539  0.4193443330044725
  0.2933711007396475  0.0444536620564624  0.9378076485884712
  0.4174713567339050  0.5721551552530653  0.7840933026077971
  0.9351441035954221  0.3074800897009005  0.0462457589396428
  0.7744255961663199  0.4074570667475789  0.5823208650833248
  0.0320262127251060  0.9461809447237948  0.2901447597797158
  0.9669140951500866  0.0510748373830015  0.6912057261738883
  0.5766602944275531  0.4235528544374625  0.2204556913629970
  0.7065228754480500  0.9539612234463534  0.0637404430141509
  0.2190032251584581  0.5948863356228750  0.4159013041035571
  0.0670763023428388  0.6912014685188554  0.9348219063455102
  0.4175399000922645  0.2272612538101766  0.5856350159796095
  0.2564853197547023  0.3369794726131564  0.9910364181334950
  0.8681626842741952  0.7071085188450366  0.4715449859446257
  1.0001594471318895  0.2425287630433963  0.3430034946634933
  0.5078948790711723  0.8647921434747849  0.7086819222004277
  0.3514813768270558  0.9708831878943407  0.2519323509186409
  0.7209059437816967  0.4953101354267987  0.8621829376803627
  0.2705958747305810  0.5086513217307260  0.1413329912388268
 -0.0079259178517585  0.7602140520140399  0.6407909578088002
  0.1308668162175862  0.2880586615803690  0.5070707356523720
  0.6420235408580572  1.0183307458368736  0.7631746333665335
  0.4973020226448519  0.1343924857294546  0.2862395761483927
  0.7417743739317211  0.6585599021854536  0.0129689615940558
 
             NaN             NaN             NaN
             NaN             NaN             NaN
             NaN             NaN             NaN
             NaN             NaN             NaN
             NaN             NaN             NaN
             NaN             NaN             NaN
             NaN             NaN             NaN
             NaN             NaN             NaN
             NaN             NaN             NaN
             NaN             NaN             NaN
             NaN             NaN             NaN
             NaN             NaN             NaN
             NaN             NaN             NaN
             NaN             NaN             NaN
             NaN             NaN             NaN
             NaN             NaN             NaN
             NaN             NaN             NaN
             NaN             NaN             NaN
             NaN             NaN             NaN
             NaN             NaN             NaN
             NaN             NaN             NaN
             NaN             NaN             NaN
             NaN             NaN             NaN
             NaN             NaN             NaN
             NaN             NaN             NaN
             NaN             NaN             NaN
             NaN             NaN             NaN
             NaN             NaN             NaN
             NaN             NaN             NaN
             NaN             NaN             NaN
             NaN             NaN             NaN
             NaN             NaN             NaN
             NaN             NaN             NaN
             NaN             NaN             NaN
             NaN             NaN             NaN
