Ca1 V4 P6 O24
1.0
2.622510 7.093442 4.506694
0.206497 0.145115 8.804064
7.551806 0.143675 4.518550
Ca V P O
1 4 6 24
direct
0.403511 0.639096 0.542700 Ca
0.647548 0.641455 0.644354 V
0.137852 0.142023 0.140529 V
0.849826 0.853206 0.856286 V
0.354344 0.351180 0.351689 V
0.247889 0.528815 0.962444 P
0.035169 0.747078 0.465770 P
0.960375 0.250272 0.526394 P
0.462366 0.032063 0.747716 P
0.531859 0.965621 0.245751 P
0.746798 0.462590 0.036293 P
0.575752 0.773578 0.411152 O
0.297874 0.041940 0.937093 O
0.411183 0.574584 0.768858 O
0.933501 0.291274 0.041625 O
0.776090 0.417166 0.571670 O
0.046488 0.933478 0.294532 O
0.949107 0.062636 0.697031 O
0.581641 0.423359 0.227164 O
0.695872 0.955310 0.056361 O
0.219910 0.579904 0.420976 O
0.063403 0.703386 0.950271 O
0.417384 0.224422 0.583904 O
0.234222 0.349430 0.987369 O
0.863009 0.713191 0.502588 O
0.978774 0.244883 0.345157 O
0.483755 0.869943 0.707312 O
0.341877 -0.006953 0.248502 O
0.700825 0.497658 0.871096 O
0.291582 0.495233 0.127858 O
0.019112 0.755255 0.644843 O
0.134170 0.276468 0.496640 O
0.650451 0.999498 0.751539 O
0.509092 0.128797 0.284709 O
0.762441 0.642999 0.007347 O
