Ca16 Ti32 O64
1.0
   9.9252925280952766    0.0000000000000000   -2.5032356278568968
  -0.0000000000000007   11.7945919999999997    0.0000000000000007
   0.0000000000000000    0.0000000000000000   11.7414400000000008
Ca Ti O
1 32 64
direct
   0.3467410000000000    0.8749999999999999    0.5025999999999999 Ca
   0.0000000000000000    0.2500000000000000    0.2500000000000000 Ti
   0.0000000000000000    0.2500000000000000    0.7500000000000000 Ti
   0.0000000000000000    0.7499999999999999    0.2500000000000000 Ti
   0.0000000000000000    0.7499999999999999    0.7500000000000000 Ti
   0.5000000000000000    0.2500000000000000    0.2500000000000000 Ti
   0.5000000000000000    0.2500000000000000    0.7499999999999999 Ti
   0.5000000000000000    0.7499999999999999    0.2500000000000000 Ti
   0.5000000000000000    0.7499999999999999    0.7500000000000000 Ti
   0.0000000000000000    0.0000000000000000    0.2500000000000000 Ti
   0.0000000000000000    0.0000000000000000    0.7500000000000000 Ti
   0.0000000000000000    0.5000000000000000    0.2500000000000000 Ti
   0.0000000000000000    0.5000000000000000    0.7500000000000000 Ti
   0.5000000000000000    0.0000000000000000    0.2500000000000000 Ti
   0.5000000000000000    0.0000000000000000    0.7499999999999999 Ti
   0.5000000000000000    0.5000000000000000    0.2500000000000000 Ti
   0.5000000000000000    0.5000000000000000    0.7500000000000000 Ti
   0.2675675000000000    0.1250000000000000    0.2598545000000000 Ti
   0.2675675000000000    0.1250000000000000    0.7598545000000000 Ti
   0.2675675000000000    0.6250000000000000    0.2598545000000000 Ti
   0.2675675000000000    0.6250000000000000    0.7598544999999999 Ti
   0.7675675000000000    0.1250000000000000    0.2598545000000000 Ti
   0.7675675000000000    0.1250000000000000    0.7598544999999999 Ti
   0.7675675000000000    0.6250000000000000    0.2598545000000000 Ti
   0.7675675000000000    0.6250000000000000    0.7598545000000000 Ti
   0.2324325000000000    0.3749999999999999    0.2401455000000000 Ti
   0.2324325000000000    0.3749999999999999    0.7401455000000000 Ti
   0.2324325000000000    0.8749999999999999    0.2401455000000000 Ti
   0.2324325000000000    0.8749999999999999    0.7401454999999999 Ti
   0.7324324999999999    0.3749999999999999    0.2401455000000000 Ti
   0.7324324999999999    0.3749999999999999    0.7401454999999999 Ti
   0.7324325000000000    0.8749999999999999    0.2401455000000000 Ti
   0.7324325000000000    0.8749999999999999    0.7401455000000000 Ti
   0.0625040000000000    0.1250000000000000    0.1616560000000000 O
   0.0625040000000000    0.1250000000000000    0.6616559999999999 O
   0.0625040000000000    0.6250000000000000    0.1616560000000000 O
   0.0625040000000000    0.6250000000000000    0.6616559999999999 O
   0.5625040000000000    0.1250000000000000    0.1616560000000000 O
   0.5625040000000000    0.1250000000000000    0.6616559999999999 O
   0.5625040000000000    0.6250000000000000    0.1616560000000000 O
   0.5625040000000000    0.6250000000000000    0.6616560000000000 O
   0.4374959999999999    0.3749999999999999    0.3383440000000000 O
   0.4374959999999999    0.3749999999999999    0.8383439999999999 O
   0.4374960000000000    0.8749999999999999    0.3383440000000000 O
   0.4374960000000000    0.8749999999999999    0.8383439999999999 O
   0.9374960000000000    0.3749999999999999    0.3383439999999999 O
   0.9374960000000000    0.3749999999999999    0.8383440000000000 O
   0.9374960000000001    0.8749999999999999    0.3383440000000000 O
   0.9374960000000001    0.8749999999999999    0.8383440000000000 O
   0.4533900000000000    0.1250000000000000    0.3594740000000000 O
   0.4533900000000000    0.1250000000000000    0.8594740000000000 O
   0.4533900000000000    0.6250000000000000    0.3594740000000000 O
   0.4533900000000000    0.6250000000000000    0.8594740000000000 O
   0.9533900000000001    0.1250000000000000    0.3594740000000000 O
   0.9533900000000001    0.1250000000000000    0.8594740000000000 O
   0.9533900000000001    0.6250000000000000    0.3594740000000000 O
   0.9533900000000001    0.6250000000000000    0.8594740000000000 O
   0.0466100000000000    0.3749999999999999    0.1405260000000000 O
   0.0466100000000000    0.3749999999999999    0.6405260000000000 O
   0.0466100000000000    0.8749999999999999    0.1405260000000000 O
   0.0466100000000000    0.8749999999999999    0.6405259999999999 O
   0.5466099999999999    0.3749999999999999    0.1405260000000000 O
   0.5466099999999999    0.3749999999999999    0.6405259999999999 O
   0.5466100000000000    0.8749999999999999    0.1405260000000000 O
   0.5466100000000000    0.8749999999999999    0.6405260000000000 O
   0.1996255000000000    0.2517920000000000    0.3511500000000000 O
   0.1996255000000000    0.2517920000000000    0.8511500000000000 O
   0.1996255000000000    0.7517919999999999    0.3511500000000000 O
   0.1996255000000000    0.7517919999999999    0.8511500000000000 O
   0.6996255000000000    0.2517920000000000    0.3511500000000000 O
   0.6996255000000000    0.2517920000000000    0.8511500000000000 O
   0.6996255000000000    0.7517919999999999    0.3511500000000000 O
   0.6996255000000000    0.7517919999999999    0.8511500000000000 O
   0.3003745000000000    0.0017920000000000    0.1488500000000000 O
   0.3003745000000000    0.0017920000000000    0.6488500000000000 O
   0.3003745000000000    0.5017920000000000    0.1488500000000000 O
   0.3003745000000000    0.5017920000000000    0.6488499999999999 O
   0.8003745000000000    0.0017920000000000    0.1488500000000000 O
   0.8003745000000000    0.0017920000000000    0.6488499999999999 O
   0.8003745000000000    0.5017920000000000    0.1488500000000000 O
   0.8003745000000000    0.5017920000000000    0.6488500000000000 O
   0.3003745000000000    0.2482080000000000    0.1488500000000000 O
   0.3003745000000000    0.2482080000000000    0.6488500000000000 O
   0.3003745000000000    0.7482079999999999    0.1488500000000000 O
   0.3003745000000000    0.7482079999999999    0.6488499999999999 O
   0.8003745000000000    0.2482080000000000    0.1488500000000000 O
   0.8003745000000000    0.2482080000000000    0.6488500000000000 O
   0.8003745000000000    0.7482079999999999    0.1488500000000000 O
   0.8003745000000000    0.7482079999999999    0.6488500000000000 O
   0.1996255000000000    0.4982080000000000    0.3511500000000000 O
   0.1996255000000000    0.4982080000000000    0.8511500000000000 O
   0.1996255000000000    0.9982080000000000    0.3511500000000000 O
   0.1996255000000000    0.9982080000000000    0.8511499999999999 O
   0.6996255000000000    0.4982080000000000    0.3511500000000000 O
   0.6996255000000000    0.4982080000000000    0.8511500000000000 O
   0.6996255000000001    0.9982080000000000    0.3511500000000000 O
   0.6996255000000001    0.9982080000000000    0.8511500000000000 O
