Na64 Ru32 O96
1.0
  10.9929237365999999    0.0000000000000000    0.0000000000000000
   0.0000000000000000   18.9768962859999988    0.0000000000000000
  -1.8619382116000001    0.0000000000000000   10.7186158533999993
Na Ru O
63 32 96
direct
   0.1308937520000000    0.7092067450000000    0.4979870020000000 Na
   0.2500000000000000    0.2934535145000000    0.7500000000000000 Na
   0.2500000000000000    0.7934535145000000    0.7500000000000000 Na
   0.7500000000000000    0.2934535145000000    0.7500000000000000 Na
   0.7500000000000000    0.7934535145000000    0.7500000000000000 Na
   0.3808937370000000    0.4592067600000000    0.4979870020000000 Na
   0.3808937370000000    0.9592067599999999    0.4979870020000000 Na
   0.8808937370000000    0.4592067600000000    0.4979870020000000 Na
   0.8808937370000000    0.9592067599999999    0.4979870020000000 Na
   0.3808937370000000    0.0407932510000000    0.9979869719999999 Na
   0.3808937370000000    0.5407932510000001    0.9979869719999999 Na
   0.8808937370000000    0.0407932510000000    0.9979869719999999 Na
   0.8808937370000000    0.5407932510000001    0.9979869719999999 Na
   0.1191062480000000    0.4592067600000000    0.0020130000000000 Na
   0.1191062480000000    0.9592067599999999    0.0020130000000000 Na
   0.6191062480000000    0.4592067600000000    0.0020130000000000 Na
   0.6191062480000000    0.9592067599999999    0.0020130000000000 Na
   0.3750000000000000    0.3750000000000000    0.0000000000000000 Na
   0.3750000000000000    0.8750000000000000    0.0000000000000000 Na
   0.8750000000000001    0.3750000000000000    0.0000000000000000 Na
   0.8750000000000001    0.8750000000000000    0.0000000000000000 Na
   0.1191062480000000    0.0407932510000000    0.5020130279999999 Na
   0.1191062480000000    0.5407932510000001    0.5020130279999999 Na
   0.6191062479999999    0.0407932510000000    0.5020130279999999 Na
   0.6191062479999999    0.5407932510000001    0.5020130279999999 Na
   0.2500000000000000    0.2065465005000000    0.2500000000000000 Na
   0.7500000000000000    0.2065465005000000    0.2500000000000000 Na
   0.7500000000000000    0.7065465005000000    0.2500000000000000 Na
   0.3750000000000000    0.1250000000000000    0.5000000000000000 Na
   0.3750000000000000    0.6250000000000000    0.5000000000000000 Na
   0.8750000000000001    0.1250000000000000    0.5000000000000000 Na
   0.8750000000000001    0.6250000000000000    0.5000000000000000 Na
   0.0000000000000000    0.0434534995000000    0.7500000000000000 Na
   0.0000000000000000    0.5434534995000000    0.7500000000000000 Na
   0.5000000000000000    0.0434534995000000    0.7500000000000000 Na
   0.5000000000000000    0.5434534995000000    0.7500000000000000 Na
   0.1308937520000000    0.2092067450000000    0.4979870020000000 Na
   0.6308937520000000    0.2092067450000000    0.4979870020000000 Na
   0.6308937520000000    0.7092067450000000    0.4979870020000000 Na
   0.1308937520000000    0.2907932400000000    0.9979869719999999 Na
   0.1308937520000000    0.7907932400000001    0.9979869719999999 Na
   0.6308937520000000    0.2907932400000000    0.9979869719999999 Na
   0.6308937520000000    0.7907932400000001    0.9979869719999999 Na
   0.3691062629999999    0.2092067450000000    0.0020130000000000 Na
   0.3691062629999999    0.7092067450000000    0.0020130000000000 Na
   0.8691062630000000    0.2092067450000000    0.0020130000000000 Na
   0.8691062630000000    0.7092067450000000    0.0020130000000000 Na
   0.1250000000000000    0.1250000000000000    0.0000000000000000 Na
   0.1250000000000000    0.6250000000000000    0.0000000000000000 Na
   0.6250000000000000    0.1250000000000000    0.0000000000000000 Na
   0.6250000000000000    0.6250000000000000    0.0000000000000000 Na
   0.3691062629999999    0.2907932400000000    0.5020130279999999 Na
   0.3691062629999999    0.7907932400000001    0.5020130279999999 Na
   0.8691062629999999    0.2907932400000000    0.5020130279999999 Na
   0.8691062629999999    0.7907932400000001    0.5020130279999999 Na
   0.0000000000000000    0.4565464855000000    0.2500000000000000 Na
   0.0000000000000000    0.9565464855000000    0.2500000000000000 Na
   0.5000000000000000    0.4565464855000000    0.2500000000000000 Na
   0.5000000000000000    0.9565464855000000    0.2500000000000000 Na
   0.1250000000000000    0.3750000000000000    0.5000000000000000 Na
   0.1250000000000000    0.8750000000000000    0.5000000000000000 Na
   0.6250000000000000    0.3750000000000000    0.5000000000000000 Na
   0.6250000000000000    0.8750000000000000    0.5000000000000000 Na
   0.2500000000000000    0.0401050000000000    0.2500000000000000 Ru
   0.2500000000000000    0.5401050000000001    0.2500000000000000 Ru
   0.7500000000000000    0.0401050000000000    0.2500000000000000 Ru
   0.7500000000000000    0.5401050000000001    0.2500000000000000 Ru
   0.2500000000000000    0.1268965005000000    0.7500000000000000 Ru
   0.2500000000000000    0.6268965005000000    0.7500000000000000 Ru
   0.7500000000000000    0.1268965005000000    0.7500000000000000 Ru
   0.7500000000000000    0.6268965005000000    0.7500000000000000 Ru
   0.2500000000000000    0.4598950150000000    0.7500000000000000 Ru
   0.2500000000000000    0.9598950150000002    0.7500000000000000 Ru
   0.7500000000000000    0.4598950150000000    0.7500000000000000 Ru
   0.7500000000000000    0.9598950150000002    0.7500000000000000 Ru
   0.2500000000000000    0.3731034995000000    0.2500000000000000 Ru
   0.2500000000000000    0.8731034995000000    0.2500000000000000 Ru
   0.7500000000000000    0.3731034995000000    0.2500000000000000 Ru
   0.7500000000000000    0.8731034995000000    0.2500000000000000 Ru
   0.0000000000000000    0.2901049850000000    0.2500000000000000 Ru
   0.0000000000000000    0.7901049849999999    0.2500000000000000 Ru
   0.5000000000000000    0.2901049850000000    0.2500000000000000 Ru
   0.5000000000000000    0.7901049849999999    0.2500000000000000 Ru
   0.0000000000000000    0.3768965005000000    0.7500000000000000 Ru
   0.0000000000000000    0.8768965005000000    0.7500000000000000 Ru
   0.5000000000000000    0.3768965005000000    0.7500000000000000 Ru
   0.5000000000000000    0.8768965005000000    0.7500000000000000 Ru
   0.0000000000000000    0.2098950000000000    0.7500000000000000 Ru
   0.0000000000000000    0.7098949999999999    0.7500000000000000 Ru
   0.5000000000000000    0.2098950000000000    0.7500000000000000 Ru
   0.5000000000000000    0.7098949999999999    0.7500000000000000 Ru
   0.0000000000000000    0.1231034995000000    0.2500000000000000 Ru
   0.0000000000000000    0.6231034995000000    0.2500000000000000 Ru
   0.5000000000000000    0.1231034995000000    0.2500000000000000 Ru
   0.5000000000000000    0.6231034995000000    0.2500000000000000 Ru
   0.1766700000000000    0.3864260020000000    0.8529499770000000 O
   0.1766700000000000    0.8864260020000000    0.8529499770000000 O
   0.6766700000000001    0.3864260020000000    0.8529499770000000 O
   0.6766700000000001    0.8864260020000000    0.8529499770000000 O
   0.2018390000000000    0.4564279915000000    0.3503299950000000 O
   0.2018390000000000    0.9564279915000000    0.3503299950000000 O
   0.7018390000000000    0.4564279915000000    0.3503299950000000 O
   0.7018390000000000    0.9564279915000000    0.3503299950000000 O
   0.2981610000000000    0.0435720010000000    0.6496700050000001 O
   0.2981610000000000    0.5435720010000000    0.6496700050000001 O
   0.7981610000000000    0.0435720010000000    0.6496700050000001 O
   0.7981610000000000    0.5435720010000000    0.6496700050000001 O
   0.0729395000000000    0.4507200120000000    0.6456570029999998 O
   0.0729395000000000    0.9507200119999999    0.6456570029999998 O
   0.5729394999999999    0.4507200120000000    0.6456570029999998 O
   0.5729394999999999    0.9507200119999999    0.6456570029999998 O
   0.2981610000000000    0.4564279915000000    0.1496700050000000 O
   0.2981610000000000    0.9564279915000000    0.1496700050000000 O
   0.7981610000000000    0.4564279915000000    0.1496700050000000 O
   0.7981610000000000    0.9564279915000000    0.1496700050000000 O
   0.3233299850000000    0.1135739980000000    0.1470499930000000 O
   0.3233299850000000    0.6135739980000000    0.1470499930000000 O
   0.8233299850000000    0.1135739980000000    0.1470499930000000 O
   0.8233299850000000    0.6135739980000000    0.1470499930000000 O
   0.4270605145000000    0.4507200120000000    0.8543429970000000 O
   0.4270605145000000    0.9507200119999999    0.8543429970000000 O
   0.9270605144999999    0.4507200120000000    0.8543429970000000 O
   0.9270605144999999    0.9507200119999999    0.8543429970000000 O
   0.1766700000000000    0.1135739980000000    0.3529500070000000 O
   0.1766700000000000    0.6135739980000000    0.3529500070000000 O
   0.6766700000000000    0.1135739980000000    0.3529500070000000 O
   0.6766700000000000    0.6135739980000000    0.3529500070000000 O
   0.3233299850000000    0.3864260020000000    0.6470500230000000 O
   0.3233299850000000    0.8864260020000000    0.6470500230000000 O
   0.8233299850000000    0.3864260020000000    0.6470500230000000 O
   0.8233299850000000    0.8864260020000000    0.6470500230000000 O
   0.4270605145000000    0.0492799990000000    0.3543429970000000 O
   0.4270605145000000    0.5492799989999999    0.3543429970000000 O
   0.9270605145000000    0.0492799990000000    0.3543429970000000 O
   0.9270605145000000    0.5492799989999999    0.3543429970000000 O
   0.2018390000000000    0.0435720010000000    0.8503299949999998 O
   0.2018390000000000    0.5435720010000000    0.8503299949999998 O
   0.7018389999999999    0.0435720010000000    0.8503299949999998 O
   0.7018389999999999    0.5435720010000000    0.8503299949999998 O
   0.0729395000000000    0.0492799990000000    0.1456570030000000 O
   0.0729395000000000    0.5492799989999999    0.1456570030000000 O
   0.5729395000000000    0.0492799990000000    0.1456570030000000 O
   0.5729395000000000    0.5492799989999999    0.1456570030000000 O
   0.4266700150000000    0.1364260020000000    0.8529499770000000 O
   0.4266700150000000    0.6364260020000000    0.8529499770000000 O
   0.9266700150000001    0.1364260020000000    0.8529499770000000 O
   0.9266700150000001    0.6364260020000000    0.8529499770000000 O
   0.4518390000000000    0.2064280065000000    0.3503299950000000 O
   0.4518390000000000    0.7064280065000000    0.3503299950000000 O
   0.9518390000000000    0.2064280065000000    0.3503299950000000 O
   0.9518390000000000    0.7064280065000000    0.3503299950000000 O
   0.0481610000000000    0.2935720085000000    0.6496700050000001 O
   0.0481610000000000    0.7935720085000000    0.6496700050000001 O
   0.5481610000000000    0.2935720085000000    0.6496700050000001 O
   0.5481610000000000    0.7935720085000000    0.6496700050000001 O
   0.3229394855000000    0.2007199975000000    0.6456570029999998 O
   0.3229394855000000    0.7007199975000000    0.6456570029999998 O
   0.8229394855000001    0.2007199975000000    0.6456570029999998 O
   0.8229394855000001    0.7007199975000000    0.6456570029999998 O
   0.0481610000000000    0.2064280065000000    0.1496700050000000 O
   0.0481610000000000    0.7064280065000000    0.1496700050000000 O
   0.5481610000000000    0.2064280065000000    0.1496700050000000 O
   0.5481610000000000    0.7064280065000000    0.1496700050000000 O
   0.0733300000000000    0.3635739980000000    0.1470499930000000 O
   0.0733300000000000    0.8635739980000000    0.1470499930000000 O
   0.5733300000000000    0.3635739980000000    0.1470499930000000 O
   0.5733300000000000    0.8635739980000000    0.1470499930000000 O
   0.1770605000000000    0.2007199975000000    0.8543429970000000 O
   0.1770605000000000    0.7007199975000000    0.8543429970000000 O
   0.6770605000000001    0.2007199975000000    0.8543429970000000 O
   0.6770605000000001    0.7007199975000000    0.8543429970000000 O
   0.4266700150000001    0.3635739980000000    0.3529500070000000 O
   0.4266700150000001    0.8635739980000000    0.3529500070000000 O
   0.9266700150000001    0.3635739980000000    0.3529500070000000 O
   0.9266700150000001    0.8635739980000000    0.3529500070000000 O
   0.0733300000000000    0.1364260020000000    0.6470500230000000 O
   0.0733300000000000    0.6364260020000000    0.6470500230000000 O
   0.5733300000000000    0.1364260020000000    0.6470500230000000 O
   0.5733300000000000    0.6364260020000000    0.6470500230000000 O
   0.1770605000000000    0.2992799880000000    0.3543429970000000 O
   0.1770605000000000    0.7992799880000000    0.3543429970000000 O
   0.6770605000000000    0.2992799880000000    0.3543429970000000 O
   0.6770605000000000    0.7992799880000000    0.3543429970000000 O
   0.4518390000000000    0.2935720085000000    0.8503299949999998 O
   0.4518390000000000    0.7935720085000000    0.8503299949999998 O
   0.9518390000000001    0.2935720085000000    0.8503299949999998 O
   0.9518390000000001    0.7935720085000000    0.8503299949999998 O
   0.3229394855000000    0.2992799880000000    0.1456570030000000 O
   0.3229394855000000    0.7992799880000000    0.1456570030000000 O
   0.8229394855000001    0.2992799880000000    0.1456570030000000 O
   0.8229394855000001    0.7992799880000000    0.1456570030000000 O
