Ca8 Cr12 F42                            
   1.00000000000000     
     7.4364970000000001    0.0088150000000000   -0.5197540000000000
    -3.5913409999999999    6.8136330000000003    0.2540100000000000
     0.9088410000000000    0.2906190000000000   18.3977409999999999
   Ca   Cr   F 
     8    12    42
Direct
  0.9234757111426540  0.1751962590964969  0.3594259285657556
  0.5272217287212608  0.8288766356279675  0.6806812742666311
  0.5999307671350235  0.1262962760450916  0.0027347407950511
  0.0149781041206058  0.8017189037252085  0.6637841801957506
  0.1078851952159195  0.6786164286685521  1.0153552246003041
  0.8761461893352986  0.7616414877494215  0.1888388280985423
  0.8584268804146038  0.9078541498790395  0.8479642584692824
  0.2716991568693359  0.2334784971607816  0.5120484181991075
  0.3182314811090005  1.0067045628027240  0.3323458789091335
  0.0073737954916785  0.2959788008796628  0.6681804897096030
  0.6208380884869362  0.6569363021286282  0.9981275648000066
  0.3500695005769455  0.9808191885981695  0.8279537606156340
  0.9605186133211465  0.3221202596090803  0.1545666923779095
  0.7019403782893192  0.6789753111235509  0.4988407710384511
  0.4402000892477863  0.8286073647894804  0.1678188846409317
  0.2044675476768669  0.6900276746230599  0.4989147504518919
  0.3134034068730773  0.4696004875838568  0.8315704994842414
  0.8181220328337905  0.4646192595563128  0.8279836494654302
  0.6967260538049477  0.1727917673167634  0.5034270927438578
  0.4546658114656857  0.3229195536445296  0.1533112009815581
  0.7432391357172781  0.1235394445624002  0.6206670168668329
  0.8924086754193297  0.6740427785654930  0.9270486136545747
  0.4029277138730514  0.2185786859851573  0.2524044441904931
  0.1854917933006528  0.7090349402360847  0.3961997400126257
  0.4413904187284070  0.7853482950857772  0.0595454404268062
  0.2720638459690691  0.4709086367110741  0.7221252339328794
  0.7309498656785417  0.9329390973631616  0.9560556819269036
  1.0425599291539422  0.9086189143026745  0.2876159736477230
  0.1299623352111426  0.1420149692307021  0.6208485430844132
  0.8670952960166914  0.7546765108454271  0.0645802973663667
  0.8519056814598729  0.9478552902357038  0.7271578900164082
  0.2084523883297485  0.1506302564345144  0.3960033110378224
  0.5327147737837052  0.3911829352940000  0.0388081778615692
  0.6011840827161214  0.1357751674804409  0.3774811147361425
  0.8919779689124847  0.4663992157851348  0.6927904486716776
  0.3651622053718656  0.5484796830616420  0.9358644824526652
  0.2387260854634747  0.6997250424039281  0.6079057078203801
  0.4196202164112904  0.8670022978389474  0.2705109916426502
  0.7547907900840396  0.4195199024192900  0.1724913943240132
  0.6345663649401087  0.3970715444114748  0.5228524446318867
  0.6335322189747935  0.2394928869535108  0.8865814550838367
  0.5271446718446265  0.8575070084588280  0.8113480240309453
  0.3953756243237079  0.5671841619204783  0.4975297526706059
  0.1404833217941132  0.7002045304535676  0.1492458816795270
  1.0124059092909450  0.3280336715925525  0.2578440642058425
  0.6924462945925446  0.7142709870248067  0.6069421644652899
  0.3143057106788710  0.9252894489202970  0.9382246819118012
  0.3405712860519399  0.9800888021569069  0.7184535571112749
  0.7127739108099392  0.6374714964217889  0.4024121017812707
  0.9163123673438641  0.3510520252564689  0.0466141584491466
  0.1666645077360394  0.2406465522613503  0.1307721502068540
  0.7450830239532668  0.9478716317297514  0.4742982379843272
  0.0119897682876998  0.7322575860810105  0.7907531511090157
  0.1936261169788792  0.1256418047856031  0.8383630925535070
 -0.0012581091199514  0.7847352040084761  0.5207315249566714
  0.7416575178689921  0.9776605004459283  0.1729035869052454
  0.0178986725221442  0.3651988278305057  0.8439695236410023
  0.5170959197230807  0.5900893091903893  0.1815571007612762
  0.4035058395314332  0.0207425816835679  0.5166655227300169
  0.4294877679418999  0.0770187359897942  0.1138635303106427
  0.6094030216405979  0.5595684929253102  0.8137554327982903
 -0.0056253886601597  0.3113239582263158  0.4792980196990465
 
             NaN             NaN             NaN
             NaN             NaN             NaN
             NaN             NaN             NaN
             NaN             NaN             NaN
             NaN             NaN             NaN
             NaN             NaN             NaN
             NaN             NaN             NaN
             NaN             NaN             NaN
             NaN             NaN             NaN
             NaN             NaN             NaN
             NaN             NaN             NaN
             NaN             NaN             NaN
             NaN             NaN             NaN
             NaN             NaN             NaN
             NaN             NaN             NaN
             NaN             NaN             NaN
             NaN             NaN             NaN
             NaN             NaN             NaN
             NaN             NaN             NaN
             NaN             NaN             NaN
             NaN             NaN             NaN
             NaN             NaN             NaN
             NaN             NaN             NaN
             NaN             NaN             NaN
             NaN             NaN             NaN
             NaN             NaN             NaN
             NaN             NaN             NaN
             NaN             NaN             NaN
             NaN             NaN             NaN
             NaN             NaN             NaN
             NaN             NaN             NaN
             NaN             NaN             NaN
             NaN             NaN             NaN
             NaN             NaN             NaN
             NaN             NaN             NaN
             NaN             NaN             NaN
             NaN             NaN             NaN
             NaN             NaN             NaN
             NaN             NaN             NaN
             NaN             NaN             NaN
             NaN             NaN             NaN
             NaN             NaN             NaN
             NaN             NaN             NaN
             NaN             NaN             NaN
             NaN             NaN             NaN
             NaN             NaN             NaN
             NaN             NaN             NaN
             NaN             NaN             NaN
             NaN             NaN             NaN
             NaN             NaN             NaN
             NaN             NaN             NaN
             NaN             NaN             NaN
             NaN             NaN             NaN
             NaN             NaN             NaN
             NaN             NaN             NaN
             NaN             NaN             NaN
             NaN             NaN             NaN
             NaN             NaN             NaN
             NaN             NaN             NaN
             NaN             NaN             NaN
             NaN             NaN             NaN
             NaN             NaN             NaN
