Ca8 Cr12 F42
1.0
7.436497 0.008815 -0.519754
-3.591341 6.813633 0.254010
0.908841 0.290619 18.397741
Ca Cr F
8 12 42
direct
0.826639 0.181788 0.339759 Ca
0.531994 0.847464 0.678876 Ca
0.594869 0.110057 0.005682 Ca
0.017568 0.814672 0.661983 Ca
0.111675 0.634281 0.996866 Ca
0.888934 0.762736 0.177182 Ca
0.852146 0.906039 0.846187 Ca
0.251366 0.233552 0.501372 Ca
0.313136 0.986944 0.330836 Cr
0.009711 0.308811 0.661870 Cr
0.631730 0.646015 -0.000958 Cr
0.347392 0.984596 0.827414 Cr
0.954483 0.306538 0.160030 Cr
0.705537 0.688043 0.503035 Cr
0.441636 0.813188 0.167353 Cr
0.213283 0.701970 0.500433 Cr
0.313994 0.470833 0.831308 Cr
0.815760 0.464193 0.824784 Cr
0.707442 0.186341 0.503596 Cr
0.450757 0.308320 0.160148 Cr
0.738614 0.141967 0.612178 F
0.886350 0.668230 0.921009 F
0.432753 0.222480 0.268771 F
0.202550 0.740989 0.395654 F
0.419006 0.762228 0.058604 F
0.259512 0.467271 0.723821 F
0.731390 0.922201 0.957651 F
0.990693 0.844840 0.278285 F
0.130553 0.152199 0.615992 F
0.891589 0.730473 0.056699 F
0.854220 0.967950 0.725236 F
0.185614 0.109899 0.393831 F
0.534070 0.377749 0.038572 F
0.665134 0.180282 0.400146 F
0.890717 0.472873 0.691034 F
0.374198 0.544998 0.936577 F
0.245872 0.703773 0.609301 F
0.459548 0.876351 0.271196 F
0.750326 0.409235 0.173974 F
0.618964 0.396665 0.517741 F
0.642507 0.237469 0.886805 F
0.522766 0.858149 0.809292 F
0.402703 0.581790 0.492654 F
0.146244 0.675246 0.164302 F
0.970215 0.288068 0.262598 F
0.687544 0.714106 0.610424 F
0.315749 0.917169 0.935448 F
0.342208 0.993584 0.718143 F
0.725309 0.673790 0.402164 F
0.917188 0.329568 0.049551 F
0.158916 0.214160 0.142730 F
0.787510 0.975094 0.488050 F
0.005659 0.738064 0.787174 F
0.187466 0.126988 0.840736 F
0.001846 0.784582 0.527465 F
0.737700 0.966175 0.155688 F
0.033188 0.402125 0.856525 F
0.518911 0.584863 0.182190 F
0.408362 0.019718 0.514200 F
0.424516 0.059534 0.119785 F
0.603518 0.552473 0.807606 F
0.006795 0.366485 0.502333 F
