Na32 V32 P32 O160
1.0
12.994567 0.000000 0.000000
0.000000 16.854538 0.000000
-5.852062 0.000000 12.686804
Na V P O
31 32 32 160
direct
   0.1217010000000000    0.2084640000000000    0.6131850000000000 Na
0.378299 0.291536 0.386815 Na
0.378299 0.791536 0.386815 Na
0.378299 0.791536 0.886815 Na
0.878299 0.291536 0.386815 Na
0.878299 0.291536 0.886815 Na
0.878299 0.791536 0.386815 Na
0.878299 0.791536 0.886815 Na
0.121701 0.041536 0.363185 Na
0.121701 0.041536 0.863185 Na
0.121701 0.541536 0.363185 Na
0.121701 0.541536 0.863185 Na
0.621701 0.041536 0.363185 Na
0.621701 0.041536 0.863185 Na
0.621701 0.541536 0.363185 Na
0.621701 0.541536 0.863185 Na
0.121701 0.208464 0.113185 Na
0.121701 0.708464 0.113185 Na
0.121701 0.708464 0.613185 Na
0.621701 0.208464 0.113185 Na
0.621701 0.208464 0.613185 Na
0.621701 0.708464 0.113185 Na
0.621701 0.708464 0.613185 Na
0.378299 0.458464 0.136815 Na
0.378299 0.458464 0.636815 Na
0.378299 0.958464 0.136815 Na
0.378299 0.958464 0.636815 Na
0.878299 0.458464 0.136815 Na
0.878299 0.458464 0.636815 Na
0.878299 0.958464 0.136815 Na
0.878299 0.958464 0.636815 Na
0.127186 0.379581 0.490288 V
0.127186 0.379581 0.990288 V
0.127186 0.879581 0.490288 V
0.127186 0.879581 0.990288 V
0.627186 0.379581 0.490288 V
0.627186 0.379581 0.990288 V
0.627186 0.879581 0.490288 V
0.627186 0.879581 0.990288 V
0.372814 0.129581 0.259712 V
0.372814 0.129581 0.759712 V
0.372814 0.629581 0.259712 V
0.372814 0.629581 0.759712 V
0.872814 0.129581 0.259712 V
0.872814 0.129581 0.759712 V
0.872814 0.629581 0.259712 V
0.872814 0.629581 0.759712 V
0.372814 0.120419 0.009712 V
0.372814 0.120419 0.509712 V
0.372814 0.620419 0.009712 V
0.372814 0.620419 0.509712 V
0.872814 0.120419 0.009712 V
0.872814 0.120419 0.509712 V
0.872814 0.620419 0.009712 V
0.872814 0.620419 0.509712 V
0.127186 0.370419 0.240288 V
0.127186 0.370419 0.740288 V
0.127186 0.870419 0.240288 V
0.127186 0.870419 0.740288 V
0.627186 0.370419 0.240288 V
0.627186 0.370419 0.740288 V
0.627186 0.870419 0.240288 V
0.627186 0.870419 0.740288 V
0.124921 0.034034 0.124164 P
0.124921 0.034034 0.624164 P
0.124921 0.534034 0.124164 P
0.124921 0.534034 0.624164 P
0.624921 0.034034 0.124164 P
0.624921 0.034034 0.624164 P
0.624921 0.534034 0.124164 P
0.624921 0.534034 0.624164 P
0.375079 0.284034 0.125836 P
0.375079 0.284034 0.625836 P
0.375079 0.784034 0.125836 P
0.375079 0.784034 0.625836 P
0.875079 0.284034 0.125836 P
0.875079 0.284034 0.625836 P
0.875079 0.784034 0.125836 P
0.875079 0.784034 0.625836 P
0.375079 0.465966 0.375836 P
0.375079 0.465966 0.875836 P
0.375079 0.965966 0.375836 P
0.375079 0.965966 0.875836 P
0.875079 0.465966 0.375836 P
0.875079 0.465966 0.875836 P
0.875079 0.965966 0.375836 P
0.875079 0.965966 0.875836 P
0.124921 0.215966 0.374164 P
0.124921 0.215966 0.874164 P
0.124921 0.715966 0.374164 P
0.124921 0.715966 0.874164 P
0.624921 0.215966 0.374164 P
0.624921 0.215966 0.874164 P
0.624921 0.715966 0.374164 P
0.624921 0.715966 0.874164 P
0.077525 0.481833 0.187091 O
0.077525 0.481833 0.687091 O
0.077525 0.981833 0.187091 O
0.077525 0.981833 0.687091 O
0.577525 0.481833 0.187091 O
0.577525 0.481833 0.687091 O
0.577525 0.981833 0.187091 O
0.577525 0.981833 0.687091 O
0.422475 0.231833 0.062909 O
0.422475 0.231833 0.562909 O
0.422475 0.731833 0.062909 O
0.422475 0.731833 0.562909 O
0.922475 0.231833 0.062909 O
0.922475 0.231833 0.562909 O
0.922475 0.731833 0.062909 O
0.922475 0.731833 0.562909 O
0.422475 0.018167 0.312909 O
0.422475 0.018167 0.812909 O
0.422475 0.518167 0.312909 O
0.422475 0.518167 0.812909 O
0.922475 0.018167 0.312909 O
0.922475 0.018167 0.812909 O
0.922475 0.518167 0.312909 O
0.922475 0.518167 0.812909 O
0.077525 0.268167 0.437091 O
0.077525 0.268167 0.937091 O
0.077525 0.768167 0.437091 O
0.077525 0.768167 0.937091 O
0.577525 0.268167 0.437091 O
0.577525 0.268167 0.937091 O
0.577525 0.768167 0.437091 O
0.577525 0.768167 0.937091 O
0.376218 0.158458 0.375987 O
0.376218 0.158458 0.875987 O
0.376218 0.658458 0.375987 O
0.376218 0.658458 0.875987 O
0.876218 0.158458 0.375987 O
0.876218 0.158458 0.875987 O
0.876218 0.658458 0.375987 O
0.876218 0.658458 0.875987 O
0.123782 0.408458 0.374013 O
0.123782 0.408458 0.874013 O
0.123782 0.908458 0.374013 O
0.123782 0.908458 0.874013 O
0.623782 0.408458 0.374013 O
0.623782 0.408458 0.874013 O
0.623782 0.908458 0.374013 O
0.623782 0.908458 0.874013 O
0.123782 0.341542 0.124013 O
0.123782 0.341542 0.624013 O
0.123782 0.841542 0.124013 O
0.123782 0.841542 0.624013 O
0.623782 0.341542 0.124013 O
0.623782 0.341542 0.624013 O
0.623782 0.841542 0.124013 O
0.623782 0.841542 0.624013 O
0.376218 0.091542 0.125987 O
0.376218 0.091542 0.625987 O
0.376218 0.591542 0.125987 O
0.376218 0.591542 0.625987 O
0.876218 0.091542 0.125987 O
0.876218 0.091542 0.625987 O
0.876218 0.591542 0.125987 O
0.876218 0.591542 0.625987 O
0.285949 0.341177 0.050682 O
0.285949 0.341177 0.550682 O
0.285949 0.841177 0.050682 O
0.285949 0.841177 0.550682 O
0.785949 0.341177 0.050682 O
0.785949 0.341177 0.550682 O
0.785949 0.841177 0.050682 O
0.785949 0.841177 0.550682 O
0.214051 0.091177 0.199318 O
0.214051 0.091177 0.699318 O
0.214051 0.591177 0.199318 O
0.214051 0.591177 0.699318 O
0.714051 0.091177 0.199318 O
0.714051 0.091177 0.699318 O
0.714051 0.591177 0.199318 O
0.714051 0.591177 0.699318 O
0.214051 0.158823 0.449318 O
0.214051 0.158823 0.949318 O
0.214051 0.658823 0.449318 O
0.214051 0.658823 0.949318 O
0.714051 0.158823 0.449318 O
0.714051 0.158823 0.949318 O
0.714051 0.658823 0.449318 O
0.714051 0.658823 0.949318 O
0.285949 0.408823 0.300682 O
0.285949 0.408823 0.800682 O
0.285949 0.908823 0.300682 O
0.285949 0.908823 0.800682 O
0.785949 0.408823 0.300682 O
0.785949 0.408823 0.800682 O
0.785949 0.908823 0.300682 O
0.785949 0.908823 0.800682 O
0.178024 0.267763 0.315771 O
0.178024 0.267763 0.815771 O
0.178024 0.767763 0.315771 O
0.178024 0.767763 0.815771 O
0.678024 0.267763 0.315771 O
0.678024 0.267763 0.815771 O
0.678024 0.767763 0.315771 O
0.678024 0.767763 0.815771 O
0.321976 0.017763 0.434229 O
0.321976 0.017763 0.934229 O
0.321976 0.517763 0.434229 O
0.321976 0.517763 0.934229 O
0.821976 0.017763 0.434229 O
0.821976 0.017763 0.934229 O
0.821976 0.517763 0.434229 O
0.821976 0.517763 0.934229 O
0.321976 0.232237 0.184229 O
0.321976 0.232237 0.684229 O
0.321976 0.732237 0.184229 O
0.321976 0.732237 0.684229 O
0.821976 0.232237 0.184229 O
0.821976 0.232237 0.684229 O
0.821976 0.732237 0.184229 O
0.821976 0.732237 0.684229 O
0.178024 0.482237 0.065771 O
0.178024 0.482237 0.565771 O
0.178024 0.982237 0.065771 O
0.178024 0.982237 0.565771 O
0.678024 0.482237 0.065771 O
0.678024 0.482237 0.565771 O
0.678024 0.982237 0.065771 O
0.678024 0.982237 0.565771 O
0.468390 0.336747 0.204408 O
0.468390 0.336747 0.704408 O
0.468390 0.836747 0.204408 O
0.468390 0.836747 0.704408 O
0.968390 0.336747 0.204408 O
0.968390 0.336747 0.704408 O
0.968390 0.836747 0.204408 O
0.968390 0.836747 0.704408 O
0.031610 0.086747 0.045592 O
0.031610 0.086747 0.545592 O
0.031610 0.586747 0.045592 O
0.031610 0.586747 0.545592 O
0.531610 0.086747 0.045592 O
0.531610 0.086747 0.545592 O
0.531610 0.586747 0.045592 O
0.531610 0.586747 0.545592 O
0.031610 0.163253 0.295592 O
0.031610 0.163253 0.795592 O
0.031610 0.663253 0.295592 O
0.031610 0.663253 0.795592 O
0.531610 0.163253 0.295592 O
0.531610 0.163253 0.795592 O
0.531610 0.663253 0.295592 O
0.531610 0.663253 0.795592 O
0.468390 0.413253 0.454408 O
0.468390 0.413253 0.954408 O
0.468390 0.913253 0.454408 O
0.468390 0.913253 0.954408 O
0.968390 0.413253 0.454408 O
0.968390 0.413253 0.954408 O
0.968390 0.913253 0.454408 O
0.968390 0.913253 0.954408 O
