Ca7 Ni16 F48                            
   1.00000000000000     
    11.2107880000000009   -0.0000350000000000   -0.0046390000000000
    -0.0000160000000000    7.6771700000000003    0.0000840000000000
    -0.0037990000000000    0.0001200000000000   10.7006540000000001
   Ca   Ni   F 
     7    16    48
Direct
  0.5235997696969386  0.7500084581114721  0.5327740902680841
  0.0292330033838727  0.2500062493880948  0.4907708903482126
  0.0387556240225430  0.2500162974764293  0.9716965747460053
  0.5351058393173692  0.2500073947720018  0.9964887250104728
  0.2114312989693574  0.7499814620020174  0.2468626625204803
  0.2076950337504358  0.7499829732213726  0.7427576893401316
  0.7130298779726240  0.7499915255226499  0.2309421487483595
  0.4966964209442304  0.4905312510999429  0.2613982119139750
  0.5027475203238136  0.4919507678087823  0.7554987566906304
  0.9945721930868126  0.4992414142030909  0.2419106484359676
  0.9835691764603910  0.5063653576924501  0.7433093582562219
  0.2589533205015594  0.0063902725380820  0.5021111327189851
  0.2589151884700212 -0.0029323841089296  1.0047431627306607
  0.7564355064309594  0.0125780964122067  0.4995435904963094
  0.7527043820622660  0.9978903594518588  0.9947580025962526
  0.4966969623694699  0.0094619655278326  0.2613984650499331
  0.5027395619918427  0.0080571843089260  0.7554862511266803
  0.9945840537412929  0.0007563489708792  0.2419054938846873
  0.9835685309348032  0.9936268732621845  0.7433114085766747
  0.2589490385699811  0.4936072570601598  0.5021110854704065
  0.2589135287047385  0.5029334290529619  1.0047483889127642
  0.7564245546687526  0.4874565243872208  0.4994945836242094
  0.7527060737352940  0.5021010836632728  0.9947602197074503
  0.4794512929153888  0.2499914924001481  0.2001595913283344
  0.4647556664960100  0.2500116810827380  0.7317223688563042
  0.9915142119512205  0.2500045032551171  0.1805627609218574
  0.9946282945666178  0.2499942566808711  0.7018188728077998
  0.2331100013496386  0.2500030764834921  0.0428079653932012
  0.2284975981295340  0.2499988480419418  0.5479902493044740
  0.7396553712843342  0.2500030167392591  0.0439130564150315
  0.7865916997455428  0.2499889021221816  0.5460598691564391
  0.0116874004499585  0.7500002531913469  0.2938137913131046
  0.0087866542093379  0.7499921269667678  0.7918644759191942
  0.5179931645057688  0.7500073007363357  0.3127340270899073
  0.5297686596213284  0.7500015736258423  0.7589239813491974
  0.2714973006050765  0.7500030093724996  0.4517296151491652
  0.2677463759284519  0.7500000252264158  0.9464766620932629
  0.7357476045265311  0.7499921698699691  0.4540202069272384
  0.7457599418121897  0.7499922632135737  0.9593532644855101
  0.3462458033214737  0.5558678581118462  0.1672004990300785
  0.3543286808624279  0.5664048706636879  0.6565327274030860
  0.8472693552816873  0.5567178549853719  0.1476664778654148
  0.8460257224628123  0.5565417393975238  0.6434200954592323
  0.1085240515166199  0.9452854218330751  0.1021373203440736
  0.1069653770375942  0.9528479996585560  0.6029500078379566
  0.6009291312940944  0.9612745360714939  0.1079191432354050
  0.6018372026151909  1.0001837487037575  0.5977877788925519
  0.1455738262546799  0.0435591713303895  0.3527326078437064
  0.1433204549719925  0.0330140647132510  0.8529480300648290
  0.6597583213295766  0.0293503326254737  0.3441417845909137
  0.6402072816428140  0.0649143692764610  0.8616926415227554
  0.4132688561865016  0.4683548247235075  0.4202812475252657
  0.4091693998030577  0.4602137853444515  0.9168246228207021
  0.9070397157289751  0.4507118465758760  0.3975700586628900
  0.9006173648286682  0.4459274670378415  0.9014851607328056
  0.1455841683772348  0.4564484630725696  0.3527218282089497
  0.1433285551715502  0.4669794003287969  0.8529420640932746
  0.6597532357887593  0.4706461545009504  0.3441247164174316
  0.6402085463736745  0.4350906189547809  0.8616858424658806
  0.4132722889083346  0.0316162025247184  0.4202711817909891
  0.4091726912983256  0.0397898298053529  0.9168228163189984
  0.9070374042594940  0.0492855157870409  0.3975775984048879
  0.9006235938030563  0.0540738101604272  0.9014981186543468
  0.3462462942649097  0.9441253472739854  0.1671950649562716
  0.3543346730390723  0.9335881180475746  0.6565336801038563
  0.8472636395807516  0.9432778653364764  0.1476727325771411
  0.8459997934383880  0.9434583398592734  0.6434002885233583
  0.1085181645057464  0.5547266789979960  0.1021382681942589
  0.1069671234953409  0.5471429458913253  0.6029442945745358
  0.6009332174056713  0.5387141302484894  0.1079291784047618
  0.6018276141644326  0.4998730454817336  0.5977730951132538
 
             NaN             NaN             NaN
             NaN             NaN             NaN
             NaN             NaN             NaN
             NaN             NaN             NaN
             NaN             NaN             NaN
             NaN             NaN             NaN
             NaN             NaN             NaN
             NaN             NaN             NaN
             NaN             NaN             NaN
             NaN             NaN             NaN
             NaN             NaN             NaN
             NaN             NaN             NaN
             NaN             NaN             NaN
             NaN             NaN             NaN
             NaN             NaN             NaN
             NaN             NaN             NaN
             NaN             NaN             NaN
             NaN             NaN             NaN
             NaN             NaN             NaN
             NaN             NaN             NaN
             NaN             NaN             NaN
             NaN             NaN             NaN
             NaN             NaN             NaN
             NaN             NaN             NaN
             NaN             NaN             NaN
             NaN             NaN             NaN
             NaN             NaN             NaN
             NaN             NaN             NaN
             NaN             NaN             NaN
             NaN             NaN             NaN
             NaN             NaN             NaN
             NaN             NaN             NaN
             NaN             NaN             NaN
             NaN             NaN             NaN
             NaN             NaN             NaN
             NaN             NaN             NaN
             NaN             NaN             NaN
             NaN             NaN             NaN
             NaN             NaN             NaN
             NaN             NaN             NaN
             NaN             NaN             NaN
             NaN             NaN             NaN
             NaN             NaN             NaN
             NaN             NaN             NaN
             NaN             NaN             NaN
             NaN             NaN             NaN
             NaN             NaN             NaN
             NaN             NaN             NaN
             NaN             NaN             NaN
             NaN             NaN             NaN
             NaN             NaN             NaN
             NaN             NaN             NaN
             NaN             NaN             NaN
             NaN             NaN             NaN
             NaN             NaN             NaN
             NaN             NaN             NaN
             NaN             NaN             NaN
             NaN             NaN             NaN
             NaN             NaN             NaN
             NaN             NaN             NaN
             NaN             NaN             NaN
             NaN             NaN             NaN
             NaN             NaN             NaN
             NaN             NaN             NaN
             NaN             NaN             NaN
             NaN             NaN             NaN
             NaN             NaN             NaN
             NaN             NaN             NaN
             NaN             NaN             NaN
             NaN             NaN             NaN
             NaN             NaN             NaN
