Ca7 Ni16 F48
1.0
11.210788 -0.000035 -0.004639
-0.000016 7.677170 0.000084
-0.003799 0.000120 10.700654
Ca Ni F
7 16 48
direct
0.535985 0.750005 0.568223 Ca
0.032379 0.250001 0.488762 Ca
0.038616 0.249994 0.984230 Ca
0.540603 0.249985 0.987679 Ca
0.209998 0.749994 0.234016 Ca
0.209903 0.749986 0.741013 Ca
0.713642 0.750003 0.239578 Ca
0.496359 0.490842 0.254340 Ni
0.502995 0.496253 0.748801 Ni
0.990590 0.499696 0.249380 Ni
0.986279 0.503717 0.745121 Ni
0.256245 0.007826 0.497213 Ni
0.259507 0.000938 0.999357 Ni
0.749060 0.008220 0.502995 Ni
0.755553 0.996080 0.996385 Ni
0.496351 0.009154 0.254342 Ni
0.502996 0.003760 0.748797 Ni
0.990588 0.000309 0.249388 Ni
0.986276 0.996281 0.745122 Ni
0.256246 0.492174 0.497217 Ni
0.259512 0.499061 0.999363 Ni
0.749065 0.491782 0.503005 Ni
0.755551 0.503924 0.996386 Ni
0.483411 0.249999 0.192218 F
0.487797 0.249997 0.709353 F
0.985229 0.250008 0.189948 F
0.987647 0.249996 0.694444 F
0.235155 0.249996 0.045135 F
0.229441 0.249996 0.550034 F
0.739990 0.250001 0.044287 F
0.738034 0.249999 0.548593 F
0.014714 0.749998 0.297991 F
0.013770 0.749999 0.795357 F
0.512293 0.749996 0.298451 F
0.504944 0.750002 0.785815 F
0.266748 0.750001 0.441430 F
0.264167 0.750004 0.945717 F
0.755721 0.749997 0.449565 F
0.761780 0.749997 0.950826 F
0.346444 0.554384 0.159454 F
0.349783 0.565464 0.649669 F
0.847591 0.557649 0.151820 F
0.843419 0.552347 0.651757 F
0.106427 0.953552 0.102961 F
0.106212 0.951165 0.602595 F
0.604420 0.960656 0.102720 F
0.600300 0.949533 0.598953 F
0.142708 0.051742 0.352656 F
0.143823 0.041895 0.851767 F
0.656098 0.020165 0.341903 F
0.643999 0.052917 0.857586 F
0.409422 0.467263 0.412221 F
0.407323 0.446666 0.906546 F
0.901449 0.443631 0.406079 F
0.904179 0.444783 0.904118 F
0.142710 0.448277 0.352655 F
0.143831 0.458120 0.851769 F
0.656092 0.479835 0.341905 F
0.644009 0.447082 0.857594 F
0.409423 0.032741 0.412225 F
0.407321 0.053331 0.906538 F
0.901455 0.056369 0.406089 F
0.904179 0.055215 0.904113 F
0.346438 0.945614 0.159457 F
0.349783 0.934535 0.649673 F
0.847595 0.942357 0.151827 F
0.843431 0.947640 0.651767 F
0.106433 0.546461 0.102959 F
0.106217 0.548828 0.602591 F
0.604421 0.539340 0.102722 F
0.600305 0.550475 0.598950 F
