Mg8 Ti16 S32
1.0
       10.3583536148         0.0000000000         0.0000000000
        0.0000000000        10.3583536148         0.0000000000
        0.0000000000         0.0000000000        10.3583536148
   Mg   Ti    S
    7   16   32
Direct
     0.500000000         0.500000000         0.000000000
     0.500000000         0.000000000         0.500000000
     0.250000000         0.250000000         0.250000000
     0.250000000         0.750000000         0.750000000
     0.000000000         0.000000000         0.000000000
     0.750000000         0.250000000         0.750000000
     0.000000000         0.500000000         0.500000000
     0.125000000         0.625000000         0.125000000
     0.125000000         0.875000000         0.375000000
     0.375000000         0.625000000         0.375000000
     0.375000000         0.875000000         0.125000000
     0.125000000         0.125000000         0.625000000
     0.125000000         0.375000000         0.875000000
     0.375000000         0.125000000         0.875000000
     0.375000000         0.375000000         0.625000000
     0.625000000         0.625000000         0.625000000
     0.625000000         0.875000000         0.875000000
     0.875000000         0.625000000         0.875000000
     0.875000000         0.875000000         0.625000000
     0.625000000         0.125000000         0.125000000
     0.625000000         0.375000000         0.375000000
     0.875000000         0.125000000         0.375000000
     0.875000000         0.375000000         0.125000000
     0.365725011         0.865724981         0.365725011
     0.384274989         0.115725003         0.115725003
     0.115725003         0.115725003         0.384274989
     0.115725003         0.384274989         0.115725003
     0.634275019         0.134275004         0.365725011
     0.134275004         0.865724981         0.134275004
     0.384274989         0.384274989         0.384274989
     0.865724981         0.134275004         0.134275004
     0.365725011         0.365725011         0.865724981
     0.384274989         0.615724981         0.615724981
     0.115725003         0.615724981         0.884275019
     0.115725003         0.884275019         0.615724981
     0.634275019         0.634275019         0.865724981
     0.134275004         0.365725011         0.634275019
     0.384274989         0.884275019         0.884275019
     0.865724981         0.634275019         0.634275019
     0.865724981         0.865724981         0.865724981
     0.884275019         0.115725003         0.615724981
     0.615724981         0.115725003         0.884275019
     0.615724981         0.384274989         0.615724981
     0.134275004         0.134275004         0.865724981
     0.634275019         0.865724981         0.634275019
     0.884275019         0.384274989         0.884275019
     0.365725011         0.134275004         0.634275019
     0.865724981         0.365725011         0.365725011
     0.884275019         0.615724981         0.115725003
     0.615724981         0.615724981         0.384274989
     0.615724981         0.884275019         0.115725003
     0.134275004         0.634275019         0.365725011
     0.634275019         0.365725011         0.134275004
     0.884275019         0.884275019         0.384274989
     0.365725011         0.634275019         0.134275004
