Ca9 Cr12 F42                            
   1.00000000000000     
     7.4664890000000002    0.0866110000000000   -0.5644060000000000
    -3.5398660000000000    6.6090330000000002    0.2159510000000000
     0.8207110000000000    0.1255720000000000   18.7364630000000005
   Ca   Cr   F 
     9    12    42
Direct
  0.4939427258916922  0.4459034423324226  0.3493591484649414
  0.5187254310754810  0.8563096624073836  0.6778946724532275
  0.5861392926162523  0.0852794163091630  0.0048845528333459
  0.0020381263761777  0.8265937169678494  0.6612560679171082
  0.8615163244879653  0.0400766866865041  0.3465796397622540
  0.1133797398983418  0.5993466512616976  0.9806185140829697
  0.9860326895600622  0.8197711566146211  0.1656386145370590
  0.8364774580460406  0.8990370127393277  0.8448894331021961
  0.2101862624254522  0.2047743051024540  0.5076078753883522
  0.2815482782519041  0.9031127215314569  0.3277777860302464
  0.0026066269687561  0.3243373379168233  0.6572322980328167
  0.6442028643046811  0.6298807472387509  0.9985624459192906
  0.3344600876308519  0.9807719171184246  0.8276074495553019
  0.9559818383775465  0.3022895267940058  0.1574055731426256
  0.6982051790977550  0.7004948238787989  0.5025311306538072
  0.4653161538509778  0.7915911826514233  0.1706977293531011
  0.2055286247595589  0.7054936766956672  0.4963743488711572
  0.3164202527215565  0.4721470339500868  0.8263039509436396
  0.8122142378595569  0.4540869099911689  0.8222247827915581
  0.6968528751532759  0.2186472770461592  0.5034971247924602
  0.4670047834197320  0.3062906504025591  0.1641154222961561
  0.7380535492966516  0.1355783843446545  0.6050297007517713
  0.8764927240995632  0.6577200056874801  0.9166939787488886
  0.4188073961154686  0.1636533991764892  0.2752099388791223
  0.1543293840609365  0.6669472105866561  0.3906072267591725
  0.3992091687910388  0.7430479127702512  0.0490290002023031
  0.2470472149759431  0.4961088269315681  0.7221420651574633
  0.7387834785603360  0.9108164010589945  0.9600464467711660
  0.0129794907915297  0.8762869250625229  0.2841409055186048
  0.1318865782111658  0.1627662032841428  0.6258736103165248
  0.9149901035542598  0.7132919256374635  0.0524407035127723
  0.8351727224302650  0.9703883709641730  0.7275042129010529
  0.1931064836018237  0.1994175837309200  0.3852249866076463
  0.5388491916870279  0.3537549611406519  0.0336139296242663
  0.6660950782716668  0.3007007445437111  0.4047794672899343
  0.8759726032065984  0.4874307603127619  0.6804955963069474
  0.3928336121252940  0.5308576503799785  0.9316963138869738
  0.2549822749204864  0.7680886348772518  0.6019092515138240
  0.5238857930306651  0.8603943507054908  0.3183344441986478
  0.7704712859222624  0.4339676740940135  0.1709294243605797
  0.5476246357117276  0.3452955850038109  0.5429079066491482
  0.6607040898011078  0.2218348417950367  0.8854680985141670
  0.5074260683999228  0.8472748951141256  0.8101857107900301
  0.4202596400129508  0.5438879147212603  0.4608461589430775
  0.1758808489993697  0.6626533714944500  0.1831184730095998
  0.9581276250938870  0.2611689084530795  0.2582738139758831
  0.6568249440756659  0.7175278082357295  0.6067959527535294
  0.3091861600080676  0.9100468121906857  0.9317367162164132
  0.3328026519977954  0.0029090337540936  0.7227312533342527
  0.7629538335899824  0.7220014453906174  0.3993179531126927
  0.9228897264486022  0.3153462517023797  0.0495610918909435
  0.1612961377499929  0.1857459732964770  0.1482197819912088
  0.8408618583776359  0.0770849787723193  0.4646682371823445
  0.9904484328434719  0.7322345313266823  0.7857580640422199
  0.1709195291445695  0.1232071785910733  0.8422504699179427
  0.9843374129450737  0.8457696609360070  0.5332710398521741
  0.7526552189095241  0.9256023830397453  0.1518762104635343
  0.0522450726859205  0.4322654701151265  0.8621736726406084
  0.4908188090098093  0.5522560380781201  0.2165772223397724
  0.3553699285187193  0.9914703727335308  0.4744030790841478
  0.4501836064017510  0.0439757479762051  0.1289863023462701
  0.5927255165592058  0.5292566320138050  0.8002152125113255
  0.0643971131488286  0.4221870797937868  0.5289797325493950
 
             NaN             NaN             NaN
             NaN             NaN             NaN
             NaN             NaN             NaN
             NaN             NaN             NaN
             NaN             NaN             NaN
             NaN             NaN             NaN
             NaN             NaN             NaN
             NaN             NaN             NaN
             NaN             NaN             NaN
             NaN             NaN             NaN
             NaN             NaN             NaN
             NaN             NaN             NaN
             NaN             NaN             NaN
             NaN             NaN             NaN
             NaN             NaN             NaN
             NaN             NaN             NaN
             NaN             NaN             NaN
             NaN             NaN             NaN
             NaN             NaN             NaN
             NaN             NaN             NaN
             NaN             NaN             NaN
             NaN             NaN             NaN
             NaN             NaN             NaN
             NaN             NaN             NaN
             NaN             NaN             NaN
             NaN             NaN             NaN
             NaN             NaN             NaN
             NaN             NaN             NaN
             NaN             NaN             NaN
             NaN             NaN             NaN
             NaN             NaN             NaN
             NaN             NaN             NaN
             NaN             NaN             NaN
             NaN             NaN             NaN
             NaN             NaN             NaN
             NaN             NaN             NaN
             NaN             NaN             NaN
             NaN             NaN             NaN
             NaN             NaN             NaN
             NaN             NaN             NaN
             NaN             NaN             NaN
             NaN             NaN             NaN
             NaN             NaN             NaN
             NaN             NaN             NaN
             NaN             NaN             NaN
             NaN             NaN             NaN
             NaN             NaN             NaN
             NaN             NaN             NaN
             NaN             NaN             NaN
             NaN             NaN             NaN
             NaN             NaN             NaN
             NaN             NaN             NaN
             NaN             NaN             NaN
             NaN             NaN             NaN
             NaN             NaN             NaN
             NaN             NaN             NaN
             NaN             NaN             NaN
             NaN             NaN             NaN
             NaN             NaN             NaN
             NaN             NaN             NaN
             NaN             NaN             NaN
             NaN             NaN             NaN
             NaN             NaN             NaN
