Ca8 Ni12 F42                            
   1.00000000000000     
     7.2803279999999999   -0.0167410000000000    0.0123510000000000
    -3.6788870000000000    6.3502109999999998   -0.0008330000000000
     0.0385100000000000    0.0164150000000000   18.2290069999999993
   Ca   Ni   F 
     8    12    42
Direct
  0.8961038491576646  0.9337980496490691  0.7980572734137691
  0.4637437140964916  0.8684816511406414  0.6534835623411467
  0.1755818000956027  0.6535812634925672  0.9759487036848169
  0.3508078579394825  0.5128295537049580  0.3229539337866713
  0.8367423907889335  0.0221243366503340  0.3446556722372147
  0.1627754925120284  0.1560303357110104  0.0008149623443012
  0.9883345256551636  0.7955797634859769  0.1703173784215086
  0.1908310105911319  0.1700195314242948  0.5139481412409510
  0.3317850999915286  0.0089122116615180  0.3316829589514210
  0.9863681831991702  0.3558135010233587  0.6679273295358955
  0.6740878074202951  0.6539090497279979  0.9946733406812480
  0.3488923471444202 -0.0036115582698798  0.8369488476410291
  0.9980014126144044  0.3150616326356850  0.1587161976797066
  0.6700588772226251  0.6823507655911744  0.4959610423541418
  0.4999047803046242  0.8195643248546725  0.1588357066387005
  0.1656679019967073  0.6700987699590869  0.4927367801514614
  0.3362402532851199  0.4963445228030140  0.8290908459489154
  0.8331978209783344  0.4795412627746490  0.8347337882070734
  0.6790672924521489  0.1892030412071887  0.4952254267842471
  0.4945112960163120  0.3134041150805730  0.1608709402137685
  0.7329540265214392  0.2149500925673182  0.6016889354458731
  0.7999596514405111  0.5058360030914534  0.9419914629835855
  0.4379178593401667  0.2648734677832635  0.2696829323913801
  0.2328901060263164  0.7379448550266879  0.3847087143497273
  0.4977351990887675  0.7569781593271940  0.0504882136770897
  0.2673162665253527  0.5213105991007669  0.7265075409246846
  0.8466652831213234  0.9225463871918791  0.9362770323321237
  0.0428385501060952  0.8906360102786097  0.2851741053679847
  0.1114872646111545  0.2071908425736064  0.6232680665948890
  0.9794099421969825  0.7933491900746962  0.0476780201887027
  0.7855896523420316  0.0691985112681914  0.7189649487911154
  0.1995627168027694  0.1748764986232689  0.3883816403240215
  0.5202382013474456  0.3877403800786126  0.0552469454603046
  0.6035182086256032  0.1342375061172543  0.3870011851970491
  0.8856772105572401  0.5017698602482048  0.7297840078370766
  0.3861143316956296  0.4885667158226001  0.9408583544934078
  0.1405615465420574  0.6108887484731576  0.6011676372866364
  0.5009195609521174  0.8733279922149506  0.2738318526264768
  0.7994483002708229  0.4235781829966362  0.1708516745923413
  0.5615194431599536  0.3747965276667345  0.5046195570330948
  0.6363347748269411  0.1949400549722517  0.8295308738235113
  0.4445606493684827  0.7942611400555857  0.8505724982749334
  0.3558658842680585  0.5526977468047684  0.4830303029789582
  0.1942622690038395  0.6232455534455295  0.1727564224789328
  0.0264970987425232  0.3019648039813793  0.2704120945165732
  0.6394208104214433  0.7315400607830813  0.5975795056275907
  0.3324650372231918  1.0037491056819579  0.9488379118135479
  0.2898129371937836  0.9628853633935780  0.7319492108048398
  0.6617569382478699  0.6793601138979155  0.3816693947749520
  0.0316584485057844  0.3596087465016689  0.0478015377300359
  0.1877553321874343  0.1967662034708807  0.1403218803406531
  0.7964598753246945  0.9967176262272487  0.4764451444247346
  0.0571094195559552  0.7702430041607436  0.8499576018835455
  0.2246393739385021  0.1872573894981289  0.8334398282788278
  0.9814943316963900  0.7933344770549502  0.4977061259128090
  0.8061999334254872  0.0035302433201403  0.1574434562869666
  0.0496979585379854  0.4100132905823555  0.8711157489800918
  0.5812150953656846  0.6108708530735357  0.1953305913041897
  0.3815108400138770  0.9674300955306355  0.5305628358805209
  0.3910410092857861  0.0111282908548042  0.1381991006298026
  0.6400618315180538  0.5929622909013307  0.8060797163631745
  0.9640955219719994  0.3855055028817192  0.4586610241177403
 
             NaN             NaN             NaN
             NaN             NaN             NaN
             NaN             NaN             NaN
             NaN             NaN             NaN
             NaN             NaN             NaN
             NaN             NaN             NaN
             NaN             NaN             NaN
             NaN             NaN             NaN
             NaN             NaN             NaN
             NaN             NaN             NaN
             NaN             NaN             NaN
             NaN             NaN             NaN
             NaN             NaN             NaN
             NaN             NaN             NaN
             NaN             NaN             NaN
             NaN             NaN             NaN
             NaN             NaN             NaN
             NaN             NaN             NaN
             NaN             NaN             NaN
             NaN             NaN             NaN
             NaN             NaN             NaN
             NaN             NaN             NaN
             NaN             NaN             NaN
             NaN             NaN             NaN
             NaN             NaN             NaN
             NaN             NaN             NaN
             NaN             NaN             NaN
             NaN             NaN             NaN
             NaN             NaN             NaN
             NaN             NaN             NaN
             NaN             NaN             NaN
             NaN             NaN             NaN
             NaN             NaN             NaN
             NaN             NaN             NaN
             NaN             NaN             NaN
             NaN             NaN             NaN
             NaN             NaN             NaN
             NaN             NaN             NaN
             NaN             NaN             NaN
             NaN             NaN             NaN
             NaN             NaN             NaN
             NaN             NaN             NaN
             NaN             NaN             NaN
             NaN             NaN             NaN
             NaN             NaN             NaN
             NaN             NaN             NaN
             NaN             NaN             NaN
             NaN             NaN             NaN
             NaN             NaN             NaN
             NaN             NaN             NaN
             NaN             NaN             NaN
             NaN             NaN             NaN
             NaN             NaN             NaN
             NaN             NaN             NaN
             NaN             NaN             NaN
             NaN             NaN             NaN
             NaN             NaN             NaN
             NaN             NaN             NaN
             NaN             NaN             NaN
             NaN             NaN             NaN
             NaN             NaN             NaN
             NaN             NaN             NaN
