Ca8 Ni12 F42
1.0
7.280328 -0.016741 0.012351
-3.678887 6.350211 -0.000833
0.038510 0.016415 18.229007
Ca Ni F
8 12 42
direct
0.874137 0.932277 0.783307 Ca
0.485842 0.852850 0.653199 Ca
0.162908 0.652800 0.977153 Ca
0.347823 0.508867 0.324355 Ca
0.840648 0.014321 0.346112 Ca
0.158672 0.159593 0.006825 Ca
0.984946 0.791075 0.173379 Ca
0.202203 0.165938 0.513893 Ca
0.339304 0.007949 0.333119 Ni
0.989070 0.342779 0.669019 Ni
0.664472 0.657480 -0.000517 Ni
0.330401 0.008134 0.830814 Ni
0.996189 0.314399 0.161560 Ni
0.681289 0.675440 0.494373 Ni
0.497621 0.819050 0.162043 Ni
0.174730 0.666418 0.494525 Ni
0.327526 0.502404 0.828816 Ni
0.821271 0.498558 0.828476 Ni
0.688158 0.182991 0.495159 Ni
0.494277 0.311868 0.162225 Ni
0.741091 0.192794 0.601001 F
0.812091 0.549842 0.937595 F
0.438850 0.263004 0.270765 F
0.242977 0.735982 0.386570 F
0.478564 0.745439 0.055466 F
0.263348 0.524910 0.725389 F
0.825061 0.943799 0.955776 F
0.048105 0.887604 0.287779 F
0.125891 0.202351 0.622671 F
0.975894 0.791703 0.052011 F
0.807310 0.057532 0.721027 F
0.205875 0.173677 0.389339 F
0.522682 0.382772 0.054876 F
0.613652 0.135388 0.387260 F
0.858844 0.476800 0.723193 F
0.375583 0.492473 0.942285 F
0.139310 0.611418 0.603124 F
0.506833 0.874397 0.275604 F
0.798172 0.421569 0.173869 F
0.571449 0.369341 0.504373 F
0.629752 0.203020 0.841813 F
0.422054 0.799444 0.850238 F
0.369366 0.555486 0.490742 F
0.193575 0.620961 0.180195 F
0.024693 0.293771 0.272342 F
0.668154 0.720345 0.598359 F
0.287783 0.991198 0.942137 F
0.345358 -0.007268 0.724366 F
0.660193 0.670241 0.381458 F
0.024942 0.363797 0.050989 F
0.188718 0.200617 0.141444 F
0.802377 0.988583 0.476357 F
0.025752 0.802830 0.823700 F
0.215323 0.200891 0.827108 F
0.991820 0.789981 0.493976 F
0.804881 0.002562 0.157603 F
0.043030 0.433360 0.867766 F
0.584621 0.611413 0.196138 F
0.389560 0.963141 0.530577 F
0.385553 0.007775 0.140241 F
0.623872 0.602553 0.802677 F
0.978477 0.379082 0.461017 F
