Na2 Ca2 V4 P2 S4 O24                    
   1.00000000000000     
     8.9564459999999997    0.3365010000000000    0.2641170000000000
     4.2419989999999999    7.9314689999999999    0.2971110000000000
     4.2187599999999996    2.6637940000000002    7.5057479999999996
   Ca   Na   V    P    S    O 
     2     2     4     2     4    24
Direct
  0.2639679879923365  0.6078305271127434  0.8684444730329571
  0.9467710149546980  0.0008117341207428  0.0760868042561097
  0.4118648367120645  0.1124067294783688  0.7502511860481381
  0.5427162310073563  0.6080651950969389  0.3577939823575191
  0.3580825997811128  0.3600120037366010  0.3536223971761375
  0.6628878375559019  0.6719457082800859  0.6165988768601017
  0.1543886564904744  0.1503418921074336  0.1379165043761865
  0.8440790655145074  0.8540875366272757  0.8492262321418313
  0.7535600624020159  0.0536787545656399  0.4405582234256796
  0.4390073908647090  0.7588391681583873  0.0287229296262825
  0.0538816904240113  0.4597407361256980  0.7446380560364586
  0.9759143311287728  0.5537202585186305  0.2441730976372560
  0.2511124283724864  0.9620291858855318  0.5422442328779189
  0.5573710840154846  0.2519008315545758  0.9439962294843125
  0.2301862560494914  0.4414311125539765  0.5908291982130894
  0.8003852720586637  0.5533199846431009  0.3958563612620041
  0.5727170975223804  0.2172638847518542  0.4509323541113968
  0.4126158459941037  0.7812269631215213  0.5544684990431942
  0.4342475265776415  0.5880777497368039  0.2001286080678624
  0.5779495591520222  0.4189010008628640  0.7772630394838470
  0.9030738082829380  0.1239583202159686  0.2629817684454206
  0.1026790950206816  0.9157141565791683  0.7246386155314638
  0.0715049850149795  0.2760487658963300  0.8965133078035242
  0.9466549251844701  0.7327330848036405  0.0817790345440055
  0.2511948845328675  0.9216158333375787  0.0572784220966272
  0.7321236367239765  0.0943446784007069  0.9245567426329917
  0.5097647548701141  0.2845515536499776  0.1089894858004744
  0.4608133314821109  0.7282453816676046  0.8613806100474808
  0.1115665232592102  0.5519947888214298  0.2916659292137769
  0.8962632951267340  0.5124934287957529  0.6973159296245302
  0.2922534436909088  0.1064070321760842  0.5313053686651915
  0.7463298050303538  0.9001907478613238  0.4103704308590345
  0.4040253515216182  0.2201582775858510  0.9521299524467358
  0.5914082362323714  0.8187935632210644  0.9909883425082099
  0.2018275203701854  0.0062186724218793  0.3897397082925626
  0.7940688786618080  0.9813765623455027  0.6142529899780703
  0.0531179543164981  0.4062366833044997  0.1715489372810711
  0.0331730771194027  0.5964111013736799  0.8088505279694923
 
             NaN             NaN             NaN
             NaN             NaN             NaN
             NaN             NaN             NaN
             NaN             NaN             NaN
             NaN             NaN             NaN
             NaN             NaN             NaN
             NaN             NaN             NaN
             NaN             NaN             NaN
             NaN             NaN             NaN
             NaN             NaN             NaN
             NaN             NaN             NaN
             NaN             NaN             NaN
             NaN             NaN             NaN
             NaN             NaN             NaN
             NaN             NaN             NaN
             NaN             NaN             NaN
             NaN             NaN             NaN
             NaN             NaN             NaN
             NaN             NaN             NaN
             NaN             NaN             NaN
             NaN             NaN             NaN
             NaN             NaN             NaN
             NaN             NaN             NaN
             NaN             NaN             NaN
             NaN             NaN             NaN
             NaN             NaN             NaN
             NaN             NaN             NaN
             NaN             NaN             NaN
             NaN             NaN             NaN
             NaN             NaN             NaN
             NaN             NaN             NaN
             NaN             NaN             NaN
             NaN             NaN             NaN
             NaN             NaN             NaN
             NaN             NaN             NaN
             NaN             NaN             NaN
             NaN             NaN             NaN
             NaN             NaN             NaN
