Na2 Ca2 V4 P2 S4 O24
1.0
8.956446 0.336501 0.264117
4.241999 7.931469 0.297111
4.218760 2.663794 7.505748
Ca Na V P S O
2 2 4 2 4 24
direct
0.291850 0.600454 0.831098 Ca
-0.046281 1.003874 0.070165 Ca
0.407625 0.102888 0.753150 Na
0.547048 0.563799 0.409095 Na
0.354334 0.362162 0.355317 V
0.656595 0.672314 0.623664 V
0.151473 0.151912 0.142565 V
0.844150 0.857410 0.853850 V
0.751819 0.055909 0.445841 P
0.442352 0.757442 0.039163 P
0.051692 0.463472 0.748132 S
0.966097 0.556229 0.249039 S
0.248528 0.963400 0.548633 S
0.548406 0.258488 0.941059 S
0.230239 0.437643 0.596218 O
0.787831 0.562524 0.398372 O
0.572949 0.224743 0.451827 O
0.406000 0.781075 0.561912 O
0.432789 0.590821 0.214966 O
0.572705 0.418809 0.766379 O
0.902644 0.119934 0.266534 O
0.098207 0.924658 0.731679 O
0.065403 0.281003 0.902299 O
0.943228 0.737025 0.087454 O
0.253914 0.921923 0.061849 O
0.724410 0.100934 0.935191 O
0.487331 0.312429 0.097157 O
0.465670 0.721120 0.874551 O
0.103718 0.544714 0.301217 O
0.895788 0.517718 0.697795 O
0.298678 0.104221 0.534025 O
0.735249 0.903953 0.424106 O
0.402840 0.214118 0.952043 O
0.594774 0.819719 -0.006561 O
0.194669 0.013139 0.397441 O
0.791303 0.991575 0.618026 O
1.034582 0.411152 0.177068 O
0.034811 0.601591 0.806817 O
