Ca1 Mn4 P6 O24
1.0
2.725866 6.909800 4.547766
0.457010 0.267073 8.694489
7.451348 0.266276 4.504292
Ca Mn P O
1 4 6 24
direct
0.497461 0.497551 0.497481 Ca
0.642892 0.642834 0.643012 Mn
0.145164 0.145157 0.145252 Mn
0.849845 0.849870 0.849745 Mn
0.352123 0.352181 0.352003 Mn
0.245050 0.529115 0.964598 P
0.030534 0.749990 0.465765 P
0.964430 0.245078 0.529171 P
0.465969 0.030518 0.749873 P
0.529001 0.964450 0.245170 P
0.749994 0.465838 0.030390 P
0.608067 0.752646 0.393027 O
0.315830 0.007685 0.963274 O
0.392833 0.608132 0.752689 O
0.963495 0.315817 0.007431 O
0.752539 0.392902 0.608193 O
0.007503 0.963350 0.315405 O
0.987450 0.031709 0.679478 O
0.602144 0.386979 0.242320 O
0.679151 0.987295 0.031777 O
0.242454 0.602068 0.386965 O
0.031566 0.679116 0.987514 O
0.387093 0.242344 0.601941 O
0.281280 0.327342 0.975032 O
0.875359 0.695897 0.490293 O
0.974407 0.280994 0.327734 O
0.490177 0.875196 0.696237 O
0.327387 0.974444 0.281383 O
0.696140 0.489762 0.875377 O
0.298653 0.505181 0.119793 O
0.020374 0.714226 0.667218 O
0.119803 0.298904 0.504627 O
0.667654 0.020294 0.713739 O
0.504670 0.119928 0.298675 O
0.713906 0.667608 0.019818 O
