Ca8 Mn12 F42
1.0
7.530400 -0.066016 -0.023082
-3.827432 6.696815 0.065610
-0.039699 0.167199 18.715998
Ca Mn F
8 12 42
direct
0.533158 0.387475 0.675921 Ca
0.157560 0.642707 0.995556 Ca
0.338597 0.496839 0.349076 Ca
0.841221 0.013779 0.326784 Ca
0.172741 0.153190 0.000455 Ca
0.830971 0.997810 0.834544 Ca
0.984514 0.776148 0.175068 Ca
0.170214 0.128199 0.509341 Ca
0.347877 0.998369 0.319528 Mn
0.004242 0.347795 0.664054 Mn
0.667551 0.663022 0.008261 Mn
0.344831 0.011743 0.839289 Mn
0.006485 0.309266 0.161679 Mn
0.665883 0.670191 0.497506 Mn
0.499789 0.815293 0.166379 Mn
0.167237 0.664986 0.494493 Mn
0.333999 0.507258 0.835599 Mn
0.841332 0.513178 0.835432 Mn
0.671594 0.174851 0.496518 Mn
0.482799 0.308796 0.168332 Mn
0.726874 0.258355 0.606273 F
0.818815 0.558065 0.945450 F
0.436680 0.300773 0.282491 F
0.226906 0.740057 0.388593 F
0.495270 0.785086 0.055678 F
0.258103 0.467202 0.731200 F
0.840351 0.944967 0.954326 F
0.042301 0.883976 0.286150 F
0.206960 0.252835 0.615159 F
0.990892 0.797172 0.055994 F
0.879609 0.108924 0.724078 F
0.146091 0.164167 0.392567 F
0.494528 0.363532 0.055517 F
0.617798 0.103708 0.377180 F
0.859793 0.470203 0.726917 F
0.389408 0.527749 0.948316 F
0.125184 0.571314 0.595079 F
0.479448 0.786708 0.280899 F
0.793498 0.403633 0.172340 F
0.535504 0.344580 0.487268 F
0.671657 0.209131 0.852129 F
0.476431 0.820287 0.834729 F
0.349614 0.541655 0.476757 F
0.182358 0.629061 0.149400 F
0.065702 0.336746 0.273703 F
0.638142 0.642146 0.600972 F
0.294173 0.959354 0.948306 F
0.373809 0.115621 0.742264 F
0.675815 0.708998 0.388691 F
0.034543 0.335348 0.046642 F
0.163179 0.145136 0.136575 F
0.800504 0.997083 0.500134 F
0.020343 0.820566 0.825498 F
0.185513 0.200448 0.869915 F
0.977679 0.780361 0.501426 F
0.802778 0.014421 0.198331 F
0.084549 0.503903 0.876934 F
0.627664 0.627500 0.169088 F
0.376457 0.960118 0.517493 F
0.382132 0.003010 0.197013 F
0.606177 0.549982 0.800010 F
0.945309 0.389766 0.464502 F
