Ca1 Ni12 F42                            
   1.00000000000000     
     7.0077819999999997   -0.0272050000000000    0.0046940000000000
    -3.5236410000000000    6.1168220000000000   -0.0235730000000000
    -0.1048240000000000   -0.0263980000000000   16.9016960000000012
   Ca   Ni   F 
     1    12    42
Direct
  0.8645069533675058  0.8040264816227832  0.6872771472409790
  0.2953011500361110  0.9963737243480553  0.3279860675030460
  0.6938927584623722  0.6912457152397952  0.0052381549042214
 -0.0093273184471759  0.3132288530195791  0.6663038705023535
  0.3392135203495797 -0.0055843085206560  0.8370084067430388
  0.6468006577630890  0.6500974900917478  0.4931496479762917
  0.9982834615614841  0.3444021637914257  0.1670808119911801
  0.6472325682996759  0.1513030438397319  0.4942227013339003
  0.4978560556887827  0.3443043901606539  0.1679962999632602
  0.8361476203074100  0.4908825527656090  0.8400228479608016
  0.3332666600327352  0.4923464134912424  0.8384592764637219
  0.1497599964147374  0.6499875082891469  0.4920743887999810
  0.4982899777265429  0.8445672688458100  0.1663361543025396
  0.5590128837376276  0.8217367211388960  0.0606577546702457
  0.2432493353829615  0.4361736832886713  0.7286986602095967
  0.1636630265889268  0.7405972720949016  0.3842675868766262
  0.4348437657510384  0.2624985458637973  0.2735745178588182
  0.8168092411742975  0.5596125381818123  0.9485936426145354
  0.7357904103108951  0.1871774310939804  0.6030207460493534
  0.8528235846230673  0.0917436425561777  0.7365291628978502
  0.1816133815775566  0.1085641388883675  0.3912359182756274
  0.9246440210389277  0.8124577476138405  0.0679446409988187
  0.0793954733309683  0.1456763028078860  0.6170663618241132
  0.0711046761064233  0.8893505116492242  0.2627216936991842
  0.8036343148476833  0.9130067844391652  0.9401163978763923
  0.1352039059588253  0.5543442355880664  0.6013223865950350
  0.4359134913396954  0.8693337000204846  0.2708407961133780
  0.4330844311288305  0.5504202606837507  0.9459082946303127
  0.8802035035800495  0.4684094205753180  0.7203175447722043
  0.5586962475056049  0.1170949478526487  0.3876342859492764
  0.5607001540247938  0.4275261671804730  0.0636672842088259
  0.3620843233755991  0.5655206760951904  0.4636021839781023
  0.2060510780584027  0.6437754801737434  0.1430830231744437
  0.4277394950828259  0.7948001831573707  0.8125473130513846
  0.6286262521171841  0.1936141788405908  0.8596418444954391
  0.5536466621247497  0.3603393436037567  0.5158545649091485
  0.7897907663910343  0.4350033393198717  0.1922015333123472
  0.7035941583781242  0.6172769845849565  0.3947166880054856
  0.9183661870396257  0.3054189535285164  0.0673211019773133
  0.3608662349648062  0.0669286809161503  0.7340117561872433
  0.3019978676538628  0.9101201251525334  0.9369822168091901
  0.5955989814180790  0.6868047094202236  0.5976799189160503
  0.0784473335154603  0.3834994051264770  0.2668584087619474
  0.9321928041060280  0.7299275604833818  0.5273516139553271
  0.7903346768441953  0.0449217903127360  0.1900937216272131
  0.2470115157462131  0.1902005584875896  0.8598078648358433
  0.0437004818951566  0.7916313865703127  0.8132495938072249
  0.7430820164823112  0.9421843015725135  0.4742267628455532
  0.2064943144740779  0.2535596240081168  0.1430975987550467
  0.6282479389102016  0.5648576172886718  0.7983016158296447
  0.9235535530786548  0.3607814449935686  0.4610343708313651
  0.4390659694698316  0.0626569456540565  0.1344646611564131
  0.3719090501758081  0.9375141179105011  0.5275420173108487
  0.5579197564212021  0.6274556902467943  0.1996929156160084
  0.0477327370564970  0.4222471114788942  0.8733780911145321
 
             NaN             NaN             NaN
             NaN             NaN             NaN
             NaN             NaN             NaN
             NaN             NaN             NaN
             NaN             NaN             NaN
             NaN             NaN             NaN
             NaN             NaN             NaN
             NaN             NaN             NaN
             NaN             NaN             NaN
             NaN             NaN             NaN
             NaN             NaN             NaN
             NaN             NaN             NaN
             NaN             NaN             NaN
             NaN             NaN             NaN
             NaN             NaN             NaN
             NaN             NaN             NaN
             NaN             NaN             NaN
             NaN             NaN             NaN
             NaN             NaN             NaN
             NaN             NaN             NaN
             NaN             NaN             NaN
             NaN             NaN             NaN
             NaN             NaN             NaN
             NaN             NaN             NaN
             NaN             NaN             NaN
             NaN             NaN             NaN
             NaN             NaN             NaN
             NaN             NaN             NaN
             NaN             NaN             NaN
             NaN             NaN             NaN
             NaN             NaN             NaN
             NaN             NaN             NaN
             NaN             NaN             NaN
             NaN             NaN             NaN
             NaN             NaN             NaN
             NaN             NaN             NaN
             NaN             NaN             NaN
             NaN             NaN             NaN
             NaN             NaN             NaN
             NaN             NaN             NaN
             NaN             NaN             NaN
             NaN             NaN             NaN
             NaN             NaN             NaN
             NaN             NaN             NaN
             NaN             NaN             NaN
             NaN             NaN             NaN
             NaN             NaN             NaN
             NaN             NaN             NaN
             NaN             NaN             NaN
             NaN             NaN             NaN
             NaN             NaN             NaN
             NaN             NaN             NaN
             NaN             NaN             NaN
             NaN             NaN             NaN
             NaN             NaN             NaN
