Ca1 Ni12 F42
1.0
7.007782 -0.027205 0.004694
-3.523641 6.116822 -0.023573
-0.104824 -0.026398 16.901696
Ca Ni F
1 12 42
direct
0.501249 0.673018 0.668792 Ca
0.298586 0.997927 0.329042 Ni
0.700677 0.696827 0.005611 Ni
0.002933 0.312081 0.666444 Ni
0.343252 1.000232 0.840211 Ni
0.657904 0.655812 0.492509 Ni
0.998689 0.344755 0.167318 Ni
0.657200 0.154375 0.491781 Ni
0.498913 0.345616 0.167741 Ni
0.846098 0.499743 0.838751 Ni
0.344355 0.497481 0.841826 Ni
0.155429 0.654253 0.494207 Ni
0.498600 0.845414 0.166728 Ni
0.564311 0.825694 0.061731 F
0.260862 0.450791 0.731223 F
0.174923 0.743275 0.386844 F
0.432361 0.261971 0.273020 F
0.825879 0.568505 0.946675 F
0.745837 0.189485 0.600964 F
0.867418 0.068159 0.724096 F
0.189801 0.111624 0.394014 F
0.929938 0.815312 0.068732 F
0.132983 0.203673 0.606979 F
0.068443 0.887215 0.266355 F
0.810055 0.920843 0.941552 F
0.140496 0.573496 0.607573 F
0.432232 0.866209 0.271057 F
0.434179 0.555066 0.947919 F
0.865735 0.433554 0.726261 F
0.566868 0.121780 0.385972 F
0.566222 0.431477 0.063206 F
0.365512 0.568417 0.468979 F
0.206476 0.643446 0.142377 F
0.438465 0.801407 0.816545 F
0.635657 0.205199 0.863250 F
0.565105 0.362101 0.515825 F
0.790555 0.435555 0.192569 F
0.700942 0.619636 0.392886 F
0.916763 0.303361 0.067821 F
0.387136 0.075039 0.735072 F
0.302398 0.921469 0.939899 F
0.613274 0.687840 0.597368 F
0.080405 0.385818 0.266844 F
0.946527 0.738555 0.520512 F
0.790525 0.046529 0.191671 F
0.245558 0.193893 0.859434 F
0.055571 0.791673 0.812470 F
0.752621 0.948816 0.473301 F
0.207187 0.254779 0.142622 F
0.624241 0.556752 0.802304 F
0.938932 0.372884 0.460624 F
0.438960 0.065260 0.134758 F
0.381424 0.933238 0.532169 F
0.558404 0.626144 0.199794 F
0.060050 0.432953 0.872363 F
