Ca4 Mn4 P6 O24                          
   1.00000000000000     
     2.6666960000000000    7.9777319999999996    4.5653040000000003
    -0.0845570000000000    0.3773000000000000    8.6981439999999992
     7.6852320000000001    0.3532970000000000    4.1957250000000004
   Ca   Mn   P    O 
     4     4     6    24
Direct
  0.2652536336337055  0.8336601123765466  0.6011386389499398
  0.8872697064926993  1.0017936106103418  0.0940412606547804
  0.3618906146339551  0.7271322053859685  0.0720965673213771
  0.1480760556798042  0.4000700330310857  0.7680043026647573
  0.6775774678972337  0.6417184253964489  0.6108882450503773
  0.1718538442641629  0.1367417885598565  0.1751936240928125
  0.8346055497465978  0.8725197540644025  0.8212493855516848
  0.3356322754925699  0.3077874082068696  0.3667419196240163
  0.2209046250322188  0.5343744276536139  0.9846455416256517
  0.0372198999801388  0.7707701109079768  0.4300183755878703
  0.9719111538769138  0.2351227301126727  0.5946833454599586
  0.4640693642021753  0.0424048414415431  0.7278837723115272
  0.5614869695782859  0.9068512480939612  0.2455477655336689
  0.7496418900149699  0.4883925242928707 -0.0079160981719708
  0.5739102203696813  0.7411988250639810  0.4259948592427577
  0.3013747224947670  0.0721537016178871  0.9092802736351923
  0.3238249094983643  0.5315522328545418  0.7793173721100606
  0.8864250093961673  0.2904845041058834  1.0215247831101575
  0.8204118171849453  0.4104590540818909  0.5464062503281022
  0.0820738711268870  0.9244353446038569  0.2430449568411135
  0.9080202025956373  0.0795737044466861  0.7721666690828295
  0.5967416863347359  0.5371199957041756  0.1622530351945707
  0.7336902762884830  0.8626961304580050  0.0809488807413260
  0.1989326744812493  0.5886165684715384  0.4154236044435881
  0.1233743264589291  0.7460496944579340  0.9757921466628151
  0.4232220669182820  0.2219561654597988  0.5715188824106432
  0.1067764310507915  0.4170744397031146  0.0656417269347927
  0.8699563544318859  0.7650015866692498  0.4537314432682339
  0.0933654342982214  0.1404445764900489  0.4369935627243741
  0.4741027233814885  0.8654660454192027  0.7058493000284138
  0.4000980812685219  0.9280195862570639  0.2275104389178960
  0.6663372990534981  0.5228006075859954  0.8570994364996639
  0.3342870917942556  0.4525814931731456  0.1033717976256807
  0.0233688131588672  0.8184304929296106  0.5906925447569937
  0.0948571020475919  0.2757464187251172  0.6240054570977484
  0.6277418582691511  0.0038227597795627  0.7494233776380346
  0.5456451447886107  0.0820480747598863  0.2676907597447107
  0.8600046578625875  0.6183492504743071  0.8817568187392123
 
             NaN             NaN             NaN
             NaN             NaN             NaN
             NaN             NaN             NaN
             NaN             NaN             NaN
             NaN             NaN             NaN
             NaN             NaN             NaN
             NaN             NaN             NaN
             NaN             NaN             NaN
             NaN             NaN             NaN
             NaN             NaN             NaN
             NaN             NaN             NaN
             NaN             NaN             NaN
             NaN             NaN             NaN
             NaN             NaN             NaN
             NaN             NaN             NaN
             NaN             NaN             NaN
             NaN             NaN             NaN
             NaN             NaN             NaN
             NaN             NaN             NaN
             NaN             NaN             NaN
             NaN             NaN             NaN
             NaN             NaN             NaN
             NaN             NaN             NaN
             NaN             NaN             NaN
             NaN             NaN             NaN
             NaN             NaN             NaN
             NaN             NaN             NaN
             NaN             NaN             NaN
             NaN             NaN             NaN
             NaN             NaN             NaN
             NaN             NaN             NaN
             NaN             NaN             NaN
             NaN             NaN             NaN
             NaN             NaN             NaN
             NaN             NaN             NaN
             NaN             NaN             NaN
             NaN             NaN             NaN
             NaN             NaN             NaN
