Ca4 Mn4 P6 O24
1.0
2.666696 7.977732 4.565304
-0.084557 0.377300 8.698144
7.685232 0.353297 4.195725
Ca Mn P O
4 4 6 24
direct
0.328121 0.755601 0.590649 Ca
0.916567 0.988349 0.073608 Ca
0.382474 0.730267 0.091163 Ca
0.128694 0.408215 0.765261 Ca
0.654743 0.652949 0.622014 Mn
0.173461 0.139076 0.167380 Mn
0.824114 0.879369 0.829455 Mn
0.329774 0.329250 0.365201 Mn
0.250136 0.538297 0.965898 P
0.035949 0.767342 0.433899 P
0.961619 0.242073 0.582926 P
0.450610 0.052490 0.732415 P
0.540723 0.918752 0.254177 P
0.750452 0.481985 0.004948 P
0.568870 0.745421 0.421464 O
0.282089 0.078908 0.910498 O
0.378709 0.548564 0.769288 O
0.893246 0.287661 -0.001080 O
0.797882 0.414102 0.569562 O
0.084619 0.918996 0.246919 O
0.918743 0.079140 0.762109 O
0.607285 0.490434 0.193305 O
0.711025 0.909125 0.087366 O
0.203133 0.585399 0.418743 O
0.118699 0.738806 0.958785 O
0.415349 0.237036 0.578720 O
0.167502 0.399363 0.021646 O
0.873729 0.756761 0.453104 O
0.049149 0.164758 0.417554 O
0.464733 0.885492 0.696529 O
0.398799 0.920703 0.214961 O
0.651793 0.557316 0.870787 O
0.328703 0.477655 0.109153 O
1.017958 0.804099 0.601448 O
0.100721 0.278460 0.590779 O
0.608158 0.007151 0.767016 O
0.479854 0.094787 0.303797 O
0.853788 0.611003 0.927888 O
