Ca8 Ti12 F42                            
   1.00000000000000     
     7.4480360000000001   -0.0407250000000000   -0.1278510000000000
    -3.7192129999999999    6.4176820000000001    0.0779620000000000
     0.1455030000000000    0.0638650000000000   18.8052260000000011
   Ca   Ti   F 
     8    12    42
Direct
  0.8503567212428377  0.0686818971928780  0.3427560638287257
  0.5091099627959182  0.3564168835206972  0.6732700873987665
  0.1710121069860796  0.1797768014315851  0.0073918868289067
  0.0140126386844272  0.8370823239288416  0.6704089413815840
  0.6645268956533144  0.1697200171314437  0.9963095916843376
  0.0040829317895677  0.8010545460910182  0.1642202960210712
  0.8237739889868515  0.0123318748277805  0.8211717436968382
  0.1902553882852125  0.1790678687392957  0.4953678573684278
  0.3349684764047050  0.9831834272778794  0.3354237025889590
  0.0000426540398170  0.3418127193287067  0.6457947459080704
  0.6739201252777622  0.6775998382677600  0.9853024373033726
  0.3761741992138335  0.0762192836053921  0.8293920259648435
  0.9710523969550435  0.3080960170155480  0.1634571294856528
  0.6938260733966589  0.6642179124460791  0.4997266249752997
  0.5264253884129649  0.8583458733971597  0.1609613030363667
  0.1593442410257850  0.6333444746057939  0.5080034638900746
  0.3497268282796622  0.4962854345290639  0.8276059068148384
  0.7771597201832361  0.4823066544360323  0.8276259556519867
  0.7229748605629961  0.1976838536651362  0.5115429183113560
  0.5267081557848204  0.3062000100681879  0.1622802575836453
  0.6868398058062187  0.1878101946472849  0.6195657865564262
  0.8051207032788072  0.5086063208695508  0.9421236492309656
  0.4516921327968357  0.2135782451846424  0.2646624811519285
  0.2182108595073649  0.7509167461750991  0.4034778283983496
  0.5644039110311869  0.8354312178109100  0.0512124692339313
  0.2709811520926145  0.4470230436459724  0.7168302075085881
  0.8472275033020518  1.0076281748082359  0.9472419143454873
  0.0764629326744215  0.8543309610651634  0.2763787443354665
  0.1775974728072520  0.1836509647171459  0.6127973682559059
  0.9439873044656873  0.8300837309735659  0.0481846657401452
  0.8887787536935621  0.0609241781152697  0.7051818303812718
  0.1655998460350132  0.1066774481587314  0.3820371717013151
  0.5409813086635115  0.3766998750860657  0.0494975190787366
  0.6110296703916159  0.1279626365681756  0.3996211169908637
  0.8547998333387284  0.4834185902789479  0.7087445574808825
  0.3558960675846252  0.4895276120026981  0.9438231685967052
  0.1669872004039481  0.6550365534374710  0.6188226482695923
  0.5263878267885819  0.9003127214005036  0.2754683943991720
  0.8279792554316487  0.4648148244641418  0.1995946550380410
  0.5505075619802668  0.3432680909692586  0.5203127447392383
  0.6667417338426355  0.1747792979613859  0.8719763821638539
  0.4285001813594602  0.8164826798528978  0.8182944736667391
  0.3812303754536497  0.5518587668003482  0.4979393959523728
  0.2058508598317218  0.6201095090659205  0.1553078750266871
  0.0365967421362081  0.3109568395382424  0.2654219466408179
  0.6921697625364059  0.6677431741157293  0.6102865185668929
  0.3387263713603099  0.0479554324771437  0.9430549364754989
  0.3268871742793880  0.0375135486355077  0.7225105372004843
  0.7298602298069435  0.6848344311997193  0.3999602344163344
  0.9724406978307671  0.3083975775823664  0.0529499945814856
  0.2113622048210203  0.2377500003065609  0.1351948843693626
  0.8051864163136139  0.9793314946396681  0.4933183814458343
 -0.0152349282313080  0.7997021314388257  0.7951900354386428
  0.1742740806715395  0.1787467690748927  0.8431257055770796
  0.0120674391320496  0.8064506356967438  0.5230469033005738
  0.8400074020532691  0.9938401032645789  0.1797778899077261
  0.0277910192338518  0.4194218962503005  0.8256783202477148
  0.5901592981428361  0.6101502587460819  0.1698859464313702
  0.4100703157559791  0.9416481826797742  0.5234415598884794
  0.3558999790230190  0.9992869264822315  0.1300618015221867
  0.6579299700439383  0.6770465675048647  0.8671771122418661
  0.9955910769144171  0.3477397961819538  0.4467748299311529
 
             NaN             NaN             NaN
             NaN             NaN             NaN
             NaN             NaN             NaN
             NaN             NaN             NaN
             NaN             NaN             NaN
             NaN             NaN             NaN
             NaN             NaN             NaN
             NaN             NaN             NaN
             NaN             NaN             NaN
             NaN             NaN             NaN
             NaN             NaN             NaN
             NaN             NaN             NaN
             NaN             NaN             NaN
             NaN             NaN             NaN
             NaN             NaN             NaN
             NaN             NaN             NaN
             NaN             NaN             NaN
             NaN             NaN             NaN
             NaN             NaN             NaN
             NaN             NaN             NaN
             NaN             NaN             NaN
             NaN             NaN             NaN
             NaN             NaN             NaN
             NaN             NaN             NaN
             NaN             NaN             NaN
             NaN             NaN             NaN
             NaN             NaN             NaN
             NaN             NaN             NaN
             NaN             NaN             NaN
             NaN             NaN             NaN
             NaN             NaN             NaN
             NaN             NaN             NaN
             NaN             NaN             NaN
             NaN             NaN             NaN
             NaN             NaN             NaN
             NaN             NaN             NaN
             NaN             NaN             NaN
             NaN             NaN             NaN
             NaN             NaN             NaN
             NaN             NaN             NaN
             NaN             NaN             NaN
             NaN             NaN             NaN
             NaN             NaN             NaN
             NaN             NaN             NaN
             NaN             NaN             NaN
             NaN             NaN             NaN
             NaN             NaN             NaN
             NaN             NaN             NaN
             NaN             NaN             NaN
             NaN             NaN             NaN
             NaN             NaN             NaN
             NaN             NaN             NaN
             NaN             NaN             NaN
             NaN             NaN             NaN
             NaN             NaN             NaN
             NaN             NaN             NaN
             NaN             NaN             NaN
             NaN             NaN             NaN
             NaN             NaN             NaN
             NaN             NaN             NaN
             NaN             NaN             NaN
             NaN             NaN             NaN
