Ca8 Ti12 F42
1.0
7.448036 -0.040725 -0.127851
-3.719213 6.417682 0.077962
0.145503 0.063865 18.805226
Ca Ti F
8 12 42
direct
0.859896 0.235161 0.329462 Ca
0.510543 0.347863 0.673847 Ca
0.163191 0.170952 0.000744 Ca
0.020516 0.836310 0.668229 Ca
0.655084 0.159579 0.996080 Ca
0.021924 0.814255 0.161842 Ca
0.819275 0.005985 0.823831 Ca
0.182984 0.186872 0.492195 Ca
0.352107 0.988287 0.333726 Ti
0.007727 0.336953 0.652786 Ti
0.670224 0.670660 0.986630 Ti
0.350920 0.047903 0.830014 Ti
0.980255 0.303403 0.166190 Ti
0.698374 0.667769 0.502983 Ti
0.520149 0.843511 0.160684 Ti
0.175973 0.658275 0.507138 Ti
0.347929 0.487011 0.829680 Ti
0.795146 0.488889 0.830291 Ti
0.702686 0.185953 0.503292 Ti
0.514520 0.303997 0.160364 Ti
0.713607 0.217264 0.612200 F
0.806373 0.499292 0.943770 F
0.486384 0.235150 0.265805 F
0.216300 0.747936 0.402355 F
0.563099 0.827762 0.051796 F
0.276992 0.444293 0.719181 F
0.830329 -0.000540 0.946903 F
0.069889 0.839563 0.277469 F
0.181606 0.183233 0.613034 F
0.945127 0.829802 0.047759 F
0.891284 0.049585 0.708666 F
0.200979 0.116268 0.382447 F
0.525868 0.366240 0.047349 F
0.629844 0.131083 0.393911 F
0.853536 0.485261 0.715558 F
0.354897 0.493470 0.944672 F
0.152823 0.642176 0.616397 F
0.487441 0.874325 0.268407 F
0.827259 0.462800 0.180045 F
0.558621 0.354126 0.506045 F
0.657708 0.174402 0.866454 F
0.433533 0.806951 0.816936 F
0.376851 0.550544 0.505285 F
0.206170 0.616127 0.154541 F
0.015250 0.314362 0.269521 F
0.697610 0.656675 0.613276 F
0.331945 0.023064 0.945139 F
0.337176 0.025488 0.718734 F
0.710184 0.679931 0.400365 F
0.961080 0.286013 0.055545 F
0.198497 0.209811 0.137438 F
0.813802 0.985436 0.505978 F
0.013393 0.811324 0.801260 F
0.166138 0.171487 0.860160 F
0.011927 0.806988 0.520906 F
0.832546 0.984369 0.184650 F
0.032369 0.415644 0.828207 F
0.577918 0.600675 0.171912 F
0.396669 0.969131 0.523545 F
0.369203 -0.000986 0.122718 F
0.661538 0.665957 0.866099 F
0.991827 0.368984 0.461640 F
