Ca8 Mn12 F42                            
   1.00000000000000     
     7.5635310000000002   -0.0564730000000000    0.0279230000000000
    -3.8354210000000002    6.6779919999999997    0.0431320000000000
     0.0851570000000000    0.1776880000000000   18.6815089999999984
   Ca   Mn   F 
     8    12    42
Direct
  0.6323517917619802  0.8369108228663187  0.7286645586336372
  0.1580255729272491  0.6361289169831814  0.9925663220821226
  0.3377004453725765  0.5020391991675923  0.3469828153012806
  0.5324986548692431  0.3293163319907579  0.6621405611640112
  0.8348797697488980  0.9929314579852666  0.3417405305581370
  0.1861130324560835  0.1650410581408222  0.9949585830653940
  0.9649174097204400  0.7714526805171418  0.1699289121593350
  0.1700567892443458  0.1402252015826780  0.5123159111374215
  0.3390929623344203  0.0259925968718531  0.3201329939088249
  0.0212611686408319  0.3697983786448443  0.6636642663956366
  0.6555958554376762  0.6745651519708746  0.0035606599681459
  0.3716803678439078  0.0196408706460810  0.8380797200103396
  0.0052087818127608  0.3188166529315085  0.1704852151213716
  0.6545329742867370  0.6740905943051541  0.5098995357723510
  0.5075268025186126  0.8187530152409391  0.1691685821909247
  0.1628754677743442  0.6744028819511719  0.4883154376463391
  0.2791666342471333  0.4724874940086467  0.8330390116157567
  0.8073331954105648  0.5370092807423494  0.8213225629312597
  0.6699273618346473  0.1819062943141547  0.4904854609081432
  0.4820162785794606  0.3008224193469065  0.1595919549296130
  0.7560873898534407  0.2228157170794573  0.6031408437961826
  0.7550252676106477  0.6013808135813790  0.9154489260346869
  0.4228921050479635  0.3172765787850773  0.2736313436701731
  0.2390886695046620  0.7489151267600900  0.3829660165666092
  0.4666710027412674  0.7657804602442130  0.0574752244178912
  0.2451511666602476  0.5545421066086832  0.7272786366044947
  0.8499135162129831  0.9600295383221715  0.9852393550088707
  0.0347057850101248  0.8874878533858448  0.2827940160852551
  0.2064930243734350  0.2446531801407726  0.6240430624137240
  0.9405833847651880  0.7004680534439630  0.0530758771526738
  0.9043611828302495  0.1424714876889116  0.7281137393950237
  0.1883170024399855  0.1523842508642437  0.3927928962582791
  0.5114722499242500  0.3836854459778367  0.0464803416977110
  0.6076912030802756  0.1130452110103948  0.3791652786300006
  0.8412329628605433  0.4683962008685642  0.7213170981467103
  0.3467046037796912  0.5031884742053239  0.9460810688755845
  0.1245083665776773  0.5753077460314390  0.5890942934540978
  0.5361480383174113  0.7870534529008693  0.2825359977456479
  0.7899250108174597  0.4037621531634762  0.1745453870969531
  0.5405887603086531  0.3556454311463115  0.5303186901020813
  0.6591891452824765  0.2590116921948258  0.8498138875963265
  0.4701347316768902  0.8047634296922788  0.8342018494287873
  0.3273658552588515  0.5103092124847373  0.4765990307386864
  0.1885939477822938  0.6352010158261261  0.1765803641948695
  0.0380133441145264  0.3030624099814201  0.2826758929436723
  0.6249876738007297  0.6728698572334764  0.6221339896020196
  0.2854847898158395  0.9487644180242349  0.9473069363691889
  0.4396194173755677  0.0421614419867190  0.7278644861612208
  0.6657473233692252  0.6794743087327051  0.3984020579775466
  0.0692626781404745  0.3534069402150838  0.0618628468662125
  0.1972417313900544  0.0874221716478421  0.1190741613242943
  0.8153973023969926  0.0103812685441359  0.4826294254418063
  0.8986233371719337  0.7998731352386358  0.7872728536094715
  0.2270385952378472  0.1887353052799545  0.8614899723342713
  0.9720090468655113  0.7914633595916385  0.5141105445415743
  0.8271631617560501  0.0114950659849688  0.1764759489404392
  0.0649367931470845  0.5462718817498873  0.8728023297758923
  0.6096939785281384  0.6146090163440082  0.1635744009957460
  0.3718572295309364  0.9662734642463097  0.5147119660612985
  0.4357021701177798  0.0269725565045027  0.2101357428732921
  0.5240866938456364  0.4886763888121046  0.7673961265644238
  0.9361432571453522  0.4102991252576774  0.4557319826889346
 
             NaN             NaN             NaN
             NaN             NaN             NaN
             NaN             NaN             NaN
             NaN             NaN             NaN
             NaN             NaN             NaN
             NaN             NaN             NaN
             NaN             NaN             NaN
             NaN             NaN             NaN
             NaN             NaN             NaN
             NaN             NaN             NaN
             NaN             NaN             NaN
             NaN             NaN             NaN
             NaN             NaN             NaN
             NaN             NaN             NaN
             NaN             NaN             NaN
             NaN             NaN             NaN
             NaN             NaN             NaN
             NaN             NaN             NaN
             NaN             NaN             NaN
             NaN             NaN             NaN
             NaN             NaN             NaN
             NaN             NaN             NaN
             NaN             NaN             NaN
             NaN             NaN             NaN
             NaN             NaN             NaN
             NaN             NaN             NaN
             NaN             NaN             NaN
             NaN             NaN             NaN
             NaN             NaN             NaN
             NaN             NaN             NaN
             NaN             NaN             NaN
             NaN             NaN             NaN
             NaN             NaN             NaN
             NaN             NaN             NaN
             NaN             NaN             NaN
             NaN             NaN             NaN
             NaN             NaN             NaN
             NaN             NaN             NaN
             NaN             NaN             NaN
             NaN             NaN             NaN
             NaN             NaN             NaN
             NaN             NaN             NaN
             NaN             NaN             NaN
             NaN             NaN             NaN
             NaN             NaN             NaN
             NaN             NaN             NaN
             NaN             NaN             NaN
             NaN             NaN             NaN
             NaN             NaN             NaN
             NaN             NaN             NaN
             NaN             NaN             NaN
             NaN             NaN             NaN
             NaN             NaN             NaN
             NaN             NaN             NaN
             NaN             NaN             NaN
             NaN             NaN             NaN
             NaN             NaN             NaN
             NaN             NaN             NaN
             NaN             NaN             NaN
             NaN             NaN             NaN
             NaN             NaN             NaN
             NaN             NaN             NaN
