Ca8 Mn12 F42                            
   1.00000000000000     
     7.5635310000000002   -0.0564730000000000    0.0279230000000000
    -3.8354210000000002    6.6779919999999997    0.0431320000000000
     0.0851570000000000    0.1776880000000000   18.6815089999999984
   Ca   Mn   F 
     8    12    42
Direct
  0.6359419095573957  0.8376947582826634  0.7289897457139555
  0.1582834122276358  0.6368997950222052  0.9923426848196818
  0.3375852871673466  0.5013794100080333  0.3464886328046348
  0.5304800256179280  0.3296548736080769  0.6617726989524925
  0.8349461776874496  0.9928755783488327  0.3409056130886296
  0.1853358938006225  0.1660706846957104  0.9943607708928548
  0.9655024132661613  0.7708548659924964  0.1696123397296141
  0.1680640815957490  0.1389820328788944  0.5117432791374714
  0.3407113030694885  0.0224993194007286  0.3194910332622314
  0.0191222207154274  0.3673709009405187  0.6647328744658246
  0.6562099799135603  0.6757175446862360  0.0030357589255933
  0.3696478517857268  0.0206271892461199  0.8373654310911827
  0.0056861540608724  0.3175139094573168  0.1692544983438454
  0.6532503399891236  0.6733332732657134  0.5094448795782537
  0.5074741953809683  0.8178934209362431  0.1685505125054827
  0.1617988588888591  0.6738566237649941  0.4878121562368996
  0.2778559147832902  0.4735876165618897  0.8327293891256560
  0.8032254759832808  0.5264778562685245  0.8227463014693430
  0.6682952831614927  0.1802568159597034  0.4903986724314727
  0.4820954202726759  0.3008885813328555  0.1590726890498007
  0.7544309270531195  0.2226997114691147  0.6032973806866592
  0.7547251614161290  0.6004986515413658  0.9149940441060282
  0.4220958809971670  0.3138994104196136  0.2735361696644708
  0.2373971435632186  0.7468199020661005  0.3823776230275708
  0.4671980157204876  0.7670168927826345  0.0570096055680322
  0.2436063608012388  0.5532456303598575  0.7267165112848400
  0.8498601625081561  0.9602316639928670  0.9840942775428932
  0.0354193812095422  0.8868015770169047  0.2824439657931515
  0.2046389752535342  0.2446337643824838  0.6235228689716080
  0.9406606009567183  0.7018329077269765  0.0528408244431185
  0.9045668845916155  0.1442471589991030  0.7280233133731465
  0.1845882831422469  0.1530618705899519  0.3925421543614531
  0.5104949455409298  0.3837323032009801  0.0464349823502692
  0.6074085112114220  0.1114766406542110  0.3788478682260525
  0.8397724711316685  0.4685383364248417  0.7208834364198364
  0.3473391914014468  0.5048340476800665  0.9455615338620056
  0.1239925767381162  0.5770855371872966  0.5881633830667866
  0.5333085154972107  0.7882432999519365  0.2823443510347804
  0.7891001230854512  0.4030899027020773  0.1739892940225849
  0.5389260310378626  0.3546586429261176  0.5301280068876202
  0.6573597313600543  0.2597261189123266  0.8489637578644894
  0.4701362489788839  0.8065153752045034  0.8333178692624533
  0.3266472386952109  0.5102073933500589  0.4763830784113463
  0.1884279983552388  0.6341250025704461  0.1755421133799912
  0.0385742330201386  0.3035519109066683  0.2818133583514602
  0.6252190351280681  0.6731603490197470  0.6223297833815373
  0.2847767794874134  0.9495571548669915  0.9467321484466751
  0.4339466732479614  0.0445984680989390  0.7277365304879728
  0.6649705144255074  0.6803235757977217  0.3977349093710837
  0.0680655327266805  0.3535081624928763  0.0610242911015184
  0.1952911664619161  0.0890482678934972  0.1190627402988815
  0.8135060146458047  1.0091363920394025  0.4839262958958900
  0.9047297539869842  0.8065188548083803  0.7871183465809219
  0.2252209617416716  0.1895591573654862  0.8612391595787434
  0.9708137052674313  0.7903595098795915  0.5132121223680471
  0.8264651514908152  1.0106284577975779  0.1768529426776603
  0.0643248767885148  0.5459623485945665  0.8727930848658613
  0.6100925059506339  0.6139068294654936  0.1644274204196145
  0.3697254784311608  0.9649698638540192  0.5142178136043152
  0.4337590938573014  0.0260318195994622  0.2083200336222463
  0.5247559173419021  0.4906113575779986  0.7674701105328660
  0.9339215765656095  0.4089369842001582  0.4559933130036842
 
             NaN             NaN             NaN
             NaN             NaN             NaN
             NaN             NaN             NaN
             NaN             NaN             NaN
             NaN             NaN             NaN
             NaN             NaN             NaN
             NaN             NaN             NaN
             NaN             NaN             NaN
             NaN             NaN             NaN
             NaN             NaN             NaN
             NaN             NaN             NaN
             NaN             NaN             NaN
             NaN             NaN             NaN
             NaN             NaN             NaN
             NaN             NaN             NaN
             NaN             NaN             NaN
             NaN             NaN             NaN
             NaN             NaN             NaN
             NaN             NaN             NaN
             NaN             NaN             NaN
             NaN             NaN             NaN
             NaN             NaN             NaN
             NaN             NaN             NaN
             NaN             NaN             NaN
             NaN             NaN             NaN
             NaN             NaN             NaN
             NaN             NaN             NaN
             NaN             NaN             NaN
             NaN             NaN             NaN
             NaN             NaN             NaN
             NaN             NaN             NaN
             NaN             NaN             NaN
             NaN             NaN             NaN
             NaN             NaN             NaN
             NaN             NaN             NaN
             NaN             NaN             NaN
             NaN             NaN             NaN
             NaN             NaN             NaN
             NaN             NaN             NaN
             NaN             NaN             NaN
             NaN             NaN             NaN
             NaN             NaN             NaN
             NaN             NaN             NaN
             NaN             NaN             NaN
             NaN             NaN             NaN
             NaN             NaN             NaN
             NaN             NaN             NaN
             NaN             NaN             NaN
             NaN             NaN             NaN
             NaN             NaN             NaN
             NaN             NaN             NaN
             NaN             NaN             NaN
             NaN             NaN             NaN
             NaN             NaN             NaN
             NaN             NaN             NaN
             NaN             NaN             NaN
             NaN             NaN             NaN
             NaN             NaN             NaN
             NaN             NaN             NaN
             NaN             NaN             NaN
             NaN             NaN             NaN
             NaN             NaN             NaN
