Ca8 Co16 O32
1.0
        8.4783983231         0.0000000000         0.0000000000
        0.0000000000         8.4783983231         0.0000000000
        0.0000000000         0.0000000000         8.4783983231
   Ca   Co    O
    7   16   32
Direct
     0.000000000         0.500000000         0.000000000
     0.250000000         0.750000000         0.250000000
     0.000000000         0.000000000         0.500000000
     0.250000000         0.250000000         0.750000000
     0.500000000         0.000000000         0.000000000
     0.750000000         0.250000000         0.250000000
     0.500000000         0.500000000         0.500000000
     0.125000000         0.125000000         0.125000000
     0.625000000         0.875000000         0.375000000
     0.875000000         0.875000000         0.125000000
     0.375000000         0.125000000         0.375000000
     0.125000000         0.625000000         0.625000000
     0.625000000         0.375000000         0.875000000
     0.875000000         0.375000000         0.625000000
     0.375000000         0.625000000         0.875000000
     0.625000000         0.125000000         0.625000000
     0.125000000         0.875000000         0.875000000
     0.375000000         0.875000000         0.625000000
     0.875000000         0.125000000         0.875000000
     0.625000000         0.625000000         0.125000000
     0.125000000         0.375000000         0.375000000
     0.375000000         0.375000000         0.125000000
     0.875000000         0.625000000         0.375000000
     0.103778668         0.896221340         0.103778668
     0.146221325         0.146221325         0.353778660
     0.353778660         0.353778660         0.353778660
     0.353778660         0.146221325         0.146221325
     0.396221340         0.896221340         0.396221340
     0.896221340         0.103778668         0.103778668
     0.146221325         0.353778660         0.146221325
     0.603778660         0.103778668         0.396221340
     0.103778668         0.396221340         0.603778660
     0.146221325         0.646221340         0.853778660
     0.353778660         0.853778660         0.853778660
     0.353778660         0.646221340         0.646221340
     0.396221340         0.396221340         0.896221340
     0.896221340         0.603778660         0.603778660
     0.146221325         0.853778660         0.646221340
     0.603778660         0.603778660         0.896221340
     0.603778660         0.896221340         0.603778660
     0.646221340         0.146221325         0.853778660
     0.853778660         0.353778660         0.853778660
     0.853778660         0.146221325         0.646221340
     0.896221340         0.896221340         0.896221340
     0.396221340         0.103778668         0.603778660
     0.646221340         0.353778660         0.646221340
     0.103778668         0.103778668         0.896221340
     0.603778660         0.396221340         0.103778668
     0.646221340         0.646221340         0.353778660
     0.853778660         0.853778660         0.353778660
     0.853778660         0.646221340         0.146221325
     0.896221340         0.396221340         0.396221340
     0.396221340         0.603778660         0.103778668
     0.646221340         0.853778660         0.146221325
     0.103778668         0.603778660         0.396221340
