Ca1 Mn12 F42                            
   1.00000000000000     
     7.3212169999999999   -0.0145450000000000   -0.0463340000000000
    -3.6711960000000001    6.4202990000000000   -0.0725370000000000
     0.1141780000000000   -0.2673550000000000   17.4426920000000010
   Ca   Mn   F 
     1    12    42
Direct
  0.7024916679705986  0.8984920970843747  0.7888757183036555
  0.3061225723256632  0.0111682281196552  0.3312453399246133
  0.6842201508634081  0.6734198930624532 -0.0005593305338306
  0.0299415730384428  0.3473345428694024  0.6584858185042748
  0.3216634065457964  0.9604015357835595  0.8387138069388235
  0.6604305249488872  0.6831019351923809  0.5004257544230230
  1.0014688820986490  0.3441460525205726  0.1673748061731559
  0.6612744591964842  0.1831401100022454  0.4956063257532103
  0.5036858027148360  0.3478448736620303  0.1696560454621379
  0.8331236090253756  0.4606951485058660  0.8368893810875686
  0.3177359515982112  0.4479573530426201  0.8421124590405040
  0.1608807830010605  0.6864726839526020  0.4980572027210438
  0.4980076642677655  0.8462898422600046  0.1663360262663771
  0.5415493931762443  0.7882473273744095  0.0616288597293098
  0.2539283783717702  0.4794107879507115  0.7377635954441947
  0.2056186104094520  0.7743934335519359  0.3889745667417653
  0.4339492571517702  0.2541265289399500  0.2731859299299728
  0.8032899230639792  0.5352663132187697  0.9388419580865774
  0.7693913931785664  0.2171779218597278  0.5961573080068135
  0.9365327729781112  0.0993101987859622  0.7098385210107964
  0.2030957025608659  0.1220993480350194  0.3934151980168972
  0.9161091133658331  0.8227949002720899  0.0513608203922170
  0.1738523170454198  0.2808398738693857  0.5961593953408002
  0.0936592529428048  0.8922362487194949  0.2683368293211139
  0.7574332434605917  0.8617787901992093  0.9220443642010440
  0.1165779248569302  0.5980618075559474  0.6080743784923690
  0.4563691629734168  0.9036741426750520  0.2707138169287725
  0.4187461798904034  0.4771391918752073  0.9458216100273229
  0.8578976191020423  0.4054575445945395  0.7291537125377872
  0.5661493832288677  0.1413224831616954  0.3920783570240245
  0.5864614865208543  0.4481710422314985  0.0681666632913680
  0.3673470925259453  0.6055969342153871  0.4864997538488521
  0.2099903866836917  0.6384761996444621  0.1547968186365469
  0.3848051617498937  0.7458972778582403  0.8622895018357076
  0.6208609615700517  0.1607525892305992  0.8541210374699295
  0.5886174064399852  0.3942520037449317  0.5171855624853282
  0.7852623660634753  0.4180543543806504  0.1902100364535465
  0.6779889647333111  0.6408886977079769  0.4014825751972695
  0.9408757861077253  0.3215126282309517  0.0680368095498675
  0.4182391731725085 -0.0657867883738603  0.7430028031986606
  0.2656915440985149  0.9863397503622726  0.9345790475480691
  0.6439179220512963  0.7247378458169335  0.6016679995564463
  0.0633224579967838  0.3674969824950786  0.2663545118606050
  0.9564221811877623  0.7689118603314219  0.5137297258008303
  0.7880083542679387  0.0522412308316123  0.1781986525972658
  0.2616834939901519  0.1672879587201254  0.8108191259382107
  0.0363435702828806  0.7574132826343439  0.8156088252397461
  0.7339036005157713  0.9700180764401302  0.4803614326153022
  0.2214311422496802  0.2739746004829452  0.1466942139424287
  0.6079203609863728  0.5516582918964829  0.8055619183344817
  0.9316168529042870  0.3992648799195174  0.4677167758342356
  0.4406218060689026  0.0528577696865177  0.1360701967174930
  0.3913622207700252  0.9750854733078240  0.5266853862610682
  0.5578559740996125  0.6420601533491370  0.1977165511001464
  0.0331807387285132  0.3599534424311752  0.8665140775075737
 
             NaN             NaN             NaN
             NaN             NaN             NaN
             NaN             NaN             NaN
             NaN             NaN             NaN
             NaN             NaN             NaN
             NaN             NaN             NaN
             NaN             NaN             NaN
             NaN             NaN             NaN
             NaN             NaN             NaN
             NaN             NaN             NaN
             NaN             NaN             NaN
             NaN             NaN             NaN
             NaN             NaN             NaN
             NaN             NaN             NaN
             NaN             NaN             NaN
             NaN             NaN             NaN
             NaN             NaN             NaN
             NaN             NaN             NaN
             NaN             NaN             NaN
             NaN             NaN             NaN
             NaN             NaN             NaN
             NaN             NaN             NaN
             NaN             NaN             NaN
             NaN             NaN             NaN
             NaN             NaN             NaN
             NaN             NaN             NaN
             NaN             NaN             NaN
             NaN             NaN             NaN
             NaN             NaN             NaN
             NaN             NaN             NaN
             NaN             NaN             NaN
             NaN             NaN             NaN
             NaN             NaN             NaN
             NaN             NaN             NaN
             NaN             NaN             NaN
             NaN             NaN             NaN
             NaN             NaN             NaN
             NaN             NaN             NaN
             NaN             NaN             NaN
             NaN             NaN             NaN
             NaN             NaN             NaN
             NaN             NaN             NaN
             NaN             NaN             NaN
             NaN             NaN             NaN
             NaN             NaN             NaN
             NaN             NaN             NaN
             NaN             NaN             NaN
             NaN             NaN             NaN
             NaN             NaN             NaN
             NaN             NaN             NaN
             NaN             NaN             NaN
             NaN             NaN             NaN
             NaN             NaN             NaN
             NaN             NaN             NaN
             NaN             NaN             NaN
