Ca1 Mn12 F42
1.0
7.321217 -0.014545 -0.046334
-3.671196 6.420299 -0.072537
0.114178 -0.267355 17.442692
Ca Mn F
1 12 42
direct
0.725546 -0.056069 0.772222 Ca
0.290324 1.000926 0.331899 Mn
0.695745 0.681224 0.008301 Mn
0.014841 0.319357 0.660775 Mn
0.357993 -0.002242 0.835451 Mn
0.652504 0.659642 0.495610 Mn
0.989937 0.339146 0.168798 Mn
0.649974 0.160376 0.494697 Mn
0.490667 0.340233 0.169230 Mn
0.858783 0.497053 0.835834 Mn
0.360248 0.498526 0.835804 Mn
0.152083 0.659080 0.496314 Mn
0.488406 0.839628 0.169283 Mn
0.548311 0.795360 0.067600 F
0.260847 0.446921 0.731475 F
0.186452 0.763387 0.392736 F
0.428761 0.246030 0.272245 F
0.810730 0.555183 0.940169 F
0.750404 0.201410 0.597698 F
0.880192 0.080397 0.716377 F
0.192633 0.117892 0.394274 F
0.909197 0.785033 0.071659 F
0.127357 0.214638 0.598860 F
0.075317 0.886439 0.269488 F
0.806652 0.907055 0.948632 F
0.134964 0.572952 0.606018 F
0.431065 0.880066 0.271889 F
0.446804 0.551887 0.941832 F
0.895497 0.443905 0.727623 F
0.553455 0.120960 0.392153 F
0.553327 0.429117 0.064900 F
0.359958 0.582184 0.477433 F
0.205248 0.634617 0.151489 F
0.457971 0.796882 0.818917 F
0.657725 0.200439 0.847793 F
0.573069 0.368960 0.512849 F
0.772859 0.419410 0.187784 F
0.684256 0.625415 0.397426 F
0.925978 0.303856 0.069516 F
0.379887 0.034858 0.733152 F
0.337456 0.954794 0.934609 F
0.620429 0.695339 0.596612 F
0.054937 0.375082 0.267678 F
0.943518 0.735479 0.516844 F
0.772625 0.044599 0.186120 F
0.263217 0.200415 0.846767 F
0.059807 0.794554 0.821641 F
0.726250 0.949387 0.479798 F
0.208004 0.259917 0.149679 F
0.644382 0.569771 0.805384 F
0.925471 0.376808 0.467203 F
0.434611 0.056232 0.139126 F
0.380935 0.941472 0.531521 F
0.543408 0.621825 0.198602 F
0.073998 0.428733 0.864533 F
