K27 Cr27 O54
1.0
   9.1329002378999995    0.0000000000000000    0.0000000000000000
  -4.5664501191000006    7.9093236165000000    0.0000000000000000
   0.0000000000000000    0.0000000000000000   17.8922004699999988
K Cr K O
1 27 25 54
direct
   0.4444444476666666    0.8888888956666666    0.6666666870000000 K
   0.0000000000000000    0.0000000000000000    0.5000000000000000 Cr
   0.0000000000000000    0.3333333333333333    0.5000000000000000 Cr
   0.0000000000000000    0.6666666666666665    0.5000000000000000 Cr
   0.3333333333333333    0.0000000000000000    0.5000000000000000 Cr
   0.3333333333333333    0.3333333333333333    0.5000000000000000 Cr
   0.3333333333333333    0.6666666666666665    0.5000000000000000 Cr
   0.6666666666666666    0.0000000000000000    0.5000000000000000 Cr
   0.6666666666666666    0.3333333333333333    0.5000000000000000 Cr
   0.6666666666666666    0.6666666666666665    0.5000000000000000 Cr
   0.2222222290000000    0.1111111143333333    0.8333333130000001 Cr
   0.2222222290000000    0.4444444476666666    0.8333333130000001 Cr
   0.2222222290000000    0.7777777809999998    0.8333333130000001 Cr
   0.5555555623333334    0.1111111143333333    0.8333333130000001 Cr
   0.5555555623333334    0.4444444476666666    0.8333333130000001 Cr
   0.5555555623333333    0.7777777809999998    0.8333333130000001 Cr
   0.8888888956666667    0.1111111143333333    0.8333333130000001 Cr
   0.8888888956666666    0.4444444476666666    0.8333333130000001 Cr
   0.8888888956666666    0.7777777809999998    0.8333333130000001 Cr
   0.1111111143333334    0.2222222290000000    0.1666666720000000 Cr
   0.1111111143333333    0.5555555623333333    0.1666666720000000 Cr
   0.1111111143333333    0.8888888956666666    0.1666666720000000 Cr
   0.4444444476666666    0.2222222290000000    0.1666666720000000 Cr
   0.4444444476666666    0.5555555623333333    0.1666666720000000 Cr
   0.4444444476666666    0.8888888956666666    0.1666666720000000 Cr
   0.7777777809999999    0.2222222290000000    0.1666666720000000 Cr
   0.7777777809999998    0.5555555623333333    0.1666666720000000 Cr
   0.7777777809999999    0.8888888956666666    0.1666666720000000 Cr
   0.0000000000000000    0.0000000000000000    0.0000000000000000 K
   0.0000000000000000    0.3333333333333333    0.0000000000000000 K
   0.0000000000000000    0.6666666666666665    0.0000000000000000 K
   0.3333333333333333    0.0000000000000000    0.0000000000000000 K
   0.3333333333333333    0.3333333333333333    0.0000000000000000 K
   0.3333333333333333    0.6666666666666665    0.0000000000000000 K
   0.6666666666666666    0.0000000000000000    0.0000000000000000 K
   0.6666666666666666    0.3333333333333333    0.0000000000000000 K
   0.6666666666666666    0.6666666666666665    0.0000000000000000 K
   0.2222222290000000    0.1111111143333333    0.3333333430000000 K
   0.2222222290000000    0.4444444476666666    0.3333333430000000 K
   0.2222222290000000    0.7777777809999998    0.3333333430000000 K
   0.5555555623333334    0.1111111143333333    0.3333333430000000 K
   0.5555555623333334    0.4444444476666666    0.3333333430000000 K
   0.5555555623333333    0.7777777809999998    0.3333333430000000 K
   0.8888888956666667    0.1111111143333333    0.3333333430000000 K
   0.8888888956666666    0.4444444476666666    0.3333333430000000 K
   0.8888888956666666    0.7777777809999998    0.3333333430000000 K
   0.1111111143333334    0.2222222290000000    0.6666666870000000 K
   0.1111111143333333    0.5555555623333333    0.6666666870000000 K
   0.1111111143333333    0.8888888956666666    0.6666666870000000 K
   0.4444444476666666    0.2222222290000000    0.6666666870000000 K
   0.7777777809999999    0.2222222290000000    0.6666666870000000 K
   0.7777777809999998    0.5555555623333333    0.6666666870000000 K
   0.7777777809999999    0.8888888956666666    0.6666666870000000 K
   0.0000000000000000    0.0000000000000000    0.2240999940000000 O
   0.0000000000000000    0.3333333333333333    0.2240999940000000 O
   0.0000000000000000    0.6666666666666665    0.2240999940000000 O
   0.3333333333333333    0.0000000000000000    0.2240999940000000 O
   0.3333333333333333    0.3333333333333333    0.2240999940000000 O
   0.3333333333333333    0.6666666666666665    0.2240999940000000 O
   0.6666666666666666    0.0000000000000000    0.2240999940000000 O
   0.6666666666666666    0.3333333333333333    0.2240999940000000 O
   0.6666666666666666    0.6666666666666665    0.2240999940000000 O
   0.0000000000000000    0.0000000000000000    0.7759000060000000 O
   0.0000000000000000    0.3333333333333333    0.7759000060000000 O
   0.0000000000000000    0.6666666666666665    0.7759000060000000 O
   0.3333333333333333    0.0000000000000000    0.7759000060000000 O
   0.3333333333333333    0.3333333333333333    0.7759000060000000 O
   0.3333333333333333    0.6666666666666665    0.7759000060000000 O
   0.6666666666666666    0.0000000000000000    0.7759000060000000 O
   0.6666666666666666    0.3333333333333333    0.7759000060000000 O
   0.6666666666666666    0.6666666666666665    0.7759000060000000 O
   0.2222222290000000    0.1111111143333333    0.5574333070000000 O
   0.2222222290000000    0.4444444476666666    0.5574333070000000 O
   0.2222222290000000    0.7777777809999998    0.5574333070000000 O
   0.5555555623333334    0.1111111143333333    0.5574333070000000 O
   0.5555555623333334    0.4444444476666666    0.5574333070000000 O
   0.5555555623333333    0.7777777809999998    0.5574333070000000 O
   0.8888888956666667    0.1111111143333333    0.5574333070000000 O
   0.8888888956666666    0.4444444476666666    0.5574333070000000 O
   0.8888888956666666    0.7777777809999998    0.5574333070000000 O
   0.2222222290000000    0.1111111143333333    0.1092333420000000 O
   0.2222222290000000    0.4444444476666666    0.1092333420000000 O
   0.2222222290000000    0.7777777809999998    0.1092333420000000 O
   0.5555555623333334    0.1111111143333333    0.1092333420000000 O
   0.5555555623333334    0.4444444476666666    0.1092333420000000 O
   0.5555555623333333    0.7777777809999998    0.1092333420000000 O
   0.8888888956666667    0.1111111143333333    0.1092333420000000 O
   0.8888888956666666    0.4444444476666666    0.1092333420000000 O
   0.8888888956666666    0.7777777809999998    0.1092333420000000 O
   0.1111111143333334    0.2222222290000000    0.8907666800000000 O
   0.1111111143333333    0.5555555623333333    0.8907666800000000 O
   0.1111111143333333    0.8888888956666666    0.8907666800000000 O
   0.4444444476666666    0.2222222290000000    0.8907666800000000 O
   0.4444444476666666    0.5555555623333333    0.8907666800000000 O
   0.4444444476666666    0.8888888956666666    0.8907666800000000 O
   0.7777777809999999    0.2222222290000000    0.8907666800000000 O
   0.7777777809999998    0.5555555623333333    0.8907666800000000 O
   0.7777777809999999    0.8888888956666666    0.8907666800000000 O
   0.1111111143333334    0.2222222290000000    0.4425666630000001 O
   0.1111111143333333    0.5555555623333333    0.4425666630000001 O
   0.1111111143333333    0.8888888956666666    0.4425666630000001 O
   0.4444444476666666    0.2222222290000000    0.4425666630000001 O
   0.4444444476666666    0.5555555623333333    0.4425666630000001 O
   0.4444444476666666    0.8888888956666666    0.4425666630000001 O
   0.7777777809999999    0.2222222290000000    0.4425666630000001 O
   0.7777777809999998    0.5555555623333333    0.4425666630000001 O
   0.7777777809999999    0.8888888956666666    0.4425666630000001 O
