Ca9 V12 F42                             
   1.00000000000000     
     7.5333329999999998    0.0182460000000000    0.0249400000000000
    -3.7568109999999999    6.4592450000000001   -0.0852530000000000
    -0.5506140000000000    0.4688390000000000   18.4688359999999996
   Ca   V    F 
     9    12    42
Direct
  0.1818471894641873  0.5349599166991432  0.3500688494500944
  0.5009840419360043  0.8522670509044356  0.6667367983549692
  0.6153419069098038  0.1317807898394145  0.9879513395202718
  0.9836848883857006  0.8140455600721221  0.6668948291534230
  0.8137144149675841 -0.0233993766026066  0.3331709594013324
  0.1374033407001851  0.6143505118326444  0.0039286771779557
  0.9695261773401965  0.8039291806959528  0.1656696599832016
  0.8605008785450425  0.0018490688010105  0.8392355458548394
  0.2102615421395622  0.1744296965928427  0.5034769700837404
  0.3362775328991627  0.0410031667175163  0.3307979759087886
  1.0095328002577177  0.3236364334005076  0.6691563998388007
  0.6483339457891460  0.6417999220626658  0.9992268681728149
  0.3304910340792948  0.9879924936895241  0.8245798702959702
  0.9598875692146711  0.2904130703870730  0.1620448889296499
  0.6805004480782694  0.6817998178618535  0.4983500528976371
  0.4668200583428013  0.7975042339563874  0.1681115697680915
  0.1790042048224552  0.6798304991054169  0.5097279838325010
  0.3360853198467325  0.4989452520582777  0.8319952828314224
  0.8292898279926854  0.4893251973308904  0.8289884547275320
  0.6894476258941760  0.1797275850655390  0.4944013225003692
  0.4695132644804456  0.3023318149760907  0.1587267631477577
  0.7500356160345412  0.1816972143248499  0.6053361909784879
  0.8030163291045116  0.5071758956620489  0.9408692055257737
  0.4324953361121036  0.2881359099800949  0.2665112926311233
  0.2232160056676896  0.8083957118381837  0.4090546619152637
  0.4990163642461262  0.8076804482597235  0.0547879465757064
  0.2906746620914226  0.4799606667680792  0.7217717715422017
  0.7583344552625088  0.9320882685467570  0.9499573727405253
  0.0404623081664343  0.8517179273494991  0.2851975445376080
  0.1175430805049786  0.1555028468094052  0.6156029780145753
  0.9391434077751543  0.7509680255860665  0.0479596965329600
  0.8421130556330509  0.0170272347320707  0.7184187644945573
  0.1671258111514838  0.1692955055212433  0.3823859612983945
  0.5241402697424392  0.3418771651094811  0.0458419970105524
  0.6251549592857812  0.1348348323989439  0.3816012408952890
  0.8726954182131570  0.4757641111808769  0.7188564164812467
  0.3672145338870147  0.5378874730351065  0.9451938526093383
  0.1545826493581610  0.6189981272807477  0.6194711597132394
  0.4241375092645399  0.8135267794804064  0.2841057032805084
  0.7846431171890046  0.4235539812413065  0.1781299512425178
  0.5608845670944503  0.3636080142715186  0.5093067818023447
  0.6357227262120939  0.1779585356161326  0.8569585074098143
  0.4639996746024165  0.8145221369910707  0.8011935152213887
  0.3558654020695075  0.5504550684811176  0.4810120550981227
  0.1649232081611921  0.5985615379476702  0.1347116458901977
 -0.0049148482231929  0.3013783779135411  0.2747470690628684
  0.6679649119997457  0.7126598175889164  0.6115122594058277
  0.3025128013195428  0.9117960524521425  0.9363036862030195
  0.3192986334681343  0.9913841578386832  0.7094700698268518
  0.6805781551076228  0.6760738542373231  0.3886312668562557
  0.9152088382388067  0.2913072943243937  0.0485612541249155
  0.1489057121475024  0.1735346966511671  0.1440644127234128
  0.8259295434392875  1.0034732273903302  0.4757464357770386
  0.0193484669293101  0.8040594584715433  0.8017460031274727
  0.2194200660099576  0.1818914530211132  0.8470488888703102
  0.9947909932576051  0.8021631429480724  0.5321421060178445
  0.7724690411673971 -0.0172536420603614  0.2007464960789092
  0.0254807673309627  0.3785905452934170  0.8521907437884310
  0.5942377496638054  0.6165472382734661  0.1603823618159458
  0.4071336347890541  0.9609333256823853  0.5443019856026394
  0.3447344492321741 -0.0155620086406450  0.1585826957997612
  0.6435119863314811  0.6133217972952807  0.8192032000948281
  0.9691804597270381  0.4148335241488659  0.4538595656847365
 
             NaN             NaN             NaN
             NaN             NaN             NaN
             NaN             NaN             NaN
             NaN             NaN             NaN
             NaN             NaN             NaN
             NaN             NaN             NaN
             NaN             NaN             NaN
             NaN             NaN             NaN
             NaN             NaN             NaN
             NaN             NaN             NaN
             NaN             NaN             NaN
             NaN             NaN             NaN
             NaN             NaN             NaN
             NaN             NaN             NaN
             NaN             NaN             NaN
             NaN             NaN             NaN
             NaN             NaN             NaN
             NaN             NaN             NaN
             NaN             NaN             NaN
             NaN             NaN             NaN
             NaN             NaN             NaN
             NaN             NaN             NaN
             NaN             NaN             NaN
             NaN             NaN             NaN
             NaN             NaN             NaN
             NaN             NaN             NaN
             NaN             NaN             NaN
             NaN             NaN             NaN
             NaN             NaN             NaN
             NaN             NaN             NaN
             NaN             NaN             NaN
             NaN             NaN             NaN
             NaN             NaN             NaN
             NaN             NaN             NaN
             NaN             NaN             NaN
             NaN             NaN             NaN
             NaN             NaN             NaN
             NaN             NaN             NaN
             NaN             NaN             NaN
             NaN             NaN             NaN
             NaN             NaN             NaN
             NaN             NaN             NaN
             NaN             NaN             NaN
             NaN             NaN             NaN
             NaN             NaN             NaN
             NaN             NaN             NaN
             NaN             NaN             NaN
             NaN             NaN             NaN
             NaN             NaN             NaN
             NaN             NaN             NaN
             NaN             NaN             NaN
             NaN             NaN             NaN
             NaN             NaN             NaN
             NaN             NaN             NaN
             NaN             NaN             NaN
             NaN             NaN             NaN
             NaN             NaN             NaN
             NaN             NaN             NaN
             NaN             NaN             NaN
             NaN             NaN             NaN
             NaN             NaN             NaN
             NaN             NaN             NaN
             NaN             NaN             NaN
