Ca9 V12 F42
1.0
7.533333 0.018246 0.024940
-3.756811 6.459245 -0.085253
-0.550614 0.468839 18.468836
Ca V F
9 12 42
direct
1.150101 0.499376 0.337952 Ca
0.486858 0.828275 0.667360 Ca
0.624963 0.145522 0.989499 Ca
0.979117 0.804130 0.663505 Ca
0.827529 1.002892 0.334559 Ca
0.145163 0.624220 0.005233 Ca
0.988268 0.833356 0.164457 Ca
0.857432 1.000837 0.838036 Ca
0.201156 0.174005 0.504506 Ca
0.325383 1.003362 0.331200 V
0.994816 0.313425 0.667062 V
0.654294 0.652045 0.999873 V
0.328874 0.986887 0.824621 V
0.983631 0.321448 0.168486 V
0.676639 0.669959 0.496486 V
0.486445 0.823767 0.167564 V
0.169447 0.663334 0.498967 V
0.332966 0.497151 0.831868 V
0.827966 0.489077 0.828869 V
0.676013 0.161058 0.496890 V
0.488140 0.324775 0.165192 V
0.725207 0.155662 0.607905 F
0.804958 0.510650 0.941599 F
0.450452 0.288752 0.276533 F
0.199085 0.729163 0.389900 F
0.509813 0.815028 0.054429 F
0.277501 0.478126 0.720936 F
0.764645 0.942477 0.950194 F
0.028556 0.869563 0.282769 F
0.104265 0.142738 0.616377 F
0.945459 0.762633 0.048090 F
0.834048 0.007533 0.718085 F
0.175605 0.137964 0.386714 F
0.538535 0.360035 0.051644 F
0.613263 0.127315 0.384016 F
0.868624 0.473310 0.718139 F
0.371992 0.543209 0.945229 F
0.144872 0.607983 0.612678 F
0.463034 0.843261 0.279427 F
0.803307 0.448791 0.187693 F
0.556639 0.353676 0.510050 F
0.634197 0.179001 0.856831 F
0.461903 0.812299 0.802735 F
0.358824 0.540020 0.480495 F
0.180911 0.626133 0.136020 F
1.020572 0.326398 0.282588 F
0.662261 0.701265 0.609266 F
0.310341 0.922619 0.938069 F
0.311520 0.976695 0.708765 F
0.683469 0.673794 0.383057 F
0.921163 0.307221 0.054291 F
0.172691 0.205357 0.147874 F
0.810405 0.983900 0.472775 F
0.017572 0.802217 0.802934 F
0.216675 0.180857 0.845546 F
0.986780 0.788318 0.526331 F
0.793639 0.014187 0.198228 F
0.024400 0.379474 0.853676 F
0.611207 0.638383 0.169459 F
0.383346 0.952517 0.532872 F
0.362527 0.009853 0.157709 F
0.638922 0.608590 0.816662 F
0.962695 0.374446 0.465756 F
