Ca1 Mn12 F42
1.0
7.374575 -0.025393 -0.087887
-3.708750 6.342641 0.060603
0.019343 0.039365 17.499624
Ca Mn F
1 12 42
direct
0.365432 0.505518 0.334997 Ca
0.297262 0.996899 0.333182 Mn
0.712410 0.704234 0.995204 Mn
-0.002405 0.296361 0.671383 Mn
0.351918 0.000429 0.833214 Mn
0.642316 0.654383 0.505376 Mn
0.999086 0.340962 0.159676 Mn
0.641823 0.152763 0.504786 Mn
0.506406 0.346823 0.157965 Mn
0.852674 0.499236 0.833108 Mn
0.353759 0.501755 0.833634 Mn
0.138858 0.652238 0.508088 Mn
0.498338 0.843120 0.162812 Mn
0.582036 0.805122 0.058716 F
0.253594 0.440646 0.731623 F
0.172114 0.753333 0.404501 F
0.445376 0.257792 0.264043 F
0.819879 0.561264 0.935282 F
0.755336 0.192040 0.609033 F
0.886804 0.082112 0.733592 F
0.215939 0.163692 0.382760 F
0.929768 0.803475 0.055985 F
0.109735 0.196233 0.609968 F
0.076082 0.882534 0.272819 F
0.812871 0.918276 0.933114 F
0.119582 0.557126 0.610470 F
0.413618 0.847307 0.280886 F
0.449754 0.561416 0.935959 F
0.881821 0.437550 0.730976 F
0.544585 0.117005 0.395854 F
0.569708 0.442711 0.056068 F
0.350847 0.569353 0.473995 F
0.213340 0.634061 0.141669 F
0.430724 0.788673 0.816201 F
0.643993 0.213617 0.851942 F
0.560809 0.362569 0.519632 F
0.791540 0.426140 0.178809 F
0.669808 0.623772 0.400980 F
0.928692 0.300357 0.063199 F
0.383897 0.063747 0.734623 F
0.319775 0.936864 0.931782 F
0.593601 0.678418 0.601044 F
0.076586 0.383689 0.262513 F
0.924684 0.729074 0.524564 F
0.784125 0.053088 0.185880 F
0.275441 0.213772 0.850337 F
0.060320 0.785951 0.814542 F
0.720616 0.941782 0.485331 F
0.218483 0.269867 0.143840 F
0.619891 0.557700 0.803462 F
0.919733 0.376214 0.473459 F
0.444949 0.056846 0.134014 F
0.368733 0.928562 0.535037 F
0.542757 0.623923 0.206526 F
0.086176 0.444604 0.863610 F
