Ca16 V32 O64                            
   1.00000000000000     
    10.0856186235097347    0.3987190413870794    0.0059655905669685
     2.3034390219497021   10.9979207207327470    3.1344122624357267
    -0.0279441727526782    0.0216466848739877   11.6153772069629468
   Ca   V    O 
     1    32    64
Direct
  0.6995282927359238  0.3412356101321061  0.2923075514037409
  0.1645227370540606  0.1142985199289737  0.4680567550648819
  0.1391543735326676  0.1059288314735387  0.9835124817450922
  0.1652371455708707  0.5951147176229192  0.4774816565526316
  0.1618875936865086  0.6000177606370859  0.9750565409488785
  0.6664447167084299  0.0671336364856294  0.4965602521810034
  0.6592513320101367  0.0943967705074920  0.9905819236464882
  0.6676604764910651  0.5721630266046410  0.4952356549048689
  0.6610365569735668  0.5846471117559782  0.9748652856364841
  0.1626476290454202  0.1137338349974991  0.2286398273957566
  0.1445239893345937  0.1030434862808092  0.7200957637602921
  0.1620996597036247  0.6106717118576306  0.2229475827846273
  0.1518633387056361  0.5889724307864430  0.7277991290991275
  0.6467214763893989  0.0900705804288683  0.2283641436318328
  0.6348548277226131  0.1272694836054810  0.7377986958368991
  0.6448027292732224  0.6359455478590905  0.2174848613341016
  0.6410153001974150  0.6086371562105091  0.7314509056410807
  0.4031646034452215  0.1022887954607660  0.1008237361319625
  0.4030066098594087  0.0947080886493590  0.6076238275634405
  0.3988192617081145  0.5930870838221075  0.0985440201524043
  0.3980977767958018  0.6002160071113628  0.6045535746867097
  0.9000587414958312  0.1023952699728680  0.0966691841648784
  0.9070667323707420  0.0935331739744562  0.6075357844877844
  0.9170344043448068  0.5698383778921158  0.0985952412150340
  0.9109619340261076  0.5959419081719575  0.6057922649877103
  0.4118924529112382  0.0978284097177583  0.3488327633371877
  0.3841563906800305  0.0797896453476201  0.8595926251161704
  0.3994277180837555  0.5947060299324015  0.3557934703680400
  0.3982862893323614  0.5934890163842554  0.8520479675443283
  0.9219589291957646  0.0580073491777969  0.3626342070886914
  0.9084960444648187  0.0956332087302684  0.8519364340901654
  0.9169535827042091  0.5718306397521804  0.3648577364339383
  0.9030261078499794  0.5985917990575687  0.8447134783018051
  0.0146817342094531  0.4939960570378808  0.0031544591320664
  0.0158408028735747  0.4947540810798191  0.5044955353449337
  0.0105480240474804  0.0039779398523618  0.0043492068467717
  0.0168683695465288 -0.0026049998614226  0.5022771724060581
  0.5144639347913011  0.5043388716717636  0.0057751788135189
  0.5154153295037277  0.5051518241842331  0.4950165528508452
  0.5142865883920454  0.0136849367765060 -0.0051771392644571
  0.5161953844549984  0.0019496356500015  0.5006358255469565
  0.0151051120726121  0.0023225165260774  0.2515801333615752
  0.0138746778794972  0.0005864983918749  0.7523083814290569
 -0.0016775322008225  0.4973489311333932  0.2528176417232661
  0.0127686166378785  0.4963517531468112  0.7536899271729732
  0.5096040020359807 -0.0002002016505252  0.2510511805685244
  0.5157311918210591  0.0158736889478767  0.7575448756486066
  0.5119541983968091  0.5122326317344712  0.2487001991065657
  0.5129549980556714  0.5080119472657587  0.7517043215000748
  0.0398627789287442  0.1954005693697129  0.0819605532362065
  0.0414818319598028  0.1902386028629861  0.5713011065190811
  0.0425748925143863  0.6769649824772577  0.0809524716378078
  0.0471459672650108  0.6845673899301112  0.5754995271660845
  0.5483837246979613  0.1937778092440906  0.0791790199938036
  0.5583267646570836  0.1801837378073004  0.5779376393024879
  0.5483207382616762  0.6920205484476138  0.0762923321343537
  0.5526968751193777  0.6818559171970154  0.5749262482478675
  0.0377219040641375  0.1856340383806314  0.3290467496295675
  0.0451641547593900  0.1907233323978783  0.8254879669336010
  0.0445690173891694  0.6771278072485866  0.3281407663998401
  0.0447714707924083  0.6835865439218626  0.8287171806106758
  0.5586612480061147  0.1856373186903959  0.3309475444192411
  0.5446647359229715  0.2090525762110002  0.8238257286878869
  0.5469137841265058  0.6926416892651553  0.3233613177024742
  0.5458556482574279  0.6918438695562908  0.8288141616153932
  0.2631119560313977  0.5037148195756002  0.1294147986063961
  0.2677441833262858  0.4997813580880011  0.6263822232794157
  0.2573272598780404  0.0160844556411640  0.1271197532920063
  0.2628100070377206  0.0104188989509607  0.6221036666665387
  0.7560571102231216  0.5022623355160731  0.1341164690098772
  0.7646009004050567  0.4946306194298701  0.6298992240830501
  0.7641714322003059 -0.0006827137501889  0.1288948819785991
  0.7721811067247125 -0.0072653138285635  0.6255572489856113
  0.2640521694277179  0.5028089820051368  0.3728679319313901
  0.2651150431209586  0.5000308617172122  0.8801496370050321
  0.2634729386487620  0.0125105450120664  0.3760446258409879
  0.2574262493999667 -0.0013787945110278  0.8806357694266865
  0.7539801551683247  0.5004109516342514  0.3713991158687221
  0.7595239198257031  0.5020692479507249  0.8750285296757503
  0.7680168752803361 -0.0076107093886873  0.3794226001493957
  0.7529448820616471  0.0185769438926392  0.8722023114833315
  0.2992427235845459  0.1966082526506057  0.4509960309732336
  0.2927801556618278  0.1858988759815785  0.9490114164408363
  0.2953857968792989  0.6933918236713975  0.4504108349563353
  0.2938206258508755  0.6939433943670341  0.9491758201430267
  0.8007003725376870  0.1728483535590929  0.4516223084102694
  0.7958971985433212  0.1921518166420573  0.9529066042475274
  0.7995236817924442  0.6711157782759839  0.4542099218609408
  0.8009674130502868  0.6760873613003247  0.9576532489249534
  0.2987017133142615  0.2004004642568221  0.1989897251144040
  0.2957761168995091  0.1845210079224050  0.7080381636370064
  0.2933282079120112  0.6962809060631892  0.1985229431297234
  0.2945594602880285  0.6874470314460949  0.7023856747899614
  0.7976917086958201  0.1791243260629458  0.2094660127475684
  0.7935125054863105  0.1881430804819559  0.6961111670725519
  0.7922762015963238  0.6877593097117433  0.2043659948767496
  0.7944417055039960  0.6875978644471985  0.6973692517303625
 
  0.00000000E+00  0.00000000E+00  0.00000000E+00
  0.00000000E+00  0.00000000E+00  0.00000000E+00
  0.00000000E+00  0.00000000E+00  0.00000000E+00
  0.00000000E+00  0.00000000E+00  0.00000000E+00
  0.00000000E+00  0.00000000E+00  0.00000000E+00
  0.00000000E+00  0.00000000E+00  0.00000000E+00
  0.00000000E+00  0.00000000E+00  0.00000000E+00
  0.00000000E+00  0.00000000E+00  0.00000000E+00
  0.00000000E+00  0.00000000E+00  0.00000000E+00
  0.00000000E+00  0.00000000E+00  0.00000000E+00
  0.00000000E+00  0.00000000E+00  0.00000000E+00
  0.00000000E+00  0.00000000E+00  0.00000000E+00
  0.00000000E+00  0.00000000E+00  0.00000000E+00
  0.00000000E+00  0.00000000E+00  0.00000000E+00
  0.00000000E+00  0.00000000E+00  0.00000000E+00
  0.00000000E+00  0.00000000E+00  0.00000000E+00
  0.00000000E+00  0.00000000E+00  0.00000000E+00
  0.00000000E+00  0.00000000E+00  0.00000000E+00
  0.00000000E+00  0.00000000E+00  0.00000000E+00
  0.00000000E+00  0.00000000E+00  0.00000000E+00
  0.00000000E+00  0.00000000E+00  0.00000000E+00
  0.00000000E+00  0.00000000E+00  0.00000000E+00
  0.00000000E+00  0.00000000E+00  0.00000000E+00
  0.00000000E+00  0.00000000E+00  0.00000000E+00
  0.00000000E+00  0.00000000E+00  0.00000000E+00
  0.00000000E+00  0.00000000E+00  0.00000000E+00
  0.00000000E+00  0.00000000E+00  0.00000000E+00
  0.00000000E+00  0.00000000E+00  0.00000000E+00
  0.00000000E+00  0.00000000E+00  0.00000000E+00
  0.00000000E+00  0.00000000E+00  0.00000000E+00
  0.00000000E+00  0.00000000E+00  0.00000000E+00
  0.00000000E+00  0.00000000E+00  0.00000000E+00
  0.00000000E+00  0.00000000E+00  0.00000000E+00
  0.00000000E+00  0.00000000E+00  0.00000000E+00
  0.00000000E+00  0.00000000E+00  0.00000000E+00
  0.00000000E+00  0.00000000E+00  0.00000000E+00
  0.00000000E+00  0.00000000E+00  0.00000000E+00
  0.00000000E+00  0.00000000E+00  0.00000000E+00
  0.00000000E+00  0.00000000E+00  0.00000000E+00
  0.00000000E+00  0.00000000E+00  0.00000000E+00
  0.00000000E+00  0.00000000E+00  0.00000000E+00
  0.00000000E+00  0.00000000E+00  0.00000000E+00
  0.00000000E+00  0.00000000E+00  0.00000000E+00
  0.00000000E+00  0.00000000E+00  0.00000000E+00
  0.00000000E+00  0.00000000E+00  0.00000000E+00
  0.00000000E+00  0.00000000E+00  0.00000000E+00
  0.00000000E+00  0.00000000E+00  0.00000000E+00
  0.00000000E+00  0.00000000E+00  0.00000000E+00
  0.00000000E+00  0.00000000E+00  0.00000000E+00
  0.00000000E+00  0.00000000E+00  0.00000000E+00
  0.00000000E+00  0.00000000E+00  0.00000000E+00
  0.00000000E+00  0.00000000E+00  0.00000000E+00
  0.00000000E+00  0.00000000E+00  0.00000000E+00
  0.00000000E+00  0.00000000E+00  0.00000000E+00
  0.00000000E+00  0.00000000E+00  0.00000000E+00
  0.00000000E+00  0.00000000E+00  0.00000000E+00
  0.00000000E+00  0.00000000E+00  0.00000000E+00
  0.00000000E+00  0.00000000E+00  0.00000000E+00
  0.00000000E+00  0.00000000E+00  0.00000000E+00
  0.00000000E+00  0.00000000E+00  0.00000000E+00
  0.00000000E+00  0.00000000E+00  0.00000000E+00
  0.00000000E+00  0.00000000E+00  0.00000000E+00
  0.00000000E+00  0.00000000E+00  0.00000000E+00
  0.00000000E+00  0.00000000E+00  0.00000000E+00
  0.00000000E+00  0.00000000E+00  0.00000000E+00
  0.00000000E+00  0.00000000E+00  0.00000000E+00
  0.00000000E+00  0.00000000E+00  0.00000000E+00
  0.00000000E+00  0.00000000E+00  0.00000000E+00
  0.00000000E+00  0.00000000E+00  0.00000000E+00
  0.00000000E+00  0.00000000E+00  0.00000000E+00
  0.00000000E+00  0.00000000E+00  0.00000000E+00
  0.00000000E+00  0.00000000E+00  0.00000000E+00
  0.00000000E+00  0.00000000E+00  0.00000000E+00
  0.00000000E+00  0.00000000E+00  0.00000000E+00
  0.00000000E+00  0.00000000E+00  0.00000000E+00
  0.00000000E+00  0.00000000E+00  0.00000000E+00
  0.00000000E+00  0.00000000E+00  0.00000000E+00
  0.00000000E+00  0.00000000E+00  0.00000000E+00
  0.00000000E+00  0.00000000E+00  0.00000000E+00
  0.00000000E+00  0.00000000E+00  0.00000000E+00
  0.00000000E+00  0.00000000E+00  0.00000000E+00
  0.00000000E+00  0.00000000E+00  0.00000000E+00
  0.00000000E+00  0.00000000E+00  0.00000000E+00
  0.00000000E+00  0.00000000E+00  0.00000000E+00
  0.00000000E+00  0.00000000E+00  0.00000000E+00
  0.00000000E+00  0.00000000E+00  0.00000000E+00
  0.00000000E+00  0.00000000E+00  0.00000000E+00
  0.00000000E+00  0.00000000E+00  0.00000000E+00
  0.00000000E+00  0.00000000E+00  0.00000000E+00
  0.00000000E+00  0.00000000E+00  0.00000000E+00
  0.00000000E+00  0.00000000E+00  0.00000000E+00
  0.00000000E+00  0.00000000E+00  0.00000000E+00
  0.00000000E+00  0.00000000E+00  0.00000000E+00
  0.00000000E+00  0.00000000E+00  0.00000000E+00
  0.00000000E+00  0.00000000E+00  0.00000000E+00
  0.00000000E+00  0.00000000E+00  0.00000000E+00
  0.00000000E+00  0.00000000E+00  0.00000000E+00
