Li24 Mn24 B24 O72
1.0
16.540840 0.000000 0.000000
-8.270420 14.324788 0.000000
0.000000 0.000000 6.389366
Li Mn B O
23 24 24 72
direct
0.684048 0.658849 0.000000 Li
0.184048 0.158849 0.000000 Li
0.184048 0.158849 0.500000 Li
0.184048 0.658849 0.000000 Li
0.184048 0.658849 0.500000 Li
0.684048 0.158849 0.000000 Li
0.684048 0.158849 0.500000 Li
0.474801 0.315952 0.000000 Li
0.474801 0.315952 0.500000 Li
0.474801 0.815952 0.000000 Li
0.474801 0.815952 0.500000 Li
0.974801 0.315952 0.000000 Li
0.974801 0.315952 0.500000 Li
0.974801 0.815952 0.000000 Li
0.974801 0.815952 0.500000 Li
0.341151 0.025199 0.000000 Li
0.341151 0.025199 0.500000 Li
0.341151 0.525199 0.000000 Li
0.341151 0.525199 0.500000 Li
0.841151 0.025199 0.000000 Li
0.841151 0.025199 0.500000 Li
0.841151 0.525199 0.000000 Li
0.841151 0.525199 0.500000 Li
0.152774 0.480866 0.250000 Mn
0.152774 0.480866 0.750000 Mn
0.152774 0.980866 0.250000 Mn
0.152774 0.980866 0.750000 Mn
0.652774 0.480866 0.250000 Mn
0.652774 0.480866 0.750000 Mn
0.652774 0.980866 0.250000 Mn
0.652774 0.980866 0.750000 Mn
0.328092 0.347226 0.250000 Mn
0.328092 0.347226 0.750000 Mn
0.328092 0.847226 0.250000 Mn
0.328092 0.847226 0.750000 Mn
0.828092 0.347226 0.250000 Mn
0.828092 0.347226 0.750000 Mn
0.828092 0.847226 0.250000 Mn
0.828092 0.847226 0.750000 Mn
0.019134 0.171907 0.250000 Mn
0.019134 0.171907 0.750000 Mn
0.019134 0.671907 0.250000 Mn
0.019134 0.671907 0.750000 Mn
0.519134 0.171907 0.250000 Mn
0.519134 0.171907 0.750000 Mn
0.519134 0.671907 0.250000 Mn
0.519134 0.671907 0.750000 Mn
0.000000 0.000000 0.000000 B
0.000000 0.000000 0.500000 B
0.000000 0.500000 0.000000 B
0.000000 0.500000 0.500000 B
0.500000 0.000000 0.000000 B
0.500000 0.000000 0.500000 B
0.500000 0.500000 0.000000 B
0.500000 0.500000 0.500000 B
0.333333 0.166667 0.250000 B
0.333333 0.166667 0.750000 B
0.333333 0.666667 0.250000 B
0.333333 0.666667 0.750000 B
0.833333 0.166667 0.250000 B
0.833333 0.166667 0.750000 B
0.833333 0.666667 0.250000 B
0.833333 0.666667 0.750000 B
0.166667 0.333333 0.000000 B
0.166667 0.333333 0.500000 B
0.166667 0.833333 0.000000 B
0.166667 0.833333 0.500000 B
0.666667 0.333333 0.000000 B
0.666667 0.333333 0.500000 B
0.666667 0.833333 0.000000 B
0.666667 0.833333 0.500000 B
0.403161 0.447304 0.000000 O
0.403161 0.447304 0.500000 O
0.403161 0.947304 0.000000 O
0.403161 0.947304 0.500000 O
0.903161 0.447304 0.000000 O
0.903161 0.447304 0.500000 O
0.903161 0.947304 0.000000 O
0.903161 0.947304 0.500000 O
0.052697 0.455857 0.000000 O
0.052697 0.455857 0.500000 O
0.052697 0.955857 0.000000 O
0.052697 0.955857 0.500000 O
0.552697 0.455857 0.000000 O
0.552697 0.455857 0.500000 O
0.552697 0.955857 0.000000 O
0.552697 0.955857 0.500000 O
0.044143 0.096840 0.000000 O
0.044143 0.096840 0.500000 O
0.044143 0.596840 0.000000 O
0.044143 0.596840 0.500000 O
0.544143 0.096840 0.000000 O
0.544143 0.096840 0.500000 O
0.544143 0.596840 0.000000 O
0.544143 0.596840 0.500000 O
0.390841 0.263464 0.250000 O
0.390841 0.263464 0.750000 O
0.390841 0.763464 0.250000 O
0.390841 0.763464 0.750000 O
0.890841 0.263464 0.250000 O
0.890841 0.263464 0.750000 O
0.890841 0.763464 0.250000 O
0.890841 0.763464 0.750000 O
0.236536 0.127376 0.250000 O
0.236536 0.127376 0.750000 O
0.236536 0.627376 0.250000 O
0.236536 0.627376 0.750000 O
0.736536 0.127376 0.250000 O
0.736536 0.127376 0.750000 O
0.736536 0.627376 0.250000 O
0.736536 0.627376 0.750000 O
0.372624 0.109159 0.250000 O
0.372624 0.109159 0.750000 O
0.372624 0.609159 0.250000 O
0.372624 0.609159 0.750000 O
0.872624 0.109159 0.250000 O
0.872624 0.109159 0.750000 O
0.872624 0.609159 0.250000 O
0.872624 0.609159 0.750000 O
0.207293 0.430155 0.000000 O
0.207293 0.430155 0.500000 O
0.207293 0.930155 0.000000 O
0.207293 0.930155 0.500000 O
0.707293 0.430155 0.000000 O
0.707293 0.430155 0.500000 O
0.707293 0.930155 0.000000 O
0.707293 0.930155 0.500000 O
0.069845 0.277138 0.000000 O
0.069845 0.277138 0.500000 O
0.069845 0.777138 0.000000 O
0.069845 0.777138 0.500000 O
0.569845 0.277138 0.000000 O
0.569845 0.277138 0.500000 O
0.569845 0.777138 0.000000 O
0.569845 0.777138 0.500000 O
0.222862 0.292707 0.000000 O
0.222862 0.292707 0.500000 O
0.222862 0.792707 0.000000 O
0.222862 0.792707 0.500000 O
0.722862 0.292707 0.000000 O
0.722862 0.292707 0.500000 O
0.722862 0.792707 0.000000 O
0.722862 0.792707 0.500000 O
