Ca64 Mn128 O256
1.0
  12.6309780000000007    0.0000000000000000    0.0000000000000000
   0.0000000000000000   19.3414439999999992    0.0000000000000000
   0.0000000000000000    0.0000000000000000   20.0281279999999988
Ca Mn O
63 128 256
direct
   0.2951925000000000    0.3750000000000001    0.6756640000000000 Ca
   0.7951925000000000    0.3750000000000001    0.6756640000000000 Ca
   0.0451900000000001    0.3750000000000001    0.6756640000000000 Ca
   0.0451925000000000    0.3750000000000001    0.1756640000000000 Ca
   0.5451925000000000    0.3750000000000001    0.1756640000000000 Ca
   0.0451925000000000    0.8750000000000001    0.1756640000000000 Ca
   0.5451925000000000    0.8750000000000001    0.1756640000000000 Ca
   0.0451925000000000    0.8750000000000001    0.6756640000000000 Ca
   0.5451925000000000    0.8750000000000001    0.6756640000000000 Ca
   0.2951925000000000    0.3750000000000001    0.1756640000000000 Ca
   0.7951925000000000    0.3750000000000001    0.1756640000000000 Ca
   0.2951925000000000    0.8750000000000001    0.1756640000000000 Ca
   0.7951925000000000    0.8750000000000001    0.1756640000000000 Ca
   0.2951925000000000    0.8750000000000001    0.6756640000000000 Ca
   0.7951925000000000    0.8750000000000001    0.6756640000000000 Ca
   0.0451925000000000    0.1250000000000000    0.0743360000000000 Ca
   0.5451925000000000    0.1250000000000000    0.0743360000000000 Ca
   0.0451925000000000    0.1250000000000000    0.5743360000000000 Ca
   0.5451925000000000    0.1250000000000000    0.5743360000000000 Ca
   0.0451925000000000    0.6250000000000000    0.0743360000000000 Ca
   0.5451925000000000    0.6250000000000000    0.0743360000000000 Ca
   0.0451925000000000    0.6250000000000000    0.5743360000000000 Ca
   0.5451925000000000    0.6250000000000000    0.5743360000000000 Ca
   0.2951925000000000    0.1250000000000000    0.0743360000000000 Ca
   0.7951925000000000    0.1250000000000000    0.0743360000000000 Ca
   0.2951925000000000    0.1250000000000000    0.5743360000000000 Ca
   0.7951925000000000    0.1250000000000000    0.5743360000000000 Ca
   0.2951925000000000    0.6250000000000000    0.0743360000000000 Ca
   0.7951925000000000    0.6250000000000000    0.0743360000000000 Ca
   0.2951925000000000    0.6250000000000000    0.5743360000000000 Ca
   0.7951925000000000    0.6250000000000000    0.5743360000000000 Ca
   0.2048075000000000    0.3750000000000001    0.4256640000000000 Ca
   0.7048075000000000    0.3750000000000001    0.4256640000000000 Ca
   0.2048075000000000    0.3750000000000001    0.9256640000000000 Ca
   0.7048075000000000    0.3750000000000001    0.9256640000000000 Ca
   0.2048075000000000    0.8750000000000001    0.4256640000000000 Ca
   0.7048075000000000    0.8750000000000001    0.4256640000000000 Ca
   0.2048075000000000    0.8750000000000001    0.9256640000000000 Ca
   0.7048075000000000    0.8750000000000001    0.9256640000000000 Ca
   0.4548074999999999    0.3750000000000001    0.4256640000000000 Ca
   0.9548074999999998    0.3750000000000001    0.4256640000000000 Ca
   0.4548074999999999    0.3750000000000001    0.9256640000000000 Ca
   0.9548074999999998    0.3750000000000001    0.9256640000000000 Ca
   0.4548074999999999    0.8750000000000001    0.4256640000000000 Ca
   0.9548074999999998    0.8750000000000001    0.4256640000000000 Ca
   0.4548074999999999    0.8750000000000001    0.9256640000000000 Ca
   0.9548074999999998    0.8750000000000001    0.9256640000000000 Ca
   0.2048075000000000    0.1250000000000000    0.3243360000000000 Ca
   0.7048075000000000    0.1250000000000000    0.3243360000000000 Ca
   0.2048075000000000    0.1250000000000000    0.8243360000000001 Ca
   0.7048075000000000    0.1250000000000000    0.8243360000000001 Ca
   0.2048075000000000    0.6250000000000000    0.3243360000000000 Ca
   0.7048075000000000    0.6250000000000000    0.3243360000000000 Ca
   0.2048075000000000    0.6250000000000000    0.8243360000000001 Ca
   0.7048075000000000    0.6250000000000000    0.8243360000000001 Ca
   0.4548074999999999    0.1250000000000000    0.3243360000000000 Ca
   0.9548074999999998    0.1250000000000000    0.3243360000000000 Ca
   0.4548074999999999    0.1250000000000000    0.8243360000000001 Ca
   0.9548074999999998    0.1250000000000000    0.8243360000000001 Ca
   0.4548074999999999    0.6250000000000000    0.3243360000000000 Ca
   0.9548074999999998    0.6250000000000000    0.3243360000000000 Ca
   0.4548074999999999    0.6250000000000000    0.8243360000000001 Ca
   0.9548074999999998    0.6250000000000000    0.8243360000000001 Ca
   0.1751660000000000    0.0342990000000000    0.1940140000000000 Mn
   0.6751659999999998    0.0342990000000000    0.1940140000000000 Mn
   0.1751660000000000    0.0342990000000000    0.6940140000000000 Mn
   0.6751659999999998    0.0342990000000000    0.6940140000000000 Mn
   0.1751660000000000    0.5342990000000000    0.1940140000000000 Mn
   0.6751659999999998    0.5342990000000000    0.1940140000000000 Mn
   0.1751660000000000    0.5342990000000000    0.6940140000000000 Mn
   0.6751659999999998    0.5342990000000000    0.6940140000000000 Mn
   0.4251659999999999    0.0342990000000000    0.1940140000000000 Mn
   0.9251659999999998    0.0342990000000000    0.1940140000000000 Mn
   0.4251659999999999    0.0342990000000000    0.6940140000000000 Mn
   0.9251659999999998    0.0342990000000000    0.6940140000000000 Mn
   0.4251659999999999    0.5342990000000000    0.1940140000000000 Mn
   0.9251659999999998    0.5342990000000000    0.1940140000000000 Mn
   0.4251659999999999    0.5342990000000000    0.6940140000000000 Mn
   0.9251659999999998    0.5342990000000000    0.6940140000000000 Mn
   0.0748340000000000    0.2157010000000000    0.4440140000000000 Mn
   0.5748340000000000    0.2157010000000000    0.4440140000000000 Mn
   0.0748340000000000    0.2157010000000000    0.9440140000000000 Mn
   0.5748340000000000    0.2157010000000000    0.9440140000000000 Mn
   0.0748340000000000    0.7157010000000000    0.4440140000000000 Mn
   0.5748340000000000    0.7157010000000000    0.4440140000000000 Mn
   0.0748340000000000    0.7157010000000000    0.9440140000000000 Mn
   0.5748340000000000    0.7157010000000000    0.9440140000000000 Mn
   0.3248340000000000    0.2157010000000000    0.4440140000000000 Mn
   0.8248340000000000    0.2157010000000000    0.4440140000000000 Mn
   0.3248340000000000    0.2157010000000000    0.9440140000000000 Mn
   0.8248340000000000    0.2157010000000000    0.9440140000000000 Mn
   0.3248340000000000    0.7157010000000000    0.4440140000000000 Mn
   0.8248340000000000    0.7157010000000000    0.4440140000000000 Mn
   0.3248340000000000    0.7157010000000000    0.9440140000000000 Mn
   0.8248340000000000    0.7157010000000000    0.9440140000000000 Mn
   0.1751660000000000    0.4657010000000000    0.0559860000000000 Mn
   0.6751659999999998    0.4657010000000000    0.0559860000000000 Mn
   0.1751660000000000    0.4657010000000000    0.5559860000000000 Mn
   0.6751659999999998    0.4657010000000000    0.5559860000000000 Mn
   0.1751660000000000    0.9657010000000001    0.0559860000000000 Mn
   0.6751659999999998    0.9657010000000001    0.0559860000000000 Mn
   0.1751660000000000    0.9657010000000001    0.5559860000000000 Mn
   0.6751659999999998    0.9657010000000001    0.5559860000000000 Mn
   0.4251659999999999    0.4657010000000000    0.0559860000000000 Mn
   0.9251659999999998    0.4657010000000000    0.0559860000000000 Mn
   0.4251659999999999    0.4657010000000000    0.5559860000000000 Mn
   0.9251659999999998    0.4657010000000000    0.5559860000000000 Mn
   0.4251659999999999    0.9657010000000001    0.0559860000000000 Mn
   0.9251659999999998    0.9657010000000001    0.0559860000000000 Mn
   0.4251659999999999    0.9657010000000001    0.5559860000000000 Mn
   0.9251659999999998    0.9657010000000001    0.5559860000000000 Mn
   0.0748340000000000    0.2842990000000000    0.3059860000000000 Mn
   0.5748340000000000    0.2842990000000000    0.3059860000000000 Mn
   0.0748340000000000    0.2842990000000000    0.8059860000000001 Mn
   0.5748340000000000    0.2842990000000000    0.8059860000000001 Mn
   0.0748340000000000    0.7842990000000001    0.3059860000000000 Mn
   0.5748340000000000    0.7842990000000001    0.3059860000000000 Mn
   0.0748340000000000    0.7842990000000001    0.8059860000000001 Mn
   0.5748340000000000    0.7842990000000001    0.8059860000000001 Mn
   0.3248340000000000    0.2842990000000000    0.3059860000000000 Mn
   0.8248340000000000    0.2842990000000000    0.3059860000000000 Mn
   0.3248340000000000    0.2842990000000000    0.8059860000000001 Mn
   0.8248340000000000    0.2842990000000000    0.8059860000000001 Mn
   0.3248340000000000    0.7842990000000001    0.3059860000000000 Mn
   0.8248340000000000    0.7842990000000001    0.3059860000000000 Mn
   0.3248340000000000    0.7842990000000001    0.8059860000000001 Mn
   0.8248340000000000    0.7842990000000001    0.8059860000000001 Mn
   0.1751660000000000    0.2842990000000000    0.0559860000000000 Mn
   0.6751659999999998    0.2842990000000000    0.0559860000000000 Mn
   0.1751660000000000    0.2842990000000000    0.5559860000000000 Mn
   0.6751659999999998    0.2842990000000000    0.5559860000000000 Mn
   0.1751660000000000    0.7842990000000001    0.0559860000000000 Mn
   0.6751659999999998    0.7842990000000001    0.0559860000000000 Mn
   0.1751660000000000    0.7842990000000001    0.5559860000000000 Mn
   0.6751659999999998    0.7842990000000001    0.5559860000000000 Mn
   0.4251659999999999    0.2842990000000000    0.0559860000000000 Mn
   0.9251659999999998    0.2842990000000000    0.0559860000000000 Mn
   0.4251659999999999    0.2842990000000000    0.5559860000000000 Mn
   0.9251659999999998    0.2842990000000000    0.5559860000000000 Mn
   0.4251659999999999    0.7842990000000001    0.0559860000000000 Mn
   0.9251659999999998    0.7842990000000001    0.0559860000000000 Mn
   0.4251659999999999    0.7842990000000001    0.5559860000000000 Mn
   0.9251659999999998    0.7842990000000001    0.5559860000000000 Mn
   0.0748340000000000    0.0342990000000000    0.4440140000000000 Mn
   0.5748340000000000    0.0342990000000000    0.4440140000000000 Mn
   0.0748340000000000    0.0342990000000000    0.9440140000000000 Mn
   0.5748340000000000    0.0342990000000000    0.9440140000000000 Mn
   0.0748340000000000    0.5342990000000000    0.4440140000000000 Mn
   0.5748340000000000    0.5342990000000000    0.4440140000000000 Mn
   0.0748340000000000    0.5342990000000000    0.9440140000000000 Mn
   0.5748340000000000    0.5342990000000000    0.9440140000000000 Mn
   0.3248340000000000    0.0342990000000000    0.4440140000000000 Mn
   0.8248340000000000    0.0342990000000000    0.4440140000000000 Mn
   0.3248340000000000    0.0342990000000000    0.9440140000000000 Mn
   0.8248340000000000    0.0342990000000000    0.9440140000000000 Mn
   0.3248340000000000    0.5342990000000000    0.4440140000000000 Mn
   0.8248340000000000    0.5342990000000000    0.4440140000000000 Mn
   0.3248340000000000    0.5342990000000000    0.9440140000000000 Mn
   0.8248340000000000    0.5342990000000000    0.9440140000000000 Mn
   0.1751660000000000    0.2157010000000000    0.1940140000000000 Mn
   0.6751659999999998    0.2157010000000000    0.1940140000000000 Mn
   0.1751660000000000    0.2157010000000000    0.6940140000000000 Mn
   0.6751659999999998    0.2157010000000000    0.6940140000000000 Mn
   0.1751660000000000    0.7157010000000000    0.1940140000000000 Mn
   0.6751659999999998    0.7157010000000000    0.1940140000000000 Mn
   0.1751660000000000    0.7157010000000000    0.6940140000000000 Mn
   0.6751659999999998    0.7157010000000000    0.6940140000000000 Mn
   0.4251659999999999    0.2157010000000000    0.1940140000000000 Mn
   0.9251659999999998    0.2157010000000000    0.1940140000000000 Mn
   0.4251659999999999    0.2157010000000000    0.6940140000000000 Mn
   0.9251659999999998    0.2157010000000000    0.6940140000000000 Mn
   0.4251659999999999    0.7157010000000000    0.1940140000000000 Mn
   0.9251659999999998    0.7157010000000000    0.1940140000000000 Mn
   0.4251659999999999    0.7157010000000000    0.6940140000000000 Mn
   0.9251659999999998    0.7157010000000000    0.6940140000000000 Mn
   0.0748340000000000    0.4657010000000000    0.3059860000000000 Mn
   0.5748340000000000    0.4657010000000000    0.3059860000000000 Mn
   0.0748340000000000    0.4657010000000000    0.8059860000000001 Mn
   0.5748340000000000    0.4657010000000000    0.8059860000000001 Mn
   0.0748340000000000    0.9657010000000001    0.3059860000000000 Mn
   0.5748340000000000    0.9657010000000001    0.3059860000000000 Mn
   0.0748340000000000    0.9657010000000001    0.8059860000000001 Mn
   0.5748340000000000    0.9657010000000001    0.8059860000000001 Mn
   0.3248340000000000    0.4657010000000000    0.3059860000000000 Mn
   0.8248340000000000    0.4657010000000000    0.3059860000000000 Mn
   0.3248340000000000    0.4657010000000000    0.8059860000000001 Mn
   0.8248340000000000    0.4657010000000000    0.8059860000000001 Mn
   0.3248340000000000    0.9657010000000001    0.3059860000000000 Mn
   0.8248340000000000    0.9657010000000001    0.3059860000000000 Mn
   0.3248340000000000    0.9657010000000001    0.8059860000000001 Mn
   0.8248340000000000    0.9657010000000001    0.8059860000000001 Mn
   0.0217365000000000    0.0000000000000000    0.1250000000000000 O
   0.5217364999999999    0.0000000000000000    0.1250000000000000 O
   0.0217365000000000    0.0000000000000000    0.6250000000000000 O
   0.5217364999999999    0.0000000000000000    0.6250000000000000 O
   0.0217365000000000    0.5000000000000000    0.1250000000000000 O
   0.5217364999999999    0.5000000000000000    0.1250000000000000 O
   0.0217365000000000    0.5000000000000000    0.6250000000000000 O
   0.5217364999999999    0.5000000000000000    0.6250000000000000 O
   0.2717365000000000    0.0000000000000000    0.1250000000000000 O
   0.7717364999999998    0.0000000000000000    0.1250000000000000 O
   0.2717365000000000    0.0000000000000000    0.6250000000000000 O
   0.7717364999999998    0.0000000000000000    0.6250000000000000 O
   0.2717365000000000    0.5000000000000000    0.1250000000000000 O
   0.7717364999999998    0.5000000000000000    0.1250000000000000 O
   0.2717365000000000    0.5000000000000000    0.6250000000000000 O
   0.7717364999999998    0.5000000000000000    0.6250000000000000 O
   0.0217365000000000    0.2500000000000000    0.1250000000000000 O
   0.5217364999999999    0.2500000000000000    0.1250000000000000 O
   0.0217365000000000    0.2500000000000000    0.6250000000000000 O
   0.5217364999999999    0.2500000000000000    0.6250000000000000 O
   0.0217365000000000    0.7500000000000001    0.1250000000000000 O
   0.5217364999999999    0.7500000000000001    0.1250000000000000 O
   0.0217365000000000    0.7500000000000001    0.6250000000000000 O
   0.5217364999999999    0.7500000000000001    0.6250000000000000 O
   0.2717365000000000    0.2500000000000000    0.1250000000000000 O
   0.7717364999999998    0.2500000000000000    0.1250000000000000 O
   0.2717365000000000    0.2500000000000000    0.6250000000000000 O
   0.7717364999999998    0.2500000000000000    0.6250000000000000 O
   0.2717365000000000    0.7500000000000001    0.1250000000000000 O
   0.7717364999999998    0.7500000000000001    0.1250000000000000 O
   0.2717365000000000    0.7500000000000001    0.6250000000000000 O
   0.7717364999999998    0.7500000000000001    0.6250000000000000 O
   0.2282635000000000    0.0000000000000000    0.3750000000000000 O
   0.7282635000000000    0.0000000000000000    0.3750000000000000 O
   0.2282635000000000    0.0000000000000000    0.8749999999999999 O
   0.7282635000000000    0.0000000000000000    0.8749999999999999 O
   0.2282635000000000    0.5000000000000000    0.3750000000000000 O
   0.7282635000000000    0.5000000000000000    0.3750000000000000 O
   0.2282635000000000    0.5000000000000000    0.8749999999999999 O
   0.7282635000000000    0.5000000000000000    0.8749999999999999 O
   0.4782635000000000    0.0000000000000000    0.3750000000000000 O
   0.9782634999999998    0.0000000000000000    0.3750000000000000 O
   0.4782635000000000    0.0000000000000000    0.8749999999999999 O
   0.9782634999999998    0.0000000000000000    0.8749999999999999 O
   0.4782635000000000    0.5000000000000000    0.3750000000000000 O
   0.9782634999999998    0.5000000000000000    0.3750000000000000 O
   0.4782635000000000    0.5000000000000000    0.8749999999999999 O
   0.9782634999999998    0.5000000000000000    0.8749999999999999 O
   0.2282635000000000    0.2500000000000000    0.3750000000000000 O
   0.7282635000000000    0.2500000000000000    0.3750000000000000 O
   0.2282635000000000    0.2500000000000000    0.8749999999999999 O
   0.7282635000000000    0.2500000000000000    0.8749999999999999 O
   0.2282635000000000    0.7500000000000001    0.3750000000000000 O
   0.7282635000000000    0.7500000000000001    0.3750000000000000 O
   0.2282635000000000    0.7500000000000001    0.8749999999999999 O
   0.7282635000000000    0.7500000000000001    0.8749999999999999 O
   0.4782635000000000    0.2500000000000000    0.3750000000000000 O
   0.9782634999999998    0.2500000000000000    0.3750000000000000 O
   0.4782635000000000    0.2500000000000000    0.8749999999999999 O
   0.9782634999999998    0.2500000000000000    0.8749999999999999 O
   0.4782635000000000    0.7500000000000001    0.3750000000000000 O
   0.9782634999999998    0.7500000000000001    0.3750000000000000 O
   0.4782635000000000    0.7500000000000001    0.8749999999999999 O
   0.9782634999999998    0.7500000000000001    0.8749999999999999 O
   0.1722140000000000    0.1250000000000000    0.1586470000000000 O
   0.6722139999999999    0.1250000000000000    0.1586470000000000 O
   0.1722140000000000    0.1250000000000000    0.6586470000000000 O
   0.6722139999999999    0.1250000000000000    0.6586470000000000 O
   0.1722140000000000    0.6250000000000000    0.1586470000000000 O
   0.6722139999999999    0.6250000000000000    0.1586470000000000 O
   0.1722140000000000    0.6250000000000000    0.6586470000000000 O
   0.6722139999999999    0.6250000000000000    0.6586470000000000 O
   0.4222139999999999    0.1250000000000000    0.1586470000000000 O
   0.9222139999999999    0.1250000000000000    0.1586470000000000 O
   0.4222139999999999    0.1250000000000000    0.6586470000000000 O
   0.9222139999999999    0.1250000000000000    0.6586470000000000 O
   0.4222139999999999    0.6250000000000000    0.1586470000000000 O
   0.9222139999999999    0.6250000000000000    0.1586470000000000 O
   0.4222139999999999    0.6250000000000000    0.6586470000000000 O
   0.9222139999999999    0.6250000000000000    0.6586470000000000 O
   0.0777860000000000    0.1250000000000000    0.4086470000000000 O
   0.5777860000000000    0.1250000000000000    0.4086470000000000 O
   0.0777860000000000    0.1250000000000000    0.9086470000000000 O
   0.5777860000000000    0.1250000000000000    0.9086470000000000 O
   0.0777860000000000    0.6250000000000000    0.4086470000000000 O
   0.5777860000000000    0.6250000000000000    0.4086470000000000 O
   0.0777860000000000    0.6250000000000000    0.9086470000000000 O
   0.5777860000000000    0.6250000000000000    0.9086470000000000 O
   0.3277860000000000    0.1250000000000000    0.4086470000000000 O
   0.8277859999999999    0.1250000000000000    0.4086470000000000 O
   0.3277860000000000    0.1250000000000000    0.9086470000000000 O
   0.8277859999999999    0.1250000000000000    0.9086470000000000 O
   0.3277860000000000    0.6250000000000000    0.4086470000000000 O
   0.8277859999999999    0.6250000000000000    0.4086470000000000 O
   0.3277860000000000    0.6250000000000000    0.9086470000000000 O
   0.8277859999999999    0.6250000000000000    0.9086470000000000 O
   0.0777860000000000    0.3750000000000001    0.3413530000000000 O
   0.5777860000000000    0.3750000000000001    0.3413530000000000 O
   0.0777860000000000    0.3750000000000001    0.8413530000000001 O
   0.5777860000000000    0.3750000000000001    0.8413530000000001 O
   0.0777860000000000    0.8750000000000001    0.3413530000000000 O
   0.5777860000000000    0.8750000000000001    0.3413530000000000 O
   0.0777860000000000    0.8750000000000001    0.8413530000000001 O
   0.5777860000000000    0.8750000000000001    0.8413530000000001 O
   0.3277860000000000    0.3750000000000001    0.3413530000000000 O
   0.8277859999999999    0.3750000000000001    0.3413530000000000 O
   0.3277860000000000    0.3750000000000001    0.8413530000000001 O
   0.8277859999999999    0.3750000000000001    0.8413530000000001 O
   0.3277860000000000    0.8750000000000001    0.3413530000000000 O
   0.8277859999999999    0.8750000000000001    0.3413530000000000 O
   0.3277860000000000    0.8750000000000001    0.8413530000000001 O
   0.8277859999999999    0.8750000000000001    0.8413530000000001 O
   0.1722140000000000    0.3750000000000001    0.0913530000000000 O
   0.6722139999999999    0.3750000000000001    0.0913530000000000 O
   0.1722140000000000    0.3750000000000001    0.5913530000000000 O
   0.6722139999999999    0.3750000000000001    0.5913530000000000 O
   0.1722140000000000    0.8750000000000001    0.0913530000000000 O
   0.6722139999999999    0.8750000000000001    0.0913530000000000 O
   0.1722140000000000    0.8750000000000001    0.5913530000000000 O
   0.6722139999999999    0.8750000000000001    0.5913530000000000 O
   0.4222139999999999    0.3750000000000001    0.0913530000000000 O
   0.9222139999999999    0.3750000000000001    0.0913530000000000 O
   0.4222139999999999    0.3750000000000001    0.5913530000000000 O
   0.9222139999999999    0.3750000000000001    0.5913530000000000 O
   0.4222139999999999    0.8750000000000001    0.0913530000000000 O
   0.9222139999999999    0.8750000000000001    0.0913530000000000 O
   0.4222139999999999    0.8750000000000001    0.5913530000000000 O
   0.9222139999999999    0.8750000000000001    0.5913530000000000 O
   0.0751345000000000    0.4461870000000000    0.4861779999999999 O
   0.5751345000000000    0.4461870000000000    0.4861779999999999 O
   0.0751345000000000    0.4461870000000000    0.9861780000000000 O
   0.5751345000000000    0.4461870000000000    0.9861780000000000 O
   0.0751345000000000    0.9461870000000001    0.4861779999999999 O
   0.5751345000000000    0.9461870000000001    0.4861779999999999 O
   0.0751345000000000    0.9461870000000001    0.9861780000000000 O
   0.5751345000000000    0.9461870000000001    0.9861780000000000 O
   0.3251345000000000    0.4461870000000000    0.4861779999999999 O
   0.8251344999999999    0.4461870000000000    0.4861779999999999 O
   0.3251345000000000    0.4461870000000000    0.9861780000000000 O
   0.8251344999999999    0.4461870000000000    0.9861780000000000 O
   0.3251345000000000    0.9461870000000001    0.4861779999999999 O
   0.8251344999999999    0.9461870000000001    0.4861779999999999 O
   0.3251345000000000    0.9461870000000001    0.9861780000000000 O
   0.8251344999999999    0.9461870000000001    0.9861780000000000 O
   0.1748655000000000    0.0538130000000000    0.0138220000000000 O
   0.6748654999999999    0.0538130000000000    0.0138220000000000 O
   0.1748655000000000    0.0538130000000000    0.5138220000000000 O
   0.6748654999999999    0.0538130000000000    0.5138220000000000 O
   0.1748655000000000    0.5538130000000000    0.0138220000000000 O
   0.6748654999999999    0.5538130000000000    0.0138220000000000 O
   0.1748655000000000    0.5538130000000000    0.5138220000000000 O
   0.6748654999999999    0.5538130000000000    0.5138220000000000 O
   0.4248655000000000    0.0538130000000000    0.0138220000000000 O
   0.9248655000000000    0.0538130000000000    0.0138220000000000 O
   0.4248655000000000    0.0538130000000000    0.5138220000000000 O
   0.9248655000000000    0.0538130000000000    0.5138220000000000 O
   0.4248655000000000    0.5538130000000000    0.0138220000000000 O
   0.9248655000000000    0.5538130000000000    0.0138220000000000 O
   0.4248655000000000    0.5538130000000000    0.5138220000000000 O
   0.9248655000000000    0.5538130000000000    0.5138220000000000 O
   0.1748655000000000    0.4461870000000000    0.2361780000000000 O
   0.6748654999999999    0.4461870000000000    0.2361780000000000 O
   0.1748655000000000    0.4461870000000000    0.7361780000000000 O
   0.6748654999999999    0.4461870000000000    0.7361780000000000 O
   0.1748655000000000    0.9461870000000001    0.2361780000000000 O
   0.6748654999999999    0.9461870000000001    0.2361780000000000 O
   0.1748655000000000    0.9461870000000001    0.7361780000000000 O
   0.6748654999999999    0.9461870000000001    0.7361780000000000 O
   0.4248655000000000    0.4461870000000000    0.2361780000000000 O
   0.9248655000000000    0.4461870000000000    0.2361780000000000 O
   0.4248655000000000    0.4461870000000000    0.7361780000000000 O
   0.9248655000000000    0.4461870000000000    0.7361780000000000 O
   0.4248655000000000    0.9461870000000001    0.2361780000000000 O
   0.9248655000000000    0.9461870000000001    0.2361780000000000 O
   0.4248655000000000    0.9461870000000001    0.7361780000000000 O
   0.9248655000000000    0.9461870000000001    0.7361780000000000 O
   0.1748655000000000    0.3038130000000001    0.2361780000000000 O
   0.6748654999999999    0.3038130000000001    0.2361780000000000 O
   0.1748655000000000    0.3038130000000001    0.7361780000000000 O
   0.6748654999999999    0.3038130000000001    0.7361780000000000 O
   0.1748655000000000    0.8038130000000000    0.2361780000000000 O
   0.6748654999999999    0.8038130000000000    0.2361780000000000 O
   0.1748655000000000    0.8038130000000000    0.7361780000000000 O
   0.6748654999999999    0.8038130000000000    0.7361780000000000 O
   0.4248655000000000    0.3038130000000001    0.2361780000000000 O
   0.9248655000000000    0.3038130000000001    0.2361780000000000 O
   0.4248655000000000    0.3038130000000001    0.7361780000000000 O
   0.9248655000000000    0.3038130000000001    0.7361780000000000 O
   0.4248655000000000    0.8038130000000000    0.2361780000000000 O
   0.9248655000000000    0.8038130000000000    0.2361780000000000 O
   0.4248655000000000    0.8038130000000000    0.7361780000000000 O
   0.9248655000000000    0.8038130000000000    0.7361780000000000 O
   0.0751345000000000    0.0538130000000000    0.2638220000000000 O
   0.5751345000000000    0.0538130000000000    0.2638220000000000 O
   0.0751345000000000    0.0538130000000000    0.7638220000000000 O
   0.5751345000000000    0.0538130000000000    0.7638220000000000 O
   0.0751345000000000    0.5538130000000000    0.2638220000000000 O
   0.5751345000000000    0.5538130000000000    0.2638220000000000 O
   0.0751345000000000    0.5538130000000000    0.7638220000000000 O
   0.5751345000000000    0.5538130000000000    0.7638220000000000 O
   0.3251345000000000    0.0538130000000000    0.2638220000000000 O
   0.8251344999999999    0.0538130000000000    0.2638220000000000 O
   0.3251345000000000    0.0538130000000000    0.7638220000000000 O
   0.8251344999999999    0.0538130000000000    0.7638220000000000 O
   0.3251345000000000    0.5538130000000000    0.2638220000000000 O
   0.8251344999999999    0.5538130000000000    0.2638220000000000 O
   0.3251345000000000    0.5538130000000000    0.7638220000000000 O
   0.8251344999999999    0.5538130000000000    0.7638220000000000 O
   0.0751345000000000    0.3038130000000001    0.4861779999999999 O
   0.5751345000000000    0.3038130000000001    0.4861779999999999 O
   0.0751345000000000    0.3038130000000001    0.9861780000000000 O
   0.5751345000000000    0.3038130000000001    0.9861780000000000 O
   0.0751345000000000    0.8038130000000000    0.4861779999999999 O
   0.5751345000000000    0.8038130000000000    0.4861779999999999 O
   0.0751345000000000    0.8038130000000000    0.9861780000000000 O
   0.5751345000000000    0.8038130000000000    0.9861780000000000 O
   0.3251345000000000    0.3038130000000001    0.4861779999999999 O
   0.8251344999999999    0.3038130000000001    0.4861779999999999 O
   0.3251345000000000    0.3038130000000001    0.9861780000000000 O
   0.8251344999999999    0.3038130000000001    0.9861780000000000 O
   0.3251345000000000    0.8038130000000000    0.4861779999999999 O
   0.8251344999999999    0.8038130000000000    0.4861779999999999 O
   0.3251345000000000    0.8038130000000000    0.9861780000000000 O
   0.8251344999999999    0.8038130000000000    0.9861780000000000 O
   0.0751345000000000    0.1961870000000000    0.2638220000000000 O
   0.5751345000000000    0.1961870000000000    0.2638220000000000 O
   0.0751345000000000    0.1961870000000000    0.7638220000000000 O
   0.5751345000000000    0.1961870000000000    0.7638220000000000 O
   0.0751345000000000    0.6961870000000001    0.2638220000000000 O
   0.5751345000000000    0.6961870000000001    0.2638220000000000 O
   0.0751345000000000    0.6961870000000001    0.7638220000000000 O
   0.5751345000000000    0.6961870000000001    0.7638220000000000 O
   0.3251345000000000    0.1961870000000000    0.2638220000000000 O
   0.8251344999999999    0.1961870000000000    0.2638220000000000 O
   0.3251345000000000    0.1961870000000000    0.7638220000000000 O
   0.8251344999999999    0.1961870000000000    0.7638220000000000 O
   0.3251345000000000    0.6961870000000001    0.2638220000000000 O
   0.8251344999999999    0.6961870000000001    0.2638220000000000 O
   0.3251345000000000    0.6961870000000001    0.7638220000000000 O
   0.8251344999999999    0.6961870000000001    0.7638220000000000 O
   0.1748655000000000    0.1961870000000000    0.0138220000000000 O
   0.6748654999999999    0.1961870000000000    0.0138220000000000 O
   0.1748655000000000    0.1961870000000000    0.5138220000000000 O