Ca1 V12 F42                             
   1.00000000000000     
     7.3761820000000000   -0.0071030000000000   -0.1024150000000000
    -3.6796410000000002    6.3966589999999997    0.0960220000000000
     0.2743330000000000    0.0299890000000000   17.5291619999999995
   Ca   V    F 
     1    12    42
Direct
  0.8015317898477852  0.3037805807940041  0.3289068596295002
  0.2623850602997032  0.9867650429683250  0.3288347332110506
  0.7288732096561327  0.7266264428901599  0.9979367777536595
  0.9981435810063171  0.2765027349427892  0.6706379958425820
  0.3577566381062355  0.0025862218481338  0.8337818378008182
  0.6248111365328657  0.6277677722820544  0.4995267876386700
  0.0274836349915961  0.3714995443056898  0.1601641764059551
  0.6195732008641396  0.1234745815773663  0.5096797579214482
  0.5171417971695093  0.3664802732388880  0.1661605929672707
  0.8576356823977429  0.5025324485497576  0.8327289868921218
  0.3578923624987297  0.5028344817952959  0.8349161317988364
  0.1270018379559898  0.6326178325112373  0.4997754324601736
  0.5244326271362663  0.8692124465910004  0.1683429634742205
  0.5994599807330834  0.8406088254354913  0.0649507040525241
  0.2490270313184374  0.4269882874619562  0.7313463292962206
  0.1439598445303841  0.7289496451530093  0.3927040239783208
  0.4514349741089120  0.2591986593056708  0.2736053615751732
  0.8309281472677444  0.5816310289133547  0.9353123284236332
  0.7451903314547562  0.1548554797511533  0.6078196335209980
  0.8834037669130296  0.0707280753148688  0.7372672022986938
  0.1220539079211526  0.0922152489459533  0.3757491552391514
  0.9493683360168442  0.8252451561130246  0.0578311571564005
  0.1172529405369005  0.1801349853133128  0.6081955081458448
  0.0869265008475103  0.8550085259339951  0.2529395358905550
  0.8133305930303968  0.9359572645630471  0.9331097951525552
  0.0917923969523657  0.5206708230124980  0.6015104609494590
  0.4741398555504903  0.9200830875341661  0.2771018703391440
  0.4637582398509388  0.5726587428195511  0.9383158810184168
  0.8878590840091447  0.4304475815833211  0.7297622901749607
  0.5099190955608608  0.1078463638809363  0.4029563519215941
  0.5925267906662581  0.4737338077217195  0.0638892319681055
  0.3344926536016755  0.5484006305566174  0.4770891457577224
  0.2365532979154585  0.6613192013191210  0.1478046742544380
  0.4383851207478521  0.7921020017711126  0.8148334441681343
  0.6483740889592816  0.2138396307166573  0.8535922468883930
  0.5489718818262000  0.3412971513085722  0.5267140818593661
  0.8065176566031004  0.4374108464368437  0.1985233188541600
  0.6710320412345848  0.5729345386146673  0.4009794888972881
  0.9313559090511357  0.3340382992384743  0.0662896037903963
  0.3955608668051100  0.0741245528461337  0.7359209051643233
  0.3213331541047646  0.9311575196752798  0.9316142072003613
  0.5915086002281120  0.6792072149734911  0.5954745444705722
  0.0940361680090991  0.4062251294177458  0.2676072345084449
  0.9167639575929272  0.7129018644155898  0.5187913184895580
  0.8153239309881997  0.0828132860697339  0.1939924268228878
  0.2763649461847017  0.2119000697039525  0.8536144700644231
  0.0677683544820035  0.7927967757893167  0.8129559447572720
  0.6970247411338724  0.9186661372261901  0.4739762182116639
  0.2280827197274320  0.2843394598165805  0.1463735892300473
  0.6316103028320323  0.5522210388511569  0.8030591601240062
  0.8936063931619277  0.3498851034148771  0.4605462139756312
  0.4734940909959289  0.0939536472305994  0.1378553258456943
  0.3437528694678699  0.9015722243828296  0.5366394102716799
  0.5695509389489529  0.6401206512687895  0.1995564985282982
  0.0825615548317573  0.4530747864498019  0.8645114646944673
 
             NaN             NaN             NaN
             NaN             NaN             NaN
             NaN             NaN             NaN
             NaN             NaN             NaN
             NaN             NaN             NaN
             NaN             NaN             NaN
             NaN             NaN             NaN
             NaN             NaN             NaN
             NaN             NaN             NaN
             NaN             NaN             NaN
             NaN             NaN             NaN
             NaN             NaN             NaN
             NaN             NaN             NaN
             NaN             NaN             NaN
             NaN             NaN             NaN
             NaN             NaN             NaN
             NaN             NaN             NaN
             NaN             NaN             NaN
             NaN             NaN             NaN
             NaN             NaN             NaN
             NaN             NaN             NaN
             NaN             NaN             NaN
             NaN             NaN             NaN
             NaN             NaN             NaN
             NaN             NaN             NaN
             NaN             NaN             NaN
             NaN             NaN             NaN
             NaN             NaN             NaN
             NaN             NaN             NaN
             NaN             NaN             NaN
             NaN             NaN             NaN
             NaN             NaN             NaN
             NaN             NaN             NaN
             NaN             NaN             NaN
             NaN             NaN             NaN
             NaN             NaN             NaN
             NaN             NaN             NaN
             NaN             NaN             NaN
             NaN             NaN             NaN
             NaN             NaN             NaN
             NaN             NaN             NaN
             NaN             NaN             NaN
             NaN             NaN             NaN
             NaN             NaN             NaN
             NaN             NaN             NaN
             NaN             NaN             NaN
             NaN             NaN             NaN
             NaN             NaN             NaN
             NaN             NaN             NaN
             NaN             NaN             NaN
             NaN             NaN             NaN
             NaN             NaN             NaN
             NaN             NaN             NaN
             NaN             NaN             NaN
             NaN             NaN             NaN
