Ca1 V12 F42                             
   1.00000000000000     
     7.3761820000000000   -0.0071030000000000   -0.1024150000000000
    -3.6796410000000002    6.3966589999999997    0.0960220000000000
     0.2743330000000000    0.0299890000000000   17.5291619999999995
   Ca   V    F 
     1    12    42
Direct
  0.7978832106618979  0.2913683987710792  0.3267240866124393
  0.2608708232758483 -0.0091137432350170  0.3287666694800231
  0.7350367310668513  0.7338478784423197  0.9968274097057822
 -0.0059113046024497  0.2681759057253832  0.6714837093911329
  0.3602736232011776  1.0018236219163610  0.8338519415381928
  0.6141292861728026  0.6139081886381675  0.5013246526180397
  1.0346680510943622  0.3862090461458714  0.1598877621281977
  0.6135971412323842  0.1132410501594354  0.5103403418798867
  0.5219831485621571  0.3771547374737175  0.1669053008886533
  0.8595296459686983  0.5019940511494045  0.8327162822439008
  0.3594345484605721  0.5016971339575830  0.8348822871741686
  0.1192513616705149  0.6243397839097964  0.4993570586559343
  0.5328306917902796  0.8818062144100589  0.1670865797229796
  0.6099837969603065  0.8529638324138018  0.0639890278907866
  0.2460036010222236  0.4207524730697453  0.7318597941118703
  0.1394905754506323  0.7332490059914579  0.3941497797639699
  0.4501633660680205  0.2651128906960906  0.2740150543933300
  0.8338698486401246  0.5842952635946087  0.9349846926173674
  0.7403202862802496  0.1436464094394558  0.6084645357130232
  0.8786058519500297  0.0658173093756032  0.7393882645316763
  0.1078566945503424  0.0905695865810643  0.3706655475616223
  0.9591370937114553  0.8369509166589100  0.0549800942187164
  0.1113102378069165  0.1661188837705436  0.6107687458782811
  0.0967530447088022  0.8570391311973069  0.2507175325505697
  0.8165630258888696  0.9394197766951961  0.9304206916015254
  0.0860648894044044  0.5074152512591821  0.6002424798391736
  0.4859271441092578  0.9348143074871285  0.2764066104747400
  0.4678107268863032  0.5757860764903709  0.9379976349192410
  0.8876579620862676  0.4270804117659771  0.7298601791759000
  0.5038785654384834  0.1031532648435796  0.4036235967019335
  0.6013925208629085  0.4860108695139068  0.0648773339238247
  0.3256692124877520  0.5384607800043444  0.4760085812495874
  0.2450924149604225  0.6749607736113235  0.1462594104707449
  0.4396306180883741  0.7905613737439902  0.8139637016151455
  0.6506052970789021  0.2135795217314407  0.8542323340048509
  0.5391032378905625  0.3274769793609011  0.5286032700026151
  0.8094229049936851  0.4454303510811528  0.1999986064445448
  0.6622377298749579  0.5591175119311786  0.4034169719325138
  0.9360370262854226  0.3502516110519638  0.0663921497647454
  0.3990546520718277  0.0752121723275671  0.7362278155957561
  0.3241396723968900  0.9285819036364378  0.9314754791647554
  0.5738561031994388  0.6589150291032827  0.5972428110546808
  0.0996545623735319  0.4206076408196783  0.2671152844806492
  0.9059617258939716  0.6991416762013490  0.5214974972825969
  0.8239353021437794  0.0956878504302125  0.1934340679741078
  0.2794265557757089  0.2113110312525593  0.8544865879180475
  0.0704341332750564  0.7920754460821209  0.8125425270391757
  0.6887107967299904  0.9053527504876311  0.4764650081610619
  0.2341563302377127  0.2982216457834675  0.1454918559674544
  0.6330431707408571  0.5508717811633866  0.8027387783095264
  0.8866892448660161  0.3408928591495520  0.4599072204993481
  0.4806956387453509  0.1063036573883307  0.1372711767815836
  0.3368130013880400  0.8915381253566008  0.5372929376697101
  0.5757009338002709  0.6519041698720475  0.1995615972293142
  0.0845860427304364  0.4528755461465854  0.8648833662820743
 
             NaN             NaN             NaN
             NaN             NaN             NaN
             NaN             NaN             NaN
             NaN             NaN             NaN
             NaN             NaN             NaN
             NaN             NaN             NaN
             NaN             NaN             NaN
             NaN             NaN             NaN
             NaN             NaN             NaN
             NaN             NaN             NaN
             NaN             NaN             NaN
             NaN             NaN             NaN
             NaN             NaN             NaN
             NaN             NaN             NaN
             NaN             NaN             NaN
             NaN             NaN             NaN
             NaN             NaN             NaN
             NaN             NaN             NaN
             NaN             NaN             NaN
             NaN             NaN             NaN
             NaN             NaN             NaN
             NaN             NaN             NaN
             NaN             NaN             NaN
             NaN             NaN             NaN
             NaN             NaN             NaN
             NaN             NaN             NaN
             NaN             NaN             NaN
             NaN             NaN             NaN
             NaN             NaN             NaN
             NaN             NaN             NaN
             NaN             NaN             NaN
             NaN             NaN             NaN
             NaN             NaN             NaN
             NaN             NaN             NaN
             NaN             NaN             NaN
             NaN             NaN             NaN
             NaN             NaN             NaN
             NaN             NaN             NaN
             NaN             NaN             NaN
             NaN             NaN             NaN
             NaN             NaN             NaN
             NaN             NaN             NaN
             NaN             NaN             NaN
             NaN             NaN             NaN
             NaN             NaN             NaN
             NaN             NaN             NaN
             NaN             NaN             NaN
             NaN             NaN             NaN
             NaN             NaN             NaN
             NaN             NaN             NaN
             NaN             NaN             NaN
             NaN             NaN             NaN
             NaN             NaN             NaN
             NaN             NaN             NaN
             NaN             NaN             NaN
