Zn8 In16 Se32
1.0
       11.3183803558         0.0000000000         0.0000000000
        0.0000000000        11.3183803558         0.0000000000
        0.0000000000         0.0000000000        11.3183803558
   Zn   In   Se
    7   16   32
Direct
     0.500000000         0.500000000         0.500000000
     0.250000000         0.750000000         0.250000000
     0.000000000         0.000000000         0.500000000
     0.000000000         0.500000000         0.000000000
     0.750000000         0.750000000         0.750000000
     0.500000000         0.000000000         0.000000000
     0.750000000         0.250000000         0.250000000
     0.625000000         0.875000000         0.375000000
     0.375000000         0.125000000         0.375000000
     0.875000000         0.875000000         0.125000000
     0.125000000         0.125000000         0.125000000
     0.625000000         0.375000000         0.875000000
     0.375000000         0.625000000         0.875000000
     0.875000000         0.375000000         0.625000000
     0.125000000         0.625000000         0.625000000
     0.125000000         0.875000000         0.875000000
     0.875000000         0.125000000         0.875000000
     0.375000000         0.875000000         0.625000000
     0.625000000         0.125000000         0.625000000
     0.125000000         0.375000000         0.375000000
     0.875000000         0.625000000         0.375000000
     0.375000000         0.375000000         0.125000000
     0.625000000         0.625000000         0.125000000
     0.879588664         0.120411329         0.120411329
     0.120411329         0.879588664         0.120411329
     0.620411336         0.120411329         0.379588664
     0.379588664         0.879588664         0.379588664
     0.370411336         0.129588664         0.129588664
     0.129588664         0.370411336         0.129588664
     0.129588664         0.129588664         0.370411336
     0.370411336         0.370411336         0.370411336
     0.879588664         0.620411336         0.620411336
     0.120411329         0.379588664         0.620411336
     0.620411336         0.620411336         0.879588664
     0.379588664         0.379588664         0.879588664
     0.370411336         0.629588664         0.629588664
     0.129588664         0.870411336         0.629588664
     0.129588664         0.629588664         0.870411336
     0.370411336         0.870411336         0.870411336
     0.379588664         0.120411329         0.620411336
     0.620411336         0.879588664         0.620411336
     0.120411329         0.120411329         0.879588664
     0.879588664         0.879588664         0.879588664
     0.870411336         0.129588664         0.629588664
     0.629588664         0.370411336         0.629588664
     0.629588664         0.129588664         0.870411336
     0.870411336         0.370411336         0.870411336
     0.379588664         0.620411336         0.120411329
     0.620411336         0.379588664         0.120411329
     0.120411329         0.620411336         0.379588664
     0.879588664         0.379588664         0.379588664
     0.870411336         0.629588664         0.129588664
     0.629588664         0.870411336         0.129588664
     0.629588664         0.629588664         0.370411336
     0.870411336         0.870411336         0.370411336
