Mg8 Sc16 S32
1.0
       10.6707286835         0.0000000000         0.0000000000
        0.0000000000        10.6707286835         0.0000000000
        0.0000000000         0.0000000000        10.6707286835
   Mg   Sc    S
    7   16   32
Direct
     0.750000000         0.750000000         0.750000000
     0.000000000         0.500000000         0.000000000
     0.750000000         0.250000000         0.250000000
     0.000000000         0.000000000         0.500000000
     0.250000000         0.250000000         0.750000000
     0.500000000         0.000000000         0.000000000
     0.250000000         0.750000000         0.250000000
     0.125000000         0.125000000         0.125000000
     0.875000000         0.875000000         0.125000000
     0.875000000         0.625000000         0.375000000
     0.125000000         0.375000000         0.375000000
     0.125000000         0.625000000         0.625000000
     0.875000000         0.375000000         0.625000000
     0.875000000         0.125000000         0.875000000
     0.125000000         0.875000000         0.875000000
     0.625000000         0.125000000         0.625000000
     0.375000000         0.875000000         0.625000000
     0.375000000         0.625000000         0.875000000
     0.625000000         0.375000000         0.875000000
     0.625000000         0.625000000         0.125000000
     0.375000000         0.375000000         0.125000000
     0.375000000         0.125000000         0.375000000
     0.625000000         0.875000000         0.375000000
     0.882650971         0.117349029         0.117349029
     0.867349029         0.367349029         0.867349029
     0.867349029         0.632650971         0.132650971
     0.117349029         0.117349029         0.882650971
     0.882650971         0.382650971         0.382650971
     0.632650971         0.867349029         0.132650971
     0.632650971         0.632650971         0.367349029
     0.117349029         0.882650971         0.117349029
     0.882650971         0.617349029         0.617349029
     0.867349029         0.867349029         0.367349029
     0.867349029         0.132650971         0.632650971
     0.117349029         0.617349029         0.382650971
     0.882650971         0.882650971         0.882650971
     0.632650971         0.367349029         0.632650971
     0.632650971         0.132650971         0.867349029
     0.117349029         0.382650971         0.617349029
     0.382650971         0.117349029         0.617349029
     0.367349029         0.367349029         0.367349029
     0.367349029         0.632650971         0.632650971
     0.617349029         0.117349029         0.382650971
     0.382650971         0.382650971         0.882650971
     0.132650971         0.867349029         0.632650971
     0.132650971         0.632650971         0.867349029
     0.617349029         0.882650971         0.617349029
     0.382650971         0.617349029         0.117349029
     0.367349029         0.867349029         0.867349029
     0.367349029         0.132650971         0.132650971
     0.617349029         0.617349029         0.882650971
     0.382650971         0.882650971         0.382650971
     0.132650971         0.367349029         0.132650971
     0.132650971         0.132650971         0.367349029
     0.617349029         0.382650971         0.117349029
