Na32 V32 P32 O160
1.0
12.975656 0.000000 0.000000
0.000000 14.898362 0.000000
0.000000 0.000000 15.670824
Na V P O
31 32 32 160
direct
0.250000 0.750000 0.250000 Na
0.000000 0.000000 0.000000 Na
0.000000 0.000000 0.500000 Na
0.000000 0.500000 0.000000 Na
0.000000 0.500000 0.500000 Na
0.500000 0.000000 0.000000 Na
0.500000 0.000000 0.500000 Na
0.500000 0.500000 0.000000 Na
0.500000 0.500000 0.500000 Na
0.250000 0.000000 0.000000 Na
0.250000 0.000000 0.500000 Na
0.250000 0.500000 0.000000 Na
0.250000 0.500000 0.500000 Na
0.750000 0.000000 0.000000 Na
0.750000 0.000000 0.500000 Na
0.750000 0.500000 0.000000 Na
0.750000 0.500000 0.500000 Na
0.000000 0.250000 0.250000 Na
0.000000 0.250000 0.750000 Na
0.000000 0.750000 0.250000 Na
0.000000 0.750000 0.750000 Na
0.500000 0.250000 0.250000 Na
0.500000 0.250000 0.750000 Na
0.500000 0.750000 0.750000 Na
0.250000 0.250000 0.250000 Na
0.250000 0.250000 0.750000 Na
0.250000 0.750000 0.750000 Na
0.750000 0.250000 0.250000 Na
0.750000 0.250000 0.750000 Na
0.750000 0.750000 0.250000 Na
0.750000 0.750000 0.750000 Na
0.125000 0.165611 0.106478 V
0.125000 0.165611 0.606478 V
0.125000 0.665611 0.106478 V
0.125000 0.665611 0.606478 V
0.625000 0.165611 0.106478 V
0.625000 0.165611 0.606478 V
0.625000 0.665611 0.106478 V
0.625000 0.665611 0.606478 V
0.125000 0.415610 0.143522 V
0.125000 0.415610 0.643522 V
0.125000 0.915610 0.143522 V
0.125000 0.915610 0.643522 V
0.625000 0.415610 0.143522 V
0.625000 0.415610 0.643522 V
0.625000 0.915610 0.143522 V
0.625000 0.915610 0.643522 V
0.375000 0.084390 0.356478 V
0.375000 0.084390 0.856478 V
0.375000 0.584390 0.356478 V
0.375000 0.584390 0.856478 V
0.875000 0.084390 0.356478 V
0.875000 0.084390 0.856478 V
0.875000 0.584390 0.356478 V
0.875000 0.584390 0.856478 V
0.375000 0.334390 0.393522 V
0.375000 0.334390 0.893522 V
0.375000 0.834390 0.393522 V
0.375000 0.834390 0.893522 V
0.875000 0.334390 0.393522 V
0.875000 0.334390 0.893522 V
0.875000 0.834390 0.393522 V
0.875000 0.834390 0.893522 V
0.125000 0.062113 0.302840 P
0.125000 0.062113 0.802840 P
0.125000 0.562113 0.302840 P
0.125000 0.562113 0.802840 P
0.625000 0.062113 0.302840 P
0.625000 0.062113 0.802840 P
0.625000 0.562113 0.302840 P
0.625000 0.562113 0.802840 P
0.375000 0.187887 0.052840 P
0.375000 0.187887 0.552840 P
0.375000 0.687887 0.052840 P
0.375000 0.687887 0.552840 P
0.875000 0.187887 0.052840 P
0.875000 0.187887 0.552840 P
0.875000 0.687887 0.052840 P
0.875000 0.687887 0.552840 P
0.125000 0.312113 0.447160 P
0.125000 0.312113 0.947160 P
0.125000 0.812113 0.447160 P
0.125000 0.812113 0.947160 P
0.625000 0.312113 0.447160 P
0.625000 0.312113 0.947160 P
0.625000 0.812113 0.447160 P
0.625000 0.812113 0.947160 P
0.375000 0.437887 0.197160 P
0.375000 0.437887 0.697160 P
0.375000 0.937887 0.197160 P
0.375000 0.937887 0.697160 P
0.875000 0.437887 0.197160 P
0.875000 0.437887 0.697160 P
0.875000 0.937887 0.197160 P
0.875000 0.937887 0.697160 P
0.375000 0.028215 0.245788 O
0.375000 0.028215 0.745788 O
0.375000 0.528215 0.245788 O
0.375000 0.528215 0.745788 O
0.875000 0.028215 0.245788 O
0.875000 0.028215 0.745788 O
0.875000 0.528215 0.245788 O
0.875000 0.528215 0.745788 O
0.125000 0.221785 0.495788 O
0.125000 0.221785 0.995788 O
0.125000 0.721785 0.495788 O
0.125000 0.721785 0.995788 O
0.625000 0.221785 0.495788 O
0.625000 0.221785 0.995788 O
0.625000 0.721785 0.495788 O
0.625000 0.721785 0.995788 O
0.375000 0.278215 0.004212 O
0.375000 0.278215 0.504212 O
0.375000 0.778215 0.004212 O
0.375000 0.778215 0.504212 O
0.875000 0.278215 0.004212 O
0.875000 0.278215 0.504212 O
0.875000 0.778215 0.004212 O
0.875000 0.778215 0.504212 O
0.125000 0.471785 0.254212 O
0.125000 0.471785 0.754212 O
0.125000 0.971785 0.254212 O
0.125000 0.971785 0.754212 O
0.625000 0.471785 0.254212 O
0.625000 0.471785 0.754212 O
0.625000 0.971785 0.254212 O
0.625000 0.971785 0.754212 O
0.125000 0.051897 0.089705 O
0.125000 0.051897 0.589705 O
0.125000 0.551897 0.089705 O
0.125000 0.551897 0.589705 O
0.625000 0.051897 0.089705 O
0.625000 0.051897 0.589705 O
0.625000 0.551897 0.089705 O
0.625000 0.551897 0.589705 O
0.375000 0.198104 0.339705 O
0.375000 0.198104 0.839705 O
0.375000 0.698104 0.339705 O
0.375000 0.698104 0.839705 O
0.875000 0.198104 0.339705 O
0.875000 0.198104 0.839705 O
0.875000 0.698104 0.339705 O
0.875000 0.698104 0.839705 O
0.125000 0.301897 0.160295 O
0.125000 0.301897 0.660295 O
0.125000 0.801897 0.160295 O
0.125000 0.801897 0.660295 O
0.625000 0.301897 0.160295 O
0.625000 0.301897 0.660295 O
0.625000 0.801897 0.160295 O
0.625000 0.801897 0.660295 O
0.375000 0.448103 0.410295 O
0.375000 0.448103 0.910295 O
0.375000 0.948103 0.410295 O
0.375000 0.948103 0.910295 O
0.875000 0.448103 0.410295 O
0.875000 0.448103 0.910295 O
0.875000 0.948103 0.410295 O
0.875000 0.948103 0.910295 O
0.375000 0.107889 0.488701 O
0.375000 0.107889 0.988701 O
0.375000 0.607889 0.488701 O
0.375000 0.607889 0.988701 O
0.875000 0.107889 0.488701 O
0.875000 0.107889 0.988701 O
0.875000 0.607889 0.488701 O
0.875000 0.607889 0.988701 O
0.125000 0.142111 0.238701 O
0.125000 0.142111 0.738701 O
0.125000 0.642111 0.238701 O
0.125000 0.642111 0.738701 O
0.625000 0.142111 0.238701 O
0.625000 0.142111 0.738701 O
0.625000 0.642111 0.238701 O
0.625000 0.642111 0.738701 O
0.375000 0.357889 0.261299 O
0.375000 0.357889 0.761299 O
0.375000 0.857889 0.261299 O
0.375000 0.857889 0.761299 O
0.875000 0.357889 0.261299 O
0.875000 0.357889 0.761299 O
0.875000 0.857889 0.261299 O
0.875000 0.857889 0.761299 O
0.125000 0.392111 0.011299 O
0.125000 0.392111 0.511299 O
0.125000 0.892111 0.011299 O
0.125000 0.892111 0.511299 O
0.625000 0.392111 0.011299 O
0.625000 0.392111 0.511299 O
0.625000 0.892111 0.011299 O
0.625000 0.892111 0.511299 O
0.029516 0.067926 0.362506 O
0.029516 0.067926 0.862506 O
0.029516 0.567926 0.362506 O
0.029516 0.567926 0.862506 O
0.529516 0.067926 0.362506 O
0.529516 0.067926 0.862506 O
0.529516 0.567926 0.362506 O
0.529516 0.567926 0.862506 O
0.220484 0.067926 0.362506 O
0.220484 0.067926 0.862506 O
0.220484 0.567926 0.362506 O
0.220484 0.567926 0.862506 O
0.720484 0.067926 0.362506 O
0.720484 0.067926 0.862506 O
0.720484 0.567926 0.362506 O
0.720484 0.567926 0.862506 O
0.279516 0.182074 0.112506 O
0.279516 0.182074 0.612506 O
0.279516 0.682074 0.112506 O
0.279516 0.682074 0.612506 O
0.779516 0.182074 0.112506 O
0.779516 0.182074 0.612506 O
0.779516 0.682074 0.112506 O
0.779516 0.682074 0.612506 O
0.470484 0.182074 0.112506 O
0.470484 0.182074 0.612506 O
0.470484 0.682074 0.112506 O
0.470484 0.682074 0.612506 O
0.970484 0.182074 0.112506 O
0.970484 0.182074 0.612506 O
0.970484 0.682074 0.112506 O
0.970484 0.682074 0.612506 O
0.029516 0.317926 0.387494 O
0.029516 0.317926 0.887494 O
0.029516 0.817926 0.387494 O
0.029516 0.817926 0.887494 O
0.529516 0.317926 0.387494 O
0.529516 0.317926 0.887494 O
0.529516 0.817926 0.387494 O
0.529516 0.817926 0.887494 O
0.220484 0.317926 0.387494 O
0.220484 0.317926 0.887494 O
0.220484 0.817926 0.387494 O
0.220484 0.817926 0.887494 O
0.720484 0.317926 0.387494 O
0.720484 0.317926 0.887494 O
0.720484 0.817926 0.387494 O
0.720484 0.817926 0.887494 O
0.279516 0.432074 0.137494 O
0.279516 0.432074 0.637494 O
0.279516 0.932074 0.137494 O
0.279516 0.932074 0.637494 O
0.779516 0.432074 0.137494 O
0.779516 0.432074 0.637494 O
0.779516 0.932074 0.137494 O
0.779516 0.932074 0.637494 O
0.470484 0.432074 0.137494 O
0.470484 0.432074 0.637494 O
0.470484 0.932074 0.137494 O
0.470484 0.932074 0.637494 O
0.970484 0.432074 0.137494 O
0.970484 0.432074 0.637494 O
0.970484 0.932074 0.137494 O
0.970484 0.932074 0.637494 O
