Na2 Ca2 V4 Si4 P2 O24                   
   1.00000000000000     
     8.8368719999999996    0.1288060000000000    0.0657220000000000
     4.2711350000000001    7.6941150000000000    0.0867860000000000
     4.4070689999999999    2.5705170000000002    7.2274229999999999
   Ca   Na   V    Si   P    O 
     2     2     4     4     2    24
Direct
  0.7437521931945142  0.4170740524460581  0.1728615113108326
 -0.0007261315656078  0.9897776827780399  0.0124896381352454
  0.2132237491119533  0.7182025132771503  0.4428974174337089
  0.8585984954437589  0.2534922483146677  0.6071385594490879
  0.3572312521876252  0.3560583401592416  0.3645363964003041
  0.6248066833125220  0.6446326467889145  0.6492976464753309
  0.1550881373005260  0.1458201054831839  0.1391167430065219
  0.8515921942039766  0.8526988986658758  0.8531742002417220
  0.0210875732435534  0.4611424558165593  0.7521550578099598
  0.7404993636239725  0.0310884181669447  0.4730854728679790
  0.4533931417954340  0.7561212307047050  0.0298574342165382
  0.5392163491840311  0.2529990663988346  0.9656391728442383
  0.9656456141002103  0.5489069980904840  0.2499807478134981
  0.2511062116327883  0.9653785382033905  0.5395120631779230
  0.2128480131670709  0.4220462901527159  0.5782900950734069
  0.7772961392375831  0.5626534362982759  0.4122007049980518
  0.5750373268281668  0.2311589611848024  0.4333857671926143
  0.4123768609277890  0.7808182364207633  0.5548205829454064
  0.4342453617707654  0.5788738548047279  0.2262887160092353
  0.5582979493308722  0.4265982196192695  0.7692544909498550
  0.9172801442552601  0.0697946840188512  0.2774770997341517
  0.0787350581803558  0.9530191632243640  0.7239166556679557
  0.0271600948027456  0.2832922533419783  0.9470097842087017
  0.9457132613651636  0.7242321416065458  0.0741688382643769
  0.2626242722295898  0.9290726504973176  0.0642891854789365
  0.7324821431196378  0.0765642887487309  0.9419635707617164
  0.4936315590681208  0.3016277993932964  0.1431223344813123
  0.4807892894342687  0.7159138494171821  0.8555109295373388
  0.1254940303007861  0.5259623078471992  0.2904013964713641
  0.8404274574165085  0.4899390301051472  0.7214333238385082
  0.2951199043225027  0.1304158360360608  0.5018694927779483
  0.7080878478021829  0.8484405344875050  0.5076169884644349
  0.3602929292484902  0.2016481311550954  0.0094495759753934
  0.6476772884172686  0.7674436013174647  0.9996029490488351
  0.1937773178465660  1.0021457218033887  0.3809921087745374
  0.7823800504018061  0.0082950343684384  0.6455000709963208
  1.0013840819293931  0.3739835808572131  0.2148807388664860
  1.0004391429177872  0.6490386019810878  0.7696079074881866
 
             NaN             NaN             NaN
             NaN             NaN             NaN
             NaN             NaN             NaN
             NaN             NaN             NaN
             NaN             NaN             NaN
             NaN             NaN             NaN
             NaN             NaN             NaN
             NaN             NaN             NaN
             NaN             NaN             NaN
             NaN             NaN             NaN
             NaN             NaN             NaN
             NaN             NaN             NaN
             NaN             NaN             NaN
             NaN             NaN             NaN
             NaN             NaN             NaN
             NaN             NaN             NaN
             NaN             NaN             NaN
             NaN             NaN             NaN
             NaN             NaN             NaN
             NaN             NaN             NaN
             NaN             NaN             NaN
             NaN             NaN             NaN
             NaN             NaN             NaN
             NaN             NaN             NaN
             NaN             NaN             NaN
             NaN             NaN             NaN
             NaN             NaN             NaN
             NaN             NaN             NaN
             NaN             NaN             NaN
             NaN             NaN             NaN
             NaN             NaN             NaN
             NaN             NaN             NaN
             NaN             NaN             NaN
             NaN             NaN             NaN
             NaN             NaN             NaN
             NaN             NaN             NaN
             NaN             NaN             NaN
             NaN             NaN             NaN
