Na2 Ca2 V4 Si4 P2 O24
1.0
8.836872 0.128806 0.065722
4.271135 7.694115 0.086786
4.407069 2.570517 7.227423
Ca Na V Si P O
2 2 4 4 2 24
direct
0.649580 0.438131 0.262425 Ca
0.006738 0.987082 0.002445 Ca
0.308699 0.608823 0.479567 Na
0.873961 0.251182 0.600481 Na
0.355874 0.359978 0.350256 V
0.630432 0.650929 0.653180 V
0.150224 0.147509 0.135612 V
0.848988 0.855737 0.848070 V
0.027150 0.466663 0.746661 Si
0.740229 0.042741 0.464184 Si
0.451807 0.757613 0.034322 Si
0.541795 0.254219 0.958739 Si
0.961800 0.544381 0.243450 P
0.250715 0.962723 0.529480 P
0.209578 0.441836 0.563983 O
0.785792 0.560579 0.418300 O
0.567902 0.237849 0.436145 O
0.417220 0.782162 0.549310 O
0.434967 0.581861 0.229336 O
0.558530 0.425594 0.758780 O
0.913395 0.069497 0.264568 O
0.082923 0.951123 0.718201 O
0.052569 0.277311 0.927975 O
0.936932 0.725597 0.074788 O
0.262534 0.932572 0.057876 O
0.736115 0.079761 0.932047 O
0.510913 0.305889 0.128386 O
0.478083 0.711004 0.863169 O
0.134103 0.512819 0.270928 O
0.836108 0.493812 0.736276 O
0.291953 0.135094 0.482492 O
0.704091 0.854973 0.512953 O
0.357242 0.204895 0.016136 O
0.640169 0.788974 0.989246 O
0.192191 0.989477 0.377545 O
0.789420 0.015951 0.633686 O
-0.016440 0.373748 0.214053 O
0.998890 0.650920 0.775452 O
