Mg16 Mn16 P16 O64 F16
1.0
  10.5208190361881755   -0.1082650906701644    0.2066993197996456
  -1.6145711984817046   10.5165131072397333   -0.2105605706284394
  -3.4320022392228493   -5.3999441467864893   13.2451422810787882
Mg Mn P O F
1 16 16 64 16
direct
   0.4555428947008586    0.2781447373495745    0.5833059818553821 Mg
   0.0031813585249622    0.0051449541680668    0.0077949369994706 Mn
   0.0031813585249622    0.0051449541680668    0.5077949369994705 Mn
   0.0031813585249623    0.5051449541680668    0.0077949369994706 Mn
   0.0031813585249622    0.5051449541680668    0.5077949369994705 Mn
   0.5031813585249623    0.0051449541680668    0.0077949369994706 Mn
   0.5031813585249623    0.0051449541680668    0.5077949369994705 Mn
   0.5031813585249623    0.5051449541680668    0.0077949369994706 Mn
   0.5031813585249622    0.5051449541680668    0.5077949369994705 Mn
   0.2438479306706327    0.2493272985875699    0.2449989136284003 Mn
   0.2438479306706327    0.2493272985875699    0.7449989136284003 Mn
   0.2438479306706327    0.7493272985875699    0.2449989136284003 Mn
   0.2438479306706326    0.7493272985875699    0.7449989136284003 Mn
   0.7438479306706326    0.2493272985875699    0.2449989136284003 Mn
   0.7438479306706326    0.2493272985875699    0.7449989136284002 Mn
   0.7438479306706326    0.7493272985875700    0.2449989136284003 Mn
   0.7438479306706326    0.7493272985875700    0.7449989136284003 Mn
   0.2237054655595223    0.0589091260960793    0.3789294476064811 P
   0.2237054655595222    0.0589091260960793    0.8789294476064810 P
   0.2237054655595223    0.5589091260960792    0.3789294476064811 P
   0.2237054655595222    0.5589091260960793    0.8789294476064811 P
   0.7237054655595223    0.0589091260960793    0.3789294476064811 P
   0.7237054655595223    0.0589091260960794    0.8789294476064811 P
   0.7237054655595222    0.5589091260960793    0.3789294476064811 P
   0.7237054655595222    0.5589091260960793    0.8789294476064811 P
   0.2791899982524306    0.4377993039811265    0.1179567971120612 P
   0.2791899982524306    0.4377993039811266    0.6179567971120612 P
   0.2791899982524306    0.9377993039811265    0.1179567971120612 P
   0.2791899982524306    0.9377993039811267    0.6179567971120612 P
   0.7791899982524306    0.4377993039811265    0.1179567971120612 P
   0.7791899982524306    0.4377993039811265    0.6179567971120612 P
   0.7791899982524305    0.9377993039811265    0.1179567971120612 P
   0.7791899982524305    0.9377993039811265    0.6179567971120612 P
   0.3614589929551144    0.4228867370530977    0.0404704554175588 O
   0.3614589929551144    0.4228867370530978    0.5404704554175588 O
   0.3614589929551144    0.9228867370530978    0.0404704554175588 O
   0.3614589929551143    0.9228867370530979    0.5404704554175588 O
   0.8614589929551143    0.4228867370530978    0.0404704554175588 O
   0.8614589929551143    0.4228867370530978    0.5404704554175588 O
   0.8614589929551143    0.9228867370530979    0.0404704554175588 O
   0.8614589929551143    0.9228867370530978    0.5404704554175588 O
   0.3187126405474565    0.3436111968618327    0.1736637071617970 O
   0.3187126405474565    0.3436111968618328    0.6736637071617970 O
   0.3187126405474565    0.8436111968618327    0.1736637071617970 O
   0.3187126405474565    0.8436111968618328    0.6736637071617970 O
   0.8187126405474565    0.3436111968618328    0.1736637071617970 O
   0.8187126405474565    0.3436111968618328    0.6736637071617970 O
   0.8187126405474565    0.8436111968618328    0.1736637071617970 O
   0.8187126405474565    0.8436111968618328    0.6736637071617971 O
   0.1705773179989016    0.1563157658194569    0.3270802902049147 O
   0.1705773179989016    0.1563157658194570    0.8270802902049148 O
   0.1705773179989016    0.6563157658194571    0.3270802902049147 O
   0.1705773179989016    0.6563157658194569    0.8270802902049147 O
   0.6705773179989016    0.1563157658194569    0.3270802902049147 O
   0.6705773179989015    0.1563157658194569    0.8270802902049147 O
   0.6705773179989016    0.6563157658194571    0.3270802902049148 O
   0.6705773179989016    0.6563157658194569    0.8270802902049148 O
   0.3124185242700506    0.0896353182125473    0.1941791464637212 O
   0.3124185242700505    0.0896353182125474    0.6941791464637213 O
   0.3124185242700506    0.5896353182125473    0.1941791464637212 O
   0.3124185242700505    0.5896353182125473    0.6941791464637211 O
   0.8124185242700506    0.0896353182125474    0.1941791464637213 O
   0.8124185242700505    0.0896353182125473    0.6941791464637211 O
   0.8124185242700506    0.5896353182125473    0.1941791464637212 O
   0.8124185242700505    0.5896353182125473    0.6941791464637211 O
   0.1457153415472447    0.0881199769111128    0.4612341611680648 O
   0.1457153415472447    0.0881199769111128    0.9612341611680648 O
   0.1457153415472447    0.5881199769111128    0.4612341611680648 O
   0.1457153415472447    0.5881199769111128    0.9612341611680648 O
   0.6457153415472447    0.0881199769111127    0.4612341611680648 O
   0.6457153415472447    0.0881199769111128    0.9612341611680648 O
   0.6457153415472447    0.5881199769111128    0.4612341611680648 O
   0.6457153415472446    0.5881199769111128    0.9612341611680648 O
   0.1769778326862053    0.4037826599502382    0.3104851232931765 O
   0.1769778326862052    0.4037826599502382    0.8104851232931763 O
   0.1769778326862053    0.9037826599502382    0.3104851232931765 O
   0.1769778326862052    0.9037826599502382    0.8104851232931765 O
   0.6769778326862051    0.4037826599502382    0.3104851232931765 O
   0.6769778326862051    0.4037826599502382    0.8104851232931765 O
   0.6769778326862053    0.9037826599502382    0.3104851232931765 O
   0.6769778326862051    0.9037826599502382    0.8104851232931765 O
   0.1298679271781715    0.3833515385969228    0.0522199664367129 O
   0.1298679271781715    0.3833515385969228    0.5522199664367129 O
   0.1298679271781715    0.8833515385969228    0.0522199664367129 O
   0.1298679271781715    0.8833515385969228    0.5522199664367129 O
   0.6298679271781715    0.3833515385969228    0.0522199664367129 O
   0.6298679271781714    0.3833515385969228    0.5522199664367129 O
   0.6298679271781715    0.8833515385969228    0.0522199664367129 O
   0.6298679271781715    0.8833515385969228    0.5522199664367129 O
   0.3773196528419937    0.1067511154361043    0.4242512730397578 O
   0.3773196528419937    0.1067511154361043    0.9242512730397578 O
   0.3773196528419937    0.6067511154361043    0.4242512730397578 O
   0.3773196528419936    0.6067511154361043    0.9242512730397577 O
   0.8773196528419938    0.1067511154361042    0.4242512730397578 O
   0.8773196528419936    0.1067511154361043    0.9242512730397577 O
   0.8773196528419938    0.6067511154361044    0.4242512730397578 O
   0.8773196528419935    0.6067511154361043    0.9242512730397578 O
   0.0618296792397785    0.1572422183787517    0.1295432692242003 F
   0.0618296792397785    0.1572422183787517    0.6295432692242002 F
   0.0618296792397786    0.6572422183787517    0.1295432692242003 F
   0.0618296792397785    0.6572422183787517    0.6295432692242002 F
   0.5618296792397786    0.1572422183787517    0.1295432692242003 F
   0.5618296792397786    0.1572422183787517    0.6295432692242002 F
   0.5618296792397786    0.6572422183787516    0.1295432692242003 F
   0.5618296792397786    0.6572422183787517    0.6295432692242003 F
   0.4452166313140110    0.3431877329210984    0.3769759346374997 F
   0.4452166313140110    0.3431877329210984    0.8769759346374997 F
   0.4452166313140111    0.8431877329210984    0.3769759346374997 F
   0.4452166313140111    0.8431877329210985    0.8769759346374998 F
   0.9452166313140110    0.3431877329210984    0.3769759346374997 F
   0.9452166313140111    0.3431877329210984    0.8769759346374997 F
   0.9452166313140110    0.8431877329210985    0.3769759346374997 F
   0.9452166313140111    0.8431877329210985    0.8769759346374998 F
