Na24 Br8 O8
1.0
   9.0662603377999993    0.0000000000000000    0.0000000000000000
   0.0000000000000000    9.0662603377999993    0.0000000000000000
   0.0000000000000000    0.0000000000000000    9.0662603377999993
Na Br O
23 8 8
direct
   0.5000000000000000    0.2500000000000000    0.7500000000000000 Na
   0.0000000000000000    0.2500000000000000    0.2500000000000000 Na
   0.0000000000000000    0.2500000000000000    0.7500000000000000 Na
   0.0000000000000000    0.7500000000000000    0.2500000000000000 Na
   0.0000000000000000    0.7500000000000000    0.7500000000000000 Na
   0.5000000000000000    0.2500000000000000    0.2500000000000000 Na
   0.5000000000000000    0.7500000000000000    0.2500000000000000 Na
   0.5000000000000000    0.7500000000000000    0.7500000000000000 Na
   0.2500000000000000    0.0000000000000000    0.2500000000000000 Na
   0.2500000000000000    0.0000000000000000    0.7500000000000000 Na
   0.2500000000000000    0.5000000000000000    0.2500000000000000 Na
   0.7500000000000000    0.0000000000000000    0.2500000000000000 Na
   0.7500000000000000    0.0000000000000000    0.7500000000000000 Na
   0.7500000000000000    0.5000000000000000    0.2500000000000000 Na
   0.7500000000000000    0.5000000000000000    0.7500000000000000 Na
   0.2500000000000000    0.2500000000000000    0.0000000000000000 Na
   0.2500000000000000    0.2500000000000000    0.5000000000000000 Na
   0.2500000000000000    0.7500000000000000    0.0000000000000000 Na
   0.2500000000000000    0.7500000000000000    0.5000000000000000 Na
   0.7500000000000000    0.2500000000000000    0.0000000000000000 Na
   0.7500000000000000    0.2500000000000000    0.5000000000000000 Na
   0.7500000000000000    0.7500000000000000    0.0000000000000000 Na
   0.7500000000000000    0.7500000000000000    0.5000000000000000 Na
   0.0000000000000000    0.0000000000000000    0.0000000000000000 Br
   0.0000000000000000    0.0000000000000000    0.5000000000000000 Br
   0.0000000000000000    0.5000000000000000    0.0000000000000000 Br
   0.0000000000000000    0.5000000000000000    0.5000000000000000 Br
   0.5000000000000000    0.0000000000000000    0.0000000000000000 Br
   0.5000000000000000    0.0000000000000000    0.5000000000000000 Br
   0.5000000000000000    0.5000000000000000    0.0000000000000000 Br
   0.5000000000000000    0.5000000000000000    0.5000000000000000 Br
   0.2500000000000000    0.2500000000000000    0.2500000000000000 O
   0.2500000000000000    0.2500000000000000    0.7500000000000000 O
   0.2500000000000000    0.7500000000000000    0.2500000000000000 O
   0.2500000000000000    0.7500000000000000    0.7500000000000000 O
   0.7500000000000000    0.2500000000000000    0.2500000000000000 O
   0.7500000000000000    0.2500000000000000    0.7500000000000000 O
   0.7500000000000000    0.7500000000000000    0.2500000000000000 O
   0.7500000000000000    0.7500000000000000    0.7500000000000000 O
