Ca1 V16 F48                             
   1.00000000000000     
    15.6514699999999998    0.0000040000000000   -0.0000880000000000
     0.0000340000000000    7.8235080000000004   -0.0000650000000000
    -0.0000630000000000   -0.0002130000000000    7.8218629999999996
   Ca   V    F 
     1    16    48
Direct
  0.5829989087960288  0.4999963508276421  0.5000926368368181
  0.1250006713860114  0.2498342624796248  0.2498231686632520
  0.6279858955754080  0.2402239422345706  0.2402499412488178
  0.1250137673187638  0.2498344726876269  0.7501618963085317
  0.6279821152580141  0.2401742341352577  0.7598059971495731
  0.1250052874825711  0.7501730232807302  0.2498228605391795
  0.6279866965945886  0.7597815347204079  0.2402499408848260
  0.1250042111885138  0.7501729932296941  0.7501633122997821
  0.6279809392855019  0.7597103148719804  0.7597107097837498
  0.3737634649145203  0.2495444125600784  0.2495413045045149
  0.8765163586077306  0.2500316389509883  0.2500295281532562
  0.3737644063200316  0.2495221780894142  0.7504762878333763
  0.8765211404036800  0.2500114877883830  0.7499883621647300
  0.3737664969118111  0.7504795826998381  0.2495200372822936
  0.8765207241979752  0.7499907623214130  0.2500084192163968
  0.3737805866149064  0.7504566745396192  0.7504524548267804
  0.8764962836859242  0.7499700536293586  0.7499679835612763
  0.0005988280278393  0.2474736258063611  0.2474563425751216
  0.5020423394287105  0.2647292667403301  0.2647525453928296
  0.0005713508489099  0.2474640666571203  0.7525376063307669
  0.5020202218805080  0.2646903520850282  0.7352999454626087
  0.0005607955460198  0.7525392178690375  0.2474506531902071
  0.5019934983468390  0.7353180969412977  0.2646849810454598
  0.0005993299003478  0.7525363283032089  0.7525306089046209
  0.5020696252193741  0.7352705555574909  0.7352789042627829
  0.2496384438697654  0.2470978093146159  0.2470776818492204
  0.7509419869228180  0.2564843526297654  0.2564962628288913
  0.2496555355654040  0.2470948468413070  0.7529140396739957
  0.7509670128532818  0.2564537559128561  0.7435540389800854
  0.2496676276025049  0.7529123536412607  0.2470789932692309
  0.7509865815369069  0.7435638182694271  0.2564368981311678
  0.2496412675661838  0.7529058322364057  0.7529029688496760
  0.7509057692218901  0.7435028001640421  0.7435199265667579
  0.1250664025775156  0.2503937351264980  1.0000047702561228
  0.6239424632406743  0.2452100532721432 -0.0000576351675575
  0.1251724806398674  0.2503639402645101  0.4999819941856639
  0.6275662293909473  0.2342485573253502  0.5000357066084418
  0.1250613178594518  0.7496132468975303 -0.0000268861267687
  0.6239475964427793  0.7548141728007597  0.9999599203630978
  0.1251655115613980  0.7496428267896038  0.5000085143874515
  0.6275628723046917  0.7656438010608128  0.5001173173169601
  0.3789896479243443  0.2497256001193700 -0.0000276813777348
  0.8724122702237820  0.2496906304473420 -0.0000390277785248
  0.3740989844178515  0.2515278253519921  0.5000380444532787
  0.8767243620621783  0.2504457142562437  0.5000522197850350
  0.3789808588604996  0.7502782665317175  0.0000133602642836
  0.8724176764350496  0.7503140056075025  0.0000332081129413
  0.3740986158336908  0.7484754798569097  0.4999588726304843
  0.8767269452155982  0.7495601070075575  0.4999391696836571
  0.1250631827749085  1.0000246975968230  0.2503720678125932
  0.6239464950103050  0.9999985433414179  0.2454680548675634
  0.1250661602100987 -0.0000050987014692  0.7496129660467599
  0.6239513475367969  0.0000249105257536  0.7545152651228730
  0.1251675866030740  0.4999826938034552  0.2503654130051042
  0.6275584090545210  0.4999923784866539  0.2342418641470805
  0.1251687123103264  0.5000089540628788  0.7496196335528504
  0.6275501313361591  0.5000746376836223  0.7658103634923501
  0.3789765158337274  0.9999663090314354  0.2498375595874621
  0.8724226585058296 -0.0000329072799179  0.2497975892972862
  0.3789787550555346  0.0000077719348453  0.7501530000873950
  0.8724165566084331  1.0000391848570156  0.7501948721076486
  0.3741068969617013  0.5000528496364929  0.2514039010348278
  0.8767193259861190  0.5000545847838952  0.2503265349850642
  0.3741099536037649  0.4999738135264550  0.7485848840523626
  0.8767193559467574  0.4999427109184189  0.7496659341548421
 
             NaN             NaN             NaN
             NaN             NaN             NaN
             NaN             NaN             NaN
             NaN             NaN             NaN
             NaN             NaN             NaN
             NaN             NaN             NaN
             NaN             NaN             NaN
             NaN             NaN             NaN
             NaN             NaN             NaN
             NaN             NaN             NaN
             NaN             NaN             NaN
             NaN             NaN             NaN
             NaN             NaN             NaN
             NaN             NaN             NaN
             NaN             NaN             NaN
             NaN             NaN             NaN
             NaN             NaN             NaN
             NaN             NaN             NaN
             NaN             NaN             NaN
             NaN             NaN             NaN
             NaN             NaN             NaN
             NaN             NaN             NaN
             NaN             NaN             NaN
             NaN             NaN             NaN
             NaN             NaN             NaN
             NaN             NaN             NaN
             NaN             NaN             NaN
             NaN             NaN             NaN
             NaN             NaN             NaN
             NaN             NaN             NaN
             NaN             NaN             NaN
             NaN             NaN             NaN
             NaN             NaN             NaN
             NaN             NaN             NaN
             NaN             NaN             NaN
             NaN             NaN             NaN
             NaN             NaN             NaN
             NaN             NaN             NaN
             NaN             NaN             NaN
             NaN             NaN             NaN
             NaN             NaN             NaN
             NaN             NaN             NaN
             NaN             NaN             NaN
             NaN             NaN             NaN
             NaN             NaN             NaN
             NaN             NaN             NaN
             NaN             NaN             NaN
             NaN             NaN             NaN
             NaN             NaN             NaN
             NaN             NaN             NaN
             NaN             NaN             NaN
             NaN             NaN             NaN
             NaN             NaN             NaN
             NaN             NaN             NaN
             NaN             NaN             NaN
             NaN             NaN             NaN
             NaN             NaN             NaN
             NaN             NaN             NaN
             NaN             NaN             NaN
             NaN             NaN             NaN
             NaN             NaN             NaN
             NaN             NaN             NaN
             NaN             NaN             NaN
             NaN             NaN             NaN
             NaN             NaN             NaN
