Ca1 V16 F48
1.0
15.651470 0.000004 -0.000088
0.000034 7.823508 -0.000065
-0.000063 -0.000213 7.821863
Ca V F
1 16 48
direct
0.593750 0.499997 0.500002 Ca
0.124745 0.250061 0.250033 V
0.625705 0.246703 0.246763 V
0.124747 0.250061 0.749966 V
0.625706 0.246706 0.753233 V
0.124746 0.749938 0.250034 V
0.625706 0.753293 0.246766 V
0.124745 0.749939 0.749967 V
0.625703 0.753293 0.753235 V
0.372858 0.247964 0.247993 V
0.876694 0.248803 0.248808 V
0.372856 0.247965 0.752005 V
0.876692 0.248804 0.751191 V
0.372855 0.752035 0.247991 V
0.876692 0.751195 0.248808 V
0.372858 0.752036 0.752008 V
0.876694 0.751195 0.751194 V
0.000461 0.250210 0.250236 F
0.499536 0.259634 0.259573 F
0.000463 0.250209 0.749766 F
0.499536 0.259628 0.740435 F
0.000463 0.749790 0.250229 F
0.499538 0.740375 0.259567 F
0.000461 0.749790 0.749769 F
0.499535 0.740368 0.740428 F
0.249232 0.250516 0.250545 F
0.750770 0.256167 0.256145 F
0.249233 0.250516 0.749453 F
0.750768 0.256165 0.743852 F
0.249232 0.749485 0.250548 F
0.750767 0.743834 0.256151 F
0.249232 0.749486 0.749453 F
0.750771 0.743834 0.743852 F
0.124877 0.250018 0.999997 F
0.624809 0.252664 0.000001 F
0.124888 0.250015 0.500003 F
0.623279 0.264939 0.500003 F
0.124879 0.749981 0.000004 F
0.624812 0.747337 -0.000001 F
0.124885 0.749985 0.499996 F
0.623283 0.735058 0.499995 F
0.375271 0.251683 0.000001 F
0.875041 0.251009 0.000000 F
0.379137 0.259344 0.500002 F
0.872696 0.255611 0.500000 F
0.375269 0.748317 1.000002 F
0.875040 0.748992 1.000000 F
0.379134 0.740664 0.500000 F
0.872698 0.744388 0.500002 F
0.124877 0.999996 0.250012 F
0.624804 0.999993 0.252888 F
0.124877 0.000004 0.749990 F
0.624804 0.000002 0.747113 F
0.124886 0.500003 0.250017 F
0.623303 0.500008 0.264657 F
0.124885 0.499996 0.749983 F
0.623303 0.499998 0.735344 F
0.375281 -0.000003 0.251814 F
0.875038 -0.000000 0.251073 F
0.375282 1.000001 0.748185 F
0.875037 0.999999 0.748923 F
0.379076 0.500000 0.259166 F
0.872736 0.500001 0.255511 F
0.379078 0.500000 0.740834 F
0.872733 0.500000 0.744487 F
