Ca1 Fe4 S6 O24                          
   1.00000000000000     
     7.7084999999999999    0.1472990000000000    4.5723549999999999
     2.6633529999999999    7.2370029999999996    4.5956010000000003
     0.1981440000000000    0.1700280000000000    8.9608860000000004
   Ca   Fe   S    O 
     1     4     6    24
Direct
  0.2556067107344199  0.8390458200376759  0.5956002610210857
  0.6639172678619432  0.6326680885220047  0.6474177223861025
  0.1387294936481459  0.1487111517061760  0.1371719982287211
  0.8279999327267127  0.8462159562367404  0.8545625153379914
  0.3599152965714139  0.3495808740977154  0.3550879981502914
  0.9584305709334238  0.2499644952324602  0.5246434169741874
  0.4449975183674222  0.0318220831939527  0.7472895487058994
  0.5454242615808996  0.9623982633601931  0.2439352901322205
  0.7478235310493380  0.4535856208850750  0.0482090153484905
  0.2578494642088536  0.5256151979322972  0.9577814937738073
  0.0478183202113187  0.7434755289612114  0.4522766665058532
  0.4191106680856155  0.5624753260925961  0.7768168640166330
  0.9303771946782993  0.2983553340111446  0.0298920054463913
  0.7872978076612364  0.3904381559427249  0.5983704009275418
  0.0382908667786827  0.9345549201580765  0.3122119542430694
  0.5853155726297813  0.7777740034082039  0.4010815751470196
  0.3064809673751134  0.0227036432320188  0.9378015587129371
  0.6890618568072089  0.9541910301423667  0.0611386859155000
  0.2313489716032372  0.6047351049931897  0.3889084564442377
  0.0917799092233721  0.6986075086654758  0.9252001297572544
  0.3881669663138504  0.2219197342806600  0.6090300831577954
  0.9566096077872949  0.0562829314671941  0.6680799737925512
  0.6046543541859448  0.3984949848777241  0.2316042251773209
  0.9663531920846817  0.2685578897458171  0.3469164456143229
  0.4576767579401789  0.8883813913978239  0.6981502723028198
  0.3551674315003723  0.9935472961203921  0.2586735726918439
  0.6894602101791092  0.5066993036596665  0.8942657518599854
  0.2402646889822859  0.3595480058451532  0.9811267008321211
  0.8928274913386405  0.7022263140088735  0.4830055175792624
  0.1314696347814742  0.2589112344452218  0.5004237601781594
  0.6331398938195820  0.9911919002852593  0.7379283427984803
  0.5328243727928983  0.1121446986418357  0.2787307671847691
  0.7653785104717297  0.6185076921457767  0.0318477603001472
  0.2901973028698681  0.4985948835443842  0.1159254848660844
  0.0320091439472518  0.7346069860029721  0.6329458226933230
 
             NaN             NaN             NaN
             NaN             NaN             NaN
             NaN             NaN             NaN
             NaN             NaN             NaN
             NaN             NaN             NaN
             NaN             NaN             NaN
             NaN             NaN             NaN
             NaN             NaN             NaN
             NaN             NaN             NaN
             NaN             NaN             NaN
             NaN             NaN             NaN
             NaN             NaN             NaN
             NaN             NaN             NaN
             NaN             NaN             NaN
             NaN             NaN             NaN
             NaN             NaN             NaN
             NaN             NaN             NaN
             NaN             NaN             NaN
             NaN             NaN             NaN
             NaN             NaN             NaN
             NaN             NaN             NaN
             NaN             NaN             NaN
             NaN             NaN             NaN
             NaN             NaN             NaN
             NaN             NaN             NaN
             NaN             NaN             NaN
             NaN             NaN             NaN
             NaN             NaN             NaN
             NaN             NaN             NaN
             NaN             NaN             NaN
             NaN             NaN             NaN
             NaN             NaN             NaN
             NaN             NaN             NaN
             NaN             NaN             NaN
             NaN             NaN             NaN
