Na2 Ca2 V4 Si4 P2 O24                   
   1.00000000000000     
     8.8650450000000003    0.1482480000000000    0.0631540000000000
     4.3012810000000004    7.6800220000000001    0.0539760000000000
     4.4246049999999997    2.5435900000000000    7.2570629999999996
   Ca   Na   V    Si   P    O 
     2     2     4     4     2    24
Direct
  0.5620682808388198  0.7112002011682335  0.3074662502441931
 -0.0040062395537444  1.0037550932919181  1.0023912369550014
  0.1155963014372388  0.7499858591658128  0.3956875234304337
  0.8732442202664119  0.2516959782227786  0.6023207114813556
  0.3687048741470826  0.3592294419371370  0.3560378166041427
  0.6508687487000346  0.6328622291708743  0.6615373719178813
  0.1539345698129245  0.1465593698787988  0.1334343813592688
  0.8508522338017253  0.8575128898146028  0.8462910337925544
  0.0348349027618386  0.4541738074286861  0.7553591573184393
  0.7492974998405881  0.0346513009424123  0.4684731034575709
  0.4552166898930204  0.7512259151378290  0.0321873742158874
  0.5382759764665140  0.2572364757120558  0.9596256524018785
  0.9792459359911286  0.5446539419366373  0.2432163119269270
  0.2531789312514779  0.9688738599636623  0.5353504018486337
  0.2154859861878252  0.4410050526418283  0.5662592016630686
  0.7963262618782461  0.5530163683893680  0.4197392076428388
  0.5639147133818260  0.2082147631608252  0.4406866466748151
  0.4375632963802638  0.8085771611780215  0.5512931757991957
  0.4461673165964780  0.5832016982505267  0.2336367509715675
  0.5619966452955147  0.4275810572789305  0.7632441852247829
  0.9298022891666853  0.0621603074665066  0.2770283902593013
  0.0882214354319130  0.9388002072925018  0.7223952080664121
  0.0657919610679413  0.2682656562446950  0.9319263106625506
  0.9180572641414265  0.7265754385378250  0.0879261471808495
  0.2576764838526807  0.9200060826102243  0.0630766281909092
  0.7350329305804311  0.0805193422417274  0.9412999839279387
  0.4825739627258454  0.3097292337068092  0.1399587794994134
  0.4942035172425584  0.6962433920892579  0.8650059336084853
  0.1344942957211973  0.5519190027672611  0.2662754470493875
  0.8580739895135475  0.4648777112282899  0.7306091577087734
  0.2511419281410863  0.1626495231894522  0.4883847519246634
  0.7467263811066358  0.8286502247897488  0.5184406398934384
  0.3673933612111508  0.1903455709530137  0.0123650613458487
  0.6240179473857671  0.8095419865374419 -0.0057964135376634
  0.2317417997556760  0.9582412130108700  0.3759949682399459
  0.7888931578893225  0.0236964107077169  0.6361715213036424
  0.0226331030874669  0.3648268135608302  0.2173715756364139
  0.9878827537740745  0.6489402121773895  0.7811507826311411
 
             NaN             NaN             NaN
             NaN             NaN             NaN
             NaN             NaN             NaN
             NaN             NaN             NaN
             NaN             NaN             NaN
             NaN             NaN             NaN
             NaN             NaN             NaN
             NaN             NaN             NaN
             NaN             NaN             NaN
             NaN             NaN             NaN
             NaN             NaN             NaN
             NaN             NaN             NaN
             NaN             NaN             NaN
             NaN             NaN             NaN
             NaN             NaN             NaN
             NaN             NaN             NaN
             NaN             NaN             NaN
             NaN             NaN             NaN
             NaN             NaN             NaN
             NaN             NaN             NaN
             NaN             NaN             NaN
             NaN             NaN             NaN
             NaN             NaN             NaN
             NaN             NaN             NaN
             NaN             NaN             NaN
             NaN             NaN             NaN
             NaN             NaN             NaN
             NaN             NaN             NaN
             NaN             NaN             NaN
             NaN             NaN             NaN
             NaN             NaN             NaN
             NaN             NaN             NaN
             NaN             NaN             NaN
             NaN             NaN             NaN
             NaN             NaN             NaN
             NaN             NaN             NaN
             NaN             NaN             NaN
             NaN             NaN             NaN
