Na2 Ca2 V4 Si4 P2 O24
1.0
8.865045 0.148248 0.063154
4.301281 7.680022 0.053976
4.424605 2.543590 7.257063
Ca Na V Si P O
2 2 4 4 2 24
direct
0.552550 0.686618 0.376726 Ca
0.011590 0.999697 -0.009101 Ca
0.130037 0.751465 0.393539 Na
0.857412 0.254999 0.592110 Na
0.369656 0.354320 0.356655 V
0.646153 0.640261 0.654706 V
0.150804 0.149626 0.131806 V
0.850639 0.851282 0.852138 V
0.036155 0.455694 0.751944 Si
0.748832 0.035548 0.462668 Si
0.464048 0.749194 0.038056 Si
0.537588 0.253066 0.962567 Si
0.970162 0.542447 0.245939 P
0.250632 0.965275 0.537387 P
0.224659 0.445245 0.569961 O
0.778730 0.561962 0.410360 O
0.569770 0.224992 0.439139 O
0.421488 0.786691 0.560116 O
0.438861 0.573244 0.227029 O
0.562103 0.425586 0.769939 O
0.932060 0.057900 0.275848 O
0.078487 0.946371 0.718409 O
0.059452 0.267731 0.928865 O
0.941588 0.726667 0.079690 O
0.265124 0.917706 0.065161 O
0.735838 0.077794 0.941296 O
0.487475 0.285596 0.150186 O
0.512079 0.708658 0.855422 O
0.124989 0.523710 0.292087 O
0.863007 0.484643 0.707083 O
0.273942 0.141389 0.506470 O
0.723038 0.851213 0.490410 O
0.365655 0.195899 0.003495 O
0.632863 0.798879 1.010656 O
0.219384 0.982647 0.372031 O
0.784221 0.007761 0.640522 O
0.010043 0.368481 0.211785 O
0.989998 0.644549 0.786736 O
