Ca8 Ti12 F42                            
   1.00000000000000     
     7.4593650000000000   -0.0348340000000000   -0.1094560000000000
    -3.7193100000000001    6.4615580000000001    0.0645790000000000
     0.1921350000000000    0.0475000000000000   18.8559160000000006
   Ca   Ti   F 
     8    12    42
Direct
  0.8585570219810330  0.0032932413414505  0.3276108924495513
  0.5113465296773598  0.3517329560055286  0.6782889898477045
  0.1612444403171908  0.1653029957908344  1.0030043210702042
  0.0167627517162189  0.8378581001602528  0.6735864227976747
  0.6580347319801357  0.1536398116398200  0.9980217264991421
  0.0222206266911274  0.8008805003179997  0.1626815224557883
  0.8137981192778039 -0.0084195130253640  0.8226650773212719
  0.2175049665815591  0.1765069311969189  0.4959128385005500
  0.3462669075774662  0.9710725046954929  0.3351850192946568
  0.0055437121849020  0.3438630993310446  0.6514326180133130
  0.6673851878625946  0.6618847057666915  0.9875448176722569
  0.3928248717677441  0.0973559385466534  0.8311305454836651
  0.9657063472195822  0.2837928792302270  0.1650941715491401
  0.6931046263554080  0.6879465314823355  0.5046504821133118
  0.5228713287995784  0.8354327647008017  0.1621631078095726
  0.1413910073002371  0.6165857452184262  0.5049823814137896
  0.3454030126956448  0.4860678586486649  0.8310220572226285
  0.7715198216737913  0.4697661827158959  0.8306590444320706
  0.7348514685649041  0.2113702103295857  0.5015937703908361
  0.5149125471465630  0.2868969452975974  0.1603820867865980
  0.7060015492868871  0.2335772624220328  0.6101701003814348
  0.8016271688393609  0.4946755547171396  0.9455551046559711
  0.4552129394192424  0.1926933590191109  0.2625893158402842
  0.2220067291987715  0.7369456911187331  0.4014430275702000
  0.5612066984381315  0.8184190836493068  0.0534987386794719
  0.2674813498040342  0.4425275160790930  0.7183374793186669
  0.8349190162656746  0.9892899446691947  0.9489220539673917
  0.0662284843610445  0.8552801234177406  0.2783523626140191
  0.1906261409940019  0.1800834578297307  0.6143330767027169
  0.9399476167163006  0.8210877638613353  0.0493186582339988
  0.8862444297069447  0.0609255868581280  0.7057789894449218
  0.1861370991278539  0.1001423931030501  0.3829781182583457
  0.5261100301471255  0.3578060762719418  0.0492875191791712
  0.6366379110333606  0.0987600096058606  0.3920856125120056
  0.8556245990321480  0.4754948081233784  0.7149096878069715
  0.3480627585800616  0.4832602746778857  0.9473362425353020
  0.1453393775157751  0.6515659446110181  0.6147756081637611
  0.5073753906593732  0.8645513192897459  0.2725842085800583
  0.8279018935356554  0.4571964164865835  0.1716457384096909
  0.5872484850801710  0.3798038506417225  0.4895426217064381
  0.6733172153095659  0.1683017603477384  0.8745249156931578
  0.4409577150181159  0.8110675864878818  0.8175016631289883
  0.3787622007263476  0.5572182625935107  0.5100214399375345
  0.2103354750226587  0.6054110769140290  0.1578038823998085
  0.0126491324942315  0.2983780865809637  0.2667064218551107
  0.7008334170069122  0.6503788922829259  0.6124314576929141
  0.3412407644062255  0.0407295950750229  0.9433636933512930
  0.3291985541538848  0.0327017737013069  0.7271511190416888
  0.7183170809003548  0.7363932195091721  0.4036688718154243
  0.9656163269684305  0.2895914711480453  0.0552001420807099
  0.1930799848947992  0.2014446120581771  0.1396340641956253
  0.8180254315850036  0.9963910139396792  0.5186452723626390
 -0.0399560675323398  0.7881628571308061  0.7930501819060117
  0.1659390736082951  0.1663413468979931  0.8513737760685989
  0.0089289675173652  0.8003026550027608  0.5136053085777084
  0.8334117340364238  0.9660727673561935  0.1911816717455851
  0.0336608711723215  0.4221082776077345  0.8296482061687245
  0.5706514526417603  0.5839165910035882  0.1729941509886791
  0.4163086524702850  0.9923436006426996  0.5176584101136621
  0.3602655446005977  0.9833768188397303  0.1254391466904396
  0.6525782241600848  0.6596362618114189  0.8712974678914910
  1.0166570319302008  0.3377650927601688  0.4468989061766591
 
             NaN             NaN             NaN
             NaN             NaN             NaN
             NaN             NaN             NaN
             NaN             NaN             NaN
             NaN             NaN             NaN
             NaN             NaN             NaN
             NaN             NaN             NaN
             NaN             NaN             NaN
             NaN             NaN             NaN
             NaN             NaN             NaN
             NaN             NaN             NaN
             NaN             NaN             NaN
             NaN             NaN             NaN
             NaN             NaN             NaN
             NaN             NaN             NaN
             NaN             NaN             NaN
             NaN             NaN             NaN
             NaN             NaN             NaN
             NaN             NaN             NaN
             NaN             NaN             NaN
             NaN             NaN             NaN
             NaN             NaN             NaN
             NaN             NaN             NaN
             NaN             NaN             NaN
             NaN             NaN             NaN
             NaN             NaN             NaN
             NaN             NaN             NaN
             NaN             NaN             NaN
             NaN             NaN             NaN
             NaN             NaN             NaN
             NaN             NaN             NaN
             NaN             NaN             NaN
             NaN             NaN             NaN
             NaN             NaN             NaN
             NaN             NaN             NaN
             NaN             NaN             NaN
             NaN             NaN             NaN
             NaN             NaN             NaN
             NaN             NaN             NaN
             NaN             NaN             NaN
             NaN             NaN             NaN
             NaN             NaN             NaN
             NaN             NaN             NaN
             NaN             NaN             NaN
             NaN             NaN             NaN
             NaN             NaN             NaN
             NaN             NaN             NaN
             NaN             NaN             NaN
             NaN             NaN             NaN
             NaN             NaN             NaN
             NaN             NaN             NaN
             NaN             NaN             NaN
             NaN             NaN             NaN
             NaN             NaN             NaN
             NaN             NaN             NaN
             NaN             NaN             NaN
             NaN             NaN             NaN
             NaN             NaN             NaN
             NaN             NaN             NaN
             NaN             NaN             NaN
             NaN             NaN             NaN
             NaN             NaN             NaN
