Ca8 Ti12 F42
1.0
7.459365 -0.034834 -0.109456
-3.719310 6.461558 0.064579
0.192135 0.047500 18.855916
Ca Ti F
8 12 42
direct
0.854998 0.115098 0.325786 Ca
0.512396 0.346340 0.675762 Ca
0.160729 0.168936 -0.000348 Ca
0.020600 0.833454 0.669062 Ca
0.654398 0.158619 0.994641 Ca
0.017359 0.803113 0.160548 Ca
0.818405 0.001455 0.824757 Ca
0.190698 0.186721 0.494284 Ca
0.349575 0.989055 0.332297 Ti
0.009348 0.335437 0.657596 Ti
0.669387 0.669176 0.986913 Ti
0.350609 0.045586 0.830081 Ti
0.989275 0.303536 0.166016 Ti
0.693150 0.678541 0.503497 Ti
0.520441 0.839842 0.160718 Ti
0.189657 0.672870 0.505527 Ti
0.348161 0.486017 0.831032 Ti
0.795713 0.487938 0.831030 Ti
0.693392 0.177156 0.500333 Ti
0.507486 0.303849 0.159440 Ti
0.724932 0.230825 0.609215 F
0.804786 0.496120 0.944227 F
0.469802 0.224542 0.262704 F
0.230693 0.758257 0.402292 F
0.562662 0.828516 0.051609 F
0.278112 0.443256 0.720603 F
0.829473 -0.002333 0.947059 F
0.066367 0.851891 0.275717 F
0.184440 0.181820 0.614267 F
0.945049 0.829364 0.047410 F
0.891011 0.046368 0.709693 F
0.184974 0.110452 0.383081 F
0.524168 0.362679 0.047117 F
0.633513 0.117270 0.391308 F
0.854317 0.485342 0.716870 F
0.353887 0.491037 0.945595 F
0.143808 0.633674 0.614698 F
0.498906 0.876507 0.269417 F
0.822482 0.449721 0.172989 F
0.573620 0.367096 0.498347 F
0.658418 0.173240 0.865988 F
0.433915 0.805396 0.817830 F
0.374781 0.546594 0.509551 F
0.208887 0.615642 0.155740 F
0.020160 0.309069 0.269241 F
0.697887 0.652334 0.613747 F
0.332038 0.022556 0.945318 F
0.337487 0.022925 0.718387 F
0.708455 0.711722 0.401120 F
0.956863 0.283404 0.055606 F
0.196051 0.205746 0.134651 F
0.823843 0.996319 0.510932 F
0.012858 0.810340 0.801461 F
0.165599 0.170401 0.860379 F
0.003124 0.797082 0.517903 F
0.833610 0.983122 0.186311 F
0.034108 0.416886 0.829098 F
0.584825 0.602942 0.170637 F
0.386554 0.985357 0.525365 F
0.370358 -0.002823 0.125866 F
0.661111 0.664091 0.867149 F
0.991009 0.376989 0.470541 F
