Ca16 Ni32 O64
1.0
   9.8518464317653809    0.0005505339465816   -2.6697835754975499
   0.0003154109214316   11.5529774490185329   -0.0012262911015540
  -0.1537337846519928   -0.0012242956472826   11.3312809836602284
Ca Ni O
15 32 64
direct
   0.3484256405822052    0.8749993891238198    0.5039677921403795 Ca
   0.1516130859164276    0.1249992973641069    0.4960476131694504 Ca
   0.1516130859164276    0.1249992973641069    0.9960476131694505 Ca
   0.1516130859164276    0.6249992973641070    0.4960476131694504 Ca
   0.1516130859164276    0.6249992973641069    0.9960476131694503 Ca
   0.6516130859164275    0.1249992973641069    0.4960476131694504 Ca
   0.6516130859164275    0.1249992973641069    0.9960476131694502 Ca
   0.6516130859164274    0.6249992973641069    0.9960476131694503 Ca
   0.3484256405822051    0.3749993891238196    0.0039677921403795 Ca
   0.3484256405822051    0.3749993891238196    0.5039677921403795 Ca
   0.3484256405822051    0.8749993891238198    0.0039677921403795 Ca
   0.8484256405822052    0.3749993891238196    0.0039677921403795 Ca
   0.8484256405822050    0.3749993891238196    0.5039677921403795 Ca
   0.8484256405822052    0.8749993891238196    0.0039677921403795 Ca
   0.8484256405822049    0.8749993891238197    0.5039677921403795 Ca
   0.0000011501438712    0.2500596205462866    0.2499780438647863 Ni
   0.0000011501438712    0.2500596205462866    0.7499780438647863 Ni
   0.0000011501438712    0.7500596205462866    0.2499780438647863 Ni
   0.0000011501438712    0.7500596205462866    0.7499780438647863 Ni
   0.5000011501438710    0.2500596205462866    0.2499780438647863 Ni
   0.5000011501438711    0.2500596205462866    0.7499780438647862 Ni
   0.5000011501438710    0.7500596205462866    0.2499780438647862 Ni
   0.5000011501438711    0.7500596205462866    0.7499780438647863 Ni
   0.0000006262485190    0.9999384859568073    0.2499767350898894 Ni
   0.0000006262485190    0.9999384859568073    0.7499767350898894 Ni
   0.0000006262485190    0.4999384859568074    0.2499767350898894 Ni
   0.0000006262485190    0.4999384859568074    0.7499767350898894 Ni
   0.5000006262485189    0.9999384859568073    0.2499767350898894 Ni
   0.5000006262485189    0.9999384859568073    0.7499767350898893 Ni
   0.5000006262485188    0.4999384859568074    0.2499767350898894 Ni
   0.5000006262485189    0.4999384859568074    0.7499767350898894 Ni
   0.2547119370043156    0.1250013964428766    0.2569514531599186 Ni
   0.2547119370043155    0.1250013964428766    0.7569514531599186 Ni
   0.2547119370043155    0.6250013964428767    0.2569514531599186 Ni
   0.2547119370043155    0.6250013964428766    0.7569514531599186 Ni
   0.7547119370043155    0.1250013964428766    0.2569514531599186 Ni
   0.7547119370043155    0.1250013964428766    0.7569514531599186 Ni
   0.7547119370043155    0.6250013964428766    0.2569514531599186 Ni
   0.7547119370043155    0.6250013964428767    0.7569514531599186 Ni
   0.2452719471506835    0.3749989585150246    0.2430339017962428 Ni
   0.2452719471506835    0.3749989585150246    0.7430339017962428 Ni
   0.2452719471506835    0.8749989585150246    0.2430339017962428 Ni
   0.2452719471506835    0.8749989585150245    0.7430339017962427 Ni
   0.7452719471506833    0.3749989585150246    0.2430339017962428 Ni
   0.7452719471506835    0.3749989585150246    0.7430339017962427 Ni
   0.7452719471506833    0.8749989585150246    0.2430339017962428 Ni
   0.7452719471506835    0.8749989585150246    0.7430339017962428 Ni
   0.0656798868470424    0.1249866821893273    0.1687198696341056 O
   0.0656798868470424    0.1249866821893273    0.6687198696341056 O
   0.0656798868470424    0.6249866821893274    0.1687198696341056 O
   0.0656798868470424    0.6249866821893274    0.6687198696341056 O
   0.5656798868470422    0.1249866821893273    0.1687198696341056 O
   0.5656798868470424    0.1249866821893273    0.6687198696341056 O
   0.5656798868470422    0.6249866821893274    0.1687198696341056 O
   0.5656798868470424    0.6249866821893274    0.6687198696341056 O
   0.4343437598106838    0.3750135505267582    0.3312643070595483 O
   0.4343437598106838    0.3750135505267582    0.8312643070595485 O
   0.4343437598106837    0.8750135505267583    0.3312643070595483 O
   0.4343437598106837    0.8750135505267582    0.8312643070595483 O
   0.9343437598106836    0.3750135505267582    0.3312643070595483 O
   0.9343437598106836    0.3750135505267582    0.8312643070595483 O
   0.9343437598106836    0.8750135505267583    0.3312643070595483 O
   0.9343437598106836    0.8750135505267583    0.8312643070595483 O
   0.4445939328695542    0.1250149669160256    0.3382456322488269 O
   0.4445939328695543    0.1250149669160256    0.8382456322488269 O
   0.4445939328695542    0.6250149669160256    0.3382456322488268 O
   0.4445939328695542    0.6250149669160256    0.8382456322488269 O
   0.9445939328695542    0.1250149669160256    0.3382456322488268 O
   0.9445939328695542    0.1250149669160256    0.8382456322488268 O
   0.9445939328695542    0.6250149669160256    0.3382456322488269 O
   0.9445939328695541    0.6250149669160256    0.8382456322488269 O
   0.0553835546449629    0.3749852874876513    0.1617957742800358 O
   0.0553835546449629    0.3749852874876513    0.6617957742800358 O
   0.0553835546449629    0.8749852874876513    0.1617957742800358 O
   0.0553835546449629    0.8749852874876513    0.6617957742800358 O
   0.5553835546449629    0.3749852874876513    0.1617957742800358 O
   0.5553835546449628    0.3749852874876513    0.6617957742800358 O
   0.5553835546449629    0.8749852874876514    0.1617957742800358 O
   0.5553835546449629    0.8749852874876514    0.6617957742800359 O
   0.2076541596496130    0.2513546286207466    0.3545831902640876 O
   0.2076541596496130    0.2513546286207466    0.8545831902640876 O
   0.2076541596496130    0.7513546286207466    0.3545831902640876 O
   0.2076541596496130    0.7513546286207468    0.8545831902640876 O
   0.7076541596496129    0.2513546286207466    0.3545831902640876 O
   0.7076541596496129    0.2513546286207466    0.8545831902640876 O
   0.7076541596496128    0.7513546286207466    0.3545831902640876 O
   0.7076541596496128    0.7513546286207465    0.8545831902640877 O
   0.2923387105613861    0.0013751522445427    0.1454337577652212 O
   0.2923387105613861    0.0013751522445426    0.6454337577652212 O
   0.2923387105613862    0.5013751522445427    0.1454337577652212 O
   0.2923387105613861    0.5013751522445427    0.6454337577652212 O
   0.7923387105613861    0.0013751522445426    0.1454337577652212 O
   0.7923387105613861    0.0013751522445427    0.6454337577652212 O
   0.7923387105613859    0.5013751522445427    0.1454337577652212 O
   0.7923387105613862    0.5013751522445427    0.6454337577652212 O
   0.2923303068334557    0.2486812123469528    0.1454287961846079 O
   0.2923303068334556    0.2486812123469529    0.6454287961846080 O
   0.2923303068334557    0.7486812123469530    0.1454287961846079 O
   0.2923303068334557    0.7486812123469530    0.6454287961846079 O
   0.7923303068334555    0.2486812123469528    0.1454287961846079 O
   0.7923303068334557    0.2486812123469528    0.6454287961846079 O
   0.7923303068334555    0.7486812123469528    0.1454287961846079 O
   0.7923303068334556    0.7486812123469528    0.6454287961846080 O
   0.2076513017372795    0.4985913717190737    0.3545731333428996 O
   0.2076513017372795    0.4985913717190737    0.8545731333428997 O
   0.2076513017372795    0.9985913717190739    0.3545731333428996 O
   0.2076513017372795    0.9985913717190738    0.8545731333428996 O
   0.7076513017372793    0.4985913717190737    0.3545731333428996 O
   0.7076513017372794    0.4985913717190737    0.8545731333428996 O
   0.7076513017372793    0.9985913717190738    0.3545731333428996 O
   0.7076513017372794    0.9985913717190738    0.8545731333428996 O
