Li16 Al16 P16 O64 F16
1.0
   9.8281575256077041   -0.1187852699676794   -2.8828076230871469
  -2.3431569513817401    9.5663489715560015   -3.2908405361046893
  -0.5555931545359660   -0.2067700925451622   14.2680143109214086
Li Al P O F
15 16 16 64 16
direct
   0.9968145735510108    0.3228689547192908    0.6337218309128099 Li
   0.4968145735510108    0.3228689547192908    0.1337218309128099 Li
   0.5031875573078456    0.6771349527814039    0.3662808120769502 Li
   0.4968145735510108    0.3228689547192908    0.6337218309128099 Li
   0.4968145735510108    0.8228689547192908    0.1337218309128099 Li
   0.4968145735510108    0.8228689547192909    0.6337218309128100 Li
   0.9968145735510111    0.3228689547192908    0.1337218309128099 Li
   0.9968145735510109    0.8228689547192909    0.1337218309128099 Li
   0.9968145735510109    0.8228689547192908    0.6337218309128099 Li
   0.0031875573078456    0.1771349527814038    0.3662808120769502 Li
   0.0031875573078456    0.1771349527814038    0.8662808120769502 Li
   0.0031875573078456    0.6771349527814039    0.3662808120769502 Li
   0.0031875573078456    0.6771349527814039    0.8662808120769503 Li
   0.5031875573078457    0.1771349527814038    0.8662808120769503 Li
   0.5031875573078457    0.6771349527814039    0.8662808120769503 Li
   0.9999980088507847    0.9999999438681088    0.9999988212561965 Al
   0.9999980088507847    0.9999999438681088    0.4999988212561966 Al
   0.9999980088507847    0.4999999438681089    0.9999988212561967 Al
   0.9999980088507847    0.4999999438681089    0.4999988212561967 Al
   0.4999980088507849    0.9999999438681088    0.9999988212561967 Al
   0.4999980088507848    0.9999999438681088    0.4999988212561967 Al
   0.4999980088507848    0.4999999438681089    0.9999988212561967 Al
   0.4999980088507848    0.4999999438681089    0.4999988212561966 Al
   0.2500000257391548    0.2500007584354352    0.2499995149089157 Al
   0.2500000257391548    0.2500007584354353    0.7499995149089157 Al
   0.2500000257391548    0.7500007584354352    0.2499995149089157 Al
   0.2500000257391548    0.7500007584354355    0.7499995149089158 Al
   0.7500000257391549    0.2500007584354353    0.2499995149089158 Al
   0.7500000257391547    0.2500007584354353    0.7499995149089157 Al
   0.7500000257391548    0.7500007584354353    0.2499995149089157 Al
   0.7500000257391548    0.7500007584354353    0.7499995149089158 Al
   0.2106839937832325    0.0498257722348899    0.3733387580080208 P
   0.2106839937832325    0.0498257722348899    0.8733387580080207 P
   0.2106839937832324    0.5498257722348899    0.3733387580080208 P
   0.2106839937832324    0.5498257722348900    0.8733387580080209 P
   0.7106839937832325    0.0498257722348899    0.3733387580080208 P
   0.7106839937832323    0.0498257722348899    0.8733387580080209 P
   0.7106839937832323    0.5498257722348899    0.3733387580080208 P
   0.7106839937832324    0.5498257722348899    0.8733387580080207 P
   0.2893177749791169    0.4501760694695367    0.1266629843993454 P
   0.2893177749791169    0.4501760694695368    0.6266629843993453 P
   0.2893177749791169    0.9501760694695368    0.1266629843993454 P
   0.2893177749791170    0.9501760694695369    0.6266629843993454 P
   0.7893177749791170    0.4501760694695368    0.1266629843993454 P
   0.7893177749791170    0.4501760694695366    0.6266629843993453 P
   0.7893177749791170    0.9501760694695369    0.1266629843993454 P
   0.7893177749791170    0.9501760694695368    0.6266629843993454 P
   0.3720509564620464    0.4329851013544027    0.0523702380149285 O
   0.3720509564620464    0.4329851013544027    0.5523702380149286 O
   0.3720509564620464    0.9329851013544027    0.0523702380149286 O
   0.3720509564620464    0.9329851013544029    0.5523702380149286 O
   0.8720509564620464    0.4329851013544028    0.0523702380149286 O
   0.8720509564620464    0.4329851013544027    0.5523702380149286 O
   0.8720509564620466    0.9329851013544028    0.0523702380149286 O
   0.8720509564620464    0.9329851013544028    0.5523702380149286 O
   0.3316526715398545    0.3471976040752110    0.1821963732364611 O
   0.3316526715398545    0.3471976040752110    0.6821963732364611 O
   0.3316526715398545    0.8471976040752111    0.1821963732364611 O
   0.3316526715398545    0.8471976040752111    0.6821963732364611 O
   0.8316526715398544    0.3471976040752110    0.1821963732364611 O
   0.8316526715398546    0.3471976040752110    0.6821963732364611 O
   0.8316526715398544    0.8471976040752111    0.1821963732364611 O
   0.8316526715398544    0.8471976040752111    0.6821963732364611 O
   0.1683449402219515    0.1528015541375028    0.3178024905953742 O
   0.1683449402219515    0.1528015541375028    0.8178024905953742 O
   0.1683449402219515    0.6528015541375028    0.3178024905953742 O
   0.1683449402219515    0.6528015541375028    0.8178024905953742 O
   0.6683449402219516    0.1528015541375028    0.3178024905953742 O
   0.6683449402219516    0.1528015541375028    0.8178024905953742 O
   0.6683449402219517    0.6528015541375028    0.3178024905953742 O
   0.6683449402219517    0.6528015541375030    0.8178024905953742 O
   0.3375877956092979    0.1040583458481469    0.2104945255859069 O
   0.3375877956092979    0.1040583458481469    0.7104945255859070 O
   0.3375877956092979    0.6040583458481470    0.2104945255859070 O
   0.3375877956092979    0.6040583458481469    0.7104945255859070 O
   0.8375877956092980    0.1040583458481469    0.2104945255859069 O
   0.8375877956092980    0.1040583458481469    0.7104945255859070 O
   0.8375877956092979    0.6040583458481470    0.2104945255859069 O
   0.8375877956092980    0.6040583458481470    0.7104945255859070 O
   0.1279486635200258    0.0670151452348288    0.4476299275044134 O
   0.1279486635200258    0.0670151452348288    0.9476299275044133 O
   0.1279486635200258    0.5670151452348288    0.4476299275044134 O
   0.1279486635200258    0.5670151452348289    0.9476299275044134 O
   0.6279486635200258    0.0670151452348288    0.4476299275044134 O
   0.6279486635200258    0.0670151452348288    0.9476299275044134 O
   0.6279486635200258    0.5670151452348289    0.4476299275044134 O
   0.6279486635200259    0.5670151452348289    0.9476299275044134 O
   0.1624118515743153    0.3959393260229099    0.2895041430022717 O
   0.1624118515743153    0.3959393260229100    0.7895041430022718 O
   0.1624118515743153    0.8959393260229099    0.2895041430022717 O
   0.1624118515743153    0.8959393260229102    0.7895041430022718 O
   0.6624118515743155    0.3959393260229099    0.2895041430022717 O
   0.6624118515743153    0.3959393260229099    0.7895041430022718 O
   0.6624118515743155    0.8959393260229100    0.2895041430022717 O
   0.6624118515743154    0.8959393260229100    0.7895041430022717 O
   0.1248631532497962    0.4062582208469906    0.0637823483285273 O
   0.1248631532497962    0.4062582208469906    0.5637823483285272 O
   0.1248631532497961    0.9062582208469906    0.0637823483285272 O
   0.1248631532497962    0.9062582208469908    0.5637823483285274 O
   0.6248631532497961    0.4062582208469906    0.0637823483285273 O
   0.6248631532497961    0.4062582208469906    0.5637823483285274 O
   0.6248631532497962    0.9062582208469907    0.0637823483285273 O
   0.6248631532497962    0.9062582208469907    0.5637823483285274 O
   0.3751390141772035    0.0937379571621937    0.4362182993273834 O
   0.3751390141772035    0.0937379571621937    0.9362182993273834 O
   0.3751390141772034    0.5937379571621937    0.4362182993273834 O
   0.3751390141772035    0.5937379571621938    0.9362182993273834 O
   0.8751390141772035    0.0937379571621937    0.4362182993273834 O
   0.8751390141772035    0.0937379571621937    0.9362182993273834 O
   0.8751390141772035    0.5937379571621937    0.4362182993273834 O
   0.8751390141772035    0.5937379571621938    0.9362182993273833 O
   0.0817704683963293    0.1651325393721292    0.1253667801399851 F
   0.0817704683963293    0.1651325393721293    0.6253667801399851 F
   0.0817704683963293    0.6651325393721292    0.1253667801399852 F
   0.0817704683963293    0.6651325393721293    0.6253667801399853 F
   0.5817704683963294    0.1651325393721293    0.1253667801399851 F
   0.5817704683963295    0.1651325393721293    0.6253667801399853 F
   0.5817704683963294    0.6651325393721292    0.1253667801399852 F
   0.5817704683963294    0.6651325393721293    0.6253667801399851 F
   0.4182285510380274    0.3348677544370193    0.3746321527025103 F
   0.4182285510380273    0.3348677544370194    0.8746321527025103 F
   0.4182285510380273    0.8348677544370194    0.3746321527025103 F
   0.4182285510380273    0.8348677544370193    0.8746321527025103 F
   0.9182285510380275    0.3348677544370193    0.3746321527025103 F
   0.9182285510380274    0.3348677544370193    0.8746321527025103 F
   0.9182285510380273    0.8348677544370194    0.3746321527025102 F
   0.9182285510380274    0.8348677544370194    0.8746321527025104 F
