Fe8 P8 O32
1.0
  10.3274859597613151    0.0008836307686764   -0.1674916423072434
  -0.0692029386478309    8.4023916945595722   -0.2479707409819454
  -0.1729851821231061   -0.4880374857201485    9.3280422809327437
K Fe P O
1 8 8 32
direct
   0.2524900000000000    0.4991300000000000    0.4996300000000000 K
   0.4455873468717863    0.3499247099290353    0.7873422827066066 Fe
   0.9455873468717862    0.3499247099290353    0.7873422827066066 Fe
   0.2654148694903065    0.1302855566376654    0.2660132603882126 Fe
   0.7654148694903066    0.1302855566376654    0.2660132603882126 Fe
   0.2347223995488288    0.8705259717302400    0.7340894200005236 Fe
   0.7347223995488288    0.8705259717302402    0.7340894200005236 Fe
   0.0543972751384662    0.6497924436308827    0.2128858955774211 Fe
   0.5543972751384662    0.6497924436308827    0.2128858955774211 Fe
   0.4744077721798546    0.7253414454125946    0.8781207817243324 P
   0.9744077721798547    0.7253414454125946    0.8781207817243323 P
   0.3271000401067213    0.8083249721497291    0.3866106308227403 P
   0.8271000401067213    0.8083249721497291    0.3866106308227403 P
   0.1720173796252540    0.1908927369898066    0.6147426107954347 P
   0.6720173796252540    0.1908927369898066    0.6147426107954346 P
   0.0267339046887028    0.2760262292593456    0.1217600901610315 P
   0.5267339046887028    0.2760262292593455    0.1217600901610315 P
   0.1114436173637944    0.7414146388435392    0.8217487441877933 O
   0.6114436173637944    0.7414146388435393    0.8217487441877933 O
   0.1947564336633365    0.7554107018019590    0.3121957731672640 O
   0.6947564336633366    0.7554107018019590    0.3121957731672640 O
   0.3033186800838324    0.2437152876039736    0.6913729934928213 O
   0.8033186800838324    0.2437152876039735    0.6913729934928212 O
   0.3882846971699151    0.2601848875258929    0.1789961845617251 O
   0.8882846971699150    0.2601848875258929    0.1789961845617251 O
   0.3121465013157942    0.8183174697514355    0.5498429456017974 O
   0.8121465013157944    0.8183174697514355    0.5498429456017974 O
   0.4826188109491499    0.7052213290224734    0.0414320123003234 O
   0.9826188109491499    0.7052213290224733    0.0414320123003234 O
   0.1903108791192697    0.1836422613165231    0.4502374337240975 O
   0.6903108791192697    0.1836422613165231    0.4502374337240975 O
   0.0169407408691560    0.2930474233752789    0.9579243930016440 O
   0.5169407408691561    0.2930474233752789    0.9579243930016440 O
   0.4068103234670695    0.5723272408533269    0.7992860417666597 O
   0.9068103234670696    0.5723272408533270    0.7992860417666597 O
   0.4242042365923334    0.6702858565991808    0.3523894959272620 O
   0.9242042365923335    0.6702858565991808    0.3523894959272620 O
   0.3880898808162065    0.8704691937664848    0.8527503661431352 O
   0.8880898808162067    0.8704691937664847    0.8527503661431352 O
   0.3740428515005682    0.9641183352276685    0.3271775268112355 O
   0.8740428515005683    0.9641183352276687    0.3271775268112355 O
   0.1109361507049539    0.1288514954327492    0.1475901016067052 O
   0.6109361507049539    0.1288514954327492    0.1475901016067052 O
   0.1243932674269806    0.0356886219369447    0.6703175676159158 O
   0.6243932674269806    0.0356886219369447    0.6703175676159158 O
   0.0747288703359210    0.3296431980763457    0.6462266690402727 O
   0.5747288703359210    0.3296431980763457    0.6462266690402726 O
   0.0941018734597177    0.4274156017276110    0.1993191412587650 O
   0.5941018734597177    0.4274156017276110    0.1993191412587650 O
