Ca1 Ni12 F42                            
   1.00000000000000     
     7.0333220000000001   -0.0066290000000000   -0.0053650000000000
    -3.5178490000000000    6.1343629999999996   -0.0804670000000000
    -0.1291950000000000   -0.1984660000000000   16.7951090000000001
   Ca   Ni   F 
     1    12    42
Direct
  0.8659446133890909  0.8843236633267191  0.7837137024042724
  0.3246915143886389  0.0166655642735304  0.3302625059449830
  0.6667706989792582  0.6504619202780545  0.9974663493739528
  0.0136496275534050  0.3560593190574769  0.6591598591494774
  0.3173024179895755  0.9447897253429824  0.8399181856831500
  0.6797321121709269  0.7040224304827116  0.5010619423309088
  0.0148956100408178  0.3521783922944004  0.1678140360957306
  0.6752988830798741  0.2042689496132416  0.4960012874091358
  0.5134307739435865  0.3500321991809100  0.1705012409206199
  0.8116839223889374  0.4323482124135412  0.8396413893475964
  0.3084635164569450  0.4467146171274380  0.8403627498274799
  0.1791789087309797  0.7015542922253963  0.5006436055414399
  0.5158320352209178  0.8509752481905757  0.1660910252841162
  0.5893217742610880  0.8297304480379727  0.0617203494675301
  0.2322957109885587  0.3825299000737670  0.7285928121138988
  0.1852420538010663  0.7716499630517644  0.3887131697424703
  0.4811164253782647  0.2793087088623227  0.2768924111573103
  0.7193627205165561  0.4420471921976495  0.9412868133175040
  0.7708784960884447  0.3098151571892173  0.5996502960979105
  0.8320557216956372  0.0955172889509213  0.7015396271480956
  0.2247113451665429  0.1453921786234195  0.3926622127957301
  0.9244962526825521  0.7707016741664822  0.0446314721670526
  0.1106004343071027  0.2378352603887408  0.5902200889205583
  0.1000822522183177  0.9171836953575294  0.2647215368337370
  0.7631996279682390  0.8517308587733912  0.9204531291356458
  0.1804658780667758  0.6205201182319894  0.6128364268077827
  0.4452762109092519  0.8712229320031669  0.2712740029390227
  0.3877856818221786  0.5186168089398292  0.9498458058347422
  0.9178069225629025  0.4913060464716585  0.7337186041238882
  0.5872305543556435  0.1176993034475048  0.3906235970953240
  0.5389904992868646  0.4143426895094675  0.0647896030531638
  0.3943811592372696  0.6246394416382144  0.4732406316429106
  0.2296145808266778  0.6451411525541081  0.1393236399529421
  0.3986778597430082  0.7416075870872787  0.8120085129341114
  0.5930806574655250  0.1440984895670319  0.8097783043732074
  0.5730906974963180  0.4045251815382793  0.4971985590568562
  0.8118642707778536  0.4539495937514744  0.1841533803154312
  0.7385287001854789  0.7135268809158863  0.3987539368717742
  0.9414977183759141  0.2989828603880119  0.0665567011069579
  0.2015456306816914  0.9327031091770960  0.7401851391101024
  0.4074829086454262  0.9597689930874292  0.9389546638239354
  0.6259922241245496  0.6952298295710425  0.6055229865969753
  0.0885894963482490  0.4060611230968547  0.2688882803188550
  0.9642580014835334  0.7791525541253137  0.5297994302101805
  0.8016257003291638  0.0570370387763609  0.1936322706428142
  0.2226571466187725  0.1440255224798912  0.8619748174389164
  0.0352381488380993  0.7335686124596106  0.8657401294887060
  0.7752868346346407  0.0011348695903895  0.5002596806631892
  0.2163505540518059  0.2485638112890210  0.1541081319385104
  0.6096776450558509  0.5253131158793719  0.8037149969651132
  0.9475432169684425  0.4098045847812419  0.4616470374787873
  0.4536672672923933  0.0621321847234427  0.1344463264294394
  0.4055038801454789  0.9994940957978623  0.5331775213355944
  0.5788578837236146  0.6419303025844286  0.2008951478530851
  0.0028244222104570  0.3335008051626118  0.8685490587915521
 
             NaN             NaN             NaN
             NaN             NaN             NaN
             NaN             NaN             NaN
             NaN             NaN             NaN
             NaN             NaN             NaN
             NaN             NaN             NaN
             NaN             NaN             NaN
             NaN             NaN             NaN
             NaN             NaN             NaN
             NaN             NaN             NaN
             NaN             NaN             NaN
             NaN             NaN             NaN
             NaN             NaN             NaN
             NaN             NaN             NaN
             NaN             NaN             NaN
             NaN             NaN             NaN
             NaN             NaN             NaN
             NaN             NaN             NaN
             NaN             NaN             NaN
             NaN             NaN             NaN
             NaN             NaN             NaN
             NaN             NaN             NaN
             NaN             NaN             NaN
             NaN             NaN             NaN
             NaN             NaN             NaN
             NaN             NaN             NaN
             NaN             NaN             NaN
             NaN             NaN             NaN
             NaN             NaN             NaN
             NaN             NaN             NaN
             NaN             NaN             NaN
             NaN             NaN             NaN
             NaN             NaN             NaN
             NaN             NaN             NaN
             NaN             NaN             NaN
             NaN             NaN             NaN
             NaN             NaN             NaN
             NaN             NaN             NaN
             NaN             NaN             NaN
             NaN             NaN             NaN
             NaN             NaN             NaN
             NaN             NaN             NaN
             NaN             NaN             NaN
             NaN             NaN             NaN
             NaN             NaN             NaN
             NaN             NaN             NaN
             NaN             NaN             NaN
             NaN             NaN             NaN
             NaN             NaN             NaN
             NaN             NaN             NaN
             NaN             NaN             NaN
             NaN             NaN             NaN
             NaN             NaN             NaN
             NaN             NaN             NaN
             NaN             NaN             NaN
