Ca1 Ni12 F42                            
   1.00000000000000     
     7.0333220000000001   -0.0066290000000000   -0.0053650000000000
    -3.5178490000000000    6.1343629999999996   -0.0804670000000000
    -0.1291950000000000   -0.1984660000000000   16.7951090000000001
   Ca   Ni   F 
     1    12    42
Direct
  0.8756093444708383  0.8793595117354025  0.7783297416234225
  0.3198990514857535  1.0139908364746570  0.3310907714072643
  0.6693979569802971  0.6521781198303468 -0.0019357614376282
  0.0154024789186282  0.3589644799743465  0.6591912538342251
  0.3267118176876914  0.9524499448855415  0.8390961468395935
  0.6776366044537515  0.7020059840713153  0.5014199538991083
  1.0082465495213748  0.3467924079797967  0.1675476635523752
  0.6728243356403663  0.2020464096318717  0.4964583294242033
  0.5064937809534049  0.3447702138141820  0.1701196835276962
  0.8192528666029824  0.4391106164536296  0.8405596574892542
  0.3149808335911889  0.4531708642774016  0.8392802449850615
  0.1768674744213765  0.6993552212475445  0.5002692981553730
  0.5090453973416583  0.8456459564200970  0.1659435587632474
  0.5862715119884500  0.8247298568104765  0.0604543889271803
  0.2392755289756589  0.3941446606220329  0.7277115572323549
  0.1811193123185860  0.7683074019444820  0.3893886112993747
  0.4734060367993322  0.2744985531986596  0.2769244937081446
  0.7283838529026223  0.4497445715177343  0.9434262024070732
  0.7673737696638966  0.3037837670696762  0.6003032413081706
  0.8380227539768039  0.1018521569673039  0.7043559222683671
  0.2202893325541317  0.1428255361773857  0.3936791206932811
  0.9233306693185513  0.7711875678836840  0.0478967179500542
  0.1098015514270154  0.2359927076691257  0.5911637032267080
  0.0944645651736022  0.9131840211049298  0.2660087950931696
  0.7716936191043524  0.8534981254197739  0.9214943634920481
  0.1795314157369259  0.6213665749370343  0.6115529913383522
  0.4390725274616080  0.8685255858132688  0.2719711328582369
  0.3927060443176262  0.5206156850346974  0.9486790966900671
  0.9215037894808207  0.4979075803921474  0.7330193819151024
  0.5848485168402413  0.1183807819577098  0.3911410221718993
  0.5357788401046386  0.4142763812186727  0.0646555757842267
  0.3903385312829363  0.6214429494180408  0.4740481119796693
  0.2219732944001487  0.6400119447276795  0.1389379547184552
  0.4105006485082270  0.7504247009958764  0.8127186856365424
  0.6011623963993880  0.1530719640270415  0.8095402073275553
  0.5694363734340139  0.4013916292575519  0.4998717262130918
  0.8042732508745184  0.4477003154973798  0.1844382697832370
  0.7325595156502186  0.7050378646669951  0.3990482651999571
  0.9336749592351860  0.2934514458741944  0.0662556003285794
  0.2140781598125147 -0.0634686384196769  0.7384072470447773
  0.4156407785095753  0.9711169770480271  0.9385373027247642
  0.6296452825467882  0.7007431877712870  0.6063293933912883
  0.0829208319278036  0.4005657891173399  0.2682920441565605
  0.9641215972964361  0.7777305233551433  0.5294143000476307
  0.7963583454199255  0.0516934320196892  0.1932540967579895
  0.2267233745747997  0.1484647399099432  0.8586690445935720
  0.0440399527835026  0.7399096932629537  0.8650323634449978
  0.7744042633702413  1.0000919616617920  0.4982383189248497
  0.2101590708774946  0.2432258928700903  0.1530615297925882
  0.6140790225249556  0.5293750245174323  0.8041305647832397
  0.9462143890251261  0.4101359491139789  0.4626109212694720
  0.4487777208034072  0.0596728633517092  0.1340652001478237
  0.4026790206628105  0.9940050271694120  0.5330524389593807
  0.5696323287469842  0.6338049292575937  0.2012410904306863
  0.0129945520613453  0.3431742584061372  0.8689275945402334
 
             NaN             NaN             NaN
             NaN             NaN             NaN
             NaN             NaN             NaN
             NaN             NaN             NaN
             NaN             NaN             NaN
             NaN             NaN             NaN
             NaN             NaN             NaN
             NaN             NaN             NaN
             NaN             NaN             NaN
             NaN             NaN             NaN
             NaN             NaN             NaN
             NaN             NaN             NaN
             NaN             NaN             NaN
             NaN             NaN             NaN
             NaN             NaN             NaN
             NaN             NaN             NaN
             NaN             NaN             NaN
             NaN             NaN             NaN
             NaN             NaN             NaN
             NaN             NaN             NaN
             NaN             NaN             NaN
             NaN             NaN             NaN
             NaN             NaN             NaN
             NaN             NaN             NaN
             NaN             NaN             NaN
             NaN             NaN             NaN
             NaN             NaN             NaN
             NaN             NaN             NaN
             NaN             NaN             NaN
             NaN             NaN             NaN
             NaN             NaN             NaN
             NaN             NaN             NaN
             NaN             NaN             NaN
             NaN             NaN             NaN
             NaN             NaN             NaN
             NaN             NaN             NaN
             NaN             NaN             NaN
             NaN             NaN             NaN
             NaN             NaN             NaN
             NaN             NaN             NaN
             NaN             NaN             NaN
             NaN             NaN             NaN
             NaN             NaN             NaN
             NaN             NaN             NaN
             NaN             NaN             NaN
             NaN             NaN             NaN
             NaN             NaN             NaN
             NaN             NaN             NaN
             NaN             NaN             NaN
             NaN             NaN             NaN
             NaN             NaN             NaN
             NaN             NaN             NaN
             NaN             NaN             NaN
             NaN             NaN             NaN
             NaN             NaN             NaN
