Ca16 Mn16 P32 O112
1.0
13.270994 0.000000 0.000000
1.770696 13.216784 0.000000
0.908879 5.419026 12.482984
Ca Mn P O
15 16 32 112
direct
0.428939 0.637213 0.584844 Ca
0.428939 0.137213 0.084844 Ca
0.428939 0.137213 0.584844 Ca
0.428939 0.637213 0.084844 Ca
0.928939 0.137213 0.084844 Ca
0.928939 0.137213 0.584844 Ca
0.928939 0.637213 0.084844 Ca
0.928939 0.637213 0.584844 Ca
0.071061 0.362787 0.415157 Ca
0.071061 0.362787 0.915157 Ca
0.071061 0.862787 0.415157 Ca
0.071061 0.862787 0.915157 Ca
0.571061 0.362787 0.415157 Ca
0.571061 0.362787 0.915157 Ca
0.571061 0.862787 0.915157 Ca
0.325237 0.051662 0.383619 Mn
0.325237 0.051662 0.883619 Mn
0.325237 0.551662 0.383619 Mn
0.325237 0.551662 0.883619 Mn
0.825237 0.051662 0.383619 Mn
0.825237 0.051662 0.883619 Mn
0.825237 0.551662 0.383619 Mn
0.825237 0.551662 0.883619 Mn
0.174763 0.448338 0.116381 Mn
0.174763 0.448338 0.616381 Mn
0.174763 0.948338 0.116381 Mn
0.174763 0.948338 0.616381 Mn
0.674763 0.448338 0.116381 Mn
0.674763 0.448338 0.616381 Mn
0.674763 0.948338 0.116381 Mn
0.674763 0.948338 0.616381 Mn
0.072900 0.114242 0.374159 P
0.072900 0.114242 0.874159 P
0.072900 0.614242 0.374159 P
0.072900 0.614242 0.874159 P
0.572900 0.114242 0.374159 P
0.572900 0.114242 0.874159 P
0.572900 0.614242 0.374159 P
0.572900 0.614242 0.874159 P
0.427100 0.385758 0.125841 P
0.427100 0.385758 0.625841 P
0.427100 0.885758 0.125841 P
0.427100 0.885758 0.625841 P
0.927100 0.385758 0.125841 P
0.927100 0.385758 0.625841 P
0.927100 0.885758 0.125841 P
0.927100 0.885758 0.625841 P
0.315403 0.320195 0.335983 P
0.315403 0.320195 0.835983 P
0.315403 0.820195 0.335983 P
0.315403 0.820195 0.835983 P
0.815403 0.320195 0.335983 P
0.815403 0.320195 0.835983 P
0.815403 0.820195 0.335983 P
0.815403 0.820195 0.835983 P
0.184597 0.179805 0.164017 P
0.184597 0.179805 0.664017 P
0.184597 0.679805 0.164017 P
0.184597 0.679805 0.664017 P
0.684597 0.179805 0.164017 P
0.684597 0.179805 0.664017 P
0.684597 0.679805 0.164017 P
0.684597 0.679805 0.664017 P
0.386675 0.304652 0.239588 O
0.386675 0.304652 0.739588 O
0.386675 0.804652 0.239588 O
0.386675 0.804652 0.739588 O
0.886675 0.304652 0.239588 O
0.886675 0.304652 0.739588 O
0.886675 0.804652 0.239588 O
0.886675 0.804652 0.739588 O
0.113325 0.195348 0.260412 O
0.113325 0.195348 0.760412 O
0.113325 0.695348 0.260412 O
0.113325 0.695348 0.760412 O
0.613325 0.195348 0.260412 O
0.613325 0.195348 0.760412 O
0.613325 0.695348 0.260412 O
0.613325 0.695348 0.760412 O
0.490471 0.051353 0.357805 O
0.490471 0.051353 0.857805 O
0.490471 0.551353 0.357805 O
0.490471 0.551353 0.857805 O
0.990471 0.051353 0.357805 O
0.990471 0.051353 0.857805 O
0.990471 0.551353 0.357805 O
0.990471 0.551353 0.857805 O
0.009529 0.448647 0.142194 O
0.009529 0.448647 0.642194 O
0.009529 0.948647 0.142194 O
0.009529 0.948647 0.642194 O
0.509529 0.448647 0.142194 O
0.509529 0.448647 0.642194 O
0.509529 0.948647 0.142194 O
0.509529 0.948647 0.642194 O
0.291002 0.129582 0.211475 O
0.291002 0.129582 0.711475 O
0.291002 0.629582 0.211475 O
0.291002 0.629582 0.711475 O
0.791002 0.129582 0.211475 O
0.791002 0.129582 0.711475 O
0.791002 0.629582 0.211475 O
0.791002 0.629582 0.711475 O
0.208998 0.370418 0.288525 O
0.208998 0.370418 0.788525 O
0.208998 0.870418 0.288525 O
0.208998 0.870418 0.788525 O
0.708998 0.370418 0.288525 O
0.708998 0.370418 0.788525 O
0.708998 0.870418 0.288525 O
0.708998 0.870418 0.788525 O
0.184629 0.298248 0.079786 O
0.184629 0.298248 0.579786 O
0.184629 0.798248 0.079786 O
0.184629 0.798248 0.579786 O
0.684629 0.298248 0.079786 O
0.684629 0.298248 0.579786 O
0.684629 0.798248 0.079786 O
0.684629 0.798248 0.579786 O
0.315371 0.201752 0.420214 O
0.315371 0.201752 0.920214 O
0.315371 0.701752 0.420214 O
0.315371 0.701752 0.920214 O
0.815371 0.201752 0.420214 O
0.815371 0.201752 0.920214 O
0.815371 0.701752 0.420214 O
0.815371 0.701752 0.920214 O
0.465229 0.309393 0.070248 O
0.465229 0.309393 0.570248 O
0.465229 0.809393 0.070248 O
0.465229 0.809393 0.570248 O
0.965229 0.309393 0.070248 O
0.965229 0.309393 0.570248 O
0.965229 0.809393 0.070248 O
0.965229 0.809393 0.570248 O
0.034771 0.190607 0.429752 O
0.034771 0.190607 0.929752 O
0.034771 0.690607 0.429752 O
0.034771 0.690607 0.929752 O
0.534771 0.190607 0.429752 O
0.534771 0.190607 0.929752 O
0.534771 0.690607 0.429752 O
0.534771 0.690607 0.929752 O
0.337225 0.473597 0.069071 O
0.337225 0.473597 0.569071 O
0.337225 0.973597 0.069071 O
0.337225 0.973597 0.569071 O
0.837225 0.473597 0.069071 O
0.837225 0.473597 0.569071 O
0.837225 0.973597 0.069071 O
0.837225 0.973597 0.569071 O
0.162776 0.026403 0.430930 O
0.162776 0.026404 0.930930 O
0.162776 0.526404 0.430930 O
0.162776 0.526403 0.930930 O
0.662776 0.026403 0.430930 O
0.662776 0.026404 0.930930 O
0.662776 0.526404 0.430930 O
0.662776 0.526403 0.930930 O
0.133016 0.104533 0.128781 O
0.133016 0.104533 0.628781 O
0.133016 0.604533 0.128781 O
0.133016 0.604533 0.628781 O
0.633016 0.104533 0.128781 O
0.633016 0.104533 0.628781 O
0.633016 0.604533 0.128781 O
0.633016 0.604533 0.628781 O
0.366984 0.395467 0.371219 O
0.366984 0.395467 0.871219 O
0.366984 0.895467 0.371219 O
0.366984 0.895467 0.871219 O
0.866984 0.395467 0.371219 O
0.866984 0.395467 0.871219 O
0.866984 0.895467 0.371219 O
0.866984 0.895467 0.871219 O
