Na2 Ca2 V4 Si4 P2 O24                   
   1.00000000000000     
     8.8448118654008709    0.0973716155036855    0.0900870535472898
     4.2482960466197373    7.6408250480557216    0.0559898379671055
     4.4229443806955393    2.5030529811981519    7.2397964283262120
   Ca   Na   V    Si   P    O 
     2     2     4     4     2    24
Direct
   0.7405103533131796    0.3995181731813682    0.1207711697630910 Ca
  0.0014402299522882  0.9975356008490216  0.0019947538800346
  0.1086121970550570  0.7499978972545381  0.3913774635227538
  0.8982076496181540  0.2499727302820997  0.6018177781877456
  0.3651496686927154  0.3545935182075638  0.3491257967244129
  0.6468278168745438  0.6422511486729325  0.6539910329761921
  0.1509123478209999  0.1454082539385368  0.1348309056331095
  0.8459213200498796  0.8577707128223239  0.8532028113433123
  0.0331414521365557  0.4571747791813496  0.7547098621018481
  0.7452501214362384  0.0428367644757512  0.4668485708145668
  0.4601171151372476  0.7499620904025670  0.0398904152519614
  0.5421882873511223  0.2500556905496600  0.9577753629381015
  0.9672104810990081  0.5435149361499050  0.2445340760027736
  0.2555571887545189  0.9564648350835588  0.5327965078164244
  0.2254757493316350  0.4443457627566624  0.5730197247141789
  0.7780116855436345  0.5580969606450110  0.4127475835279294
  0.5678242220308934  0.2299290936375954  0.4414761380051029
  0.4254079217792788  0.7785244838984660  0.5551046786260124
  0.4386140630058440  0.5812286589750166  0.2374513038613091
  0.5632900108011948  0.4187233194813030  0.7579057614896165
  0.9269537601331498  0.0556470367294194  0.2745429308930773
  0.0873529418045961  0.9418565755233509  0.7219882898303505
  0.0585493829184099  0.2700467272732606  0.9321037894459615
  0.9448459759029590  0.7214915588393166  0.0747310149261390
  0.2625650221755013  0.9186982384996684  0.0614013759505255
  0.7420627242847987  0.0813754172160617  0.9366654243209334
  0.4909137901442547  0.3104853620828530  0.1318701755872936
  0.5049785754561559  0.6918383226244035  0.8673711406541984
  0.1205376623989832  0.5284738700542214  0.2929099279600208
  0.8624833391266328  0.4777366146081730  0.7108593687596296
  0.2829481139655756  0.1374472078080335  0.4884196008058299
  0.7202705335561109  0.8473010181611200  0.5143030598285960
  0.3680862110298790  0.1896322645587639  0.0090139862983110
  0.6325767278266318  0.8080906979989546  0.9951023794888768
  0.2072470381176451  0.9714657872883551  0.3794432925751052
  0.7890430911267973  0.0222698286849907  0.6375356709962525
  0.0115536332227101  0.3625428896702882  0.2171543330482974
  0.9856315677796520  0.6527146213050983  0.7797079243931105
 
  0.00000000E+00  0.00000000E+00  0.00000000E+00
  0.00000000E+00  0.00000000E+00  0.00000000E+00
  0.00000000E+00  0.00000000E+00  0.00000000E+00
  0.00000000E+00  0.00000000E+00  0.00000000E+00
  0.00000000E+00  0.00000000E+00  0.00000000E+00
  0.00000000E+00  0.00000000E+00  0.00000000E+00
  0.00000000E+00  0.00000000E+00  0.00000000E+00
  0.00000000E+00  0.00000000E+00  0.00000000E+00
  0.00000000E+00  0.00000000E+00  0.00000000E+00
  0.00000000E+00  0.00000000E+00  0.00000000E+00
  0.00000000E+00  0.00000000E+00  0.00000000E+00
  0.00000000E+00  0.00000000E+00  0.00000000E+00
  0.00000000E+00  0.00000000E+00  0.00000000E+00
  0.00000000E+00  0.00000000E+00  0.00000000E+00
  0.00000000E+00  0.00000000E+00  0.00000000E+00
  0.00000000E+00  0.00000000E+00  0.00000000E+00
  0.00000000E+00  0.00000000E+00  0.00000000E+00
  0.00000000E+00  0.00000000E+00  0.00000000E+00
  0.00000000E+00  0.00000000E+00  0.00000000E+00
  0.00000000E+00  0.00000000E+00  0.00000000E+00
  0.00000000E+00  0.00000000E+00  0.00000000E+00
  0.00000000E+00  0.00000000E+00  0.00000000E+00
  0.00000000E+00  0.00000000E+00  0.00000000E+00
  0.00000000E+00  0.00000000E+00  0.00000000E+00
  0.00000000E+00  0.00000000E+00  0.00000000E+00
  0.00000000E+00  0.00000000E+00  0.00000000E+00
  0.00000000E+00  0.00000000E+00  0.00000000E+00
  0.00000000E+00  0.00000000E+00  0.00000000E+00
  0.00000000E+00  0.00000000E+00  0.00000000E+00
  0.00000000E+00  0.00000000E+00  0.00000000E+00
  0.00000000E+00  0.00000000E+00  0.00000000E+00
  0.00000000E+00  0.00000000E+00  0.00000000E+00
  0.00000000E+00  0.00000000E+00  0.00000000E+00
  0.00000000E+00  0.00000000E+00  0.00000000E+00
  0.00000000E+00  0.00000000E+00  0.00000000E+00
  0.00000000E+00  0.00000000E+00  0.00000000E+00
  0.00000000E+00  0.00000000E+00  0.00000000E+00
  0.00000000E+00  0.00000000E+00  0.00000000E+00
