Na8 V16 P16 O80
1.0
  12.3788102000000002    0.0000000000000000    0.0000000000000008
   0.0000000000000020   12.3788102000000002    0.0000000000000008
   0.0000000000000000    0.0000000000000000    8.4399148000000004
Na V P O
1 16 16 80
direct
   0.8748830926570506    0.6249943457506597    0.5089487435275811 Na
   0.0036472552338321    0.2469967242692828    0.1586517517896148 V
   0.0036472552338321    0.2469967242692828    0.6586517517896148 V
   0.0036472552338321    0.7469967242692828    0.1586517517896148 V
   0.0036472552338321    0.7469967242692828    0.6586517517896148 V
   0.4887220076209360    0.2392414313660681    0.2220153716115134 V
   0.4887220076209360    0.2392414313660681    0.7220153716115134 V
   0.4887220076209360    0.7392414313660681    0.2220153716115134 V
   0.4887220076209360    0.7392414313660681    0.7220153716115133 V
   0.2464325204972497    0.0029686573966490    0.3245573044907856 V
   0.2464325204972497    0.0029686573966490    0.8245573044907856 V
   0.2464325204972497    0.5029686573966491    0.3245573044907856 V
   0.2464325204972497    0.5029686573966491    0.8245573044907855 V
   0.7612496858356038    0.0107578527078840    0.2601658874562707 V
   0.7612496858356038    0.0107578527078840    0.7601658874562707 V
   0.7612496858356038    0.5107578527078840    0.2601658874562707 V
   0.7612496858356038    0.5107578527078840    0.7601658874562706 V
   0.0112514799575693    0.4971761099736489    0.1658749932849926 P
   0.0112514799575693    0.4971761099736489    0.6658749932849926 P
   0.0112514799575693    0.9971761099736489    0.1658749932849926 P
   0.0112514799575693    0.9971761099736489    0.6658749932849926 P
   0.4942372534536097    0.4988033808412154    0.2556869494388561 P
   0.4942372534536097    0.4988033808412154    0.7556869494388561 P
   0.4942372534536096    0.9988033808412156    0.2556869494388561 P
   0.4942372534536096    0.9988033808412156    0.7556869494388559 P
   0.2388668943748669    0.2527808438999332    0.3176076185343640 P
   0.2388668943748669    0.2527808438999332    0.8176076185343639 P
   0.2388668943748669    0.7527808438999333    0.3176076185343640 P
   0.2388668943748669    0.7527808438999333    0.8176076185343638 P
   0.7557049512383038    0.2511725343376949    0.2265269254692666 P
   0.7557049512383038    0.2511725343376949    0.7265269254692667 P
   0.7557049512383038    0.7511725343376949    0.2265269254692666 P
   0.7557049512383038    0.7511725343376949    0.7265269254692666 P
   0.2400416339546848    0.3554051573050606    0.4210657560587544 O
   0.2400416339546848    0.3554051573050606    0.9210657560587543 O
   0.2400416339546848    0.8554051573050606    0.4210657560587544 O
   0.2400416339546848    0.8554051573050606    0.9210657560587543 O
   0.7597314188651060    0.3576792521406330    0.3290034736419096 O
   0.7597314188651060    0.3576792521406330    0.8290034736419096 O
   0.7597314188651061    0.8576792521406329    0.3290034736419096 O
   0.7597314188651061    0.8576792521406329    0.8290034736419095 O
   0.4062329301543394    0.4951003707141318    0.3835359028860126 O
   0.4062329301543394    0.4951003707141318    0.8835359028860125 O
   0.4062329301543394    0.9951003707141317    0.3835359028860126 O
   0.4062329301543394    0.9951003707141317    0.8835359028860125 O
   0.9055145213311693    0.0000760340640399    0.2639252987950712 O
   0.9055145213311693    0.0000760340640399    0.7639252987950712 O
   0.9055145213311693    0.5000760340640400    0.2639252987950712 O
   0.9055145213311693    0.5000760340640400    0.7639252987950712 O
   0.2896322275772691    0.0309265829858499    0.1508588413045188 O
   0.2896322275772691    0.0309265829858499    0.6508588413045188 O
   0.2896322275772690    0.5309265829858498    0.1508588413045188 O
   0.2896322275772690    0.5309265829858498    0.6508588413045187 O
   0.7141587582682914    0.0239073318173174    0.0848484569247149 O
   0.7141587582682914    0.0239073318173174    0.5848484569247150 O
   0.7141587582682914    0.5239073318173174    0.0848484569247149 O
   0.7141587582682914    0.5239073318173174    0.5848484569247149 O
   0.9600602031162953    0.2195271597067444    0.3323185717666891 O
   0.9600602031162953    0.2195271597067444    0.8323185717666891 O
   0.9600602031162954    0.7195271597067444    0.3323185717666891 O
   0.9600602031162954    0.7195271597067444    0.8323185717666890 O
   0.5359886757677831    0.2259726508541126    0.3972206261875185 O
   0.5359886757677831    0.2259726508541126    0.8972206261875185 O
   0.5359886757677830    0.7259726508541126    0.3972206261875186 O
   0.5359886757677830    0.7259726508541126    0.8972206261875185 O
   0.0978722816321075    0.4898777635702997    0.2957668632033899 O
   0.0978722816321075    0.4898777635702997    0.7957668632033900 O
   0.0978722816321075    0.9898777635702998    0.2957668632033899 O
   0.0978722816321075    0.9898777635702998    0.7957668632033899 O
   0.6051383126371251    0.0066215429013022    0.3359397885156233 O
   0.6051383126371251    0.0066215429013022    0.8359397885156233 O
   0.6051383126371251    0.5066215429013021    0.3359397885156233 O
   0.6051383126371251    0.5066215429013021    0.8359397885156233 O
   0.2307544075845043    0.1468052496992598    0.4157905650061471 O
   0.2307544075845043    0.1468052496992598    0.9157905650061471 O
   0.2307544075845043    0.6468052496992597    0.4157905650061471 O
   0.2307544075845043    0.6468052496992597    0.9157905650061470 O
   0.7631910698470572    0.1500293562991427    0.3433628363600906 O
   0.7631910698470572    0.1500293562991427    0.8433628363600906 O
   0.7631910698470573    0.6500293562991427    0.3433628363600906 O
   0.7631910698470573    0.6500293562991427    0.8433628363600906 O
   0.0194477371951306    0.1031327086293482    0.0676647179138612 O
   0.0194477371951306    0.1031327086293482    0.5676647179138612 O
   0.0194477371951306    0.6031327086293482    0.0676647179138612 O
   0.0194477371951306    0.6031327086293482    0.5676647179138611 O
   0.4866077725847051    0.0999353390645171    0.1388860494903107 O
   0.4866077725847051    0.0999353390645171    0.6388860494903107 O
   0.4866077725847051    0.5999353390645170    0.1388860494903107 O
   0.4866077725847051    0.5999353390645170    0.6388860494903107 O
   0.1521148552562840    0.2600863876746471    0.1879354166784291 O
   0.1521148552562840    0.2600863876746471    0.6879354166784292 O
   0.1521148552562840    0.7600863876746471    0.1879354166784291 O
   0.1521148552562840    0.7600863876746471    0.6879354166784291 O
   0.6448718805067170    0.2433745223544050    0.1460582332979454 O
   0.6448718805067170    0.2433745223544050    0.6460582332979453 O
   0.6448718805067170    0.7433745223544049    0.1460582332979454 O
   0.6448718805067170    0.7433745223544049    0.6460582332979453 O
   0.3444559408587828    0.2499936740391716    0.2191912927191761 O
   0.3444559408587828    0.2499936740391716    0.7191912927191761 O
   0.3444559408587828    0.7499936740391715    0.2191912927191761 O
   0.3444559408587828    0.7499936740391715    0.7191912927191760 O
   0.8438780925267734    0.2547287759587615    0.0989502667017423 O
   0.8438780925267734    0.2547287759587615    0.5989502667017423 O
   0.8438780925267734    0.7547287759587616    0.0989502667017424 O
   0.8438780925267734    0.7547287759587616    0.5989502667017422 O
   0.0101660068191864    0.3945632367040230    0.0623285735113788 O
   0.0101660068191864    0.3945632367040230    0.5623285735113788 O
   0.0101660068191864    0.8945632367040230    0.0623285735113788 O
   0.0101660068191864    0.8945632367040230    0.5623285735113788 O
   0.4901080849967204    0.3923245637204547    0.1531639600157821 O
   0.4901080849967204    0.3923245637204547    0.6531639600157820 O
   0.4901080849967203    0.8923245637204547    0.1531639600157821 O
   0.4901080849967203    0.8923245637204547    0.6531639600157820 O
