Ca16 Cr32 O64
1.0
  10.2699282693640708   -0.0019679656787166    0.0394855742263662
   1.9086546034383258   11.0247476448217459    3.0639852946035977
  -0.0022914362109482   -0.0030056885628970   11.8820529547658449
Ca Cr O
15 32 64
direct
   0.3736002889661202    0.3489066182752190    0.5373297620075554 Ca
   0.1859373893004381    0.3417298154939452    0.2932024629442829 Ca
   0.1859373893004382    0.3417298154939452    0.7932024629442829 Ca
   0.1859373893004381    0.8417298154939453    0.2932024629442829 Ca
   0.1859373893004382    0.8417298154939452    0.7932024629442829 Ca
   0.6859373893004381    0.3417298154939452    0.7932024629442830 Ca
   0.6859373893004381    0.8417298154939453    0.2932024629442829 Ca
   0.6859373893004382    0.8417298154939452    0.7932024629442830 Ca
   0.3736002889661201    0.3489066182752189    0.0373297620075555 Ca
   0.3736002889661201    0.8489066182752190    0.0373297620075555 Ca
   0.3736002889661202    0.8489066182752190    0.5373297620075556 Ca
   0.8736002889661201    0.3489066182752190    0.0373297620075555 Ca
   0.8736002889661202    0.3489066182752190    0.5373297620075556 Ca
   0.8736002889661202    0.8489066182752190    0.0373297620075555 Ca
   0.8736002889661203    0.8489066182752190    0.5373297620075556 Ca
   0.1524963750219755    0.0932066287821023    0.4788694421206401 Cr
   0.1524963750219754    0.0932066287821023    0.9788694421206401 Cr
   0.1524963750219755    0.5932066287821023    0.4788694421206401 Cr
   0.1524963750219754    0.5932066287821023    0.9788694421206401 Cr
   0.6524963750219754    0.0932066287821023    0.4788694421206401 Cr
   0.6524963750219754    0.0932066287821023    0.9788694421206402 Cr
   0.6524963750219754    0.5932066287821023    0.4788694421206401 Cr
   0.6524963750219754    0.5932066287821024    0.9788694421206402 Cr
   0.1531411423150857    0.1023074497276184    0.2248247476336190 Cr
   0.1531411423150857    0.1023074497276184    0.7248247476336189 Cr
   0.1531411423150857    0.6023074497276185    0.2248247476336190 Cr
   0.1531411423150857    0.6023074497276184    0.7248247476336189 Cr
   0.6531411423150858    0.1023074497276184    0.2248247476336190 Cr
   0.6531411423150857    0.1023074497276184    0.7248247476336190 Cr
   0.6531411423150858    0.6023074497276185    0.2248247476336190 Cr
   0.6531411423150858    0.6023074497276184    0.7248247476336190 Cr
   0.4063558312861773    0.0883213148958113    0.1057479022404060 Cr
   0.4063558312861772    0.0883213148958113    0.6057479022404060 Cr
   0.4063558312861774    0.5883213148958113    0.1057479022404060 Cr
   0.4063558312861772    0.5883213148958113    0.6057479022404061 Cr
   0.9063558312861774    0.0883213148958113    0.1057479022404060 Cr
   0.9063558312861775    0.0883213148958113    0.6057479022404061 Cr
   0.9063558312861774    0.5883213148958113    0.1057479022404060 Cr
   0.9063558312861772    0.5883213148958113    0.6057479022404061 Cr
   0.4070333669378173    0.0974455223510304    0.3517182460529646 Cr
   0.4070333669378173    0.0974455223510304    0.8517182460529646 Cr
   0.4070333669378173    0.5974455223510304    0.3517182460529646 Cr
   0.4070333669378174    0.5974455223510304    0.8517182460529646 Cr
   0.9070333669378174    0.0974455223510304    0.3517182460529647 Cr
   0.9070333669378173    0.0974455223510304    0.8517182460529648 Cr
   0.9070333669378172    0.5974455223510304    0.3517182460529647 Cr
   0.9070333669378176    0.5974455223510304    0.8517182460529648 Cr
   0.0025046977002497    0.4999157971210089    0.0012467151232620 O
   0.0025046977002497    0.4999157971210089    0.5012467151232620 O
   0.0025046977002497    0.9999157971210089    0.0012467151232620 O
   0.0025046977002497    0.9999157971210089    0.5012467151232620 O
   0.5025046977002496    0.4999157971210089    0.0012467151232620 O
   0.5025046977002497    0.4999157971210089    0.5012467151232621 O
   0.5025046977002496    0.9999157971210089    0.0012467151232620 O
   0.5025046977002496    0.9999157971210089    0.5012467151232620 O
   0.0088549512843805    0.0033901425866069    0.2527550221825444 O
   0.0088549512843805    0.0033901425866069    0.7527550221825443 O
   0.0088549512843805    0.5033901425866069    0.2527550221825444 O
   0.0088549512843805    0.5033901425866070    0.7527550221825443 O
   0.5088549512843806    0.0033901425866069    0.2527550221825443 O
   0.5088549512843805    0.0033901425866069    0.7527550221825444 O
   0.5088549512843806    0.5033901425866070    0.2527550221825443 O
   0.5088549512843806    0.5033901425866070    0.7527550221825444 O
   0.0506564206055131    0.1872468733034864    0.0778398867135586 O
   0.0506564206055131    0.1872468733034864    0.5778398867135587 O
   0.0506564206055131    0.6872468733034864    0.0778398867135586 O
   0.0506564206055131    0.6872468733034864    0.5778398867135586 O
   0.5506564206055131    0.1872468733034864    0.0778398867135586 O
   0.5506564206055131    0.1872468733034864    0.5778398867135587 O
   0.5506564206055131    0.6872468733034864    0.0778398867135586 O
   0.5506564206055131    0.6872468733034864    0.5778398867135587 O
   0.0570368695436976    0.1907161016794987    0.3293397164796730 O
   0.0570368695436976    0.1907161016794987    0.8293397164796731 O
   0.0570368695436976    0.6907161016794987    0.3293397164796730 O
   0.0570368695436976    0.6907161016794987    0.8293397164796731 O
   0.5570368695436976    0.1907161016794987    0.3293397164796730 O
   0.5570368695436978    0.1907161016794987    0.8293397164796730 O
   0.5570368695436976    0.6907161016794987    0.3293397164796730 O
   0.5570368695436977    0.6907161016794987    0.8293397164796730 O
   0.2550507805508389    0.4945555185291326    0.1293192100961172 O
   0.2550507805508389    0.4945555185291327    0.6293192100961172 O
   0.2550507805508389    0.9945555185291327    0.1293192100961171 O
   0.2550507805508389    0.9945555185291326    0.6293192100961172 O
   0.7550507805508389    0.4945555185291327    0.1293192100961171 O
   0.7550507805508389    0.4945555185291327    0.6293192100961172 O
   0.7550507805508389    0.9945555185291327    0.1293192100961172 O
   0.7550507805508390    0.9945555185291326    0.6293192100961172 O
   0.2573618559246711    0.4982396471733815    0.3760611826621840 O
   0.2573618559246711    0.4982396471733815    0.8760611826621841 O
   0.2573618559246711    0.9982396471733815    0.3760611826621840 O
   0.2573618559246711    0.9982396471733814    0.8760611826621841 O
   0.7573618559246711    0.4982396471733815    0.3760611826621841 O
   0.7573618559246711    0.4982396471733815    0.8760611826621841 O
   0.7573618559246711    0.9982396471733815    0.3760611826621841 O
   0.7573618559246711    0.9982396471733814    0.8760611826621840 O
   0.3021867665972522    0.1924240827471309    0.4544686218230858 O
   0.3021867665972522    0.1924240827471309    0.9544686218230860 O
   0.3021867665972522    0.6924240827471309    0.4544686218230858 O
   0.3021867665972522    0.6924240827471309    0.9544686218230860 O
   0.8021867665972523    0.1924240827471308    0.4544686218230859 O
   0.8021867665972523    0.1924240827471309    0.9544686218230859 O
   0.8021867665972522    0.6924240827471309    0.4544686218230859 O
   0.8021867665972523    0.6924240827471309    0.9544686218230859 O
   0.3044327639657851    0.1960944873340296    0.2012280819201067 O
   0.3044327639657851    0.1960944873340295    0.7012280819201067 O
   0.3044327639657852    0.6960944873340296    0.2012280819201067 O
   0.3044327639657851    0.6960944873340296    0.7012280819201067 O
   0.8044327639657850    0.1960944873340295    0.2012280819201067 O
   0.8044327639657853    0.1960944873340296    0.7012280819201068 O
   0.8044327639657850    0.6960944873340296    0.2012280819201067 O
   0.8044327639657853    0.6960944873340296    0.7012280819201068 O
