Li32 Ni32 S64
1.0
  10.8643204083676750   -0.0000329287968218    0.0000003361246636
  -0.0000330112364970   10.8643505982723330    0.0000040076328962
   0.0000006212453572    0.0000081815106368   20.0249825856178134
Li Ni S
31 32 64
direct
   0.5000000066181922    0.4999999713647564    0.5000018681001459 Li
   0.4999999529580946    0.2499999805978047    0.1250007965822575 Li
   0.4999999529580947    0.7499999805978046    0.1250007965822575 Li
   0.4999999529580947    0.7499999805978046    0.6250007965822575 Li
   0.9999999529580947    0.2499999805978047    0.1250007965822575 Li
   0.9999999529580946    0.2499999805978047    0.6250007965822575 Li
   0.9999999529580947    0.7499999805978047    0.1250007965822575 Li
   0.9999999529580946    0.7499999805978047    0.6250007965822575 Li
   0.5000000066181922    0.4999999713647564    0.0000018681001459 Li
   0.5000000066181922    0.9999999713647564    0.0000018681001459 Li
   0.5000000066181922    0.9999999713647565    0.5000018681001459 Li
   0.0000000066181922    0.4999999713647564    0.0000018681001459 Li
   0.0000000066181922    0.4999999713647565    0.5000018681001459 Li
   0.0000000066181922    0.9999999713647563    0.0000018681001459 Li
   0.0000000066181922    0.9999999713647564    0.5000018681001459 Li
   0.2500000196062830    0.9999999944594054    0.3749975730276405 Li
   0.2500000196062830    0.9999999944594054    0.8749975730276405 Li
   0.2500000196062830    0.4999999944594054    0.3749975730276405 Li
   0.2500000196062830    0.4999999944594053    0.8749975730276405 Li
   0.7500000196062829    0.9999999944594054    0.3749975730276405 Li
   0.7500000196062829    0.9999999944594054    0.8749975730276405 Li
   0.7500000196062829    0.4999999944594054    0.3749975730276405 Li
   0.7500000196062828    0.4999999944594054    0.8749975730276405 Li
   0.2500000724349108    0.2499999762733711    0.2499999653307806 Li
   0.2500000724349108    0.2499999762733711    0.7499999653307806 Li
   0.2500000724349108    0.7499999762733712    0.2499999653307806 Li
   0.2500000724349108    0.7499999762733712    0.7499999653307806 Li
   0.7500000724349107    0.2499999762733711    0.2499999653307806 Li
   0.7500000724349107    0.2499999762733711    0.7499999653307807 Li
   0.7500000724349107    0.7499999762733711    0.2499999653307806 Li
   0.7500000724349108    0.7499999762733712    0.7499999653307806 Li
   0.0000002194290411    0.4999998495348799    0.2500239897971013 Ni
   0.0000002194290411    0.4999998495348798    0.7500239897971014 Ni
   0.0000002194290411    0.9999998495348797    0.2500239897971013 Ni
   0.0000002194290411    0.9999998495348800    0.7500239897971014 Ni
   0.5000002194290410    0.4999998495348799    0.2500239897971013 Ni
   0.5000002194290410    0.4999998495348799    0.7500239897971014 Ni
   0.5000002194290410    0.9999998495348799    0.2500239897971013 Ni
   0.5000002194290410    0.9999998495348799    0.7500239897971014 Ni
   0.0000001678346973    0.2500003118523821    0.3749894523123383 Ni
   0.0000001678346973    0.2500003118523821    0.8749894523123383 Ni
   0.0000001678346973    0.7500003118523821    0.3749894523123383 Ni
   0.0000001678346973    0.7500003118523820    0.8749894523123383 Ni
   0.5000001678346973    0.2500003118523821    0.3749894523123383 Ni
   0.5000001678346973    0.2500003118523821    0.8749894523123383 Ni
   0.5000001678346973    0.7500003118523821    0.3749894523123383 Ni
   0.5000001678346973    0.7500003118523821    0.8749894523123383 Ni
   0.2499998579155955    0.0000000231317092    0.1249958865595025 Ni
   0.2499998579155956    0.0000000231317093    0.6249958865595024 Ni
   0.2499998579155955    0.5000000231317093    0.1249958865595024 Ni
   0.2499998579155955    0.5000000231317093    0.6249958865595024 Ni
   0.7499998579155954    0.0000000231317092    0.1249958865595024 Ni
   0.7499998579155955    0.0000000231317093    0.6249958865595024 Ni
   0.7499998579155956    0.5000000231317093    0.1249958865595025 Ni
   0.7499998579155958    0.5000000231317093    0.6249958865595024 Ni
   0.2499999591970304    0.2500001153829686    0.4999954607752995 Ni
   0.2499999591970304    0.2500001153829686    0.9999954607752995 Ni
   0.2499999591970303    0.7500001153829685    0.4999954607752995 Ni
   0.2499999591970304    0.7500001153829686    0.9999954607752995 Ni
   0.7499999591970302    0.2500001153829686    0.4999954607752995 Ni
   0.7499999591970303    0.2500001153829686    0.9999954607752994 Ni
   0.7499999591970302    0.7500001153829687    0.4999954607752995 Ni
   0.7499999591970303    0.7500001153829686    0.9999954607752994 Ni
   0.1250117163641042    0.3991426301519529    0.1874949594685385 S
   0.1250117163641042    0.3991426301519529    0.6874949594685384 S
   0.1250117163641042    0.8991426301519529    0.1874949594685385 S
   0.1250117163641041    0.8991426301519531    0.6874949594685384 S
   0.6250117163641041    0.3991426301519529    0.1874949594685385 S
   0.6250117163641041    0.3991426301519529    0.6874949594685386 S
   0.6250117163641040    0.8991426301519528    0.1874949594685385 S
   0.6250117163641040    0.8991426301519529    0.6874949594685384 S
   0.1250213221142721    0.3508261332031642    0.4375096322081954 S
   0.1250213221142721    0.3508261332031642    0.9375096322081954 S
   0.1250213221142721    0.8508261332031644    0.4375096322081954 S
   0.1250213221142721    0.8508261332031642    0.9375096322081954 S
   0.6250213221142721    0.3508261332031642    0.4375096322081954 S
   0.6250213221142721    0.3508261332031642    0.9375096322081954 S
   0.6250213221142721    0.8508261332031642    0.4375096322081954 S
   0.6250213221142721    0.8508261332031641    0.9375096322081954 S
   0.1491645227543280    0.1250183603755635    0.0624886851205695 S
   0.1491645227543280    0.1250183603755635    0.5624886851205695 S
   0.1491645227543280    0.6250183603755636    0.0624886851205695 S
   0.1491645227543280    0.6250183603755635    0.5624886851205695 S
   0.6491645227543279    0.1250183603755635    0.0624886851205695 S
   0.6491645227543280    0.1250183603755635    0.5624886851205695 S
   0.6491645227543280    0.6250183603755636    0.0624886851205695 S
   0.6491645227543280    0.6250183603755635    0.5624886851205695 S
   0.1008432437108406    0.1250060721506414    0.3125041951145610 S
   0.1008432437108406    0.1250060721506414    0.8125041951145611 S
   0.1008432437108406    0.6250060721506413    0.3125041951145610 S
   0.1008432437108406    0.6250060721506414    0.8125041951145611 S
   0.6008432437108406    0.1250060721506414    0.3125041951145611 S
   0.6008432437108406    0.1250060721506414    0.8125041951145611 S
   0.6008432437108406    0.6250060721506413    0.3125041951145610 S
   0.6008432437108406    0.6250060721506414    0.8125041951145611 S
   0.3508353632155880    0.3749817067714148    0.0624886881740081 S
   0.3508353632155881    0.3749817067714148    0.5624886881740080 S
   0.3508353632155880    0.8749817067714147    0.0624886881740081 S
   0.3508353632155881    0.8749817067714147    0.5624886881740080 S
   0.8508353632155878    0.3749817067714148    0.0624886881740081 S
   0.8508353632155879    0.3749817067714148    0.5624886881740081 S
   0.8508353632155881    0.8749817067714148    0.0624886881740081 S
   0.8508353632155881    0.8749817067714147    0.5624886881740080 S
   0.3991565021835698    0.3749939321440425    0.3125042202046889 S
   0.3991565021835699    0.3749939321440425    0.8125042202046888 S
   0.3991565021835698    0.8749939321440425    0.3125042202046889 S
   0.3991565021835699    0.8749939321440424    0.8125042202046888 S
   0.8991565021835697    0.3749939321440425    0.3125042202046889 S
   0.8991565021835697    0.3749939321440425    0.8125042202046890 S
   0.8991565021835697    0.8749939321440424    0.3125042202046889 S
   0.8991565021835698    0.8749939321440423    0.8125042202046890 S
   0.3749883872446597    0.1008573549757370    0.1874950016823295 S
   0.3749883872446597    0.1008573549757370    0.6874950016823295 S
   0.3749883872446597    0.6008573549757370    0.1874950016823295 S
   0.3749883872446597    0.6008573549757370    0.6874950016823295 S
   0.8749883872446598    0.1008573549757370    0.1874950016823295 S
   0.8749883872446597    0.1008573549757370    0.6874950016823295 S
   0.8749883872446597    0.6008573549757370    0.1874950016823295 S
   0.8749883872446595    0.6008573549757371    0.6874950016823295 S
   0.3749786864187891    0.1491735876302099    0.4375096255420360 S
   0.3749786864187891    0.1491735876302099    0.9375096255420359 S
   0.3749786864187892    0.6491735876302099    0.4375096255420360 S
   0.3749786864187892    0.6491735876302099    0.9375096255420359 S
   0.8749786864187891    0.1491735876302099    0.4375096255420360 S
   0.8749786864187890    0.1491735876302099    0.9375096255420361 S
   0.8749786864187892    0.6491735876302099    0.4375096255420360 S
   0.8749786864187892    0.6491735876302099    0.9375096255420361 S
