Ca1 Mn12 F42                            
   1.00000000000000     
     7.3120200000000004   -0.0250360000000000   -0.0443270000000000
    -3.6766800000000002    6.3808020000000001   -0.0026840000000000
     0.1200200000000000   -0.0751930000000000   17.4906040000000012
   Ca   Mn   F 
     1    12    42
Direct
  0.4879898164386368  0.7671852828373180  0.6882652563353887
  0.3040131450520125  0.0121459582008591  0.3276915467042449
  0.6994987640774997  0.7072276773549921  0.0032493195876317
 -0.0086683449464897  0.2804272940849997  0.6676624380469059
  0.3251702786382241  0.9663039886102704  0.8404961185077179
  0.6742163977091299  0.6584749759938572  0.4885677513130948
  1.0089278776081783  0.3643729540606035  0.1672211511120300
  0.6651625828485195  0.1569122469395778  0.4891497513946144
  0.5092519026789493  0.3647441086398708  0.1681751812530442
  0.8213389134540856  0.4734104109880527  0.8359285467829015
  0.3175047735537598  0.4608140880965519  0.8512353777377883
  0.1708244920461828  0.6532746125486787  0.4930220942675473
  0.5085613393993339  0.8647470948470631  0.1666059074691881
  0.5666720612892276  0.8264634074225605  0.0646186613282151
  0.2284962771569646  0.4064536932478298  0.7441950605066512
  0.2049475981555098  0.7747066780166086  0.3864756140563347
  0.4457853605131210  0.2701247085353027  0.2700233751962962
  0.7893841260079610  0.5628599952007662  0.9399966704982607
  0.7645143087059365  0.1881690370080352  0.5917787818017024
  0.8216966600934853  0.0285511594196377  0.7167504093703397
  0.1993726707955856  0.1222156281185772  0.3893549015518793
  0.9255265973567532  0.8221195314472642  0.0595991328403474
  0.1248952414873647  0.1783829567578097  0.6157095265664156
  0.0934245912264756  0.9022396895824124  0.2639771015112135
  0.7835636012358955  0.9110211207490616  0.9380184341420660
  0.1610634954108434  0.5504534862486780  0.6176176629140053
  0.4526147742530142  0.9010804845712541  0.2685747985179479
  0.4234372044206837  0.5483265491405793  0.9513977257225306
  0.8611464601001625  0.4016540328539258  0.7273869189802126
  0.5653096143527693  0.1326737909471934  0.3876972039213606
  0.5733693130152594  0.4559247539631988  0.0669125441254474
  0.3785948363751941  0.5746423431535131  0.4739182258104783
  0.2213809073603837  0.6557216697466542  0.1500877184017943
  0.4144675415077623  0.7536506587479892  0.8207099855736368
  0.6140790934893258  0.1876315761276503  0.8572299281830450
  0.5912890803344973  0.3684038842022285  0.5102585210097260
  0.7956788613240359  0.4414070480475319  0.1864884039531088
  0.7081932428929384  0.6245806340353873  0.3919121827927666
  0.9465203231925295  0.3343608333940822  0.0685233481012894
  0.3738342936482497  0.0045004921318003  0.7359531979783837
  0.2897083956733338  0.8969250486965137  0.9370285619840711
  0.6384460385006299  0.6961042130850620  0.5920514819578954
  0.0715043490205888  0.3947380686443210  0.2658299748830392
  0.9624281531235086  0.7319712997015363  0.5135835128550711
  0.7966702576752378  0.0727889674213361  0.1833635590365178
  0.2459352914444325  0.1761289779409256  0.8604204122568885
  0.0368815105109721  0.7591374304760767  0.8153363380349347
  0.7422837728381630  0.9458224054332269  0.4706972156928375
  0.2227414610236308  0.2875831509423822  0.1490894729306665
  0.6061413814902078  0.5303432723083104  0.8022349281299669
  0.9560592210032105  0.3854254001673928  0.4635869261123104
  0.4517605659630664  0.0980168367042223  0.1373248957954388
  0.3883107114306307  0.9187125959356253  0.5310533529473463
  0.5661309922448752  0.6314822073459938  0.1977903550785161
  0.0323098557418120  0.4208367175878177  0.8717936600228979
 
             NaN             NaN             NaN
             NaN             NaN             NaN
             NaN             NaN             NaN
             NaN             NaN             NaN
             NaN             NaN             NaN
             NaN             NaN             NaN
             NaN             NaN             NaN
             NaN             NaN             NaN
             NaN             NaN             NaN
             NaN             NaN             NaN
             NaN             NaN             NaN
             NaN             NaN             NaN
             NaN             NaN             NaN
             NaN             NaN             NaN
             NaN             NaN             NaN
             NaN             NaN             NaN
             NaN             NaN             NaN
             NaN             NaN             NaN
             NaN             NaN             NaN
             NaN             NaN             NaN
             NaN             NaN             NaN
             NaN             NaN             NaN
             NaN             NaN             NaN
             NaN             NaN             NaN
             NaN             NaN             NaN
             NaN             NaN             NaN
             NaN             NaN             NaN
             NaN             NaN             NaN
             NaN             NaN             NaN
             NaN             NaN             NaN
             NaN             NaN             NaN
             NaN             NaN             NaN
             NaN             NaN             NaN
             NaN             NaN             NaN
             NaN             NaN             NaN
             NaN             NaN             NaN
             NaN             NaN             NaN
             NaN             NaN             NaN
             NaN             NaN             NaN
             NaN             NaN             NaN
             NaN             NaN             NaN
             NaN             NaN             NaN
             NaN             NaN             NaN
             NaN             NaN             NaN
             NaN             NaN             NaN
             NaN             NaN             NaN
             NaN             NaN             NaN
             NaN             NaN             NaN
             NaN             NaN             NaN
             NaN             NaN             NaN
             NaN             NaN             NaN
             NaN             NaN             NaN
             NaN             NaN             NaN
             NaN             NaN             NaN
             NaN             NaN             NaN
