Ca1 Mn12 F42
1.0
7.312020 -0.025036 -0.044327
-3.676680 6.380802 -0.002684
0.120020 -0.075193 17.490604
Ca Mn F
1 12 42
direct
0.492951 0.732295 0.668281 Ca
0.296893 1.007713 0.329612 Mn
0.704747 0.704221 0.004615 Mn
0.000167 0.299016 0.667868 Mn
0.345557 0.992197 0.838047 Mn
0.655825 0.652275 0.494373 Mn
0.998807 0.352661 0.166826 Mn
0.652012 0.154106 0.491568 Mn
0.499950 0.353990 0.166514 Mn
0.847848 0.491828 0.838130 Mn
0.348584 0.491713 0.841575 Mn
0.153577 0.649238 0.496767 Mn
0.497630 0.853141 0.167072 Mn
0.561489 0.815394 0.065272 F
0.263989 0.442112 0.735882 F
0.195325 0.775090 0.393734 F
0.440541 0.259664 0.268426 F
0.811521 0.569267 0.941832 F
0.748555 0.186473 0.595282 F
0.844300 0.057651 0.719870 F
0.200273 0.127967 0.390444 F
0.919230 0.806843 0.066668 F
0.128688 0.196906 0.611324 F
0.080115 0.894027 0.268553 F
0.803959 0.917405 0.943144 F
0.141572 0.560928 0.612359 F
0.435160 0.885909 0.269380 F
0.443189 0.561394 0.943885 F
0.870894 0.423288 0.727369 F
0.559082 0.126992 0.389171 F
0.560478 0.445118 0.064378 F
0.365679 0.575209 0.477118 F
0.211430 0.643177 0.148422 F
0.435525 0.798993 0.809962 F
0.628130 0.194938 0.857580 F
0.567944 0.367049 0.517482 F
0.786961 0.432856 0.184255 F
0.691761 0.613361 0.398267 F
0.935260 0.317538 0.068193 F
0.387029 0.065939 0.734867 F
0.309097 0.908856 0.932845 F
0.617552 0.688665 0.597482 F
0.062210 0.387887 0.265464 F
0.941990 0.723485 0.518930 F
0.784928 0.062746 0.185220 F
0.259501 0.185366 0.857660 F
0.066820 0.787810 0.812920 F
0.733995 0.934336 0.476921 F
0.212005 0.274131 0.149350 F
0.622079 0.544666 0.805153 F
0.945587 0.382394 0.464256 F
0.443581 0.083381 0.136814 F
0.373029 0.915729 0.537703 F
0.554170 0.622622 0.196617 F
0.071530 0.439150 0.867392 F
