Ca32 Mn32 O80
1.0
  10.8175367420121464   -0.0000826830624788    0.0000118733613818
  -0.0000831256928918   11.0669460918723495   -0.0000358789138218
   0.0000166285753129   -0.0000477746789072   15.0504803758511407
Ca Mn O
31 32 80
direct
   0.2565153350893470    0.4903763750476328    0.3914753660453454 Ca
   0.0065141316002337    0.2596193468962826    0.3914727018117817 Ca
   0.0065141316002337    0.7596193468962825    0.3914727018117816 Ca
   0.5065141316002335    0.7596193468962826    0.3914727018117816 Ca
   0.7565153350893471    0.4903763750476328    0.3914753660453454 Ca
   0.7565153350893471    0.9903763750476328    0.3914753660453454 Ca
   0.2565153350893469    0.9903763750476329    0.3914753660453454 Ca
   0.2565147010185631    0.4903777476958406    0.1085213054371512 Ca
   0.2565147010185631    0.9903777476958406    0.1085213054371512 Ca
   0.7565147010185629    0.4903777476958406    0.1085213054371512 Ca
   0.7565147010185628    0.9903777476958407    0.1085213054371512 Ca
   0.4934845286439018    0.2403810154125451    0.8914804562545739 Ca
   0.4934845286439017    0.7403810154125452    0.8914804562545739 Ca
   0.9934845286439017    0.2403810154125451    0.8914804562545738 Ca
   0.9934845286439017    0.7403810154125451    0.8914804562545739 Ca
   0.2434859886290438    0.0096210460543722    0.6085243917283035 Ca
   0.2434859886290439    0.5096210460543721    0.6085243917283036 Ca
   0.7434859886290437    0.0096210460543722    0.6085243917283035 Ca
   0.7434859886290436    0.5096210460543722    0.6085243917283035 Ca
   0.2434901581529818    0.0096240005438014    0.8914786106525842 Ca
   0.2434901581529819    0.5096240005438013    0.8914786106525842 Ca
   0.7434901581529817    0.0096240005438014    0.8914786106525840 Ca
   0.7434901581529818    0.5096240005438014    0.8914786106525842 Ca
   0.4934806175268218    0.2403802820059434    0.6085224462041565 Ca
   0.4934806175268218    0.7403802820059434    0.6085224462041565 Ca
   0.9934806175268216    0.2403802820059434    0.6085224462041564 Ca
   0.9934806175268217    0.7403802820059434    0.6085224462041565 Ca
   0.0065136432424371    0.2596249470966714    0.1085243363335458 Ca
   0.0065136432424371    0.7596249470966715    0.1085243363335458 Ca
   0.5065136432424370    0.2596249470966714    0.1085243363335458 Ca
   0.5065136432424370    0.7596249470966714    0.1085243363335458 Ca
   0.2499990821292155    0.2499915194412287    0.5000019092923152 Mn
   0.2499990821292155    0.7499915194412288    0.5000019092923151 Mn
   0.7499990821292154    0.2499915194412287    0.5000019092923152 Mn
   0.7499990821292153    0.7499915194412287    0.5000019092923151 Mn
   0.2499996791745199    0.2500023422506100    0.0000038974079965 Mn
   0.2499996791745200    0.7500023422506100    0.0000038974079965 Mn
   0.7499996791745198    0.2500023422506100    0.0000038974079965 Mn
   0.7499996791745198    0.7500023422506102    0.0000038974079965 Mn
   0.0210287382099269    0.0284995416178712    0.2499863176212945 Mn
   0.0210287382099269    0.5284995416178712    0.2499863176212945 Mn
   0.5210287382099269    0.0284995416178712    0.2499863176212945 Mn
   0.5210287382099268    0.5284995416178713    0.2499863176212945 Mn
   0.4789700220634783    0.4715040463276480    0.7500007741913477 Mn
   0.4789700220634783    0.9715040463276481    0.7500007741913478 Mn
   0.9789700220634783    0.4715040463276480    0.7500007741913477 Mn
   0.9789700220634783    0.9715040463276481    0.7500007741913477 Mn
   0.0000006094898248    0.9999980761874266    0.0000050601791434 Mn
   0.0000006094898249    0.4999980761874267    0.0000050601791434 Mn
   0.5000006094898247    0.9999980761874266    0.0000050601791434 Mn
   0.5000006094898247    0.4999980761874267    0.0000050601791434 Mn
   0.0000001491291248    0.0000017680643575    0.4999996351541890 Mn
   0.0000001491291248    0.5000017680643575    0.4999996351541890 Mn
   0.5000001491291247    0.0000017680643575    0.4999996351541890 Mn
   0.5000001491291246    0.5000017680643575    0.4999996351541890 Mn
   0.2710249169877044    0.2214961138945945    0.2499870506356667 Mn
   0.2710249169877045    0.7214961138945944    0.2499870506356667 Mn
   0.7710249169877043    0.2214961138945945    0.2499870506356667 Mn
   0.7710249169877043    0.7214961138945946    0.2499870506356667 Mn
   0.2289766131233718    0.2784955844995382    0.7499998965247406 Mn
   0.2289766131233718    0.7784955844995382    0.7499998965247408 Mn
   0.7289766131233718    0.2784955844995382    0.7499998965247406 Mn
   0.7289766131233717    0.7784955844995383    0.7499998965247406 Mn
   0.2956763919630916    0.4443793226736932    0.7500008228143913 O
   0.2956763919630915    0.9443793226736933    0.7500008228143914 O
   0.7956763919630915    0.4443793226736932    0.7500008228143913 O
   0.7956763919630915    0.9443793226736932    0.7500008228143913 O
   0.0456780173738084    0.3056439483444052    0.7500007366473264 O
   0.0456780173738084    0.8056439483444053    0.7500007366473264 O
   0.5456780173738084    0.3056439483444053    0.7500007366473262 O
   0.5456780173738083    0.8056439483444052    0.7500007366473264 O
   0.4543213461624537    0.1943669529978665    0.2499982468675729 O
   0.4543213461624537    0.6943669529978664    0.2499982468675729 O
   0.9543213461624536    0.1943669529978665    0.2499982468675729 O
   0.9543213461624537    0.6943669529978665    0.2499982468675729 O
   0.2043152741876460    0.0556358184339297    0.2499983662498274 O
   0.2043152741876460    0.5556358184339297    0.2499983662498274 O
   0.7043152741876459    0.0556358184339297    0.2499983662498274 O
   0.7043152741876459    0.5556358184339296    0.2499983662498274 O
   0.4932846047048681    0.4718322714553287    0.3669849748601884 O
   0.4932846047048681    0.9718322714553287    0.3669849748601884 O
   0.9932846047048679    0.4718322714553287    0.3669849748601884 O
   0.9932846047048680    0.9718322714553289    0.3669849748601884 O
   0.2432748991478082    0.2781659598192085    0.1330162206782912 O
   0.2432748991478082    0.7781659598192086    0.1330162206782912 O
   0.7432748991478082    0.2781659598192086    0.1330162206782912 O
   0.7432748991478080    0.7781659598192086    0.1330162206782912 O
   0.2567306626589436    0.2218284118156932    0.6330120533627713 O
   0.2567306626589436    0.7218284118156932    0.6330120533627713 O
   0.7567306626589435    0.2218284118156932    0.6330120533627712 O
   0.7567306626589434    0.7218284118156931    0.6330120533627713 O
   0.0067124638024097    0.0281654521654338    0.8669916809579126 O
   0.0067124638024097    0.5281654521654339    0.8669916809579127 O
   0.5067124638024094    0.0281654521654338    0.8669916809579126 O
   0.5067124638024094    0.5281654521654339    0.8669916809579126 O
   0.0067125677043070    0.0281620461398840    0.6330125502007251 O
   0.0067125677043071    0.5281620461398839    0.6330125502007252 O
   0.5067125677043068    0.0281620461398840    0.6330125502007251 O
   0.5067125677043068    0.5281620461398839    0.6330125502007251 O
   0.2567293406991182    0.2218298047311117    0.8669931138836362 O
   0.2567293406991182    0.7218298047311117    0.8669931138836363 O
   0.7567293406991181    0.2218298047311117    0.8669931138836362 O
   0.7567293406991179    0.7218298047311117    0.8669931138836362 O
   0.2432737980079623    0.2781566406902969    0.3669880827406866 O
   0.2432737980079623    0.7781566406902969    0.3669880827406866 O
   0.7432737980079622    0.2781566406902969    0.3669880827406867 O
   0.7432737980079621    0.7781566406902970    0.3669880827406866 O
   0.4932812251013944    0.4718368069038161    0.1330147189821794 O
   0.4932812251013944    0.9718368069038162    0.1330147189821794 O
   0.9932812251013944    0.4718368069038161    0.1330147189821794 O
   0.9932812251013943    0.9718368069038161    0.1330147189821794 O
   0.3701314176011828    0.3801028160577004    0.5130023461477767 O
   0.3701314176011828    0.8801028160577004    0.5130023461477767 O
   0.8701314176011827    0.3801028160577004    0.5130023461477768 O
   0.8701314176011827    0.8801028160577002    0.5130023461477767 O
   0.1201383466398387    0.3699017999573653    0.9869950570813306 O
   0.1201383466398387    0.8699017999573653    0.9869950570813307 O
   0.6201383466398386    0.3699017999573653    0.9869950570813306 O
   0.6201383466398385    0.8699017999573653    0.9869950570813306 O
   0.3798701752204287    0.1301031229970676    0.4869879148690451 O
   0.3798701752204287    0.6301031229970675    0.4869879148690451 O
   0.8798701752204287    0.1301031229970675    0.4869879148690451 O
   0.8798701752204285    0.6301031229970676    0.4869879148690451 O
   0.1298645459703125    0.1199012892662232    0.0130096042003483 O
   0.1298645459703125    0.6199012892662232    0.0130096042003483 O
   0.6298645459703124    0.1199012892662231    0.0130096042003483 O
   0.6298645459703123    0.6199012892662232    0.0130096042003483 O
   0.3701364143056685    0.3801001819323359    0.9869962768165910 O
   0.3701364143056685    0.8801001819323359    0.9869962768165910 O
   0.8701364143056683    0.3801001819323359    0.9869962768165909 O
   0.8701364143056685    0.8801001819323359    0.9869962768165910 O
   0.1201344501187255    0.3698951836778038    0.5130038450532056 O
   0.1201344501187255    0.8698951836778038    0.5130038450532055 O
   0.6201344501187255    0.3698951836778037    0.5130038450532056 O
   0.6201344501187254    0.8698951836778038    0.5130038450532056 O
   0.3798650114750587    0.1301023203574596    0.0130160185089036 O
   0.3798650114750587    0.6301023203574596    0.0130160185089036 O
   0.8798650114750586    0.1301023203574596    0.0130160185089036 O
   0.8798650114750587    0.6301023203574596    0.0130160185089036 O
   0.1298701329444751    0.1198960965470166    0.4869932136031621 O
   0.1298701329444751    0.6198960965470166    0.4869932136031621 O
   0.6298701329444750    0.1198960965470166    0.4869932136031622 O
   0.6298701329444749    0.6198960965470166    0.4869932136031621 O
