Sc16 Zn8 Se32
1.0
       11.0124311447         0.0000000000         0.0000000000
        0.0000000000        11.0124311447         0.0000000000
        0.0000000000         0.0000000000        11.0124311447
 Zn  Sc   Zn   Se
 1   16    6   32
Direct
     0.750000000         0.750000000         0.250000000
     0.125000000         0.875000000         0.375000000
     0.875000000         0.125000000         0.375000000
     0.875000000         0.875000000         0.625000000
     0.125000000         0.125000000         0.625000000
     0.125000000         0.375000000         0.875000000
     0.875000000         0.625000000         0.875000000
     0.875000000         0.375000000         0.125000000
     0.125000000         0.625000000         0.125000000
     0.625000000         0.875000000         0.875000000
     0.375000000         0.125000000         0.875000000
     0.375000000         0.875000000         0.125000000
     0.625000000         0.125000000         0.125000000
     0.625000000         0.375000000         0.375000000
     0.375000000         0.625000000         0.375000000
     0.375000000         0.375000000         0.625000000
     0.625000000         0.625000000         0.625000000
     0.750000000         0.250000000         0.750000000
     0.500000000         0.000000000         0.500000000
     0.250000000         0.750000000         0.750000000
     0.000000000         0.500000000         0.500000000
     0.250000000         0.250000000         0.250000000
     0.000000000         0.000000000         0.000000000
     0.879353464         0.120646551         0.620646536
     0.120646551         0.879353464         0.620646536
     0.120646551         0.120646551         0.379353464
     0.879353464         0.879353464         0.379353464
     0.370646536         0.129353449         0.629353464
     0.129353449         0.370646536         0.629353464
     0.129353449         0.129353449         0.870646536
     0.370646536         0.370646536         0.870646536
     0.879353464         0.620646536         0.120646551
     0.120646551         0.379353464         0.120646551
     0.120646551         0.620646536         0.879353464
     0.879353464         0.379353464         0.879353464
     0.370646536         0.629353464         0.129353449
     0.129353449         0.870646536         0.129353449
     0.129353449         0.629353464         0.370646536
     0.370646536         0.870646536         0.370646536
     0.379353464         0.120646551         0.120646551
     0.620646536         0.879353464         0.120646551
     0.620646536         0.120646551         0.879353464
     0.379353464         0.879353464         0.879353464
     0.870646536         0.129353449         0.129353449
     0.629353464         0.370646536         0.129353449
     0.629353464         0.129353449         0.370646536
     0.870646536         0.370646536         0.370646536
     0.379353464         0.620646536         0.620646536
     0.620646536         0.379353464         0.620646536
     0.620646536         0.620646536         0.379353464
     0.379353464         0.379353464         0.379353464
     0.870646536         0.629353464         0.629353464
     0.629353464         0.870646536         0.629353464
     0.629353464         0.629353464         0.870646536
     0.870646536         0.870646536         0.870646536
