Ca8 Cr16 S32                            
   1.00000000000000     
     9.6823635226811042    0.0000361487197076   -0.0000018321171371
     0.0000361674866542    9.6823285982471390   -0.0000141533316010
    -0.0000017858768807   -0.0000141536045635    9.6823274290855679
   Ca   Cr   S 
     1    16    32
Direct
  0.5000010286905839  0.5000080065035888  0.9999927689797449
  0.1013051819636263  0.6287796906939063  0.1287734612831973
  0.1156320834719791  0.8843590090676871  0.3843669714399151
  0.3712144429631338  0.6287798894573148  0.3986946573059062
  0.3712191228905738  0.8987085860369524  0.1287730345322844
  0.1156312182924001  0.1156207695419714  0.6156462376155030
  0.1013051375668470  0.3712228966219904  0.8712276870380377
  0.3712172220329280  0.1012841425230761  0.8712283924161297
  0.3712152622897403  0.3712198528048556  0.6012975406166748
  0.6287897466794647  0.6287828014499328  0.6012948130003654
  0.6287836555775520  0.8987167912780718  0.8712292356908495
  0.8986969993638527  0.6287808797826490  0.8712274063908373
  0.8843754620420846  0.8843672500859949  0.6156438827606193
  0.6287725630040846  0.1012944523044559  0.1287687809361092
  0.6287802523271341  0.3712274361490266  0.3986918382511053
  0.8843641258604614  0.1156304543620237  0.3843631487727421
  0.8986920397297989  0.3712270450562721  0.1287728606820181
  0.3626240903178801  0.8727808533942909  0.3727774791158802
  0.3827114564260660  0.1313289195202625  0.1172857557936415
  0.1243605734729434  0.1243439699531127  0.3756508392467192
  0.1313391389999871  0.3827006215666851  0.1172960595933808
  0.6373664697456818  0.1272217172245974  0.3727749374048048
  0.1272211724197219  0.8727853136470485  0.1373744720892774
  0.3827121394572043  0.3827056743317181  0.3686554594211159
  0.8727770824999811  0.1272188185251473  0.1373678364933677
  0.3460779186269787  0.3460655609717179  0.8460788931447967
  0.3827108081592405  0.6173020099526646  0.6313312427120943
  0.1313413333598500  0.6173021009006600  0.8827043658473682
  0.1243658495812803  0.8756352043597903  0.6243619692688617
  0.6539271955259945  0.6539369643338374  0.8460749832803469
  0.1272155238309042  0.3626215787649437  0.6272208772718595
  0.3827187140815105  0.8686682034258270  0.8827117799653809
  0.8727912538391702  0.6373690149224313  0.6272205822588905
  0.8727828014451440  0.8727872390154515  0.8626385440934584
  0.8756384577827933  0.1243507301777488  0.6243632591507272
  0.6172807860553854  0.1313327099629965  0.8827080665680327
  0.6172919993468520  0.3827010749461203  0.6313320455119655
  0.1272229900230080  0.1272124004280353  0.8626421524284204
  0.6373799164948020  0.8727907348056763  0.6272228801142889
  0.8686597461557608  0.3827035114987877  0.8827036529409087
  0.3626257751885462  0.1272079269765960  0.6272234469813368
  0.8727789945529622  0.3626335246471293  0.3727795533878153
  0.8686582567997756  0.6173052662046902  0.1172947197003784
  0.6172848629585028  0.6173014558828884  0.3686517744683161
  0.6172819052634531  0.8686694620307525  0.1172862108943086
  0.1272218307412633  0.6373616243494198  0.3727803315876470
  0.6539183099469177  0.3460738478996127  0.1539202640489500
  0.8756390603632288  0.8756416183557063  0.3756497030868302
  0.3460780417909721  0.6539303933038774  0.1539231444167621
 
  0.00000000E+00  0.00000000E+00  0.00000000E+00
  0.00000000E+00  0.00000000E+00  0.00000000E+00
  0.00000000E+00  0.00000000E+00  0.00000000E+00
  0.00000000E+00  0.00000000E+00  0.00000000E+00
  0.00000000E+00  0.00000000E+00  0.00000000E+00
  0.00000000E+00  0.00000000E+00  0.00000000E+00
  0.00000000E+00  0.00000000E+00  0.00000000E+00
  0.00000000E+00  0.00000000E+00  0.00000000E+00
  0.00000000E+00  0.00000000E+00  0.00000000E+00
  0.00000000E+00  0.00000000E+00  0.00000000E+00
  0.00000000E+00  0.00000000E+00  0.00000000E+00
  0.00000000E+00  0.00000000E+00  0.00000000E+00
  0.00000000E+00  0.00000000E+00  0.00000000E+00
  0.00000000E+00  0.00000000E+00  0.00000000E+00
  0.00000000E+00  0.00000000E+00  0.00000000E+00
  0.00000000E+00  0.00000000E+00  0.00000000E+00
  0.00000000E+00  0.00000000E+00  0.00000000E+00
  0.00000000E+00  0.00000000E+00  0.00000000E+00
  0.00000000E+00  0.00000000E+00  0.00000000E+00
  0.00000000E+00  0.00000000E+00  0.00000000E+00
  0.00000000E+00  0.00000000E+00  0.00000000E+00
  0.00000000E+00  0.00000000E+00  0.00000000E+00
  0.00000000E+00  0.00000000E+00  0.00000000E+00
  0.00000000E+00  0.00000000E+00  0.00000000E+00
  0.00000000E+00  0.00000000E+00  0.00000000E+00
  0.00000000E+00  0.00000000E+00  0.00000000E+00
  0.00000000E+00  0.00000000E+00  0.00000000E+00
  0.00000000E+00  0.00000000E+00  0.00000000E+00
  0.00000000E+00  0.00000000E+00  0.00000000E+00
  0.00000000E+00  0.00000000E+00  0.00000000E+00
  0.00000000E+00  0.00000000E+00  0.00000000E+00
  0.00000000E+00  0.00000000E+00  0.00000000E+00
  0.00000000E+00  0.00000000E+00  0.00000000E+00
  0.00000000E+00  0.00000000E+00  0.00000000E+00
  0.00000000E+00  0.00000000E+00  0.00000000E+00
  0.00000000E+00  0.00000000E+00  0.00000000E+00
  0.00000000E+00  0.00000000E+00  0.00000000E+00
  0.00000000E+00  0.00000000E+00  0.00000000E+00
  0.00000000E+00  0.00000000E+00  0.00000000E+00
  0.00000000E+00  0.00000000E+00  0.00000000E+00
  0.00000000E+00  0.00000000E+00  0.00000000E+00
  0.00000000E+00  0.00000000E+00  0.00000000E+00
  0.00000000E+00  0.00000000E+00  0.00000000E+00
  0.00000000E+00  0.00000000E+00  0.00000000E+00
  0.00000000E+00  0.00000000E+00  0.00000000E+00
  0.00000000E+00  0.00000000E+00  0.00000000E+00
  0.00000000E+00  0.00000000E+00  0.00000000E+00
  0.00000000E+00  0.00000000E+00  0.00000000E+00
  0.00000000E+00  0.00000000E+00  0.00000000E+00
