Ca4 Mn4 P6 O24                          
   1.00000000000000     
     2.7024879999999998    8.2074610000000003    4.6251179999999996
    -0.1307060000000000    0.5195990000000000    8.6109380000000009
     7.5782689999999997    0.5151030000000000    4.1124380000000000
   Ca   Mn   P    O 
     4     4     6    24
Direct
  0.5631569499002371  0.4370773867037562  0.5145511618353331
  0.9070366384217914  0.9943166186025868  0.0808115157959038
  0.3668045706167565  0.7214225697804495  0.0632551089604940
  0.1113712097213709  0.4327590936556645  0.7757293857591636
  0.6884478880954331  0.6721703536412506  0.5995168591780969
  0.1914239533806480  0.1400131098166179  0.1714505221779939
  0.8158235821716506  0.8933898442062199  0.8272432229836332
  0.3039814129858173  0.3181854357021799  0.3767612838039028
  0.2284515010935963  0.5272171434890243  0.9826772933416259
  0.0344427267882581  0.7850887570603469  0.4181518165683770
  0.9647268672213717  0.2354157940193992  0.5879868138164269
  0.4561954851878184  0.0840321839623604  0.7343330345016453
  0.5397960224797660  0.9119832745391916  0.2593818507060828
  0.7348314731670326  0.4894167431881871  0.0110079773490842
  0.5753343353146944  0.7304718334359214  0.4193300495442832
  0.2893770513157593  0.1161952686420840  0.9176385304742123
  0.3235993010131987  0.5148093478224937  0.7777078207498903
  0.8817155337785145  0.2962564568875056  0.0214276407112060
  0.8037718595006811  0.4001945559456609  0.5500038002569900
  0.0899975827127589  0.9392742745547014  0.2358023102886399
  0.9090692375177961  0.0817823390701866  0.7702447161155900
  0.5899019623892507  0.5110883438728616  0.2028702320247697
  0.7130493676899808  0.9070391624224018  0.0851903311236541
  0.1928552064622346  0.5973125443367313  0.4014699757084151
  0.1328740025918065  0.7327939913680542  0.9935536731569866
  0.4018879717455843  0.2599886498807650  0.5757621556612332
  0.1043369353541461  0.4160095748665450  0.0761261889654483
  0.8772088137934586  0.7868131043424902  0.4144514854693689
  0.0850880374152358  0.1442703742533851  0.4222056423659336
  0.4905857962529501  0.8937652681412449  0.7241457717258006
  0.4083064710950884  0.9242207536098946  0.2011687148950043
  0.6479408875431684  0.5351276117060663  0.8792799275342923
  0.3477493411823327  0.4314635818965623  0.0954436257500036
 -0.0043649066347150  0.8146862558474822  0.6014618687618372
  0.0718622625041663  0.3019701308004839  0.6104855961149878
  0.6105077807430226  0.0919439920868353  0.7332741891214850
  0.4874925160488122  0.0818519104343363  0.3200904856452609
  0.8252879606311880  0.6347520331653288  0.9177003566985210
 
             NaN             NaN             NaN
             NaN             NaN             NaN
             NaN             NaN             NaN
             NaN             NaN             NaN
             NaN             NaN             NaN
             NaN             NaN             NaN
             NaN             NaN             NaN
             NaN             NaN             NaN
             NaN             NaN             NaN
             NaN             NaN             NaN
             NaN             NaN             NaN
             NaN             NaN             NaN
             NaN             NaN             NaN
             NaN             NaN             NaN
             NaN             NaN             NaN
             NaN             NaN             NaN
             NaN             NaN             NaN
             NaN             NaN             NaN
             NaN             NaN             NaN
             NaN             NaN             NaN
             NaN             NaN             NaN
             NaN             NaN             NaN
             NaN             NaN             NaN
             NaN             NaN             NaN
             NaN             NaN             NaN
             NaN             NaN             NaN
             NaN             NaN             NaN
             NaN             NaN             NaN
             NaN             NaN             NaN
             NaN             NaN             NaN
             NaN             NaN             NaN
             NaN             NaN             NaN
             NaN             NaN             NaN
             NaN             NaN             NaN
             NaN             NaN             NaN
             NaN             NaN             NaN
             NaN             NaN             NaN
             NaN             NaN             NaN
