Ca4 Mn4 P6 O24
1.0
2.702488 8.207461 4.625118
-0.130706 0.519599 8.610938
7.578269 0.515103 4.112438
Ca Mn P O
4 4 6 24
direct
0.533739 0.479750 0.524502 Ca
0.920321 0.985159 0.071719 Ca
0.380674 0.721336 0.066761 Ca
0.117743 0.429830 0.774682 Ca
0.683982 0.664466 0.601692 Mn
0.188401 0.130680 0.171134 Mn
0.809066 0.895315 0.829108 Mn
0.308661 0.324960 0.366692 Mn
0.248473 0.520673 0.976513 P
0.037559 0.771143 0.418206 P
0.965029 0.233401 0.586981 P
0.456843 0.076106 0.725412 P
0.531872 0.909969 0.262712 P
0.748421 0.481869 0.012576 P
0.579231 0.727403 0.417246 O
0.292783 0.101364 0.910443 O
0.347550 0.512236 0.772644 O
0.895712 0.288418 0.009208 O
0.800446 0.402922 0.561920 O
0.091898 0.926917 0.238348 O
0.915479 0.079441 0.770461 O
0.601069 0.485684 0.205016 O
0.697385 0.931410 0.093975 O
0.201572 0.585556 0.394673 O
0.148906 0.725189 0.985591 O
0.404540 0.255584 0.569420 O
0.131772 0.406017 0.066271 O
0.882392 0.771239 0.413474 O
0.060297 0.146119 0.421905 O
0.492326 0.889595 0.706054 O
0.412203 0.904079 0.200201 O
0.662181 0.548165 0.871622 O
0.364375 0.429753 0.092131 O
1.001422 0.790780 0.604719 O
0.084179 0.295632 0.594347 O
0.611320 0.076437 0.729168 O
0.440740 0.076650 0.345741 O
0.835399 0.622046 0.945797 O
