Ca7 Ni16 F48                            
   1.00000000000000     
    11.2256260000000001   -0.0000310000000000    0.0146580000000000
    -0.0000150000000000    7.6709250000000004   -0.0000430000000000
     0.0141170000000000   -0.0000570000000000   10.6627930000000006
   Ca   Ni   F 
     7    16    48
Direct
  0.6919466822649187  0.7499672975506065  0.6784799805528513
  0.0328255141941706  0.2499991091938999  0.4878867464626782
  0.0377524610282251  0.2500124097308767  0.9717015238386610
  0.5353764325026356  0.2500447070853885  0.9958226101260790
  0.2114395462853985  0.7499564722513420  0.2477816262561846
  0.2073548821020800  0.7499749752677298  0.7413902242434341
  0.7086363876650486  0.7499383548671181  0.2364404661858933
  0.4933427323881049  0.4946794592133609  0.2614488608087219
  0.4915534939575940  0.4911029377928873  0.7490154362802253
  0.9929331915494762  0.5002812786271208  0.2407134485525061
  0.9854432927838922  0.5048149251645973  0.7431564993267172
  0.2609846704850337  0.0043761019800516  0.5010001769597833
  0.2577230811059261 -0.0023214712981978  1.0040533478315965
  0.7503838560639431  0.0212380246555338  0.4889008176710476
  0.7502685198242365  0.9971077919077895  0.9931497280160643
  0.4933500780738369  0.0053326231384333  0.2614472573889054
  0.4915732466315194  0.0089140720730975  0.7490123613408396
  0.9929326911831239  0.9997243731741116  0.2407247142273494
  0.9854489537878504  0.9951920550895620  0.7431511593850270
  0.2610065396219400  0.4956427443783611  0.5009724440096275
  0.2577417075818577  0.5023370494639304  1.0040841523127111
  0.7503154179645384  0.4788032515722832  0.4887906203242051
  0.7502591958771855  0.5028924684333852  0.9931738103256345
  0.4803347771543435  0.2500509032290303  0.2011898092360659
  0.4604271349901188  0.2500642534396512  0.7211832374819980
  0.9900748314748756  0.2500116113991956  0.1803336670272108
  0.9941454409418879  0.2500126476967392  0.6995992260067159
  0.2312458036523916  0.2500248176317554  0.0432151661234549
  0.2304336257479410  0.2500386424255814  0.5450492361564589
  0.7366814901522500  0.2500087746311940  0.0429465553633583
  0.7833190717767279  0.2499171614341729  0.5492676588133187
  0.0109248113400063  0.7499788083146733  0.2933115931613513
  0.0078658309163275  0.7499818843113244  0.7918029110238790
  0.5136914830474392  0.7499172440974023  0.3017535971468209
  0.5162100543571745  0.7499923213316154  0.7779157624469480
  0.2638220597726545  0.7499663772212583  0.4526532534464514
  0.2669363821806025  0.7499884336598599  0.9459897001442905
  0.7462691071135691  0.7499466384694152  0.4508156323583115
  0.7467690240606789  0.7499791750045971  0.9374147911531092
  0.3439028224621988  0.5552766271695050  0.1651450276604900
  0.3432928058633991  0.5564790947970051  0.6613287683495361
  0.8453945073824374  0.5604857398408613  0.1460091986841102
  0.8412375583739454  0.5579086488873207  0.6453724429997744
  0.1070042204719283  0.9450649363202371  0.1009167036217420
  0.1049497140078804  0.9554375474574206  0.6007450237861280
  0.5988492133973471  0.9608917890937819  0.1034958515180097
  0.6014030378866763  0.9875242046683792  0.5972343699658150
  0.1439989337221393  0.0430139777496302  0.3518064948952482
  0.1421524816323043  0.0347046477498187  0.8527003962146522
  0.6579659297612814  0.0328547393084246  0.3342689068224042
  0.6373051746434971  0.0587671453473500  0.8537021055425870
  0.4054728070647340  0.4498931807260258  0.4120375594083924
  0.4065761905516261  0.4551770763246640  0.9153568091020634
  0.9054276009210392  0.4471735467365221  0.3962374234069904
  0.8988803793297863  0.4455179275236218  0.8998985963806961
  0.1440167898376890  0.4569843027429017  0.3518177281699050
  0.1421554938792922  0.4652966644369737  0.8527016916795301
  0.6579959407793033  0.4671025210657654  0.3343154276339779
  0.6373066931879915  0.4412319054241281  0.8537088611224755
  0.4054855528939150  0.0501477747905986  0.4120459916054712
  0.4065745991632007  0.0448312566525438  0.9153564546544130
  0.9053945311535747  0.0528143275922679  0.3962503626552119
  0.8988690795926443  0.0544864163697577  0.8998739448079999
  0.3438953484380469  0.9447190098017290  0.1651349702649162
  0.3432970716179175  0.9435240828551584  0.6613431852926119
  0.8453966069207025  0.9394982580543725  0.1459855534711043
  0.8412510711682130  0.9421415771325666  0.6453361835134389
  0.1070011647698641  0.5549538408070561  0.1009089133780018
  0.1049688609060053  0.5445579773126933  0.6007524913193263
  0.5988278159675668  0.5391016472951417  0.1035142013530325
  0.6013914169320964  0.5125479208445450  0.5972271370314901
 
             NaN             NaN             NaN
             NaN             NaN             NaN
             NaN             NaN             NaN
             NaN             NaN             NaN
             NaN             NaN             NaN
             NaN             NaN             NaN
             NaN             NaN             NaN
             NaN             NaN             NaN
             NaN             NaN             NaN
             NaN             NaN             NaN
             NaN             NaN             NaN
             NaN             NaN             NaN
             NaN             NaN             NaN
             NaN             NaN             NaN
             NaN             NaN             NaN
             NaN             NaN             NaN
             NaN             NaN             NaN
             NaN             NaN             NaN
             NaN             NaN             NaN
             NaN             NaN             NaN
             NaN             NaN             NaN
             NaN             NaN             NaN
             NaN             NaN             NaN
             NaN             NaN             NaN
             NaN             NaN             NaN
             NaN             NaN             NaN
             NaN             NaN             NaN
             NaN             NaN             NaN
             NaN             NaN             NaN
             NaN             NaN             NaN
             NaN             NaN             NaN
             NaN             NaN             NaN
             NaN             NaN             NaN
             NaN             NaN             NaN
             NaN             NaN             NaN
             NaN             NaN             NaN
             NaN             NaN             NaN
             NaN             NaN             NaN
             NaN             NaN             NaN
             NaN             NaN             NaN
             NaN             NaN             NaN
             NaN             NaN             NaN
             NaN             NaN             NaN
             NaN             NaN             NaN
             NaN             NaN             NaN
             NaN             NaN             NaN
             NaN             NaN             NaN
             NaN             NaN             NaN
             NaN             NaN             NaN
             NaN             NaN             NaN
             NaN             NaN             NaN
             NaN             NaN             NaN
             NaN             NaN             NaN
             NaN             NaN             NaN
             NaN             NaN             NaN
             NaN             NaN             NaN
             NaN             NaN             NaN
             NaN             NaN             NaN
             NaN             NaN             NaN
             NaN             NaN             NaN
             NaN             NaN             NaN
             NaN             NaN             NaN
             NaN             NaN             NaN
             NaN             NaN             NaN
             NaN             NaN             NaN
             NaN             NaN             NaN
             NaN             NaN             NaN
             NaN             NaN             NaN
             NaN             NaN             NaN
             NaN             NaN             NaN
             NaN             NaN             NaN
