Ca7 Ni16 F48
1.0
11.225626 -0.000031 0.014658
-0.000015 7.670925 -0.000043
0.014117 -0.000057 10.662793
Ca Ni F
7 16 48
direct
0.652380 0.750001 0.680361 Ca
0.035371 0.249999 0.487465 Ca
0.040962 0.249994 0.985803 Ca
0.541120 0.249990 0.986156 Ca
0.210710 0.749995 0.237138 Ca
0.209673 0.749992 0.737704 Ca
0.709189 0.749996 0.242981 Ca
0.494242 0.492579 0.256762 Ni
0.497253 0.495481 0.744394 Ni
0.990510 0.500621 0.249356 Ni
0.989377 0.501868 0.746539 Ni
0.260883 0.006029 0.496618 Ni
0.259983 0.000501 0.999341 Ni
0.746758 0.010455 0.499562 Ni
0.756275 0.998319 0.999081 Ni
0.494227 0.007423 0.256774 Ni
0.497251 0.004535 0.744392 Ni
0.990507 -0.000614 0.249361 Ni
0.989371 0.998136 0.746540 Ni
0.260869 0.493966 0.496624 Ni
0.259985 0.499496 0.999344 Ni
0.746764 0.489560 0.499568 Ni
0.756276 0.501678 0.999084 Ni
0.485454 0.249997 0.191432 F
0.487008 0.249995 0.703221 F
0.984750 0.250009 0.191030 F
0.986959 0.249998 0.693473 F
0.236491 0.249995 0.046502 F
0.230633 0.249989 0.548198 F
0.737588 0.250003 0.047164 F
0.737716 0.249985 0.549728 F
0.014794 0.749998 0.298501 F
0.013156 0.750001 0.796143 F
0.509834 0.750000 0.297602 F
0.508281 0.750000 0.789465 F
0.264420 0.749999 0.443084 F
0.264394 0.750004 0.943559 F
0.760454 0.749998 0.451007 F
0.763381 0.749996 0.945331 F
0.345860 0.554758 0.159416 F
0.345996 0.559108 0.654013 F
0.846077 0.561055 0.154238 F
0.843024 0.552513 0.654181 F
0.106237 0.953442 0.102583 F
0.106380 0.952870 0.601706 F
0.602974 0.957733 0.101608 F
0.605043 0.943096 0.603217 F
0.143426 0.049010 0.352297 F
0.144701 0.044086 0.851909 F
0.655602 0.022727 0.340153 F
0.645656 0.047510 0.853676 F
0.407463 0.449621 0.409501 F
0.407144 0.445163 0.905493 F
0.901341 0.442766 0.406426 F
0.905276 0.442932 0.906449 F
0.143429 0.450993 0.352295 F
0.144704 0.455920 0.851916 F
0.655603 0.477269 0.340152 F
0.645664 0.452495 0.853685 F
0.407456 0.050367 0.409496 F
0.407147 0.054835 0.905487 F
0.901338 0.057240 0.406434 F
0.905279 0.057069 0.906449 F
0.345856 0.945242 0.159418 F
0.345995 0.940890 0.654014 F
0.846080 0.938952 0.154247 F
0.843025 0.947481 0.654184 F
0.106240 0.546575 0.102582 F
0.106385 0.547138 0.601706 F
0.602975 0.542265 0.101605 F
0.605044 0.556915 0.603218 F
