V16 O40                                 
   1.00000000000000     
     7.1558346593396953   -0.0000176863248646   -0.0000550869579985
    -0.0000247759541804   11.1650023954488784    0.0000153922651104
    -0.0000890222901454    0.0000079259537041   11.4478183022112088
  Ca              V               O             
     1    16    40
Direct
  0.2500132590438753  0.5978852410621087  0.7499987087912316
  0.9996110009498338  0.2048741538305450  0.1022309054093427
  0.5003492530549067  0.2048763793420321  0.1022274532902046
  0.2499606433794597  0.2939931142766881  0.8973929174727076
  0.7499489863124822  0.2942676759034057  0.8969078515152304
  0.2500091299807465  0.2939901422305695  0.6026159621438083
  0.7500106336403576  0.2942556991970591  0.6030966697570648
  0.9996321065306972  0.2048675540633056  0.3977776699453131
  0.5003684660076786  0.2048672964519866  0.3977754098728497
  0.2500127856015126  0.7033124012464853  0.1022126372202408
  0.7500091801634596  0.7097743439057140  0.1016899593810976
  0.9999566717545605  0.7976442124087129  0.8999122490902778
  0.5000631919828464  0.7976454272396154  0.8999108956774791
  0.9999581099122565  0.7976437642224568  0.6000863845945617
  0.5000633653298010  0.7976421835280689  0.6000872761192113
  0.2500098174661005  0.7033096548168416  0.3977839655471769
  0.7500083513867040  0.7097739086818322  0.3983074963241506
  0.2499859369719033  0.2403805552518676  0.7500151048938264
  0.7499864001769652  0.2388759556768676  0.7500053680400498
  0.0013437407455541  0.2585389272674945  0.2500057283233801
  0.4986273157772345  0.2585426042278556  0.2500025211636512
  0.0010945333176764  0.2500242144693132  0.5708231330026123
  0.4989125834811006  0.2500176992450704  0.5708224744051975
  0.2499995183593811  0.2495869350429274  0.4324886908184808
  0.7499967784589643  0.2489706184404525  0.4314367873873763
  0.2499795376676772  0.2495907947815255  0.0675116029345517
  0.7499794925247727  0.2489893704094541  0.0685670150289894
  0.0010661099319336  0.2500318559517112  0.9291826091565056
  0.4988731520738696  0.2500411519826571  0.9291834647812962
  0.0000965630932086  0.0631924867844660  0.1120761962652139
  0.4998783021478346  0.0631961926281903  0.1120735053164026
  0.2499277405154245  0.4391616107891991  0.8810428445971823
  0.7499634467934513  0.4364156152932708  0.8833051420380826
  0.0001135086937012  0.0631889960089893  0.3879282526503829
  0.4998815252489379  0.0631887090888554  0.3879242975869488
  0.2500290624166013  0.4391463570345309  0.6189575714951445
  0.7500017484912078  0.4364092071915451  0.6166815874096372
  0.0018334377303262  0.7356833974357642  0.7499993166496282
  0.4981907544820956  0.7356826888981942  0.7499995797214680
  0.2500410021577295  0.7555284133670312  0.2499992369777573
  0.7500083356486300  0.7611106375258885  0.2499988414170033
  0.2500126587747786  0.7341309430212988  0.5777019053243606
  0.7500122945879042  0.7570888054134315  0.5715123932203383
  0.0030089918493132  0.7541646292003890  0.4311609534647260
  0.4970164996084065  0.7541610551280797  0.4311663427883232
  0.0030105611979891  0.7541640183768408  0.0688326127915744
  0.4970179220395536  0.7541628974413399  0.0688275533422953
  0.2500147617443318  0.7341311942447888  0.9222932308729099
  0.7500108702207200  0.7570915507459191  0.9284835367158237
  0.2500073997873073  0.5615311687867006  0.1127551266620372
  0.7500106764975527  0.5679694742516475  0.1101625084980711
  0.0125788962603295  0.9385941271987548  0.8860969637928449
  0.4874476517373907  0.9385949349428770  0.8860947773724632
  0.2500040414471627  0.5615286853190824  0.3872427113360288
  0.7500170052611850  0.5679706094157453  0.3898255156022898
  0.0125786821136487  0.9385942165354777  0.6138995756650942
  0.4874556074689380  0.9385934247770464  0.6138990083381444
 
  0.00000000E+00  0.00000000E+00  0.00000000E+00
  0.00000000E+00  0.00000000E+00  0.00000000E+00
  0.00000000E+00  0.00000000E+00  0.00000000E+00
  0.00000000E+00  0.00000000E+00  0.00000000E+00
  0.00000000E+00  0.00000000E+00  0.00000000E+00
  0.00000000E+00  0.00000000E+00  0.00000000E+00
  0.00000000E+00  0.00000000E+00  0.00000000E+00
  0.00000000E+00  0.00000000E+00  0.00000000E+00
  0.00000000E+00  0.00000000E+00  0.00000000E+00
  0.00000000E+00  0.00000000E+00  0.00000000E+00
  0.00000000E+00  0.00000000E+00  0.00000000E+00
  0.00000000E+00  0.00000000E+00  0.00000000E+00
  0.00000000E+00  0.00000000E+00  0.00000000E+00
  0.00000000E+00  0.00000000E+00  0.00000000E+00
  0.00000000E+00  0.00000000E+00  0.00000000E+00
  0.00000000E+00  0.00000000E+00  0.00000000E+00
  0.00000000E+00  0.00000000E+00  0.00000000E+00
  0.00000000E+00  0.00000000E+00  0.00000000E+00
  0.00000000E+00  0.00000000E+00  0.00000000E+00
  0.00000000E+00  0.00000000E+00  0.00000000E+00
  0.00000000E+00  0.00000000E+00  0.00000000E+00
  0.00000000E+00  0.00000000E+00  0.00000000E+00
  0.00000000E+00  0.00000000E+00  0.00000000E+00
  0.00000000E+00  0.00000000E+00  0.00000000E+00
  0.00000000E+00  0.00000000E+00  0.00000000E+00
  0.00000000E+00  0.00000000E+00  0.00000000E+00
  0.00000000E+00  0.00000000E+00  0.00000000E+00
  0.00000000E+00  0.00000000E+00  0.00000000E+00
  0.00000000E+00  0.00000000E+00  0.00000000E+00
  0.00000000E+00  0.00000000E+00  0.00000000E+00
  0.00000000E+00  0.00000000E+00  0.00000000E+00
  0.00000000E+00  0.00000000E+00  0.00000000E+00
  0.00000000E+00  0.00000000E+00  0.00000000E+00
  0.00000000E+00  0.00000000E+00  0.00000000E+00
  0.00000000E+00  0.00000000E+00  0.00000000E+00
  0.00000000E+00  0.00000000E+00  0.00000000E+00
  0.00000000E+00  0.00000000E+00  0.00000000E+00
  0.00000000E+00  0.00000000E+00  0.00000000E+00
  0.00000000E+00  0.00000000E+00  0.00000000E+00
  0.00000000E+00  0.00000000E+00  0.00000000E+00
  0.00000000E+00  0.00000000E+00  0.00000000E+00
  0.00000000E+00  0.00000000E+00  0.00000000E+00
  0.00000000E+00  0.00000000E+00  0.00000000E+00
  0.00000000E+00  0.00000000E+00  0.00000000E+00
  0.00000000E+00  0.00000000E+00  0.00000000E+00
  0.00000000E+00  0.00000000E+00  0.00000000E+00
  0.00000000E+00  0.00000000E+00  0.00000000E+00
  0.00000000E+00  0.00000000E+00  0.00000000E+00
  0.00000000E+00  0.00000000E+00  0.00000000E+00
  0.00000000E+00  0.00000000E+00  0.00000000E+00
  0.00000000E+00  0.00000000E+00  0.00000000E+00
  0.00000000E+00  0.00000000E+00  0.00000000E+00
  0.00000000E+00  0.00000000E+00  0.00000000E+00
  0.00000000E+00  0.00000000E+00  0.00000000E+00
  0.00000000E+00  0.00000000E+00  0.00000000E+00
  0.00000000E+00  0.00000000E+00  0.00000000E+00
  0.00000000E+00  0.00000000E+00  0.00000000E+00
