Ca2 Ni4 S6 O24
1.0
7.515183 0.094409 4.408287
2.572888 7.062246 4.406814
0.135984 0.097366 8.712554
Ca Ni S O
2 4 6 24
direct
0.497535 0.497541 0.497557 Ca
0.997551 0.997581 0.997525 Ca
0.645194 0.645361 0.645305 Ni
0.145383 0.145158 0.145339 Ni
0.849709 0.849631 0.849663 Ni
0.349620 0.349722 0.349659 Ni
0.952596 0.247445 0.542722 S
0.452523 0.042753 0.747421 S
0.542695 0.952444 0.247490 S
0.747456 0.452624 0.042685 S
0.247532 0.542673 0.952610 S
0.042672 0.747536 0.452536 S
0.409205 0.564141 0.768753 O
0.909348 0.268947 0.063793 O
0.768757 0.409117 0.564167 O
0.063837 0.909402 0.268823 O
0.564254 0.768638 0.409195 O
0.268857 0.063928 0.909347 O
0.726268 0.931494 0.085498 O
0.226352 0.585697 0.431186 O
0.085479 0.726200 0.931599 O
0.431145 0.226443 0.585645 O
0.931600 0.085452 0.726288 O
0.585656 0.431265 0.226393 O
0.983799 0.198580 0.390624 O
0.483594 0.890698 0.698524 O
0.390630 0.983295 0.198761 O
0.698486 0.483867 0.890648 O
0.198834 0.390437 0.983811 O
0.890547 0.698654 0.483784 O
0.104478 0.296577 0.511689 O
0.604628 0.011808 0.796138 O
0.511470 0.104481 0.296492 O
0.796310 0.604650 0.011773 O
0.296593 0.511749 0.104462 O
0.011808 0.796411 0.604495 O
