Na2 Ca2 V4 Si2 P4 O24
1.0
8.893256 0.148696 0.065720
4.328368 7.724901 0.098161
4.430544 2.597736 7.194540
Ca Na V Si P O
2 2 4 2 4 24
direct
0.736075 0.409587 0.124520 Ca
1.005395 0.983027 0.002513 Ca
0.408446 0.526222 0.550636 Na
0.858348 0.253754 0.593659 Na
0.351085 0.360057 0.346387 V
0.617334 0.656741 0.649420 V
0.151982 0.149637 0.138026 V
0.848266 0.855021 0.851267 V
0.444044 0.762102 0.034635 Si
0.541689 0.256707 0.958097 Si
0.022613 0.468390 0.744046 P
0.958944 0.546552 0.242848 P
0.737152 0.045218 0.461766 P
0.248384 0.966554 0.528187 P
0.194198 0.432697 0.575391 O
0.788744 0.574273 0.418449 O
0.575836 0.236329 0.439172 O
0.411948 0.784257 0.547731 O
0.423261 0.581990 0.230267 O
0.561594 0.427387 0.756720 O
0.896866 0.080309 0.264853 O
0.079624 0.956369 0.715613 O
0.040712 0.286838 0.922673 O
0.938835 0.726083 0.070296 O
0.258647 0.942120 0.054958 O
0.729973 0.075985 0.926888 O
0.532065 0.299177 0.123529 O
0.469730 0.719380 0.859849 O
0.140386 0.502090 0.260359 O
0.837846 0.497736 0.739930 O
0.297274 0.133013 0.481294 O
0.692520 0.882170 0.499209 O
0.350438 0.221416 0.015767 O
0.643176 0.767547 0.993810 O
0.187956 0.999157 0.375487 O
0.794201 0.014150 0.616305 O
-0.037408 0.380506 0.219222 O
1.011804 0.630646 0.775041 O
