Ca7 Ni16 F48
1.0
11.233045 -0.000030 0.024306
-0.000014 7.667803 -0.000107
0.023075 -0.000145 10.643863
Ca Ni F
7 16 48
direct
0.710577 0.749998 0.736429 Ca
0.036867 0.249998 0.486817 Ca
0.042135 0.249994 0.986590 Ca
0.541379 0.249992 0.985395 Ca
0.211066 0.749995 0.238699 Ca
0.209558 0.749995 0.736050 Ca
0.706963 0.749993 0.244683 Ca
0.493184 0.493448 0.257974 Ni
0.494383 0.495095 0.742191 Ni
0.990470 0.501083 0.249344 Ni
0.990926 0.500943 0.747248 Ni
0.263201 0.005131 0.496320 Ni
0.260222 0.000283 0.999333 Ni
0.745607 0.011572 0.497845 Ni
0.756635 0.999438 1.000430 Ni
0.493165 0.006557 0.257990 Ni
0.494378 0.004922 0.742190 Ni
0.990467 -0.001075 0.249347 Ni
0.990918 0.999063 0.747249 Ni
0.263181 0.494862 0.496328 Ni
0.260222 0.499714 0.999334 Ni
0.745614 0.488449 0.497850 Ni
0.756639 0.500555 1.000434 Ni
0.486475 0.249995 0.191039 F
0.486613 0.249994 0.700155 F
0.984510 0.250009 0.191571 F
0.986616 0.250000 0.692987 F
0.237158 0.249994 0.047185 F
0.231229 0.249985 0.547280 F
0.736387 0.250003 0.048602 F
0.737557 0.249978 0.550295 F
0.014834 0.749999 0.298756 F
0.012849 0.750002 0.796536 F
0.508605 0.750001 0.297178 F
0.509950 0.749998 0.791290 F
0.263257 0.749998 0.443911 F
0.264508 0.750004 0.942480 F
0.762820 0.749999 0.451728 F
0.764182 0.749995 0.942584 F
0.345568 0.554945 0.159397 F
0.344102 0.555930 0.656184 F
0.845319 0.562758 0.155448 F
0.842826 0.552597 0.655393 F
0.106141 0.953387 0.102394 F
0.106463 0.953723 0.601262 F
0.602251 0.956271 0.101052 F
0.607414 0.939878 0.605349 F
0.143785 0.047644 0.352118 F
0.145140 0.045181 0.851980 F
0.655354 0.024008 0.339278 F
0.646484 0.044807 0.851721 F
0.406484 0.440801 0.408140 F
0.407055 0.444411 0.904967 F
0.901287 0.442334 0.406599 F
0.905825 0.442007 0.907614 F
0.143789 0.452352 0.352115 F
0.145140 0.454819 0.851989 F
0.655358 0.475986 0.339276 F
0.646492 0.455202 0.851731 F
0.406472 0.059180 0.408132 F
0.407060 0.055587 0.904962 F
0.901280 0.057676 0.406606 F
0.905829 0.057996 0.907617 F
0.345565 0.945056 0.159398 F
0.344101 0.944067 0.656185 F
0.845323 0.937249 0.155457 F
0.842822 0.947401 0.655393 F
0.106143 0.546632 0.102394 F
0.106469 0.546293 0.601263 F
0.602252 0.543727 0.101046 F
0.607414 0.560135 0.605351 F
