Ca1 V24 O60
1.0
11.501790 -0.000573 -0.000250
0.000190 10.752037 0.000931
-0.000132 0.000699 9.672275
Ca V O
1 24 60
direct
0.250131 0.249975 0.172270 Ca
0.102822 0.086015 0.454863 V
0.102803 0.413725 0.454760 V
0.100904 0.749891 0.436672 V
0.098538 0.081611 0.938905 V
0.098541 0.418641 0.939073 V
0.100774 0.750093 0.942986 V
0.899345 0.250067 0.054023 V
0.899802 0.582919 0.055450 V
0.899801 0.917297 0.055291 V
0.898831 0.249868 0.562173 V
0.898750 0.584065 0.549086 V
0.898786 0.915607 0.549275 V
0.397183 0.086032 0.455089 V
0.397176 0.413740 0.455088 V
0.399087 0.749892 0.437147 V
0.401461 0.081676 0.938804 V
0.401431 0.418619 0.938824 V
0.399216 0.750161 0.942506 V
0.600665 0.250156 0.053932 V
0.600181 0.583001 0.055012 V
0.600197 0.917282 0.055023 V
0.601197 0.249885 0.562397 V
0.601219 0.584073 0.549592 V
0.601211 0.915698 0.549651 V
0.120184 0.104528 0.288505 O
0.120179 0.395240 0.288396 O
0.107124 0.750001 0.271248 O
0.104205 0.082649 0.773748 O
0.104170 0.417689 0.773916 O
0.104911 0.749991 0.777663 O
0.895289 0.249914 0.219337 O
0.897232 0.578601 0.220817 O
0.897277 0.921650 0.220652 O
0.892529 0.249975 0.727489 O
0.893428 0.587757 0.714264 O
0.893484 0.911765 0.714457 O
0.379957 0.104525 0.288698 O
0.379979 0.395325 0.288699 O
0.393135 0.749935 0.271723 O
0.395747 0.082864 0.773645 O
0.395658 0.417424 0.773668 O
0.394795 0.750190 0.777178 O
0.604687 0.250160 0.219245 O
0.602489 0.578832 0.220375 O
0.602574 0.921369 0.220386 O
0.607648 0.249900 0.727709 O
0.606823 0.587654 0.714779 O
0.606729 0.912096 0.714841 O
0.932926 0.085118 0.506447 O
0.932891 0.414577 0.506198 O
0.930219 0.749868 0.495304 O
0.932125 0.084767 0.999626 O
0.932148 0.415457 0.999879 O
0.930884 0.750100 0.006979 O
0.075962 0.250094 0.004082 O
0.069673 0.582979 0.994621 O
0.069653 0.917253 0.994392 O
0.073473 0.249879 0.515857 O
0.068356 0.582900 0.488482 O
0.068384 0.916820 0.488648 O
0.567081 0.085154 0.506634 O
0.567087 0.414605 0.506613 O
0.569732 0.749892 0.496001 O
0.567857 0.084816 0.999631 O
0.567841 0.415486 0.999572 O
0.569121 0.750145 0.006347 O
0.424030 0.250135 0.004079 O
0.430328 0.583027 0.994003 O
0.430347 0.917270 0.994048 O
0.426512 0.249882 0.516126 O
0.431619 0.582904 0.489060 O
0.431608 0.916857 0.489061 O
0.250020 0.086767 0.998552 O
0.250025 0.413467 0.998678 O
0.250059 0.750160 0.995885 O
0.249967 0.079531 0.514514 O
0.249939 0.420195 0.514455 O
0.249935 0.749841 0.491714 O
0.749981 0.249831 0.506409 O
0.749911 0.579958 0.493578 O
0.749943 0.919765 0.493777 O
0.750014 0.250159 0.001805 O
0.750047 0.581921 0.003236 O
0.750032 0.918347 0.003140 O
