Ca8 V12 F42                             
   1.00000000000000     
     7.5462369999999996    0.0138980000000000    0.0601230000000000
    -3.7674620000000001    6.4669610000000004   -0.0999350000000000
    -0.4659810000000000    0.4800140000000000   18.4714409999999987
   Ca   V    F 
     8    12    42
Direct
  0.9316358382961621  0.3537497551881731  0.3599078965518165
  0.4882309829336154  0.8252566756404607  0.6732977865906328
  0.6020509513229042  0.1436685013270371  0.9968348853270870
  0.9823653567106276  0.8121629212040163  0.6635585685196920
  0.1338328630820437  0.6348649656705576  0.0044810166830716
  0.9261925249148932  0.8031032621649302  0.1689685691344008
  0.8577282633138326  0.0110016863174968  0.8407378692297054
  0.2229444328225331  0.1822166344910430  0.5033876124281476
  0.3193226275146970  0.9944665684162053  0.3304326471226061
 -0.0019834849142133  0.3148019041192921  0.6681899039090904
  0.6472687697601434  0.6617354927610987  0.9964587006271429
  0.3260261193941760  0.9912144905355753  0.8255095530624135
  0.9798217823751999  0.3202277470958048  0.1554334152976500
  0.6885668230632060  0.6605431224462515  0.4995414384592833
  0.4697260353459207  0.8213676671331471  0.1652914679748983
  0.1821350834294797  0.6665758461843803  0.5029065716538954
  0.3299284219852354  0.4991512519865370  0.8320567665585907
  0.8239585117938654  0.4922250416264117  0.8286317696074901
  0.6732509416961571  0.1533059020695401  0.5044810591882953
  0.4707851068361077  0.3129202446121699  0.1601500560814684
  0.7226969012133502  0.1479092827458998  0.6129954421614091
  0.7986325931947419  0.5187939294952042  0.9403519195915438
  0.4402344064569232  0.2383176369253046  0.2645885250005615
  0.1953004152495086  0.7252888059690545  0.3941900806345203
  0.4956116255562287  0.7856318786395041  0.0542234853974684
  0.2787283088934970  0.4748228529072521  0.7221880456686107
  0.7508068875282434  0.9539116685751143  0.9509346635340693
  0.0669882315447069  0.8493226563502417  0.2722629477640237
  0.1061265705462374  0.1472656436093842  0.6151872232022084
  0.9297476839003794  0.7668953801296640  0.0487869287359224
  0.8399513852484585  0.0126992478149520  0.7210514715107500
  0.1835733742178979  0.1294292642109401  0.3879423226669059
  0.5265359841758237  0.3819654873443635  0.0495396955135425
  0.6014279492628735  0.1373389474197009  0.3936730266263739
  0.8741602279256568  0.4796298815703951  0.7184560761944266
  0.3641179069113892  0.5509160077003155  0.9424240444688922
  0.1580051575975627  0.6115341665233037  0.6151833305170171
  0.4528250908377013  0.8800808883376243  0.2689280455665428
  0.7803482109439983  0.4291230695852726  0.1698989217136762
  0.5776211913666479  0.3585948937448788  0.5279435265727556
  0.6297051340052042  0.1837331231032961  0.8562393356913639
  0.4571860335368513  0.8134889186019094  0.8042919549080763
  0.3756364603077308  0.5469114312164913  0.4899351998050715
  0.1656926570814751  0.6357290442873111  0.1346741867264408
  0.0568657615447027  0.3667322301149016  0.2586001981021329
  0.6643764986721766  0.7101744050436486  0.6116544240626161
  0.3029345036032018  0.9298113653680891  0.9387206398404361
  0.3113656507920615  0.9790996040850074  0.7103100331194530
  0.7522637989206350  0.5826487706257474  0.4092979634715156
  0.9182767877577938  0.3099927020730511  0.0447784199414651
  0.1675095103591960  0.1975965809259736  0.1437748148590507
  0.7793894696366453  0.9590342103190220  0.4815837591781861
  0.0145344605426551  0.8063391531966105  0.8058075117151700
  0.2148134443264678  0.1854072361155475  0.8472877134943892
  0.9922039044809261  0.7829209539118167  0.5320886577809161
  0.7795868305290683  0.0118290055460934  0.1705996999015211
  0.0223114381600064  0.3856214934484710  0.8516538859185624
  0.5635785139066305  0.6121972087511445  0.1859427243743429
  0.3764732930805661  0.9637557857321887  0.5315239923522493
  0.4224573646666901  0.0424315086719448  0.1180474310896928
  0.6327936717160266  0.6071350810640992  0.8148114852186658
  0.9826072623239087  0.3553854798017260  0.4807813254793931
 
             NaN             NaN             NaN
             NaN             NaN             NaN
             NaN             NaN             NaN
             NaN             NaN             NaN
             NaN             NaN             NaN
             NaN             NaN             NaN
             NaN             NaN             NaN
             NaN             NaN             NaN
             NaN             NaN             NaN
             NaN             NaN             NaN
             NaN             NaN             NaN
             NaN             NaN             NaN
             NaN             NaN             NaN
             NaN             NaN             NaN
             NaN             NaN             NaN
             NaN             NaN             NaN
             NaN             NaN             NaN
             NaN             NaN             NaN
             NaN             NaN             NaN
             NaN             NaN             NaN
             NaN             NaN             NaN
             NaN             NaN             NaN
             NaN             NaN             NaN
             NaN             NaN             NaN
             NaN             NaN             NaN
             NaN             NaN             NaN
             NaN             NaN             NaN
             NaN             NaN             NaN
             NaN             NaN             NaN
             NaN             NaN             NaN
             NaN             NaN             NaN
             NaN             NaN             NaN
             NaN             NaN             NaN
             NaN             NaN             NaN
             NaN             NaN             NaN
             NaN             NaN             NaN
             NaN             NaN             NaN
             NaN             NaN             NaN
             NaN             NaN             NaN
             NaN             NaN             NaN
             NaN             NaN             NaN
             NaN             NaN             NaN
             NaN             NaN             NaN
             NaN             NaN             NaN
             NaN             NaN             NaN
             NaN             NaN             NaN
             NaN             NaN             NaN
             NaN             NaN             NaN
             NaN             NaN             NaN
             NaN             NaN             NaN
             NaN             NaN             NaN
             NaN             NaN             NaN
             NaN             NaN             NaN
             NaN             NaN             NaN
             NaN             NaN             NaN
             NaN             NaN             NaN
             NaN             NaN             NaN
             NaN             NaN             NaN
             NaN             NaN             NaN
             NaN             NaN             NaN
             NaN             NaN             NaN
             NaN             NaN             NaN
