Ca8 V12 F42
1.0
7.546237 0.013898 0.060123
-3.767462 6.466961 -0.099935
-0.465981 0.480014 18.471441
Ca V F
8 12 42
direct
0.842168 0.291460 0.336630 Ca
0.490282 0.842062 0.666027 Ca
0.613445 0.144170 0.997887 Ca
0.987713 0.819628 0.662124 Ca
0.142736 0.631675 0.005854 Ca
0.947497 0.809831 0.168058 Ca
0.858218 0.009995 0.839141 Ca
0.168198 0.199240 0.494053 Ca
0.329357 0.986007 0.330791 V
1.001544 0.322189 0.667879 V
0.653970 0.659563 0.996618 V
0.330505 0.992728 0.826429 V
0.984203 0.317522 0.163713 V
0.675562 0.665965 0.502192 V
0.479621 0.817640 0.165557 V
0.172664 0.671474 0.501935 V
0.334834 0.502772 0.830847 V
0.828974 0.494221 0.829517 V
0.668232 0.163724 0.500459 V
0.482777 0.314467 0.161508 V
0.733736 0.173231 0.609544 F
0.806929 0.515201 0.942127 F
0.469411 0.240434 0.266947 F
0.191555 0.735136 0.395916 F
0.500451 0.783503 0.054238 F
0.281994 0.483922 0.721295 F
0.759808 0.953473 0.951120 F
0.052908 0.830726 0.275644 F
0.108297 0.154505 0.613241 F
0.938021 0.765345 0.049286 F
0.840340 0.018080 0.718929 F
0.193374 0.105983 0.388920 F
0.531382 0.379280 0.050250 F
0.597949 0.129072 0.392011 F
0.876875 0.484256 0.719585 F
0.370486 0.549440 0.942011 F
0.146113 0.612242 0.614408 F
0.463005 0.865795 0.270624 F
0.791336 0.434259 0.171655 F
0.550197 0.351752 0.513211 F
0.635132 0.184960 0.857156 F
0.462499 0.817110 0.803253 F
0.365066 0.557003 0.494283 F
0.173544 0.631740 0.139942 F
0.006436 0.329034 0.269950 F
0.665051 0.706890 0.614113 F
0.311621 0.929336 0.940168 F
0.313266 0.985138 0.711318 F
0.716950 0.646566 0.399424 F
0.928735 0.311049 0.050649 F
0.175710 0.197761 0.152732 F
0.791390 0.977846 0.488355 F
0.018413 0.808728 0.806825 F
0.219349 0.188283 0.846684 F
0.986724 0.788305 0.528754 F
0.787854 0.006952 0.171938 F
0.027375 0.387461 0.850240 F
0.580715 0.614469 0.187586 F
0.394852 0.942845 0.542749 F
0.423202 0.037167 0.120445 F
0.638629 0.610796 0.818737 F
0.963472 0.375950 0.469808 F
