Ca1 Ni16 F48
1.0
10.453422 -0.000094 -0.027522
-0.000182 7.269497 -0.005814
-0.025674 0.013405 10.067081
Ca Ni F
1 16 48
direct
0.527253 0.249758 0.491909 Ca
0.000770 0.499999 0.247777 Ni
0.000740 0.500185 0.753583 Ni
0.500003 0.505789 0.236412 Ni
0.497838 0.507147 0.759671 Ni
0.246404 0.999296 0.999863 Ni
0.242922 0.995848 0.502130 Ni
0.753200 0.000194 0.998899 Ni
0.761268 0.992864 0.500828 Ni
0.000712 0.000331 0.247987 Ni
0.000546 0.999687 0.753560 Ni
0.499747 0.994011 0.237774 Ni
0.497838 0.994276 0.759171 Ni
0.246631 0.500377 0.999796 Ni
0.244149 0.503903 0.501694 Ni
0.753069 0.499956 0.998580 Ni
0.760348 0.506456 0.500621 Ni
0.485038 0.248230 0.194708 F
0.481707 0.249853 0.709074 F
0.988470 0.247905 0.193338 F
0.987715 0.247953 0.697533 F
0.236259 0.251622 0.055620 F
0.252241 0.251877 0.552878 F
0.738582 0.252850 0.053923 F
0.743207 0.250274 0.552820 F
0.012314 0.752378 0.301776 F
0.014596 0.751899 0.809016 F
0.515471 0.750875 0.294778 F
0.516403 0.751349 0.813203 F
0.252994 0.748300 0.445944 F
0.257251 0.748073 0.942857 F
0.764570 0.749404 0.441812 F
0.767820 0.747385 0.944302 F
0.343073 0.559026 0.149718 F
0.347993 0.557736 0.652574 F
0.846241 0.552876 0.153358 F
0.850959 0.558507 0.658098 F
0.094934 0.945281 0.094438 F
0.093310 0.945772 0.599633 F
0.600474 0.943589 0.088768 F
0.596209 0.964860 0.595879 F
0.149654 0.054841 0.344262 F
0.151791 0.057129 0.845207 F
0.646756 0.058230 0.350114 F
0.652582 0.053398 0.846383 F
0.396592 0.458146 0.397444 F
0.398995 0.447990 0.911048 F
0.906723 0.446766 0.402855 F
0.903616 0.443261 0.907314 F
0.150607 0.444901 0.347740 F
0.152922 0.442206 0.846769 F
0.646999 0.441484 0.350137 F
0.655475 0.446783 0.847283 F
0.396796 0.041888 0.396908 F
0.399818 0.051142 0.909932 F
0.908041 0.055251 0.401797 F
0.904802 0.056384 0.905560 F
0.344485 0.940376 0.150204 F
0.349100 0.943292 0.655640 F
0.848268 0.947592 0.156091 F
0.850760 0.941616 0.660184 F
0.096373 0.554249 0.092869 F
0.095565 0.552527 0.598540 F
0.601030 0.557215 0.086148 F
0.597230 0.535386 0.595118 F
