Ca7 Ni16 F48                            
   1.00000000000000     
    11.2182069999999996   -0.0000330000000000    0.0050100000000000
    -0.0000150000000000    7.6740480000000000    0.0000200000000000
     0.0051590000000000    0.0000320000000000   10.6817240000000009
   Ca   Ni   F 
     7    16    48
Direct
  0.6205660953301845  0.7500334703786109  0.5916936997080925
  0.0341770037657190  0.2500168953947735  0.4911037189294543
  0.0384925457567134  0.2500101812528271  0.9672792177398344
  0.5342494135012514  0.2500065533854079  0.9997211051487455
  0.2119010272930211  0.7499946681944010  0.2485999358113809
  0.2063520541421502  0.7499821473816740  0.7430574644644000
  0.7101016413404586  0.7499795339676885  0.2272746181570306
  0.4946970770211028  0.4938264551325182  0.2636582029650816
  0.4947313342757612  0.4874344878510398  0.7552825505508441
  0.9950276147795134  0.4991408453430478  0.2400912002843140
  0.9781664960932415  0.5082510089238018  0.7397193610911088
  0.2609565332474491  0.0040923158970374  0.5026058969774015
  0.2574209955533707 -0.0028760153576536  1.0049518297703026
  0.7579565451486322  0.0270201757360645  0.4907126112453640
  0.7509102964996769  0.9986589929655660  0.9936847241331104
  0.4946941158588057  0.0061388064715927  0.2636570299270413
  0.4947112443445655  0.0125992723366007  0.7552969453870318
  0.9950237747585109  1.0008528379895112  0.2401106414346602
  0.9781763097789715  0.9917531705504142  0.7397371430613413
  0.2609661171058296  0.4958867983226583  0.5025907056933597
  0.2574311783262654  0.5028688455322810  1.0049479182754548
  0.7579362383159122  0.4730214726911474  0.4907054825198899
  0.7508992285065011  0.5013385820299446  0.9936766339083591
  0.4792442841680715  0.2499955688522937  0.2033226291923034
  0.4539974985577355  0.2500208673991628  0.7303728751083367
  0.9920359970502673  0.2499943174251087  0.1779325183974494
  0.9956590333956333  0.2499909680636551  0.7034126038447671
  0.2315688310753278  0.2499976196000448  0.0431749272017676
  0.2319832384344943  0.2499996989612364  0.5462167140490403
  0.7387804167472647  0.2499988848425846  0.0430101561502081
  0.7980127783671915  0.2500623565365581  0.5551792185114413
  0.0112792316511577  0.7499948347559646  0.2923551523680210
  0.0071283127022483  0.7499917906856329  0.7903927865496631
  0.5186230832602510  0.7499653725459036  0.3124377179385967
  0.5260026272423350  0.7500109519330499  0.7725877048152936
  0.2651565066995192  0.7499748259142427  0.4537317909361097
  0.2676692194442468  0.7499995100011585  0.9470021889929285
  0.7534970675985287  0.7499734644053478  0.4383605610200585
  0.7439791036143044  0.7499983012059109  0.9576043164271600
  0.3452299489069386  0.5564119303981744  0.1669460216870617
  0.3485334567413638  0.5608459323240621  0.6614949155635250
  0.8469564342428184  0.5560390455488059  0.1459647149768863
  0.8353390944404595  0.5648898147321016  0.6425827065213824
  0.1080225512816967  0.9436992920807524  0.1013563687501145
  0.1049567434068483  0.9561617217306686  0.6015919620523239
  0.5984347556208026  0.9634096733814026  0.1070573997204367
  0.5991450247960378  1.0264971121719735  0.5958555571320869
  0.1456151196086766  0.0427524034835790  0.3522735858512604
  0.1428589550566629  0.0319177268545018  0.8535693013831320
  0.6598597013342917  0.0330228969648181  0.3386500382300348
  0.6364003807096120  0.0647170567828400  0.8597213209465991
  0.4072862429913402  0.4542837230101684  0.4151603711243874
  0.4075817898765390  0.4587208955632515  0.9193926805551543
  0.9092356328061587  0.4454858555408058  0.3953046677829052
  0.8981407619239573  0.4467344232980053  0.8991157077335752
  0.1456210711736559  0.4572566431697385  0.3522664489286860
  0.1428755081221242  0.4680924658577711  0.8535580614936046
  0.6598583883967687  0.4669207624717053  0.3386256319277691
  0.6364135786749667  0.4352985237539903  0.8597076070365858
  0.4072736901226081  0.0456670572753331  0.4151699303871664
  0.4075749990700611  0.0413050879235307  0.9194033297406925
  0.9092427398602752  0.0545478996731643  0.3953141393374073
  0.8981432338121241  0.0532719711605329  0.8991357793000674
  0.3452262063307303  0.9435495104725728  0.1669482799477674
  0.3485348691832429  0.9391373967655491  0.6615072472080511
  0.8469671880393385  0.9439420418764595  0.1459773053414170
  0.8353456148475835  0.9351602086777889  0.6425862077779321
  0.1080169618984071  0.5562675419197662  0.1013364929859537
  0.1049479847309535  0.5437960511772341  0.6015662332798211
  0.5984374412611322  0.5365643302438672  0.1070405755140522
  0.5991382045137944  0.4736331868278172  0.5958271562995892
 
             NaN             NaN             NaN
             NaN             NaN             NaN
             NaN             NaN             NaN
             NaN             NaN             NaN
             NaN             NaN             NaN
             NaN             NaN             NaN
             NaN             NaN             NaN
             NaN             NaN             NaN
             NaN             NaN             NaN
             NaN             NaN             NaN
             NaN             NaN             NaN
             NaN             NaN             NaN
             NaN             NaN             NaN
             NaN             NaN             NaN
             NaN             NaN             NaN
             NaN             NaN             NaN
             NaN             NaN             NaN
             NaN             NaN             NaN
             NaN             NaN             NaN
             NaN             NaN             NaN
             NaN             NaN             NaN
             NaN             NaN             NaN
             NaN             NaN             NaN
             NaN             NaN             NaN
             NaN             NaN             NaN
             NaN             NaN             NaN
             NaN             NaN             NaN
             NaN             NaN             NaN
             NaN             NaN             NaN
             NaN             NaN             NaN
             NaN             NaN             NaN
             NaN             NaN             NaN
             NaN             NaN             NaN
             NaN             NaN             NaN
             NaN             NaN             NaN
             NaN             NaN             NaN
             NaN             NaN             NaN
             NaN             NaN             NaN
             NaN             NaN             NaN
             NaN             NaN             NaN
             NaN             NaN             NaN
             NaN             NaN             NaN
             NaN             NaN             NaN
             NaN             NaN             NaN
             NaN             NaN             NaN
             NaN             NaN             NaN
             NaN             NaN             NaN
             NaN             NaN             NaN
             NaN             NaN             NaN
             NaN             NaN             NaN
             NaN             NaN             NaN
             NaN             NaN             NaN
             NaN             NaN             NaN
             NaN             NaN             NaN
             NaN             NaN             NaN
             NaN             NaN             NaN
             NaN             NaN             NaN
             NaN             NaN             NaN
             NaN             NaN             NaN
             NaN             NaN             NaN
             NaN             NaN             NaN
             NaN             NaN             NaN
             NaN             NaN             NaN
             NaN             NaN             NaN
             NaN             NaN             NaN
             NaN             NaN             NaN
             NaN             NaN             NaN
             NaN             NaN             NaN
             NaN             NaN             NaN
             NaN             NaN             NaN
             NaN             NaN             NaN
