Ca7 Ni16 F48
1.0
11.218207 -0.000033 0.005010
-0.000015 7.674048 0.000020
0.005159 0.000032 10.681724
Ca Ni F
7 16 48
direct
0.594183 0.750003 0.624292 Ca
0.033875 0.250000 0.488114 Ca
0.039789 0.249994 0.985017 Ca
0.540862 0.249987 0.986918 Ca
0.210354 0.749995 0.235577 Ca
0.209788 0.749989 0.739359 Ca
0.711416 0.750000 0.241279 Ca
0.495301 0.491711 0.255551 Ni
0.500124 0.495867 0.746597 Ni
0.990550 0.500158 0.249368 Ni
0.987828 0.502792 0.745830 Ni
0.258564 0.006927 0.496916 Ni
0.259745 0.000720 0.999349 Ni
0.747909 0.009337 0.501279 Ni
0.755914 0.997199 0.997733 Ni
0.495289 0.008288 0.255558 Ni
0.500123 0.004147 0.746595 Ni
0.990548 -0.000152 0.249374 Ni
0.987823 0.997208 0.745831 Ni
0.258557 0.493070 0.496921 Ni
0.259749 0.499278 0.999354 Ni
0.747914 0.490671 0.501287 Ni
0.755913 0.502801 0.997735 Ni
0.484433 0.249998 0.191825 F
0.487402 0.249996 0.706287 F
0.984990 0.250008 0.190489 F
0.987303 0.249997 0.693959 F
0.235823 0.249996 0.045818 F
0.230037 0.249992 0.549116 F
0.738789 0.250002 0.045725 F
0.737875 0.249992 0.549160 F
0.014754 0.749998 0.298246 F
0.013463 0.750000 0.795750 F
0.511064 0.749998 0.298027 F
0.506613 0.750001 0.787640 F
0.265584 0.750000 0.442257 F
0.264281 0.750004 0.944638 F
0.758088 0.749997 0.450286 F
0.762581 0.749997 0.948079 F
0.346152 0.554571 0.159435 F
0.347889 0.562286 0.651841 F
0.846834 0.559352 0.153029 F
0.843222 0.552430 0.652969 F
0.106332 0.953497 0.102772 F
0.106296 0.952018 0.602151 F
0.603697 0.959194 0.102164 F
0.602672 0.946315 0.601085 F
0.143067 0.050376 0.352476 F
0.144262 0.042991 0.851838 F
0.655850 0.021446 0.341028 F
0.644828 0.050214 0.855631 F
0.408443 0.458442 0.410861 F
0.407234 0.445915 0.906020 F
0.901395 0.443198 0.406252 F
0.904728 0.443858 0.905283 F
0.143069 0.449635 0.352475 F
0.144267 0.457020 0.851842 F
0.655847 0.478552 0.341029 F
0.644837 0.449789 0.855640 F
0.408439 0.041554 0.410861 F
0.407234 0.054083 0.906013 F
0.901397 0.056805 0.406261 F
0.904729 0.056142 0.905281 F
0.346147 0.945428 0.159437 F
0.347889 0.937712 0.651843 F
0.846838 0.940654 0.153037 F
0.843228 0.947560 0.652976 F
0.106337 0.546518 0.102770 F
0.106301 0.547983 0.602148 F
0.603698 0.540802 0.102163 F
0.602674 0.553695 0.601084 F
