Mg18 Mo18 N36
1.0
   8.7326216697000003    0.0000000000000000    0.0000000000000000
  -4.3663108350000002    7.5626722077000004    0.0000000000000000
   0.0000000000000000    0.0000000000000000   10.5258464813000003
Mg Mo N
17 18 36
direct
   0.3333333333333333    0.3333333333333333    0.5000000000000000 Mg
   0.0000000000000000    0.0000000000000000    0.0000000000000000 Mg
   0.0000000000000000    0.3333333333333333    0.0000000000000000 Mg
   0.0000000000000000    0.6666666666666666    0.0000000000000000 Mg
   0.3333333333333333    0.0000000000000000    0.0000000000000000 Mg
   0.3333333333333333    0.3333333333333333    0.0000000000000000 Mg
   0.3333333333333333    0.6666666666666666    0.0000000000000000 Mg
   0.6666666666666666    0.0000000000000000    0.0000000000000000 Mg
   0.6666666666666666    0.3333333333333333    0.0000000000000000 Mg
   0.6666666666666666    0.6666666666666666    0.0000000000000000 Mg
   0.0000000000000000    0.0000000000000000    0.5000000000000000 Mg
   0.0000000000000000    0.3333333333333333    0.5000000000000000 Mg
   0.0000000000000000    0.6666666666666666    0.5000000000000000 Mg
   0.3333333333333333    0.0000000000000000    0.5000000000000000 Mg
   0.6666666666666666    0.0000000000000000    0.5000000000000000 Mg
   0.6666666666666666    0.3333333333333333    0.5000000000000000 Mg
   0.6666666666666666    0.6666666666666666    0.5000000000000000 Mg
   0.2222222290000000    0.1111111143333333    0.2500000000000000 Mo
   0.2222222290000000    0.4444444476666666    0.2500000000000000 Mo
   0.2222222289999999    0.7777777809999999    0.2500000000000000 Mo
   0.5555555623333334    0.1111111143333333    0.2500000000000000 Mo
   0.5555555623333333    0.4444444476666666    0.2500000000000000 Mo
   0.5555555623333333    0.7777777809999999    0.2500000000000000 Mo
   0.8888888956666666    0.1111111143333333    0.2500000000000000 Mo
   0.8888888956666666    0.4444444476666666    0.2500000000000000 Mo
   0.8888888956666666    0.7777777809999999    0.2500000000000000 Mo
   0.1111111143333333    0.2222222290000000    0.7500000000000000 Mo
   0.1111111143333333    0.5555555623333333    0.7500000000000000 Mo
   0.1111111143333332    0.8888888956666665    0.7500000000000000 Mo
   0.4444444476666666    0.2222222290000000    0.7500000000000000 Mo
   0.4444444476666666    0.5555555623333333    0.7500000000000000 Mo
   0.4444444476666666    0.8888888956666665    0.7500000000000000 Mo
   0.7777777809999999    0.2222222290000000    0.7500000000000000 Mo
   0.7777777809999999    0.5555555623333333    0.7500000000000000 Mo
   0.7777777809999999    0.8888888956666665    0.7500000000000000 Mo
   0.1111111143333333    0.2222222290000000    0.1274363700000000 N
   0.1111111143333333    0.5555555623333333    0.1274363700000000 N
   0.1111111143333332    0.8888888956666665    0.1274363700000000 N
   0.4444444476666666    0.2222222290000000    0.1274363700000000 N
   0.4444444476666666    0.5555555623333333    0.1274363700000000 N
   0.4444444476666666    0.8888888956666665    0.1274363700000000 N
   0.7777777809999999    0.2222222290000000    0.1274363700000000 N
   0.7777777809999999    0.5555555623333333    0.1274363700000000 N
   0.7777777809999999    0.8888888956666665    0.1274363700000000 N
   0.1111111143333333    0.2222222290000000    0.3725636300000000 N
   0.1111111143333333    0.5555555623333333    0.3725636300000000 N
   0.1111111143333332    0.8888888956666665    0.3725636300000000 N
   0.4444444476666666    0.2222222290000000    0.3725636300000000 N
   0.4444444476666666    0.5555555623333333    0.3725636300000000 N
   0.4444444476666666    0.8888888956666665    0.3725636300000000 N
   0.7777777809999999    0.2222222290000000    0.3725636300000000 N
   0.7777777809999999    0.5555555623333333    0.3725636300000000 N
   0.7777777809999999    0.8888888956666665    0.3725636300000000 N
   0.2222222290000000    0.1111111143333333    0.6274363990000000 N
   0.2222222290000000    0.4444444476666666    0.6274363990000000 N
   0.2222222289999999    0.7777777809999999    0.6274363990000000 N
   0.5555555623333334    0.1111111143333333    0.6274363990000000 N
   0.5555555623333333    0.4444444476666666    0.6274363990000000 N
   0.5555555623333333    0.7777777809999999    0.6274363990000000 N
   0.8888888956666666    0.1111111143333333    0.6274363990000000 N
   0.8888888956666666    0.4444444476666666    0.6274363990000000 N
   0.8888888956666666    0.7777777809999999    0.6274363990000000 N
   0.2222222290000000    0.1111111143333333    0.8725636010000001 N
   0.2222222290000000    0.4444444476666666    0.8725636010000001 N
   0.2222222289999999    0.7777777809999999    0.8725636010000001 N
   0.5555555623333334    0.1111111143333333    0.8725636010000001 N
   0.5555555623333333    0.4444444476666666    0.8725636010000001 N
   0.5555555623333333    0.7777777809999999    0.8725636010000001 N
   0.8888888956666666    0.1111111143333333    0.8725636010000001 N
   0.8888888956666666    0.4444444476666666    0.8725636010000001 N
   0.8888888956666666    0.7777777809999999    0.8725636010000001 N
