Li64 Ni32 O64
1.0
  19.7764644621999999    0.0000000000000000    0.0000000000000000
   0.0000000000000000   11.2919616699999992    0.0000000000000000
  -2.8205484146000002    0.0000000000000000    6.9464230730000001
Li Ni O
63 32 64
direct
   0.3978507520000000    0.6250000000000000    0.3976444900000000 Li
   0.3978507520000000    0.1250000000000000    0.3976444900000000 Li
   0.3521492480000000    0.0000000000000000    0.6023555025000000 Li
   0.3978507520000000    0.1250000000000000    0.8976444900000000 Li
   0.3978507520000000    0.6250000000000000    0.8976444900000000 Li
   0.3978507520000000    0.3750000000000000    0.3976444900000000 Li
   0.3978507520000000    0.8749999999999999    0.3976444900000000 Li
   0.3978507520000000    0.3750000000000000    0.8976444900000000 Li
   0.3978507520000000    0.8749999999999999    0.8976444900000000 Li
   0.8978507520000000    0.1250000000000000    0.3976444900000000 Li
   0.8978507520000000    0.6250000000000000    0.3976444900000000 Li
   0.8978507520000000    0.1250000000000000    0.8976444900000000 Li
   0.8978507520000000    0.6250000000000000    0.8976444900000000 Li
   0.8978507520000000    0.3750000000000000    0.3976444900000000 Li
   0.8978507520000000    0.8749999999999999    0.3976444900000000 Li
   0.8978507520000000    0.3750000000000000    0.8976444900000000 Li
   0.8978507520000000    0.8749999999999999    0.8976444900000000 Li
   0.3521492480000000    0.0000000000000000    0.1023555025000000 Li
   0.3521492480000000    0.5000000000000000    0.1023555025000000 Li
   0.3521492480000000    0.2500000000000000    0.1023555025000000 Li
   0.3521492480000000    0.7500000000000000    0.1023555025000000 Li
   0.3521492480000000    0.2500000000000000    0.6023555025000000 Li
   0.3521492480000000    0.7500000000000000    0.6023555025000000 Li
   0.8521492480000000    0.0000000000000000    0.1023555025000000 Li
   0.8521492480000000    0.5000000000000000    0.1023555025000000 Li
   0.8521492479999998    0.0000000000000000    0.6023555025000000 Li
   0.8521492479999998    0.5000000000000000    0.6023555025000000 Li
   0.8521492480000000    0.2500000000000000    0.1023555025000000 Li
   0.8521492480000000    0.7500000000000000    0.1023555025000000 Li
   0.8521492479999998    0.2500000000000000    0.6023555025000000 Li
   0.8521492479999998    0.7500000000000000    0.6023555025000000 Li
   0.1478507520000000    0.0000000000000000    0.3976444900000000 Li
   0.1478507520000000    0.5000000000000000    0.3976444900000000 Li
   0.1478507520000000    0.0000000000000000    0.8976444900000000 Li
   0.1478507520000000    0.5000000000000000    0.8976444900000000 Li
   0.1478507520000000    0.2500000000000000    0.3976444900000000 Li
   0.1478507520000000    0.7500000000000000    0.3976444900000000 Li
   0.1478507520000000    0.2500000000000000    0.8976444900000000 Li
   0.1478507520000000    0.7500000000000000    0.8976444900000000 Li
   0.6478507520000000    0.0000000000000000    0.3976444900000000 Li
   0.6478507520000000    0.5000000000000000    0.3976444900000000 Li
   0.6478507520000000    0.0000000000000000    0.8976444900000000 Li
   0.6478507520000000    0.5000000000000000    0.8976444900000000 Li
   0.6478507520000000    0.2500000000000000    0.3976444900000000 Li
   0.6478507520000000    0.7500000000000000    0.3976444900000000 Li
   0.6478507520000000    0.2500000000000000    0.8976444900000000 Li
   0.6478507520000000    0.7500000000000000    0.8976444900000000 Li
   0.1021492480000000    0.1250000000000000    0.1023555025000000 Li
   0.1021492480000000    0.6250000000000000    0.1023555025000000 Li
   0.1021492480000000    0.1250000000000000    0.6023555025000000 Li
   0.1021492480000000    0.6250000000000000    0.6023555025000000 Li
   0.1021492480000000    0.3750000000000000    0.1023555025000000 Li
   0.1021492480000000    0.8749999999999999    0.1023555025000000 Li
   0.1021492480000000    0.3750000000000000    0.6023555025000000 Li
   0.1021492480000000    0.8749999999999999    0.6023555025000000 Li
   0.6021492479999998    0.1250000000000000    0.1023555025000000 Li
   0.6021492479999998    0.6250000000000000    0.1023555025000000 Li
   0.6021492480000000    0.1250000000000000    0.6023555025000000 Li
   0.6021492480000000    0.6250000000000000    0.6023555025000000 Li
   0.6021492479999998    0.3750000000000000    0.1023555025000000 Li
   0.6021492479999998    0.8749999999999999    0.1023555025000000 Li
   0.6021492480000000    0.3750000000000000    0.6023555025000000 Li
   0.6021492480000000    0.8749999999999999    0.6023555025000000 Li
   0.0000000000000000    0.0000000000000000    0.2500000000000000 Ni
   0.0000000000000000    0.5000000000000000    0.2500000000000000 Ni
   0.0000000000000000    0.0000000000000000    0.7500000000000001 Ni
   0.0000000000000000    0.5000000000000000    0.7500000000000001 Ni
   0.0000000000000000    0.2500000000000000    0.2500000000000000 Ni
   0.0000000000000000    0.7500000000000000    0.2500000000000000 Ni
   0.0000000000000000    0.2500000000000000    0.7500000000000001 Ni
   0.0000000000000000    0.7500000000000000    0.7500000000000001 Ni
   0.5000000000000000    0.0000000000000000    0.2500000000000000 Ni
   0.5000000000000000    0.5000000000000000    0.2500000000000000 Ni
   0.4999999999999999    0.0000000000000000    0.7500000000000001 Ni
   0.4999999999999999    0.5000000000000000    0.7500000000000001 Ni
   0.5000000000000000    0.2500000000000000    0.2500000000000000 Ni
   0.5000000000000000    0.7500000000000000    0.2500000000000000 Ni
   0.4999999999999999    0.2500000000000000    0.7500000000000001 Ni
   0.4999999999999999    0.7500000000000000    0.7500000000000001 Ni
   0.2500000000000000    0.1250000000000000    0.2500000000000000 Ni
   0.2500000000000000    0.6250000000000000    0.2500000000000000 Ni
   0.2500000000000000    0.1250000000000000    0.7500000000000001 Ni
   0.2500000000000000    0.6250000000000000    0.7500000000000001 Ni
   0.2500000000000000    0.3750000000000000    0.2500000000000000 Ni
   0.2500000000000000    0.8749999999999999    0.2500000000000000 Ni
   0.2500000000000000    0.3750000000000000    0.7500000000000001 Ni
   0.2500000000000000    0.8749999999999999    0.7500000000000001 Ni
   0.7500000000000001    0.1250000000000000    0.2500000000000000 Ni
   0.7500000000000001    0.6250000000000000    0.2500000000000000 Ni
   0.7500000000000001    0.1250000000000000    0.7500000000000001 Ni
   0.7500000000000001    0.6250000000000000    0.7500000000000001 Ni
   0.7500000000000001    0.3750000000000000    0.2500000000000000 Ni
   0.7500000000000001    0.8749999999999999    0.2500000000000000 Ni
   0.7500000000000001    0.3750000000000000    0.7500000000000001 Ni
   0.7500000000000001    0.8749999999999999    0.7500000000000001 Ni
   0.4290692510000000    0.1250000000000000    0.1786389945000000 O
   0.4290692510000000    0.6250000000000000    0.1786389945000000 O
   0.4290692509999999    0.1250000000000000    0.6786389945000000 O
   0.4290692509999999    0.6250000000000000    0.6786389945000000 O
   0.4290692510000000    0.3750000000000000    0.1786389945000000 O
   0.4290692510000000    0.8749999999999999    0.1786389945000000 O
   0.4290692509999999    0.3750000000000000    0.6786389945000000 O
   0.4290692509999999    0.8749999999999999    0.6786389945000000 O
   0.9290692509999999    0.1250000000000000    0.1786389945000000 O
   0.9290692509999999    0.6250000000000000    0.1786389945000000 O
   0.9290692510000000    0.1250000000000000    0.6786389945000000 O
   0.9290692510000000    0.6250000000000000    0.6786389945000000 O
   0.9290692509999999    0.3750000000000000    0.1786389945000000 O
   0.9290692509999999    0.8749999999999999    0.1786389945000000 O
   0.9290692510000000    0.3750000000000000    0.6786389945000000 O
   0.9290692510000000    0.8749999999999999    0.6786389945000000 O
   0.3209307490000000    0.0000000000000000    0.3213610055000000 O
   0.3209307490000000    0.5000000000000000    0.3213610055000000 O
   0.3209307490000000    0.0000000000000000    0.8213610055000000 O
   0.3209307490000000    0.5000000000000000    0.8213610055000000 O
   0.3209307490000000    0.2500000000000000    0.3213610055000000 O
   0.3209307490000000    0.7500000000000000    0.3213610055000000 O
   0.3209307490000000    0.2500000000000000    0.8213610055000000 O
   0.3209307490000000    0.7500000000000000    0.8213610055000000 O
   0.8209307490000000    0.0000000000000000    0.3213610055000000 O
   0.8209307490000000    0.5000000000000000    0.3213610055000000 O
   0.8209307490000001    0.0000000000000000    0.8213610055000000 O
   0.8209307490000001    0.5000000000000000    0.8213610055000000 O
   0.8209307490000000    0.2500000000000000    0.3213610055000000 O
   0.8209307490000000    0.7500000000000000    0.3213610055000000 O
   0.8209307490000001    0.2500000000000000    0.8213610055000000 O
   0.8209307490000001    0.7500000000000000    0.8213610055000000 O
   0.1790692510000000    0.0000000000000000    0.1786389945000000 O
   0.1790692510000000    0.5000000000000000    0.1786389945000000 O
   0.1790692510000000    0.0000000000000000    0.6786389945000000 O
   0.1790692510000000    0.5000000000000000    0.6786389945000000 O
   0.1790692510000000    0.2500000000000000    0.1786389945000000 O
   0.1790692510000000    0.7500000000000000    0.1786389945000000 O
   0.1790692510000000    0.2500000000000000    0.6786389945000000 O
   0.1790692510000000    0.7500000000000000    0.6786389945000000 O
   0.6790692510000000    0.0000000000000000    0.1786389945000000 O
   0.6790692510000000    0.5000000000000000    0.1786389945000000 O
   0.6790692510000000    0.0000000000000000    0.6786389945000000 O
   0.6790692510000000    0.5000000000000000    0.6786389945000000 O
   0.6790692510000000    0.2500000000000000    0.1786389945000000 O
   0.6790692510000000    0.7500000000000000    0.1786389945000000 O
   0.6790692510000000    0.2500000000000000    0.6786389945000000 O
   0.6790692510000000    0.7500000000000000    0.6786389945000000 O
   0.0709307490000000    0.1250000000000000    0.3213610055000000 O
   0.0709307490000000    0.6250000000000000    0.3213610055000000 O
   0.0709307490000000    0.1250000000000000    0.8213610055000000 O
   0.0709307490000000    0.6250000000000000    0.8213610055000000 O
   0.0709307490000000    0.3750000000000000    0.3213610055000000 O
   0.0709307490000000    0.8749999999999999    0.3213610055000000 O
   0.0709307490000000    0.3750000000000000    0.8213610055000000 O
   0.0709307490000000    0.8749999999999999    0.8213610055000000 O
   0.5709307490000000    0.1250000000000000    0.3213610055000000 O
   0.5709307490000000    0.6250000000000000    0.3213610055000000 O
   0.5709307490000000    0.1250000000000000    0.8213610055000000 O
   0.5709307490000000    0.6250000000000000    0.8213610055000000 O
   0.5709307490000000    0.3750000000000000    0.3213610055000000 O
   0.5709307490000000    0.8749999999999999    0.3213610055000000 O
   0.5709307490000000    0.3750000000000000    0.8213610055000000 O
   0.5709307490000000    0.8749999999999999    0.8213610055000000 O
