Ca1 Mn4 S6 O24                          
   1.00000000000000     
     7.8267110000000004    0.0710800000000000    5.0039179999999996
     2.7932450000000002    7.0179390000000001    4.8805620000000003
     0.5612580000000000    0.1198020000000000    9.0948030000000006
   Ca   Mn   S    O 
     1     4     6    24
Direct
  0.4650069321954058  0.5484540804816620  0.4802707260957969
  0.6411449661461737  0.6535624636364034  0.6527071497862917
  0.1504807709692588  0.1520460634707723  0.1487407095734199
  0.8364255241895162  0.8542113377585931  0.8468403382448537
  0.3448909525164782  0.3478119155977912  0.3527549552915561
  0.9528038129543681  0.2447037208579120  0.5383390523123742
  0.4410795283477412  0.0603820485060023  0.7521626552153862
  0.5499136999359420  0.9442067875888558  0.2440512671406815
  0.7418245615417849  0.4721927766429803  0.0478635777622021
  0.2452894195877531  0.5317647701774363  0.9556988371640339
  0.0335336141607124  0.7618597043543234  0.4566230875811046
  0.3852347924209812  0.6043963918055889  0.7520908651776775
  0.9359876270236461  0.3430081951704594  0.0213820751588759
  0.7586205536849596  0.3762572501144321  0.6113602082580836
  0.0127613069528503  0.9668068444547641  0.3277132017555908
  0.6325778390809484  0.7484117816285540  0.3728355904777285
  0.2965356268562748  0.0296830397555662  0.9599340536403766
  0.6894998905284776  0.9786089909330437  0.0361249812909964
  0.2311788526659473  0.6341479679054809  0.3773386559435049
  0.0521843096811080  0.6600051418414176  0.9754164691945174
  0.3660177495737780  0.2609268632738970  0.6231757332141991
  0.9704697725255422  0.0392138702304324  0.6677530057797000
  0.6030509943263306  0.3997299256360329  0.2514547818524447
  0.9886085462004722  0.2759478907657235  0.3395777975015267
  0.4656562734092726  0.9167939987982310  0.7010115525941811
  0.3752280627731822  0.9401120545795856  0.2747515895251325
  0.6891662584237518  0.5042154509515197  0.9062787057010864
  0.2806018380988413  0.3364104044936738  0.9709462249795662
  0.8960517973687016  0.7142848572187016  0.4743338873679372
  0.0945467335409734  0.2832625362165003  0.5255999901676127
  0.6201941722078020  0.0409395757040161  0.7318068512917432
  0.5129881821421399  0.0961457683421006  0.2914840649352152
  0.7109789141238979  0.6643984689359198  0.0359024706557782
  0.2924553980001776  0.5067271997546792  0.0978986689453933
  0.0069487735521050  0.7268815940572153  0.6530451851360991
 
             NaN             NaN             NaN
             NaN             NaN             NaN
             NaN             NaN             NaN
             NaN             NaN             NaN
             NaN             NaN             NaN
             NaN             NaN             NaN
             NaN             NaN             NaN
             NaN             NaN             NaN
             NaN             NaN             NaN
             NaN             NaN             NaN
             NaN             NaN             NaN
             NaN             NaN             NaN
             NaN             NaN             NaN
             NaN             NaN             NaN
             NaN             NaN             NaN
             NaN             NaN             NaN
             NaN             NaN             NaN
             NaN             NaN             NaN
             NaN             NaN             NaN
             NaN             NaN             NaN
             NaN             NaN             NaN
             NaN             NaN             NaN
             NaN             NaN             NaN
             NaN             NaN             NaN
             NaN             NaN             NaN
             NaN             NaN             NaN
             NaN             NaN             NaN
             NaN             NaN             NaN
             NaN             NaN             NaN
             NaN             NaN             NaN
             NaN             NaN             NaN
             NaN             NaN             NaN
             NaN             NaN             NaN
             NaN             NaN             NaN
             NaN             NaN             NaN
