Ca1 Mn4 S6 O24
1.0
7.826711 0.071080 5.003918
2.793245 7.017939 4.880562
0.561258 0.119802 9.094803
Ca Mn S O
1 4 6 24
direct
0.468530 0.541142 0.514579 Ca
0.649917 0.648006 0.646572 Mn
0.154714 0.147155 0.146488 Mn
0.835031 0.849515 0.846877 Mn
0.349493 0.346729 0.347523 Mn
0.954126 0.241518 0.535785 S
0.444513 0.053576 0.750521 S
0.547915 0.942746 0.243988 S
0.747836 0.463616 0.042999 S
0.248186 0.529842 0.952846 S
0.041945 0.753596 0.457110 S
0.387946 0.602543 0.750798 O
0.942677 0.337234 0.016317 O
0.760331 0.373526 0.609404 O
0.022800 0.957793 0.324691 O
0.626640 0.746401 0.374231 O
0.305882 0.020233 0.959172 O
0.687418 0.973078 0.036352 O
0.237957 0.622695 0.384338 O
0.055956 0.659724 0.973097 O
0.362619 0.250349 0.623421 O
0.969899 0.037844 0.668625 O
0.611187 0.388836 0.246556 O
0.985475 0.272165 0.339546 O
0.474747 0.904485 0.702762 O
0.368975 0.950585 0.273587 O
0.697012 0.491601 0.902039 O
0.281341 0.337081 0.965676 O
0.903521 0.707540 0.473904 O
0.095436 0.281424 0.520201 O
0.622588 0.046192 0.721253 O
0.519271 0.092066 0.289616 O
0.713742 0.657763 0.028850 O
0.294333 0.502763 0.096526 O
0.008684 0.725029 0.653729 O
