Na15 Mg16 S16 O64 F16
1.0
  10.9652453596134674   -0.1325280556175110   -3.2163399331448050
  -2.6142529883113208   10.6731458713517782   -3.6715810841131917
  -0.6198733847261843   -0.2306926468832997   15.9187789110024482
Na Mg S O F
15 16 16 64 16
direct
   0.4968150000000000    0.3228690000000000    0.6337220000000000 Na+
   0.4968150000000000    0.3228690000000000    0.1337220000000000 Na+
   0.4968150000000000    0.8228690000000000    0.1337220000000000 Na+
   0.4968150000000000    0.8228690000000000    0.6337220000000000 Na+
   0.9968150000000000    0.3228690000000000    0.1337220000000000 Na+
   0.9968150000000000    0.3228690000000000    0.6337220000000000 Na+
   0.9968150000000000    0.8228690000000000    0.1337220000000000 Na+
   0.9968150000000000    0.8228690000000000    0.6337220000000000 Na+
   0.0031880000000000    0.1771350000000000    0.3662810000000000 Na+
   0.0031880000000000    0.1771350000000000    0.8662810000000000 Na+
   0.0031880000000000    0.6771350000000000    0.3662810000000000 Na+
   0.0031880000000000    0.6771350000000000    0.8662810000000000 Na+
   0.5031880000000000    0.1771350000000000    0.8662810000000000 Na+
   0.5031880000000000    0.6771350000000000    0.3662810000000000 Na+
   0.5031880000000000    0.6771350000000000    0.8662810000000000 Na+
   0.9999980000000001    1.0000000000000000    0.9999990000000000 Mg2+
   0.9999980000000001    1.0000000000000000    0.4999990000000000 Mg2+
   0.9999980000000001    0.5000000000000000    0.9999990000000000 Mg2+
   0.9999980000000001    0.5000000000000000    0.4999990000000000 Mg2+
   0.4999980000000000    1.0000000000000000    0.9999990000000000 Mg2+
   0.4999980000000000    1.0000000000000000    0.4999990000000000 Mg2+
   0.4999980000000000    0.5000000000000000    0.9999990000000000 Mg2+
   0.4999980000000000    0.5000000000000000    0.4999990000000000 Mg2+
   0.2500000000000000    0.2500010000000000    0.2500000000000000 Mg2+
   0.2500000000000000    0.2500010000000000    0.7500000000000000 Mg2+
   0.2500000000000000    0.7500010000000000    0.2500000000000000 Mg2+
   0.2500000000000000    0.7500010000000000    0.7500000000000000 Mg2+
   0.7500000000000000    0.2500010000000000    0.2500000000000000 Mg2+
   0.7500000000000000    0.2500010000000000    0.7500000000000000 Mg2+
   0.7500000000000000    0.7500010000000000    0.2500000000000000 Mg2+
   0.7500000000000000    0.7500010000000000    0.7500000000000000 Mg2+
   0.2106840000000000    0.0498260000000000    0.3733390000000000 S6+
   0.2106840000000000    0.0498260000000000    0.8733390000000000 S6+
   0.2106840000000000    0.5498260000000000    0.3733390000000000 S6+
   0.2106840000000000    0.5498260000000000    0.8733390000000000 S6+
   0.7106840000000000    0.0498260000000000    0.3733390000000000 S6+
   0.7106840000000000    0.0498260000000000    0.8733390000000000 S6+
   0.7106840000000000    0.5498260000000000    0.3733390000000000 S6+
   0.7106840000000000    0.5498260000000000    0.8733390000000000 S6+
   0.2893180000000000    0.4501760000000000    0.1266630000000000 S6+
   0.2893180000000000    0.4501760000000000    0.6266630000000000 S6+
   0.2893180000000000    0.9501760000000000    0.1266630000000000 S6+
   0.2893180000000000    0.9501760000000000    0.6266630000000000 S6+
   0.7893180000000000    0.4501760000000000    0.1266630000000000 S6+
   0.7893180000000000    0.4501760000000000    0.6266630000000000 S6+
   0.7893180000000000    0.9501760000000000    0.1266630000000000 S6+
   0.7893180000000000    0.9501760000000000    0.6266630000000000 S6+
   0.3720510000000000    0.4329850000000000    0.0523700000000000 O2-
   0.3720510000000000    0.4329850000000000    0.5523700000000000 O2-
   0.3720510000000000    0.9329850000000000    0.0523700000000000 O2-
   0.3720510000000000    0.9329850000000000    0.5523700000000000 O2-
   0.8720510000000000    0.4329850000000000    0.0523700000000000 O2-
   0.8720510000000000    0.4329850000000000    0.5523700000000000 O2-
   0.8720510000000000    0.9329850000000000    0.0523700000000000 O2-
   0.8720510000000000    0.9329850000000000    0.5523700000000000 O2-
   0.3316530000000000    0.3471980000000000    0.1821960000000000 O2-
   0.3316530000000000    0.3471980000000000    0.6821960000000000 O2-
   0.3316530000000000    0.8471980000000000    0.1821960000000000 O2-
   0.3316530000000000    0.8471980000000000    0.6821960000000000 O2-
   0.8316530000000000    0.3471980000000000    0.1821960000000000 O2-
   0.8316530000000000    0.3471980000000000    0.6821960000000000 O2-
   0.8316530000000000    0.8471980000000000    0.1821960000000000 O2-
   0.8316530000000000    0.8471980000000000    0.6821960000000000 O2-
   0.1683450000000000    0.1528020000000000    0.3178020000000000 O2-
   0.1683450000000000    0.1528020000000000    0.8178020000000000 O2-
   0.1683450000000000    0.6528020000000000    0.3178020000000000 O2-
   0.1683450000000000    0.6528020000000000    0.8178020000000000 O2-
   0.6683450000000000    0.1528020000000000    0.3178020000000000 O2-
   0.6683450000000000    0.1528020000000000    0.8178020000000000 O2-
   0.6683450000000000    0.6528020000000000    0.3178020000000000 O2-
   0.6683450000000000    0.6528020000000000    0.8178020000000000 O2-
   0.3375880000000000    0.1040580000000000    0.2104950000000000 O2-
   0.3375880000000000    0.1040580000000000    0.7104950000000000 O2-
   0.3375880000000000    0.6040580000000000    0.2104950000000000 O2-
   0.3375880000000000    0.6040580000000000    0.7104950000000000 O2-
   0.8375880000000000    0.1040580000000000    0.2104950000000000 O2-
   0.8375880000000000    0.1040580000000000    0.7104950000000000 O2-
   0.8375880000000000    0.6040580000000000    0.2104950000000000 O2-
   0.8375880000000000    0.6040580000000000    0.7104950000000000 O2-
   0.1279490000000000    0.0670150000000000    0.4476300000000000 O2-
   0.1279490000000000    0.0670150000000000    0.9476300000000000 O2-
   0.1279490000000000    0.5670150000000000    0.4476300000000000 O2-
   0.1279490000000000    0.5670150000000000    0.9476300000000000 O2-
   0.6279490000000000    0.0670150000000000    0.4476300000000000 O2-
   0.6279490000000000    0.0670150000000000    0.9476300000000000 O2-
   0.6279490000000000    0.5670150000000000    0.4476300000000000 O2-
   0.6279490000000000    0.5670150000000000    0.9476300000000000 O2-
   0.1624120000000000    0.3959390000000000    0.2895040000000000 O2-
   0.1624120000000000    0.3959390000000000    0.7895040000000000 O2-
   0.1624120000000000    0.8959390000000000    0.2895040000000000 O2-
   0.1624120000000000    0.8959390000000000    0.7895040000000000 O2-
   0.6624120000000000    0.3959390000000000    0.2895040000000000 O2-
   0.6624120000000000    0.3959390000000000    0.7895040000000000 O2-
   0.6624120000000000    0.8959390000000000    0.2895040000000000 O2-
   0.6624120000000000    0.8959390000000000    0.7895040000000000 O2-
   0.1248630000000000    0.4062580000000000    0.0637820000000000 O2-
   0.1248630000000000    0.4062580000000000    0.5637820000000000 O2-
   0.1248630000000000    0.9062580000000000    0.0637820000000000 O2-
   0.1248630000000000    0.9062580000000000    0.5637820000000000 O2-
   0.6248629999999999    0.4062580000000000    0.0637820000000000 O2-
   0.6248629999999999    0.4062580000000000    0.5637820000000000 O2-
   0.6248629999999999    0.9062580000000000    0.0637820000000000 O2-
   0.6248629999999999    0.9062580000000000    0.5637820000000000 O2-
   0.3751390000000000    0.0937380000000000    0.4362180000000000 O2-
   0.3751390000000000    0.0937380000000000    0.9362180000000000 O2-
   0.3751390000000000    0.5937380000000000    0.4362180000000000 O2-
   0.3751390000000000    0.5937380000000000    0.9362180000000000 O2-
   0.8751390000000000    0.0937380000000000    0.4362180000000000 O2-
   0.8751390000000000    0.0937380000000000    0.9362180000000000 O2-
   0.8751390000000000    0.5937380000000000    0.4362180000000000 O2-
   0.8751390000000000    0.5937380000000000    0.9362180000000000 O2-
   0.0817700000000000    0.1651330000000000    0.1253670000000000 F-
   0.0817700000000000    0.1651330000000000    0.6253670000000000 F-
   0.0817700000000000    0.6651330000000000    0.1253670000000000 F-
   0.0817700000000000    0.6651330000000000    0.6253670000000000 F-
   0.5817700000000000    0.1651330000000000    0.1253670000000000 F-
   0.5817700000000000    0.1651330000000000    0.6253670000000000 F-
   0.5817700000000000    0.6651330000000000    0.1253670000000000 F-
   0.5817700000000000    0.6651330000000000    0.6253670000000000 F-
   0.4182290000000000    0.3348680000000000    0.3746320000000000 F-
   0.4182290000000000    0.3348680000000000    0.8746320000000000 F-
   0.4182290000000000    0.8348680000000001    0.3746320000000000 F-
   0.4182290000000000    0.8348680000000001    0.8746320000000000 F-
   0.9182290000000000    0.3348680000000000    0.3746320000000000 F-
   0.9182290000000000    0.3348680000000000    0.8746320000000000 F-
   0.9182290000000000    0.8348680000000001    0.3746320000000000 F-
   0.9182290000000000    0.8348680000000001    0.8746320000000000 F-
