Mn16 P16 O64
1.0
  10.1176201934338756   -0.3596446720248294   -0.0858912057733970
  -0.4248089141144050   12.5651363433688346    0.3788363453209256
  -0.1111016616611509    0.2093328428123062   10.1362995883705427
Na Mn P O
1 16 16 64
direct
   0.4717500000000000    0.7215000000000000    0.4955800000000000 Na
   0.4376775249901322    0.1359155702768889    0.8027060962530164 Mn
   0.4376775249901323    0.6359155702768891    0.8027060962530165 Mn
   0.9376775249901322    0.1359155702768889    0.8027060962530164 Mn
   0.9376775249901322    0.6359155702768891    0.8027060962530163 Mn
   0.2364905215560626    0.1137311810840731    0.2884175255211423 Mn
   0.2364905215560626    0.6137311810840732    0.2884175255211423 Mn
   0.7364905215560625    0.1137311810840731    0.2884175255211423 Mn
   0.7364905215560626    0.6137311810840731    0.2884175255211423 Mn
   0.2367837190494222    0.3812987557129889    0.7116287296748366 Mn
   0.2367837190494222    0.8812987557129890    0.7116287296748366 Mn
   0.7367837190494221    0.3812987557129888    0.7116287296748366 Mn
   0.7367837190494222    0.8812987557129889    0.7116287296748366 Mn
   0.0493808827056269    0.3663647679457384    0.1934980418257481 Mn
   0.0493808827056269    0.8663647679457385    0.1934980418257481 Mn
   0.5493808827056270    0.3663647679457384    0.1934980418257481 Mn
   0.5493808827056270    0.8663647679457384    0.1934980418257481 Mn
   0.4683876703263447    0.3776183297705741    0.8838839457027868 P
   0.4683876703263447    0.8776183297705743    0.8838839457027868 P
   0.9683876703263444    0.3776183297705741    0.8838839457027868 P
   0.9683876703263447    0.8776183297705742    0.8838839457027867 P
   0.3006865180358451    0.3957743672922825    0.3943925044095699 P
   0.3006865180358451    0.8957743672922827    0.3943925044095699 P
   0.8006865180358450    0.3957743672922825    0.3943925044095699 P
   0.8006865180358450    0.8957743672922827    0.3943925044095699 P
   0.1869251515298178    0.1079261007860088    0.6046561174870614 P
   0.1869251515298178    0.6079261007860088    0.6046561174870614 P
   0.6869251515298178    0.1079261007860088    0.6046561174870614 P
   0.6869251515298178    0.6079261007860088    0.6046561174870614 P
   0.0081901293756818    0.1254062417427895    0.1178491193487530 P
   0.0081901293756818    0.6254062417427895    0.1178491193487530 P
   0.5081901293756818    0.1254062417427894    0.1178491193487530 P
   0.5081901293756819    0.6254062417427896    0.1178491193487530 P
   0.1158834620892859    0.3716531340969838    0.8596505407428188 O
   0.1158834620892859    0.8716531340969839    0.8596505407428189 O
   0.6158834620892859    0.3716531340969838    0.8596505407428188 O
   0.6158834620892860    0.8716531340969838    0.8596505407428187 O
   0.1537366094851588    0.3824482528334913    0.3531543537509496 O
   0.1537366094851588    0.8824482528334915    0.3531543537509496 O
   0.6537366094851588    0.3824482528334913    0.3531543537509496 O
   0.6537366094851588    0.8824482528334913    0.3531543537509496 O
   0.3355693623347608    0.1218521268953002    0.6393105604968887 O
   0.3355693623347607    0.6218521268953003    0.6393105604968887 O
   0.8355693623347606    0.1218521268953002    0.6393105604968887 O
   0.8355693623347608    0.6218521268953002    0.6393105604968887 O
   0.3621355559825030    0.1342169041763626    0.1474020203178815 O
   0.3621355559825030    0.6342169041763627    0.1474020203178815 O
   0.8621355559825029    0.1342169041763626    0.1474020203178815 O
   0.8621355559825030    0.6342169041763627    0.1474020203178815 O
   0.3174194771282177    0.3590678084823666    0.5429425384162143 O
   0.3174194771282177    0.8590678084823667    0.5429425384162142 O
   0.8174194771282177    0.3590678084823666    0.5429425384162143 O
   0.8174194771282177    0.8590678084823666    0.5429425384162143 O
   0.4437036831455302    0.3617414258249028    0.0331009724235442 O
   0.4437036831455302    0.8617414258249029    0.0331009724235442 O
   0.9437036831455302    0.3617414258249028    0.0331009724235442 O
   0.9437036831455302    0.8617414258249028    0.0331009724235442 O
   0.1642697116303365    0.1418635781927765    0.4560015938905888 O
   0.1642697116303364    0.6418635781927765    0.4560015938905888 O
   0.6642697116303365    0.1418635781927765    0.4560015938905888 O
   0.6642697116303365    0.6418635781927766    0.4560015938905888 O
   0.0294346741633012    0.1353457424248640    0.9684582406526805 O
   0.0294346741633012    0.6353457424248641    0.9684582406526806 O
   0.5294346741633011    0.1353457424248640    0.9684582406526805 O
   0.5294346741633013    0.6353457424248641    0.9684582406526804 O
   0.3796398935187541    0.2871871987384693    0.8098016398962077 O
   0.3796398935187540    0.7871871987384693    0.8098016398962078 O
   0.8796398935187542    0.2871871987384693    0.8098016398962078 O
   0.8796398935187542    0.7871871987384692    0.8098016398962077 O
   0.8845832914489110    0.3250657825764865    0.3144181690054673 O
   0.8845832914489110    0.8250657825764867    0.3144181690054673 O
   0.3845832914489111    0.3250657825764865    0.3144181690054674 O
   0.3845832914489111    0.8250657825764866    0.3144181690054673 O
   0.4025480907594871    0.4776482150243117    0.8229925595690044 O
   0.4025480907594871    0.9776482150243117    0.8229925595690045 O
   0.9025480907594871    0.4776482150243116    0.8229925595690044 O
   0.9025480907594872    0.9776482150243115    0.8229925595690043 O
   0.3507197111367012    0.0156528286684450    0.3761577450744344 O
   0.3507197111367013    0.5156528286684452    0.3761577450744344 O
   0.8507197111367012    0.0156528286684450    0.3761577450744344 O
   0.8507197111367013    0.5156528286684451    0.3761577450744344 O
   0.0714707200872603    0.0245508510524110    0.1818351386328707 O
   0.0714707200872603    0.5245508510524111    0.1818351386328707 O
   0.5714707200872603    0.0245508510524110    0.1818351386328707 O
   0.5714707200872603    0.5245508510524111    0.1818351386328707 O
   0.1348042640524807    0.4900926909627431    0.6302804728749778 O
   0.1348042640524807    0.9900926909627432    0.6302804728749778 O
   0.6348042640524807    0.4900926909627430    0.6302804728749778 O
   0.6348042640524807    0.9900926909627431    0.6302804728749778 O
   0.1065649721032444    0.1817031599417390    0.6840534228916522 O
   0.1065649721032444    0.6817031599417390    0.6840534228916522 O
   0.6065649721032443    0.1817031599417390    0.6840534228916522 O
   0.6065649721032443    0.6817031599417390    0.6840534228916522 O
   0.1012450935163581    0.2143799730454201    0.1878309299187449 O
   0.1012450935163581    0.7143799730454201    0.1878309299187449 O
   0.6012450935163580    0.2143799730454200    0.1878309299187449 O
   0.6012450935163581    0.7143799730454201    0.1878309299187449 O
