Ca4 Mn4 P6 O24                          
   1.00000000000000     
     2.6738550000000001    8.0236780000000003    4.5772670000000000
    -0.0937870000000000    0.4057600000000000    8.6807020000000001
     7.6638390000000003    0.3856580000000000    4.1790680000000000
   Ca   Mn   P    O 
     4     4     6    24
Direct
  0.2877052018039445  0.7808495407994611  0.5415600911528577
  0.8885872391832333  1.0064747446608975  0.0912405709031134
  0.3566785955633192  0.7268838678204896  0.0553074924392262
  0.1364274194421521  0.3921108553488502  0.7819246688200480
  0.6848580442819969  0.6376870254194217  0.6110635788114347
  0.1760673118225563  0.1373904127388032  0.1760899961632669
  0.8318337147157892  0.8783116443590737  0.8221655888759332
  0.3341076721566126  0.3014948033013922  0.3723905221990720
  0.2108684142509586  0.5329577405415356  0.9941440035477908
  0.0335332874909096  0.7759640584486834  0.4270092483806410
  0.9749922962195980  0.2305195601987449  0.5960685556778478
  0.4689885404342468  0.0473159755790218  0.7311048257124085
  0.5704646807098208  0.9103808326794609  0.2434548213991489
  0.7423884039773754  0.4935001129863981 -0.0063107919758010
  0.5790066350243910  0.7435828219084377  0.4243975036861104
  0.3033837656264828  0.0712006032319537  0.9136136618599624
  0.3087628648664628  0.5307867988808591  0.7871340000321203
  0.8804014377551418  0.2972372955128387  0.0302103811681741
  0.8259209615023604  0.4064339204751384  0.5408586778918235
  0.0833345433003664  0.9275897160045200  0.2400911115632821
  0.9040476924227034  0.0821981929624562  0.7764560632139290
  0.5858993630894140  0.5502618144947021  0.1593273608528660
  0.7419405727184374  0.8581547861211832  0.0806287894080241
  0.2012649363248897  0.5981717397024255  0.4239766626322643
  0.1192668101779486  0.7403217466637981  0.9958876009417771
  0.4191916462233103  0.2241304265984896  0.5760274943661744
  0.0939565445485326  0.4188835569851201  0.0754661861252279
  0.8757826616800052  0.7607666951142920  0.4421850647465288
  0.1028784028075168  0.1293852586980584  0.4420545745986020
  0.4954926091946457  0.8611475859145059  0.7122084641657294
  0.4096923254024074  0.9356688801143798  0.2218996269096473
  0.6674141365543027  0.5097964005452401  0.8597775943492673
  0.3312884560307588  0.4409182669910959  0.1076380459613628
  0.0044222736575279  0.8353485586460526  0.5880504914478838
  0.0903641208042880  0.2811387351214316  0.6256993772135904
  0.6247616191401776  0.0301689206466377  0.7511265680371279
  0.5601055241687457  0.0832344100145664  0.2635424826608400
  0.8497849423921560  0.6271558307564979  0.8762070519920809
 
             NaN             NaN             NaN
             NaN             NaN             NaN
             NaN             NaN             NaN
             NaN             NaN             NaN
             NaN             NaN             NaN
             NaN             NaN             NaN
             NaN             NaN             NaN
             NaN             NaN             NaN
             NaN             NaN             NaN
             NaN             NaN             NaN
             NaN             NaN             NaN
             NaN             NaN             NaN
             NaN             NaN             NaN
             NaN             NaN             NaN
             NaN             NaN             NaN
             NaN             NaN             NaN
             NaN             NaN             NaN
             NaN             NaN             NaN
             NaN             NaN             NaN
             NaN             NaN             NaN
             NaN             NaN             NaN
             NaN             NaN             NaN
             NaN             NaN             NaN
             NaN             NaN             NaN
             NaN             NaN             NaN
             NaN             NaN             NaN
             NaN             NaN             NaN
             NaN             NaN             NaN
             NaN             NaN             NaN
             NaN             NaN             NaN
             NaN             NaN             NaN
             NaN             NaN             NaN
             NaN             NaN             NaN
             NaN             NaN             NaN
             NaN             NaN             NaN
             NaN             NaN             NaN
             NaN             NaN             NaN
             NaN             NaN             NaN
