Ca4 Mn4 P6 O24
1.0
2.673855 8.023678 4.577267
-0.093787 0.405760 8.680702
7.663839 0.385658 4.179068
Ca Mn P O
4 4 6 24
direct
0.369244 0.700431 0.577420 Ca
0.917318 0.987711 0.073230 Ca
0.382114 0.728481 0.086282 Ca
0.126504 0.412538 0.767145 Ca
0.660590 0.655252 0.617949 Mn
0.176449 0.137397 0.168130 Mn
0.821104 0.882558 0.829385 Mn
0.325552 0.328392 0.365499 Mn
0.249803 0.534772 0.968021 P
0.036271 0.768102 0.430760 P
0.962301 0.240339 0.583737 P
0.451857 0.057213 0.731014 P
0.538953 0.916995 0.255884 P
0.750046 0.481962 0.006474 P
0.570943 0.741817 0.420620 O
0.284228 0.083399 0.910487 O
0.372478 0.541298 0.769959 O
0.893739 0.287813 0.000977 O
0.798395 0.411866 0.568034 O
0.086075 0.920580 0.245205 O
0.918090 0.079200 0.763779 O
0.606042 0.489484 0.195648 O
0.708297 0.913582 0.088688 O
0.202821 0.585430 0.413929 O
0.124741 0.736083 0.964146 O
0.413188 0.240746 0.576860 O
0.160356 0.400694 0.030571 O
0.875462 0.759657 0.445178 O
0.051379 0.161030 0.418424 O
0.470252 0.886313 0.698434 O
0.401479 0.917378 0.212009 O
0.653871 0.555486 0.870954 O
0.335837 0.468074 0.105749 O
1.014651 0.801435 0.602102 O
0.097412 0.281895 0.591493 O
0.608790 0.021008 0.759446 O
0.472031 0.091159 0.312186 O
0.850110 0.613212 0.931470 O
