Na27 Ni27 O54
1.0
   8.8355512619999992    0.0000000000000000    0.0000000000000000
  -4.4177756309999996    7.6518118491000005    0.0000000000000000
   0.0000000000000000    0.0000000000000000   15.5185451507999996
Na Ni O
26 27 54
direct
   0.3333333333333333    0.3333333333333333    0.5000000000000000 Na
   0.2222222290000000    0.1111111143333333    0.8333333130000001 Na
   0.2222222290000000    0.4444444476666666    0.8333333130000001 Na
   0.2222222290000000    0.7777777809999999    0.8333333130000001 Na
   0.5555555623333333    0.1111111143333333    0.8333333130000001 Na
   0.5555555623333333    0.4444444476666666    0.8333333130000001 Na
   0.5555555623333333    0.7777777809999999    0.8333333130000001 Na
   0.8888888956666667    0.1111111143333333    0.8333333130000001 Na
   0.8888888956666665    0.4444444476666666    0.8333333130000001 Na
   0.8888888956666665    0.7777777809999999    0.8333333130000001 Na
   0.1111111143333333    0.2222222290000000    0.1666666720000000 Na
   0.1111111143333333    0.5555555623333333    0.1666666720000000 Na
   0.1111111143333333    0.8888888956666666    0.1666666720000000 Na
   0.4444444476666666    0.2222222290000000    0.1666666720000000 Na
   0.4444444476666666    0.5555555623333333    0.1666666720000000 Na
   0.4444444476666666    0.8888888956666666    0.1666666720000000 Na
   0.7777777809999999    0.2222222290000000    0.1666666720000000 Na
   0.7777777809999998    0.5555555623333333    0.1666666720000000 Na
   0.7777777809999999    0.8888888956666666    0.1666666720000000 Na
   0.0000000000000000    0.0000000000000000    0.5000000000000000 Na
   0.0000000000000000    0.3333333333333333    0.5000000000000000 Na
   0.0000000000000000    0.6666666666666666    0.5000000000000000 Na
   0.3333333333333333    0.0000000000000000    0.5000000000000000 Na
   0.3333333333333333    0.6666666666666666    0.5000000000000000 Na
   0.6666666666666666    0.0000000000000000    0.5000000000000000 Na
   0.6666666666666666    0.6666666666666666    0.5000000000000000 Na
   0.1111111143333333    0.2222222290000000    0.6666666870000001 Ni
   0.1111111143333333    0.5555555623333333    0.6666666870000001 Ni
   0.1111111143333333    0.8888888956666666    0.6666666870000001 Ni
   0.4444444476666666    0.2222222290000000    0.6666666870000001 Ni
   0.4444444476666666    0.5555555623333333    0.6666666870000001 Ni
   0.4444444476666666    0.8888888956666666    0.6666666870000001 Ni
   0.7777777809999999    0.2222222290000000    0.6666666870000001 Ni
   0.7777777809999998    0.5555555623333333    0.6666666870000001 Ni
   0.7777777809999999    0.8888888956666666    0.6666666870000001 Ni
   0.0000000000000000    0.0000000000000000    0.0000000000000000 Ni
   0.0000000000000000    0.3333333333333333    0.0000000000000000 Ni
   0.0000000000000000    0.6666666666666666    0.0000000000000000 Ni
   0.3333333333333333    0.0000000000000000    0.0000000000000000 Ni
   0.3333333333333333    0.3333333333333333    0.0000000000000000 Ni
   0.3333333333333333    0.6666666666666666    0.0000000000000000 Ni
   0.6666666666666666    0.0000000000000000    0.0000000000000000 Ni
   0.6666666666666665    0.3333333333333333    0.0000000000000000 Ni
   0.6666666666666666    0.6666666666666666    0.0000000000000000 Ni
   0.2222222290000000    0.1111111143333333    0.3333333430000001 Ni
   0.2222222290000000    0.4444444476666666    0.3333333430000001 Ni
   0.2222222290000000    0.7777777809999999    0.3333333430000001 Ni
   0.5555555623333333    0.1111111143333333    0.3333333430000001 Ni
   0.5555555623333333    0.4444444476666666    0.3333333430000001 Ni
   0.5555555623333333    0.7777777809999999    0.3333333430000001 Ni
   0.8888888956666667    0.1111111143333333    0.3333333430000001 Ni
   0.8888888956666665    0.4444444476666666    0.3333333430000001 Ni
   0.8888888956666665    0.7777777809999999    0.3333333430000001 Ni
   0.1111111143333333    0.2222222290000000    0.9356323480000001 O
   0.1111111143333333    0.5555555623333333    0.9356323480000001 O
   0.1111111143333333    0.8888888956666666    0.9356323480000001 O
   0.4444444476666666    0.2222222290000000    0.9356323480000001 O
   0.4444444476666666    0.5555555623333333    0.9356323480000001 O
   0.4444444476666666    0.8888888956666666    0.9356323480000001 O
   0.7777777809999999    0.2222222290000000    0.9356323480000001 O
   0.7777777809999998    0.5555555623333333    0.9356323480000001 O
   0.7777777809999999    0.8888888956666666    0.9356323480000001 O
   0.0000000000000000    0.0000000000000000    0.7310343380000000 O
   0.0000000000000000    0.3333333333333333    0.7310343380000000 O
   0.0000000000000000    0.6666666666666666    0.7310343380000000 O
   0.3333333333333333    0.0000000000000000    0.7310343380000000 O
   0.3333333333333333    0.3333333333333333    0.7310343380000000 O
   0.3333333333333333    0.6666666666666666    0.7310343380000000 O
   0.6666666666666666    0.0000000000000000    0.7310343380000000 O
   0.6666666666666665    0.3333333333333333    0.7310343380000000 O
   0.6666666666666666    0.6666666666666666    0.7310343380000000 O
   0.0000000000000000    0.0000000000000000    0.2689656620000000 O
   0.0000000000000000    0.3333333333333333    0.2689656620000000 O
   0.0000000000000000    0.6666666666666666    0.2689656620000000 O
   0.3333333333333333    0.0000000000000000    0.2689656620000000 O
   0.3333333333333333    0.3333333333333333    0.2689656620000000 O
   0.3333333333333333    0.6666666666666666    0.2689656620000000 O
   0.6666666666666666    0.0000000000000000    0.2689656620000000 O
   0.6666666666666665    0.3333333333333333    0.2689656620000000 O
   0.6666666666666666    0.6666666666666666    0.2689656620000000 O
   0.2222222290000000    0.1111111143333333    0.0643676670000000 O
   0.2222222290000000    0.4444444476666666    0.0643676670000000 O
   0.2222222290000000    0.7777777809999999    0.0643676670000000 O
   0.5555555623333333    0.1111111143333333    0.0643676670000000 O
   0.5555555623333333    0.4444444476666666    0.0643676670000000 O
   0.5555555623333333    0.7777777809999999    0.0643676670000000 O
   0.8888888956666667    0.1111111143333333    0.0643676670000000 O
   0.8888888956666665    0.4444444476666666    0.0643676670000000 O
   0.8888888956666665    0.7777777809999999    0.0643676670000000 O
   0.2222222290000000    0.1111111143333333    0.6022989750000001 O
   0.2222222290000000    0.4444444476666666    0.6022989750000001 O
   0.2222222290000000    0.7777777809999999    0.6022989750000001 O
   0.5555555623333333    0.1111111143333333    0.6022989750000001 O
   0.5555555623333333    0.4444444476666666    0.6022989750000001 O
   0.5555555623333333    0.7777777809999999    0.6022989750000001 O
   0.8888888956666667    0.1111111143333333    0.6022989750000001 O
   0.8888888956666665    0.4444444476666666    0.6022989750000001 O
   0.8888888956666665    0.7777777809999999    0.6022989750000001 O
   0.1111111143333333    0.2222222290000000    0.3977009950000000 O
   0.1111111143333333    0.5555555623333333    0.3977009950000000 O
   0.1111111143333333    0.8888888956666666    0.3977009950000000 O
   0.4444444476666666    0.2222222290000000    0.3977009950000000 O
   0.4444444476666666    0.5555555623333333    0.3977009950000000 O
   0.4444444476666666    0.8888888956666666    0.3977009950000000 O
   0.7777777809999999    0.2222222290000000    0.3977009950000000 O
   0.7777777809999998    0.5555555623333333    0.3977009950000000 O
   0.7777777809999999    0.8888888956666666    0.3977009950000000 O
