Na8 V16 P16 O80
1.0
  12.3788102000000002    0.0000000000000000    0.0000000000000008
   0.0000000000000020   12.3788102000000002    0.0000000000000008
   0.0000000000000000    0.0000000000000000    8.4399148000000004
Na V P O
1 16 16 80
direct
   0.6251267403880514    0.3749824880690774    0.5090327215767749 Na
   0.0035398398212313    0.2470459407743385    0.1752708529287904 V
   0.0035398398212313    0.2470459407743385    0.6752708529287903 V
   0.0035398398212313    0.7470459407743385    0.1752708529287904 V
   0.0035398398212313    0.7470459407743385    0.6752708529287903 V
   0.4887415772655108    0.2392594640873361    0.2399560124290178 V
   0.4887415772655108    0.2392594640873361    0.7399560124290178 V
   0.4887415772655109    0.7392594640873360    0.2399560124290178 V
   0.4887415772655109    0.7392594640873360    0.7399560124290178 V
   0.2463542160880376    0.0029814480434181    0.3413881792947875 V
   0.2463542160880376    0.0029814480434181    0.8413881792947875 V
   0.2463542160880376    0.5029814480434180    0.3413881792947875 V
   0.2463542160880376    0.5029814480434180    0.8413881792947875 V
   0.7612921230943691    0.0107592074466659    0.2779633026200664 V
   0.7612921230943691    0.0107592074466659    0.7779633026200663 V
   0.7612921230943691    0.5107592074466658    0.2779633026200664 V
   0.7612921230943691    0.5107592074466658    0.7779633026200663 V
   0.0111473194704551    0.4972219927613841    0.1822480206163030 P
   0.0111473194704551    0.4972219927613841    0.6822480206163030 P
   0.0111473194704551    0.9972219927613840    0.1822480206163030 P
   0.0111473194704551    0.9972219927613840    0.6822480206163029 P
   0.4943061713079931    0.4988213756472604    0.2735998061492492 P
   0.4943061713079931    0.4988213756472604    0.7735998061492492 P
   0.4943061713079930    0.9988213756472604    0.2735998061492492 P
   0.4943061713079930    0.9988213756472604    0.7735998061492491 P
   0.2387125689504107    0.2527941604450200    0.3341442346069161 P
   0.2387125689504107    0.2527941604450200    0.8341442346069161 P
   0.2387125689504107    0.7527941604450200    0.3341442346069161 P
   0.2387125689504107    0.7527941604450200    0.8341442346069161 P
   0.7557628184022920    0.2511991313282613    0.2443186512557169 P
   0.7557628184022920    0.2511991313282613    0.7443186512557168 P
   0.7557628184022920    0.7511991313282613    0.2443186512557169 P
   0.7557628184022920    0.7511991313282613    0.7443186512557167 P
   0.2397533924102621    0.3554526854996671    0.4376294562866561 O
   0.2397533924102621    0.3554526854996671    0.9376294562866561 O
   0.2397533924102621    0.8554526854996671    0.4376294562866561 O
   0.2397533924102621    0.8554526854996671    0.9376294562866561 O
   0.7599223761383707    0.3576853862294624    0.3468354112384134 O
   0.7599223761383707    0.3576853862294624    0.8468354112384134 O
   0.7599223761383708    0.8576853862294623    0.3468354112384134 O
   0.7599223761383708    0.8576853862294623    0.8468354112384133 O
   0.4061596873470361    0.4952846405758674    0.4012178276562052 O
   0.4061596873470361    0.4952846405758674    0.9012178276562052 O
   0.4061596873470361    0.9952846405758673    0.4012178276562052 O
   0.4061596873470361    0.9952846405758673    0.9012178276562051 O
   0.9055629194396870    0.0000115855131862    0.2806632536941320 O
   0.9055629194396870    0.0000115855131862    0.7806632536941320 O
   0.9055629194396870    0.5000115855131863    0.2806632536941320 O
   0.9055629194396870    0.5000115855131863    0.7806632536941319 O
   0.2900453352041314    0.0303273698381068    0.1677243582861951 O
   0.2900453352041314    0.0303273698381068    0.6677243582861951 O
   0.2900453352041313    0.5303273698381068    0.1677243582861951 O
   0.2900453352041313    0.5303273698381068    0.6677243582861950 O
   0.7140107622087355    0.0240674036162438    0.1027852944507179 O
   0.7140107622087355    0.0240674036162438    0.6027852944507179 O
   0.7140107622087356    0.5240674036162437    0.1027852944507179 O
   0.7140107622087356    0.5240674036162437    0.6027852944507178 O
   0.9603228317896356    0.2191610559810869    0.3489794143125791 O
   0.9603228317896356    0.2191610559810869    0.8489794143125791 O
   0.9603228317896357    0.7191610559810868    0.3489794143125791 O
   0.9603228317896357    0.7191610559810868    0.8489794143125791 O
   0.5358194293459604    0.2261323610453876    0.4152945500247400 O
   0.5358194293459604    0.2261323610453876    0.9152945500247400 O
   0.5358194293459604    0.7261323610453875    0.4152945500247400 O
   0.5358194293459604    0.7261323610453875    0.9152945500247399 O
   0.0979172048886305    0.4899813340843060    0.3119160698812643 O
   0.0979172048886305    0.4899813340843060    0.8119160698812643 O
   0.0979172048886305    0.9899813340843060    0.3119160698812643 O
   0.0979172048886305    0.9899813340843060    0.8119160698812643 O
   0.6051695665336824    0.0065999072397118    0.3539846285375481 O
   0.6051695665336824    0.0065999072397118    0.8539846285375481 O
   0.6051695665336823    0.5065999072397118    0.3539846285375481 O
   0.6051695665336823    0.5065999072397118    0.8539846285375480 O
   0.2305282882225511    0.1468147730172109    0.4323820720674177 O
   0.2305282882225511    0.1468147730172109    0.9323820720674177 O
   0.2305282882225511    0.6468147730172109    0.4323820720674177 O
   0.2305282882225511    0.6468147730172109    0.9323820720674176 O
   0.7634326338702692    0.1500427126535304    0.3611099922376929 O
   0.7634326338702692    0.1500427126535304    0.8611099922376929 O
   0.7634326338702692    0.6500427126535304    0.3611099922376929 O
   0.7634326338702692    0.6500427126535304    0.8611099922376928 O
   0.0192119716770206    0.1031730902462661    0.0840374321430597 O
   0.0192119716770206    0.1031730902462661    0.5840374321430597 O
   0.0192119716770206    0.6031730902462662    0.0840374321430597 O
   0.0192119716770206    0.6031730902462662    0.5840374321430596 O
   0.4868163092100741    0.0999753412419575    0.1567892013973585 O
   0.4868163092100741    0.0999753412419575    0.6567892013973585 O
   0.4868163092100741    0.5999753412419574    0.1567892013973585 O
   0.4868163092100741    0.5999753412419574    0.6567892013973584 O
   0.1521355341302976    0.2600867592996832    0.2042226078124005 O
   0.1521355341302976    0.2600867592996832    0.7042226078124004 O
   0.1521355341302976    0.7600867592996831    0.2042226078124005 O
   0.1521355341302976    0.7600867592996831    0.7042226078124004 O
   0.6448262196114982    0.2433694918346082    0.1641706569533742 O
   0.6448262196114982    0.2433694918346082    0.6641706569533741 O
   0.6448262196114981    0.7433694918346082    0.1641706569533742 O
   0.6448262196114981    0.7433694918346082    0.6641706569533741 O
   0.3444576547598316    0.2499229296617061    0.2360997998284675 O
   0.3444576547598316    0.2499229296617061    0.7360997998284675 O
   0.3444576547598316    0.7499229296617060    0.2360997998284675 O
   0.3444576547598316    0.7499229296617060    0.7360997998284675 O
   0.8436894440575617    0.2549060333751326    0.1163652121279326 O
   0.8436894440575617    0.2549060333751326    0.6163652121279326 O
   0.8436894440575617    0.7549060333751325    0.1163652121279326 O
   0.8436894440575617    0.7549060333751325    0.6163652121279326 O
   0.0099768003405695    0.3946127018112535    0.0787743821673888 O
   0.0099768003405695    0.3946127018112535    0.5787743821673889 O
   0.0099768003405695    0.8946127018112535    0.0787743821673889 O
   0.0099768003405695    0.8946127018112535    0.5787743821673889 O
   0.4902582640258375    0.3923272286328670    0.1710965974188330 O
   0.4902582640258375    0.3923272286328670    0.6710965974188330 O
   0.4902582640258375    0.8923272286328670    0.1710965974188330 O
   0.4902582640258375    0.8923272286328670    0.6710965974188329 O
