Ca1 V16 F48                             
   1.00000000000000     
    15.6514620000000004    0.0001090000000000   -0.0001730000000000
     0.0000870000000000    7.8234399999999997    0.0000620000000000
    -0.0001050000000000   -0.0000870000000000    7.8218899999999998
   Ca   V    F 
     1    16    48
Direct
  0.7355348089381055  0.4999970162489087  0.4999900821513517
  0.1235071137879958  0.2498490807064418  0.2498472272223494
  0.6195255806302972  0.2459709739393228  0.2459841796906477
  0.1235172357604839  0.2498499481544663  0.7501511241969824
  0.6195213466452992  0.2459768630832208  0.7540134977816680
  0.1235177144807154  0.7501510377482485  0.2498490760680129
  0.6195161007039868  0.7540238913148747  0.2459889616962324
  0.1235131574035732  0.7501523805889859  0.7501512896810966
  0.6195211651476016  0.7540277206260915  0.7540161281916125
  0.3714070009366910  0.2498850498444782  0.2498861760856779
  0.8753927441065507  0.2475941894875518  0.2475987199748361
  0.3714062031131091  0.2498847275420379  0.7501159044869281
  0.8753944143884311  0.2475989065844188  0.7523959562806104
  0.3714086641787582  0.7501131933348226  0.2498859096604876
  0.8753945748782447  0.7524033034743455  0.2476055750516115
  0.3714069710406687  0.7501132243658427  0.7501151664001094
  0.8753937022411910  0.7524089017624517  0.7523989724546122
 -0.0010747042590321  0.2432665758624284  0.2432195046471216
  0.4961930534945689  0.2446099534629290  0.2445728983583958
 -0.0010716427889981  0.2432633782833469  0.7567780772753607
  0.4961684210192181  0.2446009698935334  0.7554409830983089
 -0.0010792643187626  0.7567361207266033  0.2432185003954781
  0.4961767219907782  0.7553952463691868  0.2445608407898604
 -0.0010706679895227  0.7567400733705830  0.7567796058992483
  0.4961920905794224  0.7553868573285629  0.7554339575356911
  0.2475730629982901  0.2527606666193096  0.2527845257534982
  0.7473693969099015  0.2769031562371256  0.2769802342490658
  0.2475971038360919  0.2527574377492953  0.7472187944113546
  0.7473697510450661  0.2768897524062952  0.7230422541187081
  0.2475953327008943  0.7472424418839437  0.2527837988174591
  0.7473658420972177  0.7231197517393969  0.2769564167553946
  0.2475712606639468  0.7472392497691930  0.7472124933184616
  0.7473694715386813  0.7230890083418482  0.7230202987725115
  0.1250722900516557  0.2503094111925080  0.9999709111911983
  0.6290496784010947  0.2520211659791945  0.0000652783329015
  0.1210667505710380  0.2501900069958881  0.5000283131321545
  0.6232541109689564  0.2636054779049438  0.4999365418245771
  0.1250718271878022  0.7496917831812246  0.0000020566311518
  0.6290500588366184  0.7479817735028291 -0.0000476433536930
  0.1210642842613840  0.7498114647400427  0.4999947906042466
  0.6232548873411181  0.7363844698930108  0.5000467713347918
  0.3707418886791531  0.2500121976036511 -0.0000544848618977
  0.8659846239303737  0.2514364285081468  0.0000476950382404
  0.3739428782362346  0.2501415810217794  0.5000587655815494
  0.8730639812143866  0.2599083144031812  0.4999551392066049
  0.3707434965806807  0.7499861319895782  1.0000217560020439
  0.8659804911717833  0.7485639981660404  0.9999712317963445
  0.3739483691023577  0.7498564174941174  0.4999753842416854
  0.8730599911263482  0.7400952639774963  0.5000248759413579
  0.1250561170398054  0.9999992418223493  0.2502962319370713
  0.6290110727423686  1.0000489922752176  0.2522348989145145
  0.1250597245042123  0.0000303605465978  0.7497024826528406
  0.6290108285589426 -0.0000630816920917  0.7477643923206638
  0.1210782746110647  0.5000035680167072  0.2502014416994176
  0.6233029884208964  0.4999529981501296  0.2634282516931705
  0.1210808236231376  0.4999702428538464  0.7497970034496297
  0.6232998423741245  0.5000629515019834  0.7365760517554443
  0.3707594418031340 -0.0000252466845139  0.2501784439236611
  0.8660122913098333  0.0000363748574106  0.2515398180836521
  0.3707593953482219  1.0000515635098106  0.7498222948812363
  0.8660134673181022  0.9999601569936646  0.7484586749678753
  0.3739308267147253  0.5000268843890942  0.2499835720195765
  0.8730092341961794  0.4999671838379934  0.2598215291671687
  0.3739297910420638  0.4999435542097391  0.7500178140579906
  0.8730151750132761  0.5000370969165259  0.7401804830668632
 
             NaN             NaN             NaN
             NaN             NaN             NaN
             NaN             NaN             NaN
             NaN             NaN             NaN
             NaN             NaN             NaN
             NaN             NaN             NaN
             NaN             NaN             NaN
             NaN             NaN             NaN
             NaN             NaN             NaN
             NaN             NaN             NaN
             NaN             NaN             NaN
             NaN             NaN             NaN
             NaN             NaN             NaN
             NaN             NaN             NaN
             NaN             NaN             NaN
             NaN             NaN             NaN
             NaN             NaN             NaN
             NaN             NaN             NaN
             NaN             NaN             NaN
             NaN             NaN             NaN
             NaN             NaN             NaN
             NaN             NaN             NaN
             NaN             NaN             NaN
             NaN             NaN             NaN
             NaN             NaN             NaN
             NaN             NaN             NaN
             NaN             NaN             NaN
             NaN             NaN             NaN
             NaN             NaN             NaN
             NaN             NaN             NaN
             NaN             NaN             NaN
             NaN             NaN             NaN
             NaN             NaN             NaN
             NaN             NaN             NaN
             NaN             NaN             NaN
             NaN             NaN             NaN
             NaN             NaN             NaN
             NaN             NaN             NaN
             NaN             NaN             NaN
             NaN             NaN             NaN
             NaN             NaN             NaN
             NaN             NaN             NaN
             NaN             NaN             NaN
             NaN             NaN             NaN
             NaN             NaN             NaN
             NaN             NaN             NaN
             NaN             NaN             NaN
             NaN             NaN             NaN
             NaN             NaN             NaN
             NaN             NaN             NaN
             NaN             NaN             NaN
             NaN             NaN             NaN
             NaN             NaN             NaN
             NaN             NaN             NaN
             NaN             NaN             NaN
             NaN             NaN             NaN
             NaN             NaN             NaN
             NaN             NaN             NaN
             NaN             NaN             NaN
             NaN             NaN             NaN
             NaN             NaN             NaN
             NaN             NaN             NaN
             NaN             NaN             NaN
             NaN             NaN             NaN
             NaN             NaN             NaN
