Ca1 V16 F48
1.0
15.651462 0.000109 -0.000173
0.000087 7.823440 0.000062
-0.000105 -0.000087 7.821890
Ca V F
1 16 48
direct
0.718748 0.500002 0.500005 Ca
0.125762 0.250061 0.250034 V
0.622883 0.246709 0.246765 V
0.125763 0.250060 0.749966 V
0.622885 0.246707 0.753235 V
0.125762 0.749938 0.250034 V
0.622886 0.753294 0.246761 V
0.125762 0.749939 0.749966 V
0.622883 0.753295 0.753240 V
0.373759 0.249641 0.249625 V
0.877595 0.247125 0.247172 V
0.373757 0.249642 0.750375 V
0.877594 0.247128 0.752825 V
0.373756 0.750359 0.249625 V
0.877595 0.752870 0.247173 V
0.373759 0.750358 0.750374 V
0.877596 0.752871 0.752831 V
0.001077 0.250793 0.250840 F
0.498918 0.252677 0.252708 F
0.001085 0.250793 0.749161 F
0.498921 0.252676 0.747296 F
0.001085 0.749207 0.250833 F
0.498923 0.747324 0.252704 F
0.001077 0.749207 0.749163 F
0.498917 0.747322 0.747295 F
0.249850 0.249925 0.249931 F
0.750153 0.263111 0.263000 F
0.249844 0.249926 0.750068 F
0.750152 0.263110 0.736995 F
0.249841 0.750076 0.249936 F
0.750153 0.736889 0.263008 F
0.249851 0.750075 0.750065 F
0.750155 0.736888 0.736994 F
0.125364 0.250018 0.999997 F
0.625525 0.252650 0.000000 F
0.125336 0.250015 0.500003 F
0.630168 0.264943 0.500000 F
0.125365 0.749981 0.000007 F
0.625528 0.747350 0.000002 F
0.125332 0.749985 0.499993 F
0.630172 0.735053 0.499994 F
0.374666 0.250356 0.000007 F
0.874445 0.252321 0.000009 F
0.375469 0.251877 0.499993 F
0.869025 0.263078 0.499993 F
0.374663 0.749645 0.999994 F
0.874445 0.747680 0.999996 F
0.375470 0.748125 0.500006 F
0.869027 0.736922 0.500008 F
0.125368 0.999994 0.250010 F
0.625541 0.999997 0.252867 F
0.125369 0.000005 0.749992 F
0.625539 0.000001 0.747134 F
0.125331 0.500006 0.250017 F
0.630095 0.500006 0.264666 F
0.125330 0.499995 0.749982 F
0.630092 0.499998 0.735343 F
0.374662 0.000007 0.250366 F
0.874432 0.000004 0.252495 F
0.374663 0.999994 0.749633 F
0.874429 0.999990 0.747498 F
0.375460 0.499994 0.251852 F
0.869118 0.499998 0.262828 F
0.375462 0.500007 0.748149 F
0.869113 0.500007 0.737165 F
