Ca32 Nb64 O128
1.0
10.186664 0.000000 0.000000
0.000000 11.768608 0.000000
0.000000 0.000000 23.910290
Ca Nb O
31 64 128
direct
0.654633 0.375000 0.248125 Ca
0.345367 0.125000 0.251875 Ca
0.345367 0.125000 0.751875 Ca
0.345367 0.625000 0.251875 Ca
0.345367 0.625000 0.751875 Ca
0.845367 0.125000 0.251875 Ca
0.845367 0.125000 0.751875 Ca
0.845367 0.625000 0.751875 Ca
0.345367 0.375000 0.498125 Ca
0.345367 0.375000 0.998125 Ca
0.345367 0.875000 0.498125 Ca
0.345367 0.875000 0.998125 Ca
0.845367 0.375000 0.498125 Ca
0.845367 0.375000 0.998125 Ca
0.845367 0.875000 0.498125 Ca
0.845367 0.875000 0.998125 Ca
0.154633 0.375000 0.248125 Ca
0.154633 0.375000 0.748125 Ca
0.154633 0.875000 0.248125 Ca
0.154633 0.875000 0.748125 Ca
0.654633 0.375000 0.748125 Ca
0.654633 0.875000 0.248125 Ca
0.654633 0.875000 0.748125 Ca
0.154633 0.125000 0.001875 Ca
0.154633 0.125000 0.501875 Ca
0.154633 0.625000 0.001875 Ca
0.154633 0.625000 0.501875 Ca
0.654633 0.125000 0.001875 Ca
0.654633 0.125000 0.501875 Ca
0.654633 0.625000 0.001875 Ca
0.654633 0.625000 0.501875 Ca
0.422089 0.000000 0.375000 Nb
0.422089 0.000000 0.875000 Nb
0.422089 0.500000 0.375000 Nb
0.422089 0.500000 0.875000 Nb
0.922089 0.000000 0.375000 Nb
0.922089 0.000000 0.875000 Nb
0.922089 0.500000 0.375000 Nb
0.922089 0.500000 0.875000 Nb
0.077911 0.250000 0.125000 Nb
0.077911 0.250000 0.625000 Nb
0.077911 0.750000 0.125000 Nb
0.077911 0.750000 0.625000 Nb
0.577911 0.250000 0.125000 Nb
0.577911 0.250000 0.625000 Nb
0.577911 0.750000 0.125000 Nb
0.577911 0.750000 0.625000 Nb
0.077911 0.000000 0.125000 Nb
0.077911 0.000000 0.625000 Nb
0.077911 0.500000 0.125000 Nb
0.077911 0.500000 0.625000 Nb
0.577911 0.000000 0.125000 Nb
0.577911 0.000000 0.625000 Nb
0.577911 0.500000 0.125000 Nb
0.577911 0.500000 0.625000 Nb
0.422089 0.250000 0.375000 Nb
0.422089 0.250000 0.875000 Nb
0.422089 0.750000 0.375000 Nb
0.422089 0.750000 0.875000 Nb
0.922089 0.250000 0.375000 Nb
0.922089 0.250000 0.875000 Nb
0.922089 0.750000 0.375000 Nb
0.922089 0.750000 0.875000 Nb
0.329672 0.375000 0.126868 Nb
0.329672 0.375000 0.626868 Nb
0.329672 0.875000 0.126868 Nb
0.329672 0.875000 0.626868 Nb
0.829672 0.375000 0.126868 Nb
0.829672 0.375000 0.626868 Nb
0.829672 0.875000 0.126868 Nb
0.829672 0.875000 0.626868 Nb
0.329672 0.125000 0.123132 Nb
0.329672 0.125000 0.623132 Nb
0.329672 0.625000 0.123132 Nb
0.329672 0.625000 0.623132 Nb
0.829672 0.125000 0.123132 Nb
0.829672 0.125000 0.623132 Nb
0.829672 0.625000 0.123132 Nb
0.829672 0.625000 0.623132 Nb
0.170328 0.125000 0.373132 Nb
0.170328 0.125000 0.873132 Nb
0.170328 0.625000 0.373132 Nb
0.170328 0.625000 0.873132 Nb
0.670328 0.125000 0.373132 Nb
0.670328 0.125000 0.873132 Nb
0.670328 0.625000 0.373132 Nb
0.670328 0.625000 0.873132 Nb
0.170328 0.375000 0.376868 Nb
0.170328 0.375000 0.876868 Nb
0.170328 0.875000 0.376868 Nb
0.170328 0.875000 0.876868 Nb
0.670328 0.375000 0.376868 Nb
0.670328 0.375000 0.876868 Nb
0.670328 0.875000 0.376868 Nb
0.670328 0.875000 0.876868 Nb
0.492889 0.375000 0.071396 O
0.492889 0.375000 0.571396 O
0.492889 0.875000 0.071396 O
0.492889 0.875000 0.571396 O
0.992889 0.375000 0.071396 O
0.992889 0.375000 0.571396 O
0.992889 0.875000 0.071396 O
0.992889 0.875000 0.571396 O
0.492889 0.125000 0.178604 O
0.492889 0.125000 0.678604 O
0.492889 0.625000 0.178604 O
0.492889 0.625000 0.678604 O
0.992889 0.125000 0.178604 O
0.992889 0.125000 0.678604 O
0.992889 0.625000 0.178604 O
0.992889 0.625000 0.678604 O
0.007111 0.125000 0.428604 O
0.007111 0.125000 0.928604 O
0.007111 0.625000 0.428604 O
0.007111 0.625000 0.928604 O
0.507111 0.125000 0.428604 O
0.507111 0.125000 0.928604 O
0.507111 0.625000 0.428604 O
0.507111 0.625000 0.928604 O
0.007111 0.375000 0.321396 O
0.007111 0.375000 0.821396 O
0.007111 0.875000 0.321396 O
0.007111 0.875000 0.821396 O
0.507111 0.375000 0.321396 O
0.507111 0.375000 0.821396 O
0.507111 0.875000 0.321396 O
0.507111 0.875000 0.821396 O
0.496873 0.375000 0.180325 O
0.496873 0.375000 0.680325 O
0.496873 0.875000 0.180325 O
0.496873 0.875000 0.680325 O
0.996873 0.375000 0.180325 O
0.996873 0.375000 0.680325 O
0.996873 0.875000 0.180325 O
0.996873 0.875000 0.680325 O
0.496873 0.125000 0.069675 O
0.496873 0.125000 0.569675 O
0.496873 0.625000 0.069675 O
0.496873 0.625000 0.569675 O
0.996873 0.125000 0.069675 O
0.996873 0.125000 0.569675 O
0.996873 0.625000 0.069675 O
0.996873 0.625000 0.569675 O
0.003127 0.125000 0.319675 O
0.003127 0.125000 0.819675 O
0.003127 0.625000 0.319675 O
0.003127 0.625000 0.819675 O
0.503127 0.125000 0.319675 O
0.503127 0.125000 0.819675 O
0.503127 0.625000 0.319675 O
0.503127 0.625000 0.819675 O
0.003127 0.375000 0.430325 O
0.003127 0.375000 0.930325 O
0.003127 0.875000 0.430325 O
0.003127 0.875000 0.930325 O
0.503127 0.375000 0.430325 O
0.503127 0.375000 0.930325 O
0.503127 0.875000 0.430325 O
0.503127 0.875000 0.930325 O
0.253857 0.497761 0.318529 O
0.253857 0.497761 0.818529 O
0.253857 0.997761 0.318529 O
0.253857 0.997761 0.818529 O
0.753857 0.497761 0.318529 O
0.753857 0.497761 0.818529 O
0.753857 0.997761 0.318529 O
0.753857 0.997761 0.818529 O
0.253857 0.002239 0.431471 O
0.253857 0.002239 0.931471 O
0.253857 0.502239 0.431471 O
0.253857 0.502239 0.931471 O
0.753857 0.002239 0.431471 O
0.753857 0.002239 0.931471 O
0.753857 0.502239 0.431471 O
0.753857 0.502239 0.931471 O
0.246143 0.247761 0.181471 O
0.246143 0.247761 0.681471 O
0.246143 0.747761 0.181471 O
0.246143 0.747761 0.681471 O
0.746143 0.247761 0.181471 O
0.746143 0.247761 0.681471 O
0.746143 0.747761 0.181471 O
0.746143 0.747761 0.681471 O
0.246143 0.252239 0.068529 O
0.246143 0.252239 0.568529 O
0.246143 0.752239 0.068529 O
0.246143 0.752239 0.568529 O
0.746143 0.252239 0.068529 O
0.746143 0.252239 0.568529 O
0.746143 0.752239 0.068529 O
0.746143 0.752239 0.568529 O
0.253857 0.247761 0.431471 O
0.253857 0.247761 0.931471 O
0.253857 0.747761 0.431471 O
0.253857 0.747761 0.931471 O
0.753857 0.247761 0.431471 O
0.753857 0.247761 0.931471 O
0.753857 0.747761 0.431471 O
0.753857 0.747761 0.931471 O
0.253857 0.252239 0.318529 O
0.253857 0.252239 0.818529 O
0.253857 0.752239 0.318529 O
0.253857 0.752239 0.818529 O
0.753857 0.252239 0.318529 O
0.753857 0.252239 0.818529 O
0.753857 0.752239 0.318529 O
0.753857 0.752239 0.818529 O
0.246143 0.497761 0.068529 O
0.246143 0.497761 0.568529 O
0.246143 0.997761 0.068529 O
0.246143 0.997761 0.568529 O
0.746143 0.497761 0.068529 O
0.746143 0.497761 0.568529 O
0.746143 0.997761 0.068529 O
0.746143 0.997761 0.568529 O
0.246143 0.002239 0.181471 O
0.246143 0.002239 0.681471 O
0.246143 0.502239 0.181471 O
0.246143 0.502239 0.681471 O
0.746143 0.002239 0.181471 O
0.746143 0.002239 0.681471 O
0.746143 0.502239 0.181471 O
0.746143 0.502239 0.681471 O
