Y16 Zn8 Se32
1.0
       11.5574922562         0.0000000000         0.0000000000
        0.0000000000        11.5574922562         0.0000000000
        0.0000000000         0.0000000000        11.5574922562
Zn    Y   Zn   Se
1    16    6   32
Direct
   0.7500000000000000    0.2500000000000000    0.2500000000000000 Zn
     0.625000000         0.875000000         0.375000000
     0.375000000         0.125000000         0.375000000
     0.875000000         0.875000000         0.125000000
     0.125000000         0.125000000         0.125000000
     0.625000000         0.375000000         0.875000000
     0.375000000         0.625000000         0.875000000
     0.875000000         0.375000000         0.625000000
     0.125000000         0.625000000         0.625000000
     0.125000000         0.875000000         0.875000000
     0.875000000         0.125000000         0.875000000
     0.375000000         0.875000000         0.625000000
     0.625000000         0.125000000         0.625000000
     0.125000000         0.375000000         0.375000000
     0.875000000         0.625000000         0.375000000
     0.375000000         0.375000000         0.125000000
     0.625000000         0.625000000         0.125000000
     0.250000000         0.750000000         0.250000000
     0.000000000         0.000000000         0.500000000
     0.250000000         0.250000000         0.750000000
     0.000000000         0.500000000         0.000000000
     0.750000000         0.750000000         0.750000000
     0.500000000         0.000000000         0.000000000
     0.876758695         0.123241328         0.123241328
     0.123241328         0.876758695         0.123241328
     0.623241305         0.123241328         0.376758665
     0.376758665         0.876758695         0.376758665
     0.373241335         0.126758665         0.126758665
     0.126758665         0.373241335         0.126758665
     0.126758665         0.126758665         0.373241335
     0.373241335         0.373241335         0.373241335
     0.876758695         0.623241305         0.623241305
     0.123241328         0.376758665         0.623241305
     0.623241305         0.623241305         0.876758695
     0.376758665         0.376758665         0.876758695
     0.373241335         0.626758695         0.626758695
     0.126758665         0.873241305         0.626758695
     0.126758665         0.626758695         0.873241305
     0.373241335         0.873241305         0.873241305
     0.376758665         0.123241328         0.623241305
     0.623241305         0.876758695         0.623241305
     0.123241328         0.123241328         0.876758695
     0.876758695         0.876758695         0.876758695
     0.873241305         0.126758665         0.626758695
     0.626758695         0.373241335         0.626758695
     0.626758695         0.126758665         0.873241305
     0.873241305         0.373241335         0.873241305
     0.376758665         0.623241305         0.123241328
     0.623241305         0.376758665         0.123241328
     0.123241328         0.623241305         0.376758665
     0.876758695         0.376758665         0.376758665
     0.873241305         0.626758695         0.126758665
     0.626758695         0.873241305         0.126758665
     0.626758695         0.626758695         0.373241335
     0.873241305         0.873241305         0.373241335
