Mg32 Mn64 O128
1.0
6.011214 0.000000 0.000000
0.000000 18.077681 0.000000
0.000000 0.000000 20.962820
Mg Mn O
31 64 128
direct
0.125000 0.623385 0.577209 Mg
0.125000 0.373385 0.172791 Mg
0.125000 0.373385 0.672791 Mg
0.125000 0.873385 0.172791 Mg
0.125000 0.873385 0.672791 Mg
0.625000 0.373385 0.172791 Mg
0.625000 0.373385 0.672791 Mg
0.625000 0.873385 0.172791 Mg
0.625000 0.873385 0.672791 Mg
0.375000 0.126615 0.327209 Mg
0.375000 0.126615 0.827209 Mg
0.375000 0.626615 0.327209 Mg
0.375000 0.626615 0.827209 Mg
0.875000 0.126615 0.327209 Mg
0.875000 0.126615 0.827209 Mg
0.875000 0.626615 0.327209 Mg
0.875000 0.626615 0.827209 Mg
0.125000 0.123385 0.077209 Mg
0.125000 0.123385 0.577209 Mg
0.125000 0.623385 0.077209 Mg
0.625000 0.123385 0.077209 Mg
0.625000 0.123385 0.577209 Mg
0.625000 0.623385 0.077209 Mg
0.375000 0.376615 0.422791 Mg
0.375000 0.376615 0.922791 Mg
0.375000 0.876615 0.422791 Mg
0.375000 0.876615 0.922791 Mg
0.875000 0.376615 0.422791 Mg
0.875000 0.376615 0.922791 Mg
0.875000 0.876615 0.422791 Mg
0.875000 0.876615 0.922791 Mg
0.375000 0.458956 0.052814 Mn
0.375000 0.458956 0.552814 Mn
0.375000 0.958956 0.052814 Mn
0.375000 0.958956 0.552814 Mn
0.875000 0.458956 0.052814 Mn
0.875000 0.458956 0.552814 Mn
0.875000 0.958956 0.052814 Mn
0.875000 0.958956 0.552814 Mn
0.125000 0.291044 0.302815 Mn
0.125000 0.291044 0.802815 Mn
0.125000 0.791044 0.302815 Mn
0.125000 0.791044 0.802815 Mn
0.625000 0.291044 0.302815 Mn
0.625000 0.291044 0.802815 Mn
0.625000 0.791044 0.302815 Mn
0.625000 0.791044 0.802815 Mn
0.375000 0.208956 0.197186 Mn
0.375000 0.208956 0.697186 Mn
0.375000 0.708956 0.197186 Mn
0.375000 0.708956 0.697186 Mn
0.875000 0.208956 0.197186 Mn
0.875000 0.208956 0.697186 Mn
0.875000 0.708956 0.197186 Mn
0.875000 0.708956 0.697186 Mn
0.125000 0.041044 0.447185 Mn
0.125000 0.041044 0.947185 Mn
0.125000 0.541044 0.447185 Mn
0.125000 0.541044 0.947185 Mn
0.625000 0.041044 0.447185 Mn
0.625000 0.041044 0.947185 Mn
0.625000 0.541044 0.447185 Mn
0.625000 0.541044 0.947185 Mn
0.125000 0.032864 0.192667 Mn
0.125000 0.032864 0.692667 Mn
0.125000 0.532864 0.192667 Mn
0.125000 0.532864 0.692667 Mn
0.625000 0.032864 0.192667 Mn
0.625000 0.032864 0.692667 Mn
0.625000 0.532864 0.192667 Mn
0.625000 0.532864 0.692667 Mn
0.375000 0.467136 0.307332 Mn
0.375000 0.467136 0.807332 Mn
0.375000 0.967136 0.307332 Mn
0.375000 0.967136 0.807332 Mn
0.875000 0.467136 0.307332 Mn
0.875000 0.467136 0.807332 Mn
0.875000 0.967136 0.307332 Mn
0.875000 0.967136 0.807332 Mn
0.125000 0.282864 0.057333 Mn
0.125000 0.282864 0.557333 Mn
0.125000 0.782864 0.057333 Mn
0.125000 0.782864 0.557333 Mn
0.625000 0.282864 0.057333 Mn
0.625000 0.282864 0.557333 Mn
0.625000 0.782864 0.057333 Mn
0.625000 0.782864 0.557333 Mn
0.375000 0.217136 0.442668 Mn
0.375000 0.217136 0.942668 Mn
0.375000 0.717136 0.442668 Mn
0.375000 0.717136 0.942668 Mn
0.875000 0.217136 0.442668 Mn
0.875000 0.217136 0.942668 Mn
0.875000 0.717136 0.442668 Mn
0.875000 0.717136 0.942668 Mn
0.375000 0.200813 0.036091 O
0.375000 0.200813 0.536091 O
0.375000 0.700813 0.036091 O
0.375000 0.700813 0.536091 O
0.875000 0.200813 0.036091 O
0.875000 0.200813 0.536091 O
0.875000 0.700813 0.036091 O
0.875000 0.700813 0.536091 O
0.125000 0.299187 0.463908 O
0.125000 0.299187 0.963908 O
0.125000 0.799187 0.463908 O
0.125000 0.799187 0.963908 O
0.625000 0.299187 0.463908 O
0.625000 0.299187 0.963908 O
0.625000 0.799187 0.463908 O
0.625000 0.799187 0.963908 O
0.375000 0.450813 0.213908 O
0.375000 0.450813 0.713908 O
0.375000 0.950813 0.213908 O
0.375000 0.950813 0.713908 O
0.875000 0.450813 0.213908 O
0.875000 0.450813 0.713908 O
0.875000 0.950813 0.213908 O
0.875000 0.950813 0.713908 O
0.125000 0.049187 0.286092 O
0.125000 0.049187 0.786092 O
0.125000 0.549187 0.286092 O
0.125000 0.549187 0.786092 O
0.625000 0.049187 0.286092 O
0.625000 0.049187 0.786092 O
0.625000 0.549187 0.286092 O
0.625000 0.549187 0.786092 O
0.375000 0.260184 0.358992 O
0.375000 0.260184 0.858992 O
0.375000 0.760184 0.358992 O
0.375000 0.760184 0.858992 O
0.875000 0.260184 0.358992 O
0.875000 0.260184 0.858992 O
0.875000 0.760184 0.358992 O
0.875000 0.760184 0.858992 O
0.125000 0.239816 0.141008 O
0.125000 0.239816 0.641008 O
0.125000 0.739816 0.141008 O
0.125000 0.739816 0.641008 O
0.625000 0.239816 0.141008 O
0.625000 0.239816 0.641008 O
0.625000 0.739816 0.141008 O
0.625000 0.739816 0.641008 O
0.375000 0.010184 0.391008 O
0.375000 0.010184 0.891008 O
0.375000 0.510184 0.391008 O
0.375000 0.510184 0.891008 O
0.875000 0.010184 0.391008 O
0.875000 0.010184 0.891008 O
0.875000 0.510184 0.391008 O
0.875000 0.510184 0.891008 O
0.125000 0.489816 0.108992 O
0.125000 0.489816 0.608992 O
0.125000 0.989816 0.108992 O
0.125000 0.989816 0.608992 O
0.625000 0.489816 0.108992 O
0.625000 0.489816 0.608992 O
0.625000 0.989816 0.108992 O
0.625000 0.989816 0.608992 O
0.375000 0.059861 0.017066 O
0.375000 0.059861 0.517066 O
0.375000 0.559861 0.017066 O
0.375000 0.559861 0.517066 O
0.875000 0.059861 0.017066 O
0.875000 0.059861 0.517066 O
0.875000 0.559861 0.017066 O
0.875000 0.559861 0.517066 O
0.125000 0.440139 0.482935 O
0.125000 0.440139 0.982935 O
0.125000 0.940139 0.482935 O
0.125000 0.940139 0.982935 O
0.625000 0.440139 0.482935 O
0.625000 0.440139 0.982935 O
0.625000 0.940139 0.482935 O
0.625000 0.940139 0.982935 O
0.375000 0.309861 0.232935 O
0.375000 0.309861 0.732935 O
0.375000 0.809861 0.232935 O
0.375000 0.809861 0.732935 O
0.875000 0.309861 0.232935 O
0.875000 0.309861 0.732935 O
0.875000 0.809861 0.232935 O
0.875000 0.809861 0.732935 O
0.125000 0.190139 0.267065 O
0.125000 0.190139 0.767065 O
0.125000 0.690139 0.267065 O
0.125000 0.690139 0.767065 O
0.625000 0.190139 0.267065 O
0.625000 0.190139 0.767065 O
0.625000 0.690139 0.267065 O
0.625000 0.690139 0.767065 O
0.125000 0.140125 0.407940 O
0.125000 0.140125 0.907940 O
0.125000 0.640124 0.407940 O
0.125000 0.640124 0.907940 O
0.625000 0.140125 0.407940 O
0.625000 0.140125 0.907940 O
0.625000 0.640124 0.407940 O
0.625000 0.640124 0.907940 O
0.375000 0.359876 0.092060 O
0.375000 0.359876 0.592060 O
0.375000 0.859876 0.092060 O
0.375000 0.859876 0.592060 O
0.875000 0.359876 0.092060 O
0.875000 0.359876 0.592060 O
0.875000 0.859876 0.092060 O
0.875000 0.859876 0.592060 O
0.375000 0.109876 0.157940 O
0.375000 0.109876 0.657940 O
0.375000 0.609876 0.157940 O
0.375000 0.609876 0.657940 O
0.875000 0.109876 0.157940 O
0.875000 0.109876 0.657940 O
0.875000 0.609876 0.157940 O
0.875000 0.609876 0.657940 O
0.125000 0.390124 0.342060 O
0.125000 0.390124 0.842060 O
0.125000 0.890124 0.342060 O
0.125000 0.890124 0.842060 O
0.625000 0.390124 0.342060 O
0.625000 0.390124 0.842060 O
0.625000 0.890124 0.342060 O
0.625000 0.890124 0.842060 O
