Li32 Mn32 O64
1.0
  11.2240000000000002    0.0000000000000000    0.0000000000000000
   0.0000000000000000    9.0999999999999996    0.0000000000000000
   0.0000000000000000    0.0000000000000000   11.4939999999999998
Li Mn O
31 32 64
direct
   0.5625000000000000    0.1250000000000000    0.5625000000000000 Li
   0.9375000000000001    0.3749999999999999    0.4375000000000000 Li
   0.3125000000000001    0.6250000000000000    0.5625000000000000 Li
   0.8125000000000000    0.6250000000000000    0.5625000000000000 Li
   0.0625000000000000    0.1250000000000000    0.0625000000000000 Li
   0.5625000000000000    0.1250000000000000    0.0625000000000000 Li
   0.0625000000000000    0.1250000000000000    0.5625000000000000 Li
   0.0625000000000000    0.6250000000000000    0.0625000000000000 Li
   0.5625000000000000    0.6250000000000000    0.0625000000000000 Li
   0.0625000000000000    0.6250000000000000    0.5625000000000000 Li
   0.5625000000000000    0.6250000000000000    0.5625000000000000 Li
   0.3125000000000001    0.1250000000000000    0.0625000000000000 Li
   0.8125000000000000    0.1250000000000000    0.0625000000000000 Li
   0.3125000000000001    0.1250000000000000    0.5625000000000000 Li
   0.8125000000000000    0.1250000000000000    0.5625000000000000 Li
   0.3125000000000001    0.6250000000000000    0.0625000000000000 Li
   0.8125000000000000    0.6250000000000000    0.0625000000000000 Li
   0.1875000000000000    0.3749999999999999    0.4375000000000000 Li
   0.6875000000000000    0.3749999999999999    0.4375000000000000 Li
   0.1875000000000000    0.3749999999999999    0.9375000000000000 Li
   0.6875000000000000    0.3749999999999999    0.9375000000000000 Li
   0.1875000000000000    0.8749999999999999    0.4375000000000000 Li
   0.6875000000000000    0.8749999999999999    0.4375000000000000 Li
   0.1875000000000000    0.8749999999999999    0.9375000000000000 Li
   0.6875000000000000    0.8749999999999999    0.9375000000000000 Li
   0.4375000000000000    0.3749999999999999    0.9375000000000000 Li
   0.9375000000000001    0.3749999999999999    0.9375000000000000 Li
   0.4375000000000000    0.8749999999999999    0.4375000000000000 Li
   0.9375000000000001    0.8749999999999999    0.4375000000000000 Li
   0.4375000000000000    0.8749999999999999    0.9375000000000000 Li
   0.9375000000000001    0.8749999999999999    0.9375000000000000 Li
   0.0625000000000000    0.1250000000000000    0.3215000000000000 Mn
   0.5625000000000000    0.1250000000000000    0.3215000000000000 Mn
   0.0625000000000000    0.1250000000000000    0.8215000000000000 Mn
   0.5625000000000000    0.1250000000000000    0.8215000000000000 Mn
   0.0625000000000000    0.6250000000000000    0.3215000000000000 Mn
   0.5625000000000000    0.6250000000000000    0.3215000000000000 Mn
   0.0625000000000000    0.6250000000000000    0.8215000000000000 Mn
   0.5625000000000000    0.6250000000000000    0.8215000000000000 Mn
   0.3125000000000001    0.1250000000000000    0.3215000000000000 Mn
   0.8125000000000000    0.1250000000000000    0.3215000000000000 Mn
   0.3125000000000001    0.1250000000000000    0.8215000000000000 Mn
   0.8125000000000000    0.1250000000000000    0.8215000000000000 Mn
   0.3125000000000001    0.6250000000000000    0.3215000000000000 Mn
   0.8125000000000000    0.6250000000000000    0.3215000000000000 Mn
   0.3125000000000001    0.6250000000000000    0.8215000000000000 Mn
   0.8125000000000000    0.6250000000000000    0.8215000000000000 Mn
   0.1875000000000000    0.3749999999999999    0.1785000000000000 Mn
   0.6875000000000000    0.3749999999999999    0.1785000000000000 Mn
   0.1875000000000000    0.3749999999999999    0.6785000000000000 Mn
   0.6875000000000000    0.3749999999999999    0.6785000000000000 Mn
   0.1875000000000000    0.8749999999999999    0.1785000000000000 Mn
   0.6875000000000000    0.8749999999999999    0.1785000000000000 Mn
   0.1875000000000000    0.8749999999999999    0.6785000000000000 Mn
   0.6875000000000000    0.8749999999999999    0.6785000000000000 Mn
   0.4375000000000000    0.3749999999999999    0.1785000000000000 Mn
   0.9375000000000001    0.3749999999999999    0.1785000000000000 Mn
   0.4375000000000000    0.3749999999999999    0.6785000000000000 Mn
   0.9375000000000001    0.3749999999999999    0.6785000000000000 Mn
   0.4375000000000000    0.8749999999999999    0.1785000000000000 Mn
   0.9375000000000001    0.8749999999999999    0.1785000000000000 Mn
   0.4375000000000000    0.8749999999999999    0.6785000000000000 Mn
   0.9375000000000001    0.8749999999999999    0.6785000000000000 Mn
   0.0625000000000000    0.3749999999999999    0.0680000000000000 O
   0.5625000000000000    0.3749999999999999    0.0680000000000000 O
   0.0625000000000000    0.3749999999999999    0.5679999999999999 O
   0.5625000000000000    0.3749999999999999    0.5679999999999999 O
   0.0625000000000000    0.8749999999999999    0.0680000000000000 O
   0.5625000000000000    0.8749999999999999    0.0680000000000000 O
   0.0625000000000000    0.8749999999999999    0.5679999999999999 O
   0.5625000000000000    0.8749999999999999    0.5679999999999999 O
   0.3125000000000001    0.3749999999999999    0.0680000000000000 O
   0.8125000000000000    0.3749999999999999    0.0680000000000000 O
   0.3125000000000001    0.3749999999999999    0.5679999999999999 O
   0.8125000000000000    0.3749999999999999    0.5679999999999999 O
   0.3125000000000001    0.8749999999999999    0.0680000000000000 O
   0.8125000000000000    0.8749999999999999    0.0680000000000000 O
   0.3125000000000001    0.8749999999999999    0.5679999999999999 O
   0.8125000000000000    0.8749999999999999    0.5679999999999999 O
   0.1875000000000000    0.1250000000000000    0.4320000000000000 O
   0.6875000000000000    0.1250000000000000    0.4320000000000000 O
   0.1875000000000000    0.1250000000000000    0.9320000000000001 O
   0.6875000000000000    0.1250000000000000    0.9320000000000001 O
   0.1875000000000000    0.6250000000000000    0.4320000000000000 O
   0.6875000000000000    0.6250000000000000    0.4320000000000000 O
   0.1875000000000000    0.6250000000000000    0.9320000000000001 O
   0.6875000000000000    0.6250000000000000    0.9320000000000001 O
   0.4375000000000000    0.1250000000000000    0.4320000000000000 O
   0.9375000000000001    0.1250000000000000    0.4320000000000000 O
   0.4375000000000000    0.1250000000000000    0.9320000000000001 O
   0.9375000000000001    0.1250000000000000    0.9320000000000001 O
   0.4375000000000000    0.6250000000000000    0.4320000000000000 O
   0.9375000000000001    0.6250000000000000    0.4320000000000000 O
   0.4375000000000000    0.6250000000000000    0.9320000000000001 O
   0.9375000000000001    0.6250000000000000    0.9320000000000001 O
   0.0625000000000000    0.3749999999999999    0.3000000000000000 O
   0.5625000000000000    0.3749999999999999    0.3000000000000000 O
   0.0625000000000000    0.3749999999999999    0.8000000000000000 O
   0.5625000000000000    0.3749999999999999    0.8000000000000000 O
   0.0625000000000000    0.8749999999999999    0.3000000000000000 O
   0.5625000000000000    0.8749999999999999    0.3000000000000000 O
   0.0625000000000000    0.8749999999999999    0.8000000000000000 O
   0.5625000000000000    0.8749999999999999    0.8000000000000000 O
   0.3125000000000001    0.3749999999999999    0.3000000000000000 O
   0.8125000000000000    0.3749999999999999    0.3000000000000000 O
   0.3125000000000001    0.3749999999999999    0.8000000000000000 O
   0.8125000000000000    0.3749999999999999    0.8000000000000000 O
   0.3125000000000001    0.8749999999999999    0.3000000000000000 O
   0.8125000000000000    0.8749999999999999    0.3000000000000000 O
   0.3125000000000001    0.8749999999999999    0.8000000000000000 O
   0.8125000000000000    0.8749999999999999    0.8000000000000000 O
   0.1875000000000000    0.1250000000000000    0.2000000000000000 O
   0.6875000000000000    0.1250000000000000    0.2000000000000000 O
   0.1875000000000000    0.1250000000000000    0.7000000000000000 O
   0.6875000000000000    0.1250000000000000    0.7000000000000000 O
   0.1875000000000000    0.6250000000000000    0.2000000000000000 O
   0.6875000000000000    0.6250000000000000    0.2000000000000000 O
   0.1875000000000000    0.6250000000000000    0.7000000000000000 O
   0.6875000000000000    0.6250000000000000    0.7000000000000000 O
   0.4375000000000000    0.1250000000000000    0.2000000000000000 O
   0.9375000000000001    0.1250000000000000    0.2000000000000000 O
   0.4375000000000000    0.1250000000000000    0.7000000000000000 O
   0.9375000000000001    0.1250000000000000    0.7000000000000000 O
   0.4375000000000000    0.6250000000000000    0.2000000000000000 O
   0.9375000000000001    0.6250000000000000    0.2000000000000000 O
   0.4375000000000000    0.6250000000000000    0.7000000000000000 O
   0.9375000000000001    0.6250000000000000    0.7000000000000000 O
