Ca8 Ni12 F42                            
   1.00000000000000     
     7.2690979999999996    0.0148690000000000   -0.0312930000000000
    -3.6457980000000001    6.3478459999999997    0.0106360000000000
    -0.0712560000000000   -0.0141260000000000   18.3227229999999999
   Ca   Ni   F 
     8    12    42
Direct
  0.0938763921699061  0.8200920749827517  0.6764582780614465
  0.1499395486781775  0.6443427511720249  0.9856888579397181
  0.3570823171869064  0.5070336459412123  0.3178386490079582
  0.8411023379120690  0.0173800378366141  0.3468174843038231
  0.1787370656336829  0.1683290415606510  0.0032036704326644
  0.9859692667269093  0.7955200841477290  0.1743104825288944
  0.7915559494604507  0.9719166880225256  0.8355160846549851
  0.2080949175703652  0.1784994396761343  0.5082084547845834
  0.3369476576386461  0.0003739331834881  0.3335481272064948
  0.9900301274333033  0.3188452707437018  0.6647197476209299
  0.6674094762440854  0.6697697188190506  0.0014563367782432
  0.3362803732910789  0.0273592541478932  0.8354354183733762
  0.9934314113438115  0.3109924176888377  0.1613177193305567
  0.6902093352791200  0.6736854487095758  0.4963616730918267
  0.4962242830349280  0.8193335712210605  0.1636791287465484
  0.1805898560595100  0.6642843525955023  0.4919152600890304
  0.3168617028734722  0.5025418839256963  0.8283635128477898
  0.8240959841234980  0.5058435345643597  0.8289077845945143
  0.6862689989929269  0.1734252508896577  0.4981578383049683
  0.4925706671868986  0.3104266207241266  0.1616224616543166
  0.7477417355670419  0.1980279088291951  0.6003483298279724
  0.8210153174355310  0.5758979406754834  0.9363788853971532
  0.4391068022663824  0.2537963886292335  0.2697652931824069
  0.2448291437490214  0.7236997574688567  0.3843395348929815
  0.4822579949701074  0.7519303556090291  0.0582250184590519
  0.2391622568550255  0.4865876100531807  0.7264591194193518
  0.8318284605710825  0.9573577551682804  0.9561272187858381
  0.0439460195845932  0.8823832277498190  0.2889293507557048
  0.1207279073646134  0.1583153736255539  0.6209233103871449
  0.9746907114953478  0.7974238443943179  0.0534540336746931
  0.8613118616151135  0.0792400664169637  0.7270887820161471
  0.2073449426116948  0.1772386588746595  0.3858760333688083
  0.5210778754362533  0.3876569005783140  0.0535136427791545
  0.6098375623342551  0.1260529323199820  0.3890803322930478
  0.8757367195206122  0.4840341157535625  0.7223498147476463
  0.3879398106827676  0.5300280823199039  0.9426768182246149
  0.1192551873616843  0.5902249892590300  0.5988738624488247
  0.5032617559002287  0.8731359040763047  0.2754708576701910
  0.7974025305556822  0.4241720283230597  0.1707428684984904
  0.5767221814587520  0.3665382460543069  0.4978197604837040
  0.6448645605358885  0.2080663664563652  0.8523434845297260
  0.4277773597992918  0.8125610770329097  0.8277294063694782
  0.3790301794348049  0.5575929407883717  0.4953748204656569
  0.1899345078610034  0.6212969433713738  0.1757411333252049
  0.0237563413988877  0.2973099730344342  0.2717749428585083
  0.7411488702866070  0.7101726274239759  0.5969415252575833
  0.2947398213151193  0.9726762898514840  0.9446012401357844
  0.3660419111435411  0.0793347768755634  0.7329276357672683
  0.6562380868353541  0.6723186801768395  0.3828238979519298
  0.0187685169391600  0.3475298148628496  0.0502669214534216
  0.1870203640360533  0.1979990205997181  0.1411063703705302
  0.8017914793632134  0.9824716853128372  0.4778778863585937
  0.0261643111853725  0.8180497655758205  0.8082249901121430
  0.1971996116676756  0.2009592975892978  0.8575162774358887
  0.9941351287024597  0.7831403086422659  0.4833949220211186
  0.8039448529386959  0.9989735411927276  0.1634089558278789
  0.0509613754364882  0.4588568114968997  0.8714417622902205
  0.5735397010557314  0.6043387893007275  0.1998313309184993
  0.3772394211527420  0.9671255629180128  0.5234066792633045
  0.3875605231410634  0.0096595724354428  0.1381080897026858
  0.6172983319558478  0.5996618975574765  0.8080387376011907
  0.9822086302398583  0.3671777587186834  0.4634644483060110
 
             NaN             NaN             NaN
             NaN             NaN             NaN
             NaN             NaN             NaN
             NaN             NaN             NaN
             NaN             NaN             NaN
             NaN             NaN             NaN
             NaN             NaN             NaN
             NaN             NaN             NaN
             NaN             NaN             NaN
             NaN             NaN             NaN
             NaN             NaN             NaN
             NaN             NaN             NaN
             NaN             NaN             NaN
             NaN             NaN             NaN
             NaN             NaN             NaN
             NaN             NaN             NaN
             NaN             NaN             NaN
             NaN             NaN             NaN
             NaN             NaN             NaN
             NaN             NaN             NaN
             NaN             NaN             NaN
             NaN             NaN             NaN
             NaN             NaN             NaN
             NaN             NaN             NaN
             NaN             NaN             NaN
             NaN             NaN             NaN
             NaN             NaN             NaN
             NaN             NaN             NaN
             NaN             NaN             NaN
             NaN             NaN             NaN
             NaN             NaN             NaN
             NaN             NaN             NaN
             NaN             NaN             NaN
             NaN             NaN             NaN
             NaN             NaN             NaN
             NaN             NaN             NaN
             NaN             NaN             NaN
             NaN             NaN             NaN
             NaN             NaN             NaN
             NaN             NaN             NaN
             NaN             NaN             NaN
             NaN             NaN             NaN
             NaN             NaN             NaN
             NaN             NaN             NaN
             NaN             NaN             NaN
             NaN             NaN             NaN
             NaN             NaN             NaN
             NaN             NaN             NaN
             NaN             NaN             NaN
             NaN             NaN             NaN
             NaN             NaN             NaN
             NaN             NaN             NaN
             NaN             NaN             NaN
             NaN             NaN             NaN
             NaN             NaN             NaN
             NaN             NaN             NaN
             NaN             NaN             NaN
             NaN             NaN             NaN
             NaN             NaN             NaN
             NaN             NaN             NaN
             NaN             NaN             NaN
             NaN             NaN             NaN
