Ca8 Ni12 F42
1.0
7.269098 0.014869 -0.031293
-3.645798 6.347846 0.010636
-0.071256 -0.014126 18.322723
Ca Ni F
8 12 42
direct
0.125658 0.840549 0.670316 Ca
0.150371 0.644340 0.980014 Ca
0.351334 0.512317 0.317992 Ca
0.843668 0.015710 0.347220 Ca
0.168305 0.161590 0.009043 Ca
0.987863 0.793610 0.174637 Ca
0.787111 0.979697 0.835655 Ca
0.217977 0.188490 0.509245 Ca
0.344536 0.008239 0.334325 Ni
0.991821 0.338000 0.666286 Ni
0.659927 0.658159 0.001246 Ni
0.314048 0.005515 0.832156 Ni
0.994439 0.312104 0.161941 Ni
0.692330 0.683559 0.494296 Ni
0.498005 0.819440 0.162627 Ni
0.184870 0.675880 0.496262 Ni
0.308361 0.492600 0.829500 Ni
0.809758 0.497272 0.828653 Ni
0.694850 0.185930 0.497556 Ni
0.495048 0.310733 0.162825 Ni
0.749817 0.202923 0.600947 F
0.806773 0.554427 0.937464 F
0.440939 0.259704 0.270177 F
0.254663 0.734864 0.386999 F
0.475420 0.745135 0.056630 F
0.244334 0.491945 0.727671 F
0.825404 0.948068 0.955636 F
0.051129 0.885692 0.289076 F
0.125474 0.188608 0.618605 F
0.971908 0.790489 0.053256 F
0.858278 0.065845 0.723567 F
0.211608 0.184246 0.386337 F
0.520282 0.381439 0.055363 F
0.620469 0.139334 0.388054 F
0.861158 0.478923 0.723705 F
0.370273 0.497877 0.944271 F
0.115421 0.612509 0.602581 F
0.511318 0.880256 0.275073 F
0.799812 0.424523 0.172294 F
0.585129 0.378859 0.499057 F
0.622870 0.196677 0.843243 F
0.413022 0.796219 0.848220 F
0.382160 0.567736 0.498927 F
0.195438 0.619580 0.182581 F
0.020412 0.290781 0.271683 F
0.719205 0.722823 0.595862 F
0.280961 0.979010 0.943637 F
0.332826 0.008645 0.728974 F
0.653068 0.673352 0.381844 F
0.021255 0.357214 0.051645 F
0.188643 0.199366 0.142329 F
0.807551 0.993035 0.476705 F
0.003204 0.805238 0.817987 F
0.188320 0.190936 0.843162 F
0.998042 0.793179 0.483853 F
0.804817 -0.000074 0.157328 F
0.028346 0.428874 0.869818 F
0.582446 0.609457 0.198502 F
0.387958 0.979091 0.522388 F
0.384434 0.006811 0.138737 F
0.609377 0.602072 0.806780 F
0.990218 0.381645 0.466131 F
