Na2 Ca2 V4 P4 S2 O24                    
   1.00000000000000     
     8.8780819999999991    0.2323650000000000    0.1361070000000000
     4.3450600000000001    7.8134220000000001    0.1744150000000000
     4.3039800000000001    2.6564880000000000    7.3333649999999997
   Ca   Na   V    P    S    O 
     2     2     4     4     2    24
Direct
  0.5349065217506034  0.4413275337398035  0.5309222735199016
  0.0277597283283995  0.9686807838909693  0.0084000281411168
  0.7533167516180943  0.3918939388594136  0.1025716213617792
  0.6077720985123245  0.8797186574173431  0.2432270632731921
  0.3586789660415549  0.3571265134925682  0.3502828457193250
  0.6476193369129002  0.6484596619195278  0.6486148288244165
  0.1503748425726215  0.1485289897017132  0.1455886174527962
  0.8569107572073623  0.8578910452505601  0.8510787854781174
  0.9565031787853913  0.5355947258702870  0.2527700540449591
  0.7579940828351923  0.0361593407403244  0.4516105571633186
  0.4628033994748768  0.7525714781133314  0.0455647653068721
  0.5540638663039511  0.2496973804293511  0.9642820379365274
  0.0544780376439954  0.4578192809455784  0.7439645786455688
  0.2508860604619648  0.9572708537984350  0.5478919764953754
  0.2361161142381437  0.4334733372586796  0.5912640875634930
  0.7671868093090412  0.5656850843218363  0.4156864396961061
  0.5916471476054264  0.2244353030441307  0.4287614275523572
  0.4142847396868758  0.7786594751754563  0.5559740553986495
  0.4492085895625449  0.5812840626118723  0.2293608720959174
  0.5716947726029420  0.4152839903283674  0.7790052124847234
  0.9173722530269142  0.0684649191258392  0.2604617715326928
  0.0998010111527652  0.9275522719851315  0.7306302382048308
  0.0670673864927712  0.2761938526678225  0.9053807961840126
  0.9350884525615717  0.7269129482086727  0.0899797571113912
  0.2776829565889060  0.9164119495661739  0.0702680764157241
  0.7402261421533678  0.0820146508110140  0.9434606245553840
  0.5336668751549851  0.2934827619822454  0.1211520312229132
  0.4971651646769807  0.7106005302242201  0.8817638287200956
  0.1207635441244735  0.4912676584626723  0.2999179471095086
  0.9032690477308961  0.4933218132627499  0.6922571750007881
  0.3011811663039268  0.1054666030171761  0.5191974549764276
  0.7117009054715735  0.8793406910198681  0.4767241573529550
  0.3915092299991748  0.1996252041357791  0.0085082611707656
  0.6252571471310080  0.7948846878610418  0.0179847803843538
  0.1947525918490259  0.9956413385431818  0.3991034412782444
  0.8014054554270357  1.0085994675461143  0.6118608077502415
  0.9716643103612157  0.3852377690190295  0.2031178547134323
  0.0217672178431458  0.6039941145102689  0.7989292151782649
 
             NaN             NaN             NaN
             NaN             NaN             NaN
             NaN             NaN             NaN
             NaN             NaN             NaN
             NaN             NaN             NaN
             NaN             NaN             NaN
             NaN             NaN             NaN
             NaN             NaN             NaN
             NaN             NaN             NaN
             NaN             NaN             NaN
             NaN             NaN             NaN
             NaN             NaN             NaN
             NaN             NaN             NaN
             NaN             NaN             NaN
             NaN             NaN             NaN
             NaN             NaN             NaN
             NaN             NaN             NaN
             NaN             NaN             NaN
             NaN             NaN             NaN
             NaN             NaN             NaN
             NaN             NaN             NaN
             NaN             NaN             NaN
             NaN             NaN             NaN
             NaN             NaN             NaN
             NaN             NaN             NaN
             NaN             NaN             NaN
             NaN             NaN             NaN
             NaN             NaN             NaN
             NaN             NaN             NaN
             NaN             NaN             NaN
             NaN             NaN             NaN
             NaN             NaN             NaN
             NaN             NaN             NaN
             NaN             NaN             NaN
             NaN             NaN             NaN
             NaN             NaN             NaN
             NaN             NaN             NaN
             NaN             NaN             NaN
