Na2 Ca2 V4 P4 S2 O24
1.0
8.878082 0.232365 0.136107
4.345060 7.813422 0.174415
4.303980 2.656488 7.333365
Ca Na V P S O
2 2 4 4 2 24
direct
0.554913 0.432490 0.532237 Ca
0.022708 0.976057 0.003714 Ca
0.747308 0.397032 0.107157 Na
0.604117 0.887528 0.244127 Na
0.357400 0.358406 0.350311 V
0.641165 0.653080 0.645803 V
0.145231 0.151250 0.143536 V
0.853451 0.855248 0.853629 V
0.954172 0.538470 0.251726 P
0.752862 0.037074 0.449967 P
0.458984 0.756530 0.044086 P
0.548192 0.254952 0.962251 P
0.046010 0.459187 0.744107 S
0.245311 0.961006 0.545112 S
0.225372 0.434759 0.591307 O
0.765413 0.569666 0.414346 O
0.590037 0.228743 0.434607 O
0.407185 0.781784 0.554128 O
0.439722 0.586578 0.227488 O
0.560973 0.422336 0.778259 O
0.912105 0.070778 0.258960 O
0.093950 0.933070 0.727749 O
0.057948 0.277334 0.905625 O
0.933231 0.729681 0.088640 O
0.274729 0.921497 0.063751 O
0.735150 0.089893 0.931989 O
0.535314 0.293473 0.119257 O
0.501282 0.712835 0.879020 O
0.120028 0.491208 0.297322 O
0.893246 0.496937 0.693569 O
0.298860 0.107388 0.514941 O
0.699363 0.888049 0.468983 O
0.384904 0.202760 0.012931 O
0.619023 0.797412 0.023994 O
0.187616 0.999439 0.397436 O
0.805361 0.991194 0.611699 O
0.966541 0.387366 0.204856 O
0.015570 0.602505 0.801694 O
