Ca7 Mn16 F48                            
   1.00000000000000     
    11.5062770000000008   -0.0000010000000000   -0.0146920000000000
     0.0000070000000000    8.2090960000000006   -0.0000010000000000
    -0.0142870000000000   -0.0000010000000000   11.1462360000000000
   Ca   Mn   F 
     7    16    48
Direct
  0.5110168291061490  0.7499992311872821  0.5490963530879952
  0.2197917837972864  0.7500040269495426  0.2480674866617062
  0.2198686941847062  0.7500019684479675  0.7417102665397307
  0.7136910171798085  0.7499999363653536  0.2501118302954888
  0.4706539711277312  0.7499997172783809 -0.0029596963418013
  0.9580379404636067  0.7500045286841274  0.0020564923826095
  0.9678180256945018  0.7499986305431927  0.5097679394555998
  0.4974315390132153  0.4842172770304014  0.2562634413357893
  0.4980088790045953  0.4707114246072135  0.7586226723888821
  0.9984391893020759  0.4844411954952137  0.2492855808138530
  0.9946912758475031  0.4858465630604323  0.7525683832955110
  0.2541540513439471  0.0142949872229934  0.4972295711963840
  0.2449892121527018  0.0177640237685185  0.9978007440370182
  0.7503500859539211  0.0197809354059188  0.5052657486741068
  0.7439105988380248  0.0141209215938615  0.9968060613973172
  0.4974193399643183  0.0157802799469224  0.2562618925648909
  0.4980003389926065  0.0292957097527937  0.7586210441158301
  0.9984413470828170  0.0155524663552322  0.2492810752540234
  0.9946965068463410  0.0141602077181104  0.7525736564715743
  0.2541599684469778  0.4857138367631048  0.4972308442881380
  0.2449898599890269  0.4822440091697679  0.9978039707157113
  0.7503431937401542  0.4802055677660200  0.5052460321632463
  0.7439111805176720  0.4858821749080379  0.9968021357928454
  0.4898474849146385  0.2499968304080526  0.2117472659385052
  0.4346221580484501  0.2500039255209737  0.7194241694405579
  0.9780767687302254  0.2500047933621528  0.2142913012564498
  0.9893658092210517  0.2500030453368169  0.7207948262659069
  0.2246675866808119  0.2499925142774641  0.0441663058089627
  0.2298572417211782  0.2500048402633842  0.5282113150185967
  0.7446037130643651  0.2500024376300213  0.0396336609831263
  0.7757120116346308  0.2499371287428806  0.5476213027740698
  0.0201815488158911  0.7500028944699516  0.2986862513445583
  0.0193124862780223  0.7499989762333137  0.7970887900663602
  0.5154114746655427  0.7500000607726733  0.3114702264271936
  0.5150455295167632  0.7500021757684086  0.7856801350175999
  0.2721246055824086  0.7500007768137366  0.4513554367804430
  0.2692274268717502  0.7500034373562815  0.9448476022659177
  0.7292765815267417  0.7500206757712449  0.4716225613475536
  0.7537239217561662  0.7499986422375221  0.9692824844824631
  0.3532409595936754  0.5818416882036382  0.1476273991644204
  0.3607293102089316  0.5805822681679572  0.6488610671952156
  0.8507350182189821  0.5777775606841968  0.1480127785295376
  0.8694107589859280  0.5704502488231274  0.6369176990118239
  0.1015095645060373  0.9172373246686973  0.0986177726211154
  0.1121019014531589  0.9200804176464312  0.5979987780875254
  0.5987348309780722  0.9212841431285926  0.1091361147201607
  0.5970680162466164  0.9884701821231230  0.6017865743696001
  0.1625721153334710  0.0020543953791847  0.3331539825571688
  0.1605776788057358  0.0031069305134891  0.8323894013017927
  0.6648211659233533  0.0056725501065652  0.3375136702678013
  0.6444319374779734  0.0469052830678364  0.8543142134241691
  0.4081108986506482  0.4726933886574898  0.4103345360282722
  0.4104629867854466  0.4963947018073728  0.9185910328220646
  0.9024980144929913  0.5179425948616531  0.4053207621750085
  0.9099741797554493  0.5005543282660679  0.9168300578323940
  0.1625715902213014  0.4979500164221826  0.3331505834335372
  0.1605820104292187  0.4968985556439626  0.8323903231653139
  0.6648272418298021  0.4943427311546479  0.3375336603361982
  0.6444297640396052  0.4530986600494686  0.8543150470980760
  0.4081096167337405  0.0273100916070231  0.4103334406813154
  0.4104566323211284  0.0036098502927142  0.9185846506658206
  0.9024958567931679 -0.0179387402850197  0.4053225596152398
  0.9099729414467216 -0.0005501886046239  0.9168271748867761
  0.3532417712511753  0.9181603163160545  0.1476182131397021
  0.3607287062368387  0.9194159590006630  0.6488580375639832
  0.8507368673668683  0.9222174202125868  0.1480118688533157
  0.8694177742383877  0.9295273887260471  0.6369235887886242
  0.1015061206399011  0.5827676374082856  0.0986188964572493
  0.1121007563700141  0.5799256438314825  0.5979971962399432
  0.5987409994486798  0.5787118037312908  0.1091459933530810
  0.5970747427495889  0.5115120619026199  0.6017881803348215
 
             NaN             NaN             NaN
             NaN             NaN             NaN
             NaN             NaN             NaN
             NaN             NaN             NaN
             NaN             NaN             NaN
             NaN             NaN             NaN
             NaN             NaN             NaN
             NaN             NaN             NaN
             NaN             NaN             NaN
             NaN             NaN             NaN
             NaN             NaN             NaN
             NaN             NaN             NaN
             NaN             NaN             NaN
             NaN             NaN             NaN
             NaN             NaN             NaN
             NaN             NaN             NaN
             NaN             NaN             NaN
             NaN             NaN             NaN
             NaN             NaN             NaN
             NaN             NaN             NaN
             NaN             NaN             NaN
             NaN             NaN             NaN
             NaN             NaN             NaN
             NaN             NaN             NaN
             NaN             NaN             NaN
             NaN             NaN             NaN
             NaN             NaN             NaN
             NaN             NaN             NaN
             NaN             NaN             NaN
             NaN             NaN             NaN
             NaN             NaN             NaN
             NaN             NaN             NaN
             NaN             NaN             NaN
             NaN             NaN             NaN
             NaN             NaN             NaN
             NaN             NaN             NaN
             NaN             NaN             NaN
             NaN             NaN             NaN
             NaN             NaN             NaN
             NaN             NaN             NaN
             NaN             NaN             NaN
             NaN             NaN             NaN
             NaN             NaN             NaN
             NaN             NaN             NaN
             NaN             NaN             NaN
             NaN             NaN             NaN
             NaN             NaN             NaN
             NaN             NaN             NaN
             NaN             NaN             NaN
             NaN             NaN             NaN
             NaN             NaN             NaN
             NaN             NaN             NaN
             NaN             NaN             NaN
             NaN             NaN             NaN
             NaN             NaN             NaN
             NaN             NaN             NaN
             NaN             NaN             NaN
             NaN             NaN             NaN
             NaN             NaN             NaN
             NaN             NaN             NaN
             NaN             NaN             NaN
             NaN             NaN             NaN
             NaN             NaN             NaN
             NaN             NaN             NaN
             NaN             NaN             NaN
             NaN             NaN             NaN
             NaN             NaN             NaN
             NaN             NaN             NaN
             NaN             NaN             NaN
             NaN             NaN             NaN
             NaN             NaN             NaN
