Ca7 Mn16 F48
1.0
11.506277 -0.000001 -0.014692
0.000007 8.209096 -0.000001
-0.014287 -0.000001 11.146236
Ca Mn F
7 16 48
direct
0.528184 0.749999 0.567094 Ca
0.215452 0.750001 0.245203 Ca
0.217118 0.750001 0.742782 Ca
0.712867 0.750000 0.244753 Ca
0.466469 0.750001 1.000442 Ca
0.961565 0.750001 0.004757 Ca
0.962570 0.750000 0.508661 Ca
0.496095 0.482888 0.253761 Mn
0.501718 0.488208 0.749592 Mn
0.995157 0.481678 0.252688 Mn
0.993832 0.484563 0.752806 Mn
0.248145 0.016773 0.497661 Mn
0.245866 0.018791 0.996430 Mn
0.744134 0.013137 0.502791 Mn
0.745002 0.014275 0.995656 Mn
0.496094 0.017110 0.253760 Mn
0.501716 0.011792 0.749592 Mn
0.995155 0.018320 0.252689 Mn
0.993832 0.015429 0.752808 Mn
0.248144 0.483228 0.497662 Mn
0.245867 0.481210 0.996430 Mn
0.744134 0.486863 0.502792 Mn
0.745005 0.485719 0.995660 Mn
0.479717 0.249999 0.209381 F
0.483715 0.250001 0.717847 F
0.977585 0.249999 0.207615 F
0.981036 0.249996 0.716492 F
0.224092 0.250003 0.042858 F
0.226681 0.250000 0.538930 F
0.739060 0.249995 0.036850 F
0.734588 0.250002 0.534641 F
0.014980 0.750000 0.302482 F
0.017828 0.750002 0.799938 F
0.513659 0.750006 0.298806 F
0.507547 0.750003 0.794956 F
0.265387 0.750001 0.449411 F
0.264100 0.749999 0.946919 F
0.762805 0.750001 0.452019 F
0.759890 0.750003 0.964401 F
0.351846 0.581178 0.146084 F
0.350703 0.572421 0.651256 F
0.851293 0.577924 0.148918 F
0.862782 0.569037 0.641890 F
0.102040 0.917967 0.101973 F
0.106057 0.918190 0.600151 F
0.599802 0.921599 0.104103 F
0.597461 0.940710 0.595736 F
0.160863 0.004621 0.332951 F
0.158434 0.006827 0.833367 F
0.662651 0.003435 0.333661 F
0.650721 0.027364 0.846644 F
0.405940 0.484846 0.410468 F
0.409311 0.496935 0.913431 F
0.907153 0.496063 0.413019 F
0.912561 0.498062 0.919043 F
0.160863 0.495377 0.332949 F
0.158434 0.493171 0.833362 F
0.662650 0.496565 0.333661 F
0.650724 0.472641 0.846646 F
0.405939 0.015150 0.410466 F
0.409310 0.003064 0.913429 F
0.907154 0.003942 0.413022 F
0.912557 0.001939 0.919047 F
0.351842 0.918826 0.146081 F
0.350703 0.927585 0.651257 F
0.851293 0.922073 0.148919 F
0.862782 0.930960 0.641890 F
0.102040 0.582034 0.101971 F
0.106056 0.581809 0.600148 F
0.599804 0.578398 0.104105 F
0.597461 0.559290 0.595738 F
