Ca8 Mn12 F42                            
   1.00000000000000     
     7.5877809999999997   -0.0505850000000000    0.0580270000000000
    -3.8421460000000001    6.6652699999999996    0.0316020000000000
     0.1602440000000000    0.1878140000000000   18.6602640000000015
   Ca   Mn   F 
     8    12    42
Direct
  0.5529075009754262  0.8742981655419614  0.7011170589385025
  0.1274060186597070  0.6306725485230650  0.9871694690092028
  0.3521832960149519  0.4959567735277013  0.3524319627378938
  0.5485655124782431  0.3750004806723680  0.6692449753259612
  0.8558155955094980  0.0107080609799048  0.3356651703489023
  0.2092722675014484  0.1906926364365495  0.9985645193571561
  0.9935415705310270  0.7642062646629462  0.1812454505419506
  0.1733838357672555  0.1273972766627898  0.5171824361014172
  0.3579167827107604  1.0009028500917492  0.3250928692008819
  0.0164250515261131  0.3352950909135024  0.6719481790191827
  0.6900147678666929  0.6953074947516659  0.0076376899564836
  0.3498327409105634  0.0238181677418649  0.8405883193564528
  0.0252445506257898  0.3067541226559686  0.1669987676161614
  0.6639269206931055  0.6749052690166542  0.5079864588257843
  0.5201362451156577  0.8162164499532500  0.1773595916433283
  0.1654968474978309  0.6593554078471576  0.4982210031108242
  0.3472377408320045  0.5186312108807704  0.8384145341552486
  0.8450352546317200  0.5261816861219006  0.8299836262583061
  0.6714757951153960  0.1703698497799625  0.5007086320454909
  0.4997696134191557  0.3104542160061852  0.1692559549162550
  0.7098206895896778  0.1811232258108117  0.6164787977999299
  0.8129629790459464  0.5843843813702360  0.9362599602013819
  0.4488535293558417  0.2960313803663684  0.2873002350098977
  0.2365444594184355  0.7393666147233550  0.3942881508138650
  0.5473828800672591  0.8006419669586586  0.0709057710726069
  0.2814754895912168  0.5278980095292392  0.7281144040545083
  0.8849889217464929  0.9699544177083274  0.9756148899188514
  0.0556664230614650  0.8809751087781054  0.2921182178317754
  0.2109635656921865  0.2407740894511219  0.6273941487268093
  0.9732022348946939  0.7427476581339396  0.0643740091913057
  0.8727101953927284  0.0832486827732098  0.7269663741756586
  0.1726545706848004  0.1548861152844606  0.3989300692333256
  0.5267575492269260  0.4056485683672114  0.0574245683153551
  0.6222754672519633  0.1066923026289366  0.3876605739607394
  0.8609491513397936  0.4597191234004827  0.7232218808493235
  0.3964765871016371  0.5601508872202045  0.9522985202738353
  0.1249526717319394  0.5595724390160336  0.5986984348030450
  0.5001217111284082  0.8050886817041385  0.2905600020128704
  0.8053026825970786  0.3939846321027115  0.1754063712462590
  0.5529400461667340  0.3573296862782989  0.5336318417706571
  0.6333350616884192  0.2459126709374537  0.8506393092244723
  0.4571510167527233  0.8264680194518629  0.8230588004355374
  0.3430264231097048  0.5110255278867778  0.4801613816304292
  0.2057141614736341  0.6233925709859218  0.1706364016000573
  0.0742081374019205  0.3266414943183210  0.2831483290614460
  0.6132257175267708  0.6828903257630202  0.6200021546685994
  0.2962170612310757  0.9590513741092918  0.9546617212665299
  0.4128846620109107  0.0729330133043055  0.7263196952844690
  0.6804288375951570  0.7012560261889923  0.3954321833869774
  0.0617648025770497  0.3589676588226544  0.0537161210023729
  0.1883248207980923  0.1490244788171646  0.1342960756721577
  0.8174757996373571  1.0018284117525922  0.5015704492174867
  0.0684418188582041  0.8076041780446723  0.8198297941659771
  0.2621709267537762  0.2285968513916363  0.8691528021618765
  0.9744671453957885  0.7775465468617563  0.5181880196972088
  0.8289043354250492  0.0102162816161280  0.2046769990259657
  0.0694757950643751  0.4783759834079772  0.8768553543550008
  0.6345170804554822  0.6183479404940675  0.1900668270309343
  0.3719182121751150  0.9535520525349305  0.5232348049162447
  0.4014047483899982  0.0077442544425254  0.1990386722997763
  0.6074379612055615  0.5573124282619781  0.7819358885841978
  0.9427200790024139  0.3939570077583303  0.4672884671252141
 
             NaN             NaN             NaN
             NaN             NaN             NaN
             NaN             NaN             NaN
             NaN             NaN             NaN
             NaN             NaN             NaN
             NaN             NaN             NaN
             NaN             NaN             NaN
             NaN             NaN             NaN
             NaN             NaN             NaN
             NaN             NaN             NaN
             NaN             NaN             NaN
             NaN             NaN             NaN
             NaN             NaN             NaN
             NaN             NaN             NaN
             NaN             NaN             NaN
             NaN             NaN             NaN
             NaN             NaN             NaN
             NaN             NaN             NaN
             NaN             NaN             NaN
             NaN             NaN             NaN
             NaN             NaN             NaN
             NaN             NaN             NaN
             NaN             NaN             NaN
             NaN             NaN             NaN
             NaN             NaN             NaN
             NaN             NaN             NaN
             NaN             NaN             NaN
             NaN             NaN             NaN
             NaN             NaN             NaN
             NaN             NaN             NaN
             NaN             NaN             NaN
             NaN             NaN             NaN
             NaN             NaN             NaN
             NaN             NaN             NaN
             NaN             NaN             NaN
             NaN             NaN             NaN
             NaN             NaN             NaN
             NaN             NaN             NaN
             NaN             NaN             NaN
             NaN             NaN             NaN
             NaN             NaN             NaN
             NaN             NaN             NaN
             NaN             NaN             NaN
             NaN             NaN             NaN
             NaN             NaN             NaN
             NaN             NaN             NaN
             NaN             NaN             NaN
             NaN             NaN             NaN
             NaN             NaN             NaN
             NaN             NaN             NaN
             NaN             NaN             NaN
             NaN             NaN             NaN
             NaN             NaN             NaN
             NaN             NaN             NaN
             NaN             NaN             NaN
             NaN             NaN             NaN
             NaN             NaN             NaN
             NaN             NaN             NaN
             NaN             NaN             NaN
             NaN             NaN             NaN
             NaN             NaN             NaN
             NaN             NaN             NaN
