Ca8 Mn12 F42                            
   1.00000000000000     
     7.5877809999999997   -0.0505850000000000    0.0580270000000000
    -3.8421460000000001    6.6652699999999996    0.0316020000000000
     0.1602440000000000    0.1878140000000000   18.6602640000000015
   Ca   Mn   F 
     8    12    42
Direct
  0.5477738933147142  0.8765017171883609  0.6980055016599633
  0.1199222686140924  0.6292655796934065  0.9840112642277301
  0.3478420140680403  0.4950400251699925  0.3499513722511040
  0.5418686632446926  0.3742995735641524  0.6667974809181797
  0.8505407992510057  0.0106437459740400  0.3328271046991534
  0.2038515350131693  0.1893773652146357  0.9958768288118276
  0.9884788424950530  0.7624297826407598  0.1791540142652345
  0.1661551766820037  0.1254891511886231  0.5148608357113954
  0.3522757573779016  0.9974539012457729  0.3225668903962000
  0.0116720115506271  0.3341443924217885  0.6696902571191179
  0.6858688416362928  0.6951851669777124  0.0047341182699597
  0.3453777592409118  0.0233422501227112  0.8384855698007158
  0.0188375732468954  0.3052275851933174  0.1638710074972509
  0.6562630711246045  0.6733154392911156  0.5051424346294354
  0.5142442608094694  0.8149396179829926  0.1748473426274264
  0.1588224026670049  0.6565647850477248  0.4957693722432571
  0.3439045619049409  0.5192587647469576  0.8358640336444677
  0.8407418774159042  0.5240120611080890  0.8275253914281901
  0.6641901375594345  0.1673545773441366  0.4989982507376436
  0.4936770748276654  0.3095366735639342  0.1673198194002439
  0.6993759492388091  0.1751799920402408  0.6149867455480540
  0.8069440713414483  0.5796839468462452  0.9344216685169353
  0.4433960726292010  0.2921662048165600  0.2855079856441096
  0.2289192459629563  0.7358759790177682  0.3916851997522994
  0.5521040844737928  0.8048070666399140  0.0693602522399273
  0.2792466374017389  0.5274966309074305  0.7252753319754134
  0.8815939171760758  0.9675398244331074  0.9707906110962284
  0.0505231668321607  0.8799013977588099  0.2893630638366485
  0.2041389043135536  0.2388288550811104  0.6247398892351873
  0.9685173499282875  0.7438853046400472  0.0615993966576453
  0.8679661776577273  0.0819612617328644  0.7251654262137637
  0.1630904294567365  0.1547834998730388  0.3965654520390947
  0.5210724438512284  0.4065557551707836  0.0554522312467756
  0.6162469581416775  0.1038997412695921  0.3856406725565057
  0.8561446119256024  0.4585362648131702  0.7200133518077687
  0.3919222735605818  0.5623209817235956  0.9502035752301380
  0.1176153775668965  0.5566841520344372  0.5959371786119547
  0.4909686040022121  0.8044546729207336  0.2878819425595333
  0.7995237964768410  0.3934020358465752  0.1726618320387651
  0.5476890097609696  0.3563263238345400  0.5320551305903823
  0.6298026363331445  0.2431406647621742  0.8479571229538303
  0.4526483982117478  0.8256870779805096  0.8199532486942142
  0.3377563729871796  0.5098679300962090  0.4776125155219981
  0.2013380215359170  0.6221872880255286  0.1660139227279537
  0.0705567351348392  0.3278023773132837  0.2797013917203119
  0.6075341396364775  0.6826111140244493  0.6178757798926889
  0.2915678556648293  0.9577272280788528  0.9525286643922969
  0.4054100077041748  0.0730104975225517  0.7242099409135215
  0.6744607473580709  0.7025974517901924  0.3928362994237132
  0.0530942705680667  0.3557131963047163  0.0501637748522102
  0.1817973972296083  0.1500405224915177  0.1319145374292902
  0.8104288278795951  0.9999518398345787  0.5010581767221414
  0.0631967150268168  0.8061240961869912  0.8183003990662197
  0.2600833550687086  0.2297840720126981  0.8673726597288256
  0.9680381881442621  0.7749810584188537  0.5150454612551804
  0.8223935024269781  0.0098882857970829  0.2030870184383655
  0.0649875248748169  0.4766005788282028  0.8736691712380489
  0.6284215004285199  0.6166981206892478  0.1896093069583890
  0.3638545940191515  0.9518367102461266  0.5203420278160734
  0.3936931712805018  0.0055857296293320  0.1951929096696426
  0.6032398496223427  0.5550123596256247  0.7800990898781250
  0.9364283007374976  0.3905439443039418  0.4651642277897335
 
             NaN             NaN             NaN
             NaN             NaN             NaN
             NaN             NaN             NaN
             NaN             NaN             NaN
             NaN             NaN             NaN
             NaN             NaN             NaN
             NaN             NaN             NaN
             NaN             NaN             NaN
             NaN             NaN             NaN
             NaN             NaN             NaN
             NaN             NaN             NaN
             NaN             NaN             NaN
             NaN             NaN             NaN
             NaN             NaN             NaN
             NaN             NaN             NaN
             NaN             NaN             NaN
             NaN             NaN             NaN
             NaN             NaN             NaN
             NaN             NaN             NaN
             NaN             NaN             NaN
             NaN             NaN             NaN
             NaN             NaN             NaN
             NaN             NaN             NaN
             NaN             NaN             NaN
             NaN             NaN             NaN
             NaN             NaN             NaN
             NaN             NaN             NaN
             NaN             NaN             NaN
             NaN             NaN             NaN
             NaN             NaN             NaN
             NaN             NaN             NaN
             NaN             NaN             NaN
             NaN             NaN             NaN
             NaN             NaN             NaN
             NaN             NaN             NaN
             NaN             NaN             NaN
             NaN             NaN             NaN
             NaN             NaN             NaN
             NaN             NaN             NaN
             NaN             NaN             NaN
             NaN             NaN             NaN
             NaN             NaN             NaN
             NaN             NaN             NaN
             NaN             NaN             NaN
             NaN             NaN             NaN
             NaN             NaN             NaN
             NaN             NaN             NaN
             NaN             NaN             NaN
             NaN             NaN             NaN
             NaN             NaN             NaN
             NaN             NaN             NaN
             NaN             NaN             NaN
             NaN             NaN             NaN
             NaN             NaN             NaN
             NaN             NaN             NaN
             NaN             NaN             NaN
             NaN             NaN             NaN
             NaN             NaN             NaN
             NaN             NaN             NaN
             NaN             NaN             NaN
             NaN             NaN             NaN
             NaN             NaN             NaN
