Zn8 Co16 O32
1.0
        8.0673189163         0.0000000000         0.0000000000
        0.0000000000         8.0673189163         0.0000000000
        0.0000000000         0.0000000000         8.0673189163
   Zn   Co    O
    7   16   32
Direct
   0.5000000000000000    0.5000000000000000    1.0000000000000000 Zn
     0.500000000         0.000000000         0.500000000
     0.250000000         0.250000000         0.250000000
     0.750000000         0.750000000         0.250000000
     0.000000000         0.000000000         0.000000000
     0.750000000         0.250000000         0.750000000
     0.000000000         0.500000000         0.500000000
     0.375000000         0.375000000         0.625000000
     0.375000000         0.125000000         0.875000000
     0.625000000         0.625000000         0.625000000
     0.625000000         0.375000000         0.375000000
     0.375000000         0.875000000         0.125000000
     0.375000000         0.625000000         0.375000000
     0.625000000         0.125000000         0.125000000
     0.625000000         0.875000000         0.875000000
     0.875000000         0.375000000         0.125000000
     0.875000000         0.125000000         0.375000000
     0.125000000         0.625000000         0.125000000
     0.125000000         0.375000000         0.875000000
     0.875000000         0.875000000         0.625000000
     0.875000000         0.625000000         0.875000000
     0.125000000         0.125000000         0.625000000
     0.125000000         0.875000000         0.375000000
     0.139063925         0.360936075         0.639063954
     0.360936075         0.360936075         0.860936046
     0.360936075         0.139063925         0.639063954
     0.610936046         0.610936046         0.389063925
     0.389063925         0.610936046         0.610936046
     0.389063925         0.389063925         0.389063925
     0.139063925         0.139063925         0.860936046
     0.610936046         0.389063925         0.610936046
     0.139063925         0.860936046         0.139063925
     0.360936075         0.860936046         0.360936075
     0.360936075         0.639063954         0.139063925
     0.610936046         0.110936068         0.889063954
     0.389063925         0.110936068         0.110936068
     0.389063925         0.889063954         0.889063954
     0.139063925         0.639063954         0.360936075
     0.610936046         0.889063954         0.110936068
     0.639063954         0.360936075         0.139063925
     0.860936046         0.360936075         0.360936075
     0.860936046         0.139063925         0.139063925
     0.110936068         0.610936046         0.889063954
     0.889063954         0.610936046         0.110936068
     0.889063954         0.389063925         0.889063954
     0.639063954         0.139063925         0.360936075
     0.110936068         0.389063925         0.110936068
     0.639063954         0.860936046         0.639063954
     0.860936046         0.860936046         0.860936046
     0.860936046         0.639063954         0.639063954
     0.110936068         0.110936068         0.389063925
     0.889063954         0.110936068         0.610936046
     0.889063954         0.889063954         0.389063925
     0.639063954         0.639063954         0.860936046
     0.110936068         0.889063954         0.610936046
