V4 P4 O20                               
   1.00000000000000     
     6.4640523225076763   -0.0485740649920945   -3.4100318883742684
    -0.0562450098970517    7.4513471958408690   -0.0122483094493149
    -0.4995514264534658   -0.0087278658065774    7.7594867446461633
   Na   V    P    O 
     1     4     4    20
Direct
   0.9999937697628012    0.0000014475508816    0.4999938065539725 Na
  0.2387184861333038  0.7585786601027715  0.9587243654506286
  0.7814881531386638  0.2362612249775972  0.5401772512704953
  0.7612850692339717  0.2414203522589353  0.0412779090814498
  0.2185051298783359  0.7637430197870421  0.4598161175937835
  0.2535203527333219  0.1111259779972528  0.2445181736682895
  0.7444095261321769  0.6033237255778445  0.2539335122088376
  0.7464831646017808  0.8888760135578210  0.7554821436538967
  0.2555858818584510  0.3966729712415508  0.7460605244955587
  0.2253046149357002  0.0025133073101924  0.4032205763175302
  0.7804571767049679  0.4929799846256444  0.1050732175888971
  0.7746960186365041  0.9974897818135613  0.5967826461081390
  0.2195393496464872  0.5070194357661217  0.8949228839279703
  0.7766987789518943  0.3191414134970436  0.7295911647456461
  0.2439229714538356  0.8343843944543928  0.7681818890189522
  0.2233032484889781  0.6808637877835813  0.2704187233383087
  0.7560805762130547  0.1656153164443318  0.2318214065269475
  0.5377684967933888  0.7133971476114386  0.1512072850502005
  0.4608493375945450  0.2248727944240461  0.3545836110985616
  0.4622298528427600  0.2865982090188328  0.8487911528488702
  0.5391503074404792  0.7751276694627562  0.6454152238152000
  0.2518308479016573  0.5209249748742966  0.5862513679435293
  0.7394479537324078  0.0168534354760718  0.9069058657971130
  0.7481638112545141  0.4790728581806460  0.4137427189978215
  0.2605585013761582  0.9831465466627536  0.0930977888415925
  0.9279176303686806  0.7477077574988616  0.3627199367215705
  0.0637820969772782  0.2419513440565791  0.1418872427026474
  0.0720777431274725  0.2522915725174681  0.6372758281081784
  0.9362218777714767  0.7580469811718080  0.8581111573098051
 
  0.00000000E+00  0.00000000E+00  0.00000000E+00
  0.00000000E+00  0.00000000E+00  0.00000000E+00
  0.00000000E+00  0.00000000E+00  0.00000000E+00
  0.00000000E+00  0.00000000E+00  0.00000000E+00
  0.00000000E+00  0.00000000E+00  0.00000000E+00
  0.00000000E+00  0.00000000E+00  0.00000000E+00
  0.00000000E+00  0.00000000E+00  0.00000000E+00
  0.00000000E+00  0.00000000E+00  0.00000000E+00
  0.00000000E+00  0.00000000E+00  0.00000000E+00
  0.00000000E+00  0.00000000E+00  0.00000000E+00
  0.00000000E+00  0.00000000E+00  0.00000000E+00
  0.00000000E+00  0.00000000E+00  0.00000000E+00
  0.00000000E+00  0.00000000E+00  0.00000000E+00
  0.00000000E+00  0.00000000E+00  0.00000000E+00
  0.00000000E+00  0.00000000E+00  0.00000000E+00
  0.00000000E+00  0.00000000E+00  0.00000000E+00
  0.00000000E+00  0.00000000E+00  0.00000000E+00
  0.00000000E+00  0.00000000E+00  0.00000000E+00
  0.00000000E+00  0.00000000E+00  0.00000000E+00
  0.00000000E+00  0.00000000E+00  0.00000000E+00
  0.00000000E+00  0.00000000E+00  0.00000000E+00
  0.00000000E+00  0.00000000E+00  0.00000000E+00
  0.00000000E+00  0.00000000E+00  0.00000000E+00
  0.00000000E+00  0.00000000E+00  0.00000000E+00
  0.00000000E+00  0.00000000E+00  0.00000000E+00
  0.00000000E+00  0.00000000E+00  0.00000000E+00
  0.00000000E+00  0.00000000E+00  0.00000000E+00
  0.00000000E+00  0.00000000E+00  0.00000000E+00
  0.00000000E+00  0.00000000E+00  0.00000000E+00
