Ca3 V8 F24
1.0
7.831735 0.000100 0.000006
0.000077 8.111622 0.000189
0.000005 0.000219 8.001648
Ca V F
3 8 24
direct
0.500137 -0.499991 0.499980 Ca
0.000029 0.499993 0.499996 Ca
0.499997 1.000003 -0.000006 Ca
0.246747 0.245281 0.247248 V
0.246742 0.245278 0.752775 V
0.246733 0.754739 0.247230 V
0.246726 0.754736 0.752760 V
0.753271 0.245250 0.247222 V
0.753302 0.245254 0.752787 V
0.753256 0.754736 0.247204 V
0.753267 0.754730 0.752779 V
-0.000024 0.226111 0.196601 F
-0.000015 0.226104 0.803444 F
-0.000019 0.773880 0.196599 F
-0.000018 0.773917 0.803398 F
0.500010 0.290360 0.308996 F
0.500000 0.290391 0.691007 F
0.499981 0.709664 0.308975 F
0.499982 0.709629 0.691011 F
0.318913 0.238959 0.000007 F
0.188428 0.259736 0.499997 F
0.318879 0.761045 0.999998 F
0.188399 0.740281 0.500005 F
0.681106 0.238931 0.000005 F
0.811559 0.259753 0.499996 F
0.681097 0.761054 0.999983 F
0.811527 0.740187 0.500013 F
0.305751 0.999994 0.230081 F
0.305780 1.000001 0.769891 F
0.219228 0.500003 0.289404 F
0.219185 0.500023 0.710615 F
0.694237 -0.000003 0.230105 F
0.694206 -0.000012 0.769857 F
0.780758 0.499979 0.289402 F
0.780812 0.500007 0.710614 F
