Ca1 Ti12 F42                            
   1.00000000000000     
     7.5119239999999996   -0.0024990000000000    0.0387970000000000
    -3.7476630000000002    6.5118159999999996    0.0141530000000000
    -0.0317750000000000    0.0727850000000000   17.6489049999999992
   Ca   Ti   F 
     1    12    42
Direct
  0.8036470863000126  0.7929268407571951  0.2915120101401704
  0.3004961934868328 -0.0029527287229798  0.3318622604271217
  0.7309853099390152  0.7298503511991463  0.9977093293820921
  0.0072353273746719  0.2753450834270527  0.6693337298534884
  0.3614112907814848  1.0042424243824200  0.8339018079692500
  0.6512424766251875  0.6556929687407852  0.5083432018286659
  0.9839457571705179  0.3457258332577339  0.1696530584003249
  0.6486964662560878  0.1524089687472138  0.5050812074745458
  0.4864899373378991  0.3439252928394814  0.1605258394124482
  0.8620220242920953  0.5023684370118894  0.8326512764487370
  0.3633823886657896  0.5053473844121035  0.8338253701323440
  0.1510981252691472  0.6471993380044093  0.5043901639668166
  0.4855237332064778  0.8471631240992054  0.1617879337145893
  0.5745259086343903  0.8218752870198223  0.0607889601067332
  0.2572038305207959  0.4265873349934682  0.7297256614055903
  0.1913043485180171  0.7498649258576797  0.3990135524820475
  0.4222957114034321  0.2493724362744436  0.2683917747734257
  0.8318631671477803  0.5812043100018757  0.9372515673888293
  0.7573239416113360  0.1749597810710906  0.6077792026004929
  0.8937116387098233  0.0685433135956648  0.7352051060745284
  0.0905094759898798  0.0364630914799671  0.3688507531538396
  0.9244692678957781  0.8081976027758339  0.0687810308698227
  0.1236253547220089  0.1902000059472746  0.6015112951027680
  0.1000951686029918  0.8504316873926034  0.2517983338976952
  0.8305843077022342  0.9446124578449406  0.9354642912873330
  0.1158113558338718  0.5441530612151373  0.6069483389268580
  0.4572675033150448  0.8867152528311081  0.2750115676989855
  0.4686761968890253  0.5797614635711034  0.9360499062486523
  0.8943663850492407  0.4291945112084151  0.7306644536031368
  0.5362641570431147  0.1296018021622380  0.4011412382553406
  0.5629781423315166  0.4599418315679357  0.0609787759348921
  0.3598122385878058  0.5696296808864882  0.4846211207366501
  0.2039351769646545  0.6311373193539019  0.1483901681782578
  0.4373775103328149  0.7886846917307789  0.8122464734643087
  0.6527822730151817  0.2198504245608889  0.8553004732341599
  0.5776153369804689  0.3653163336285939  0.5249375583854923
  0.7719543560543946  0.4380979560421799  0.1925127432127210
  0.6856534282095976  0.6268401476899460  0.3987822955056101
  0.8756208051466374  0.2916254503863678  0.0754850533932818
  0.3999885558972041  0.0820615326103571  0.7349086599645622
  0.3213509897871792  0.9276086314580630  0.9332230497910209
  0.6228690839816158  0.7035210424340301  0.6051045368919088
  0.0268642697353004  0.3618904911741210  0.2719236092692940
  0.9441892180461425  0.7295453760617253  0.5193204166201014
  0.7827257523030110  0.0299110152374677  0.1934141210573837
  0.2856575300991007  0.2202743811232737  0.8549360323708485
  0.0701178053865294  0.7880306602556583  0.8130639677790336
  0.7244012397492502  0.9447714684847138  0.4788965892455705
  0.1990919669644959  0.2710367605545052  0.1484466940682284
  0.6378344467467651  0.5543082105995084  0.8033201180811350
  0.9249698853918724  0.3747365921499824  0.4735634898672842
  0.4467192734361233  0.0762005955576093  0.1362435261934500
  0.3745323711668159  0.9227783263098656  0.5335174417500638
  0.5473573506145798  0.6244954513034856  0.2026997442260869
  0.0872468651987056  0.4535163943249891  0.8633386671256534
 
             NaN             NaN             NaN
             NaN             NaN             NaN
             NaN             NaN             NaN
             NaN             NaN             NaN
             NaN             NaN             NaN
             NaN             NaN             NaN
             NaN             NaN             NaN
             NaN             NaN             NaN
             NaN             NaN             NaN
             NaN             NaN             NaN
             NaN             NaN             NaN
             NaN             NaN             NaN
             NaN             NaN             NaN
             NaN             NaN             NaN
             NaN             NaN             NaN
             NaN             NaN             NaN
             NaN             NaN             NaN
             NaN             NaN             NaN
             NaN             NaN             NaN
             NaN             NaN             NaN
             NaN             NaN             NaN
             NaN             NaN             NaN
             NaN             NaN             NaN
             NaN             NaN             NaN
             NaN             NaN             NaN
             NaN             NaN             NaN
             NaN             NaN             NaN
             NaN             NaN             NaN
             NaN             NaN             NaN
             NaN             NaN             NaN
             NaN             NaN             NaN
             NaN             NaN             NaN
             NaN             NaN             NaN
             NaN             NaN             NaN
             NaN             NaN             NaN
             NaN             NaN             NaN
             NaN             NaN             NaN
             NaN             NaN             NaN
             NaN             NaN             NaN
             NaN             NaN             NaN
             NaN             NaN             NaN
             NaN             NaN             NaN
             NaN             NaN             NaN
             NaN             NaN             NaN
             NaN             NaN             NaN
             NaN             NaN             NaN
             NaN             NaN             NaN
             NaN             NaN             NaN
             NaN             NaN             NaN
             NaN             NaN             NaN
             NaN             NaN             NaN
             NaN             NaN             NaN
             NaN             NaN             NaN
             NaN             NaN             NaN
             NaN             NaN             NaN
