Ca1 Ti12 F42
1.0
7.511924 -0.002499 0.038797
-3.747663 6.511816 0.014153
-0.031775 0.072785 17.648905
Ca Ti F
1 12 42
direct
0.850415 0.808748 0.331419 Ca
0.289022 0.002343 0.334009 Ti
0.727959 0.727413 0.997333 Ti
0.001292 0.269434 0.668899 Ti
0.358878 0.997590 0.833363 Ti
0.647710 0.658549 0.501619 Ti
0.988796 0.343843 0.165179 Ti
0.645561 0.155858 0.502666 Ti
0.494381 0.351693 0.162404 Ti
0.858460 0.497567 0.832460 Ti
0.358397 0.497615 0.834336 Ti
0.148228 0.648935 0.504821 Ti
0.490536 0.846825 0.163570 Ti
0.569874 0.817553 0.060566 F
0.249547 0.416882 0.730163 F
0.179963 0.749030 0.397975 F
0.413381 0.245922 0.267438 F
0.830282 0.579726 0.936540 F
0.756466 0.178852 0.604572 F
0.881166 0.059363 0.733170 F
0.169143 0.108359 0.396780 F
0.930297 0.818224 0.064594 F
0.118816 0.184346 0.601485 F
0.049104 0.868430 0.275559 F
0.816371 0.935233 0.931998 F
0.112223 0.538667 0.605465 F
0.440574 0.889648 0.273226 F
0.461922 0.569768 0.936739 F
0.890676 0.424986 0.730037 F
0.561032 0.136405 0.392148 F
0.574167 0.459566 0.061436 F
0.356892 0.574099 0.479492 F
0.203194 0.637039 0.153804 F
0.432877 0.780452 0.811540 F
0.649737 0.214615 0.855101 F
0.571621 0.367389 0.517500 F
0.775050 0.422675 0.193833 F
0.695918 0.652206 0.394683 F
0.899262 0.305366 0.070271 F
0.399598 0.076370 0.734374 F
0.319385 0.919116 0.932345 F
0.617593 0.713169 0.597646 F
0.026290 0.341610 0.273104 F
0.937549 0.726250 0.518963 F
0.779656 0.041172 0.189246 F
0.281264 0.211988 0.854782 F
0.067708 0.782922 0.811817 F
0.734128 0.957869 0.472788 F
0.208233 0.277377 0.145185 F
0.632648 0.547090 0.803536 F
0.922471 0.380133 0.465450 F
0.448650 0.077676 0.137129 F
0.373340 0.924726 0.528718 F
0.545965 0.624293 0.197485 F
0.082681 0.447670 0.863519 F
