Ca16 V32 O64
1.0
   9.9157190145163092    0.0351132967849346    0.0313683176484466
   1.8848516161980113   11.2394705023547061    3.1736856055427887
  -0.0021775004503994   -0.0888926450886940   12.1535475742836496
Ca V O
15 32 64
direct
   0.6839740270011543    0.3429174799321338    0.2927837450151391 Ca
   0.1839740270011543    0.3429174799321338    0.2927837450151391 Ca
   0.1839740270011543    0.3429174799321338    0.7927837450151390 Ca
   0.1839740270011543    0.8429174799321337    0.2927837450151391 Ca
   0.1839740270011543    0.8429174799321336    0.7927837450151390 Ca
   0.6839740270011543    0.3429174799321338    0.7927837450151392 Ca
   0.6839740270011542    0.8429174799321337    0.2927837450151391 Ca
   0.6839740270011543    0.8429174799321336    0.7927837450151392 Ca
   0.3754462474177547    0.3477300014819595    0.0377953782961797 Ca
   0.3754462474177547    0.8477300014819595    0.0377953782961797 Ca
   0.3754462474177547    0.8477300014819594    0.5377953782961796 Ca
   0.8754462474177547    0.3477300014819594    0.0377953782961797 Ca
   0.8754462474177547    0.3477300014819594    0.5377953782961797 Ca
   0.8754462474177548    0.8477300014819594    0.0377953782961796 Ca
   0.8754462474177547    0.8477300014819594    0.5377953782961796 Ca
   0.1587771848314977    0.0941852967400349    0.4785475842519069 V
   0.1587771848314977    0.0941852967400349    0.9785475842519069 V
   0.1587771848314976    0.5941852967400350    0.4785475842519069 V
   0.1587771848314977    0.5941852967400348    0.9785475842519069 V
   0.6587771848314977    0.0941852967400350    0.4785475842519069 V
   0.6587771848314977    0.0941852967400349    0.9785475842519069 V
   0.6587771848314976    0.5941852967400350    0.4785475842519069 V
   0.6587771848314976    0.5941852967400348    0.9785475842519068 V
   0.1597802410849370    0.1024982583316055    0.2247550229623179 V
   0.1597802410849370    0.1024982583316055    0.7247550229623180 V
   0.1597802410849369    0.6024982583316055    0.2247550229623179 V
   0.1597802410849370    0.6024982583316054    0.7247550229623179 V
   0.6597802410849368    0.1024982583316055    0.2247550229623179 V
   0.6597802410849370    0.1024982583316055    0.7247550229623179 V
   0.6597802410849370    0.6024982583316055    0.2247550229623179 V
   0.6597802410849369    0.6024982583316054    0.7247550229623179 V
   0.3998183704849974    0.0881556087969067    0.1057972740815494 V
   0.3998183704849975    0.0881556087969067    0.6057972740815495 V
   0.3998183704849974    0.5881556087969066    0.1057972740815494 V
   0.3998183704849975    0.5881556087969066    0.6057972740815494 V
   0.8998183704849972    0.0881556087969067    0.1057972740815494 V
   0.8998183704849975    0.0881556087969067    0.6057972740815495 V
   0.8998183704849976    0.5881556087969068    0.1057972740815495 V
   0.8998183704849974    0.5881556087969066    0.6057972740815494 V
   0.4007477164864413    0.0964234913863774    0.3520364058383077 V
   0.4007477164864413    0.0964234913863774    0.8520364058383076 V
   0.4007477164864412    0.5964234913863774    0.3520364058383076 V
   0.4007477164864413    0.5964234913863774    0.8520364058383076 V
   0.9007477164864413    0.0964234913863774    0.3520364058383077 V
   0.9007477164864414    0.0964234913863774    0.8520364058383076 V
   0.9007477164864411    0.5964234913863774    0.3520364058383076 V
   0.9007477164864414    0.5964234913863774    0.8520364058383078 V
   0.0009621745994047    0.0023460135783929    0.0005521922055276 O
   0.0009621745994047    0.0023460135783929    0.5005521922055275 O
   0.0009621745994047    0.5023460135783929    0.0005521922055276 O
   0.0009621745994047    0.5023460135783928    0.5005521922055275 O
   0.5009621745994047    0.0023460135783929    0.0005521922055276 O
   0.5009621745994047    0.0023460135783929    0.5005521922055275 O
   0.5009621745994046    0.5023460135783929    0.0005521922055276 O
   0.5009621745994047    0.5023460135783928    0.5005521922055275 O
   0.0069386167192669    0.0057550990619372    0.2516107053358730 O
   0.0069386167192669    0.0057550990619373    0.7516107053358730 O
   0.0069386167192669    0.5057550990619373    0.2516107053358730 O
   0.0069386167192669    0.5057550990619372    0.7516107053358730 O
   0.5069386167192670    0.0057550990619372    0.2516107053358730 O
   0.5069386167192669    0.0057550990619372    0.7516107053358729 O
   0.5069386167192670    0.5057550990619372    0.2516107053358730 O
   0.5069386167192670    0.5057550990619372    0.7516107053358729 O
   0.0526206075068109    0.1849391166976999    0.0789226927605852 O
   0.0526206075068109    0.1849391166976999    0.5789226927605852 O
   0.0526206075068110    0.6849391166976998    0.0789226927605852 O
   0.0526206075068110    0.6849391166976998    0.5789226927605852 O
   0.5526206075068109    0.1849391166976999    0.0789226927605852 O
   0.5526206075068110    0.1849391166976999    0.5789226927605852 O
   0.5526206075068110    0.6849391166976998    0.0789226927605852 O
   0.5526206075068110    0.6849391166976999    0.5789226927605852 O
   0.0585669168833450    0.1882521111827294    0.3300256498265096 O
   0.0585669168833450    0.1882521111827294    0.8300256498265096 O
   0.0585669168833450    0.6882521111827293    0.3300256498265096 O
   0.0585669168833450    0.6882521111827293    0.8300256498265097 O
   0.5585669168833450    0.1882521111827294    0.3300256498265096 O
   0.5585669168833449    0.1882521111827294    0.8300256498265096 O
   0.5585669168833449    0.6882521111827294    0.3300256498265096 O
   0.5585669168833450    0.6882521111827294    0.8300256498265096 O
   0.2555414935144892    0.4873054143616152    0.1313338985133347 O
   0.2555414935144892    0.4873054143616152    0.6313338985133347 O
   0.2555414935144892    0.9873054143616151    0.1313338985133347 O
   0.2555414935144892    0.9873054143616151    0.6313338985133348 O
   0.7555414935144892    0.4873054143616152    0.1313338985133347 O
   0.7555414935144893    0.4873054143616152    0.6313338985133348 O
   0.7555414935144893    0.9873054143616152    0.1313338985133347 O
   0.7555414935144891    0.9873054143616152    0.6313338985133347 O
   0.2578384822532467    0.4911933348957905    0.3771319560822486 O
   0.2578384822532468    0.4911933348957904    0.8771319560822487 O
   0.2578384822532468    0.9911933348957904    0.3771319560822487 O
   0.2578384822532467    0.9911933348957905    0.8771319560822488 O
   0.7578384822532469    0.4911933348957905    0.3771319560822487 O
   0.7578384822532467    0.4911933348957905    0.8771319560822487 O
   0.7578384822532467    0.9911933348957903    0.3771319560822486 O
   0.7578384822532469    0.9911933348957904    0.8771319560822486 O
   0.3016514686871974    0.1994213020469132    0.4534362183786677 O
   0.3016514686871974    0.1994213020469132    0.9534362183786677 O
   0.3016514686871974    0.6994213020469131    0.4534362183786677 O
   0.3016514686871974    0.6994213020469131    0.9534362183786677 O
   0.8016514686871973    0.1994213020469132    0.4534362183786677 O
   0.8016514686871975    0.1994213020469132    0.9534362183786677 O
   0.8016514686871975    0.6994213020469131    0.4534362183786677 O
   0.8016514686871973    0.6994213020469131    0.9534362183786678 O
   0.3039869525294562    0.2033784715058997    0.1992207764518493 O
   0.3039869525294562    0.2033784715058997    0.6992207764518493 O
   0.3039869525294562    0.7033784715058996    0.1992207764518494 O
   0.3039869525294561    0.7033784715058995    0.6992207764518493 O
   0.8039869525294563    0.2033784715058997    0.1992207764518493 O
   0.8039869525294562    0.2033784715058997    0.6992207764518493 O
   0.8039869525294561    0.7033784715058996    0.1992207764518494 O
   0.8039869525294562    0.7033784715058996    0.6992207764518493 O
