Ca8 Mn12 F42                            
   1.00000000000000     
     7.6892189999999996   -0.0927010000000000   -0.0165880000000000
    -3.9307599999999998    6.7175360000000000    0.0644480000000000
    -0.0232270000000000    0.1758270000000000   18.3986039999999988
   Ca   Mn   F 
     8    12    42
Direct
  0.4894068719126290  0.7620475910924006  0.6774960489762055
  0.1696170932842394  0.6464853720865716  0.9953355060895103
  0.3463272014135592  0.4956387777944249  0.3506824112090779
  0.8321744584594217 -0.0046987411010388  0.3349683650408122
  0.1723649625624392  0.1589973744553641  0.0022339952541030
  0.8115179940289996  0.9299593361452777  0.8442792796142591
  0.9865326881904527  0.7790227983097499  0.1737072555788197
  0.1855788258611357  0.1731003565465849  0.5182866973531429
  0.3411014900396235  0.0233738228980195  0.3250311630551365
  0.9844488604906291  0.3221887157618649  0.6723967324342626
  0.6574610221087452  0.6638832104121463  0.0157128885817886
  0.3210093549225637 -0.0160270838737821  0.8316108584416502
  0.0094905459668558  0.3185104270545283  0.1703701501579143
  0.7293175816686547  0.6300028786588034  0.5024125165265103
  0.5094488246602876  0.8208980798938056  0.1680938570389288
  0.1953373759862282  0.6830017750391532  0.4971085960397090
  0.3125146036167364  0.4955969376594154  0.8448471191197838
  0.8032456202813928  0.5069994769882790  0.8220650384244248
  0.6957522124408460  0.1809332645084494  0.4867884726052716
  0.4937385660757747  0.3059917186174392  0.1623266721463043
  0.8018466598475616  0.2067811811771319  0.5905587804968179
  0.7386410779050328  0.6128342022932827  0.9120090358384503
  0.4388871783885239  0.3312321274501707  0.2697804345759101
  0.2534765425310109  0.7509358206561866  0.3844854044501630
  0.4793864363432663  0.7949132630199637  0.0540957658466237
  0.2077175451486769  0.4881192971972840  0.7425941433288034
  0.8415082425922448  0.9617598852418862  0.9685341068491371
  0.0355101652465513  0.8867541825643301  0.2868563703873643
  0.1652252900491434  0.2462663845129754  0.6325091895342223
 -0.0294955354445017  0.7476992786239646  0.0511718078948295
  0.8043195882473555  0.0391286274891554  0.7308092431393858
  0.2442819194265334  0.1656139445298759  0.3944777918839614
  0.5106553036089896  0.3481329802917397  0.0486025827039878
  0.6236211205201294  0.1246874100175100  0.3739509940796409
  0.8360409316290983  0.4233150906143570  0.7246912799052618
  0.3507267025471609  0.4936584293674298  0.9580032565250113
  0.1864549784737636  0.6100110831178608  0.6063634320991483
  0.5255100984421159  0.7679297586152907  0.2787778144423901
  0.8014478298780819  0.4154837061142413  0.1789188524788863
  0.5302160048585549  0.3156198150390578  0.5143499534250253
  0.5873834348487258  0.2328393716980524  0.8475525075949912
  0.4637425404425844  0.8116302177676821  0.8616884246913467
  0.2903028259066344  0.4845565013067502  0.4736840069096622
  0.1925380209410605  0.6353136000369763  0.1628010109003620
  0.0546805628783815  0.3146901495201999  0.2840116321207816
  0.6553282325606365  0.7084010451177255  0.5929050748241215
  0.2547735811915757  0.9496123839720392  0.9412986713434945
  0.3827493536559201 -0.0452533763737817  0.7320256060282059
  0.6749100915225889  0.6864657437255158  0.3994150896939219
  0.0416221446072443  0.3449477350150708  0.0574972566150630
  0.1753774799751469  0.1227994862435433  0.1304590609269901
  0.8912926671064330  0.0881795919973298  0.4561602531652568
  0.0178588527055060  0.8036670075126205  0.8084550717367897
  0.1578214157898386  0.1850160299466229  0.8615303861793205
  0.0435261164819676  0.8390399402555652  0.5153668847479417
  0.8154456913980280  0.0187940731013330  0.1914520189146496
  0.0397705834045039  0.4962586178323233  0.8847845114835121
  0.6401560447940094  0.6399068487787889  0.1437960372571580
  0.4642903502828779  0.9179988263321754  0.5163545945854063
  0.4087754466722598  0.0125173072469244  0.2068187480137158
  0.5926746288177461  0.6176224774917785  0.7802332576349352
  0.9061578735502797  0.4744025821182988  0.4701882781279642
 
             NaN             NaN             NaN
             NaN             NaN             NaN
             NaN             NaN             NaN
             NaN             NaN             NaN
             NaN             NaN             NaN
             NaN             NaN             NaN
             NaN             NaN             NaN
             NaN             NaN             NaN
             NaN             NaN             NaN
             NaN             NaN             NaN
             NaN             NaN             NaN
             NaN             NaN             NaN
             NaN             NaN             NaN
             NaN             NaN             NaN
             NaN             NaN             NaN
             NaN             NaN             NaN
             NaN             NaN             NaN
             NaN             NaN             NaN
             NaN             NaN             NaN
             NaN             NaN             NaN
             NaN             NaN             NaN
             NaN             NaN             NaN
             NaN             NaN             NaN
             NaN             NaN             NaN
             NaN             NaN             NaN
             NaN             NaN             NaN
             NaN             NaN             NaN
             NaN             NaN             NaN
             NaN             NaN             NaN
             NaN             NaN             NaN
             NaN             NaN             NaN
             NaN             NaN             NaN
             NaN             NaN             NaN
             NaN             NaN             NaN
             NaN             NaN             NaN
             NaN             NaN             NaN
             NaN             NaN             NaN
             NaN             NaN             NaN
             NaN             NaN             NaN
             NaN             NaN             NaN
             NaN             NaN             NaN
             NaN             NaN             NaN
             NaN             NaN             NaN
             NaN             NaN             NaN
             NaN             NaN             NaN
             NaN             NaN             NaN
             NaN             NaN             NaN
             NaN             NaN             NaN
             NaN             NaN             NaN
             NaN             NaN             NaN
             NaN             NaN             NaN
             NaN             NaN             NaN
             NaN             NaN             NaN
             NaN             NaN             NaN
             NaN             NaN             NaN
             NaN             NaN             NaN
             NaN             NaN             NaN
             NaN             NaN             NaN
             NaN             NaN             NaN
             NaN             NaN             NaN
             NaN             NaN             NaN
             NaN             NaN             NaN
