Ca8 Mn12 F42
1.0
7.689219 -0.092701 -0.016588
-3.930760 6.717536 0.064448
-0.023227 0.175827 18.398604
Ca Mn F
8 12 42
direct
0.497921 0.736827 0.659564 Ca
0.163534 0.648947 0.988323 Ca
0.342313 0.502244 0.347930 Ca
0.836736 0.002666 0.339692 Ca
0.171094 0.149522 0.006492 Ca
0.818641 0.963215 0.837442 Ca
0.998551 0.774965 0.176816 Ca
0.170077 0.163351 0.515779 Ca
0.339209 1.023976 0.323825 Mn
-0.007068 0.344868 0.670573 Mn
0.651507 0.647577 0.011524 Mn
0.328382 0.005737 0.831767 Mn
0.015045 0.315511 0.166188 Mn
0.701396 0.641075 0.505600 Mn
0.507827 0.816130 0.164933 Mn
0.169752 0.676166 0.492305 Mn
0.326150 0.503458 0.834823 Mn
0.826869 0.508077 0.836161 Mn
0.673547 0.180537 0.491904 Mn
0.500112 0.310557 0.166113 Mn
0.746282 0.214477 0.601811 F
0.821641 0.566130 0.946756 F
0.449424 0.327725 0.276520 F
0.242806 0.748953 0.380817 F
0.473332 0.774584 0.053087 F
0.262494 0.519604 0.729571 F
0.841062 0.935809 0.961137 F
0.031168 0.889699 0.287030 F
0.144523 0.228647 0.627319 F
1.047748 0.815955 0.059378 F
0.806770 0.063063 0.727215 F
0.198551 0.161735 0.392456 F
0.500286 0.339454 0.052515 F
0.612613 0.114057 0.375979 F
0.865435 0.456113 0.732818 F
0.374146 0.496353 0.949813 F
0.141874 0.593703 0.600095 F
0.534319 0.778737 0.275869 F
0.808101 0.416640 0.176871 F
0.514934 0.325252 0.508337 F
0.619810 0.222297 0.848623 F
0.463333 0.819540 0.849754 F
0.284101 0.495748 0.471095 F
0.200716 0.623645 0.169010 F
0.050635 0.311080 0.281163 F
0.631688 0.696229 0.596559 F
0.276887 0.967806 0.940404 F
0.363518 0.022237 0.729908 F
0.661791 0.694155 0.400636 F
0.048897 0.351847 0.050763 F
0.181472 0.164416 0.141768 F
0.851864 1.063650 0.473539 F
0.020098 0.807561 0.821561 F
0.170363 0.190346 0.850373 F
1.014378 0.826102 0.510401 F
0.799936 0.027306 0.175304 F
0.063174 0.479189 0.876907 F
0.655499 0.642403 0.145023 F
0.420542 0.928296 0.523839 F
0.392010 0.004418 0.202991 F
0.620383 0.593689 0.811349 F
0.894437 0.454555 0.466704 F
