Ca1 Ni12 F42                            
   1.00000000000000     
     7.0371709999999998   -0.0143230000000000    0.0143630000000000
    -3.5277650000000000    6.0699620000000003   -0.0019240000000000
    -0.0839550000000000    0.0466120000000000   16.9704049999999995
   Ca   Ni   F 
     1    12    42
Direct
  0.4592431589829682  0.6067719247791993  0.3313537465499763
  0.3027881879174431  1.0112223720967104  0.3379341266292745
  0.7000443141552816  0.7001873777824479  0.9939993445252888
  1.0012145125048701  0.2891576447369736  0.6708563379149801
  0.3493603732317725  0.9960399362810266  0.8319749648711705
  0.6633665658821978  0.6394012020870283  0.5066674489947767
  0.9977304130470401  0.3529606527761673  0.1646471271818041
  0.6606648703506548  0.1405761196184271  0.5029032225900244
  0.4971490432167809  0.3503138945278714  0.1606797513616885
  0.8495264081837998  0.4959729573246919  0.8322971511918597
  0.3495196749103811  0.4960165454601018  0.8318388345514024
  0.1562215772567080  0.6422804549599804  0.5048711658747790
  0.4964267497564693  0.8578637702412695  0.1562656810933118
  0.5783360960284551  0.8354949914159575  0.0504449476050497
  0.2663405168257952  0.4253303747514898  0.7271816693406700
  0.1904244648494857  0.7434801717815316  0.3974009410082417
  0.4342724887770252  0.2661972026834559  0.2722260096971599
  0.8177007223541874  0.5526144396116667  0.9381255805145916
  0.7486752252556995  0.1626490580256788  0.6122700530212384
  0.8863355689457036  0.0667311148854020  0.7362381649409639
  0.2325233290582840  0.1586311261372058  0.4042035627328648
  0.9260031936101887  0.8086565561078841  0.0574402538521627
  0.1118846643222175  0.1692063326707934  0.6101553203592485
  0.0497802336668541  0.9087398032503158  0.2880865605795933
  0.8226550420586930  0.9253169885267595  0.9296478212370427
  0.1373132317570514  0.5499029286636854  0.6099498086268312
  0.4027701278355136  0.8674165644637346  0.2677658976669935
  0.4338372926761104  0.5671941355265516  0.9357528853335245
  0.8814492230113097  0.4381948906843265  0.7272415727406103
  0.5702204129817177  0.1048313738016785  0.3906684167170545
  0.5508973170830354  0.4409581605743080  0.0543005281866152
  0.3774300621680420  0.5602192279489253  0.4727921408918870
  0.1999788777077100  0.6358267572890905  0.1306149283978006
  0.4371165522757800  0.7852962907486455  0.8059082986216329
  0.6511190085649159  0.2024647939736202  0.8539590888409785
  0.5717392619177553  0.3504435195222599  0.5320017212925973
  0.7984858030161395  0.4452534187836434  0.1882064537363259
  0.7102902886293755  0.5871704651570345  0.4045177418719744
  0.8951103269516042  0.2921458297312741  0.0677101641769068
  0.3842066054757894  0.0740585941549292  0.7325963695686136
  0.3144677238151047  0.9177605069582199  0.9313495989843713
  0.6114661765891657  0.6875109859828988  0.6033634402382887
  0.1095602505015387  0.4163365074357292  0.2654919063588160
  0.9479176005246047  0.7314742337782640  0.5329537261043493
  0.7852250547768482  0.0695393630160209  0.1952746634725148
  0.2620074908712525  0.2068243841762868  0.8578208781207306
  0.0478638503571630  0.7893075839948943  0.8104093605100864
  0.7451140394797804  0.9243116861770297  0.4747498212122465
  0.1909431863191255  0.2549905437547032  0.1417952966276761
  0.6310227832907646  0.5536957245113215  0.7988255350977975
  0.9463214703574173  0.3655267416360375  0.4696931691679460
  0.4241595437717727  0.0692361661532101  0.1256357136386842
  0.3740666084865391  0.9190898136248447  0.5363848715744538
  0.5576430687199438  0.6360483487612244  0.1984913696779605
  0.0682365888853478  0.4384072604725338  0.8654279069894354
 
             NaN             NaN             NaN
             NaN             NaN             NaN
             NaN             NaN             NaN
             NaN             NaN             NaN
             NaN             NaN             NaN
             NaN             NaN             NaN
             NaN             NaN             NaN
             NaN             NaN             NaN
             NaN             NaN             NaN
             NaN             NaN             NaN
             NaN             NaN             NaN
             NaN             NaN             NaN
             NaN             NaN             NaN
             NaN             NaN             NaN
             NaN             NaN             NaN
             NaN             NaN             NaN
             NaN             NaN             NaN
             NaN             NaN             NaN
             NaN             NaN             NaN
             NaN             NaN             NaN
             NaN             NaN             NaN
             NaN             NaN             NaN
             NaN             NaN             NaN
             NaN             NaN             NaN
             NaN             NaN             NaN
             NaN             NaN             NaN
             NaN             NaN             NaN
             NaN             NaN             NaN
             NaN             NaN             NaN
             NaN             NaN             NaN
             NaN             NaN             NaN
             NaN             NaN             NaN
             NaN             NaN             NaN
             NaN             NaN             NaN
             NaN             NaN             NaN
             NaN             NaN             NaN
             NaN             NaN             NaN
             NaN             NaN             NaN
             NaN             NaN             NaN
             NaN             NaN             NaN
             NaN             NaN             NaN
             NaN             NaN             NaN
             NaN             NaN             NaN
             NaN             NaN             NaN
             NaN             NaN             NaN
             NaN             NaN             NaN
             NaN             NaN             NaN
             NaN             NaN             NaN
             NaN             NaN             NaN
             NaN             NaN             NaN
             NaN             NaN             NaN
             NaN             NaN             NaN
             NaN             NaN             NaN
             NaN             NaN             NaN
             NaN             NaN             NaN
