Ca1 Ni12 F42
1.0
7.037171 -0.014323 0.014363
-3.527765 6.069962 -0.001924
-0.083955 0.046612 16.970405
Ca Ni F
1 12 42
direct
0.421708 0.504360 0.338507 Ca
0.308135 -0.001860 0.334039 Ni
0.698946 0.698539 0.996978 Ni
-0.000658 0.301467 0.669783 Ni
0.346806 -0.000523 0.833501 Ni
0.658572 0.660218 0.506068 Ni
0.993176 0.338985 0.159714 Ni
0.655797 0.157444 0.503690 Ni
0.495123 0.339996 0.158804 Ni
0.847646 0.499463 0.834494 Ni
0.347531 0.499464 0.832613 Ni
0.151348 0.658654 0.508382 Ni
0.494943 0.841724 0.160294 Ni
0.561490 0.820177 0.052713 F
0.261246 0.433449 0.727435 F
0.190975 0.741139 0.397015 F
0.439944 0.253075 0.268788 F
0.830425 0.569843 0.941629 F
0.745070 0.176728 0.610636 F
0.887281 0.067291 0.730258 F
0.205409 0.141518 0.391603 F
0.916006 0.806151 0.064375 F
0.119167 0.198034 0.605067 F
0.070913 0.875852 0.274572 F
0.822465 0.930114 0.935550 F
0.123720 0.570170 0.614524 F
0.428117 0.857073 0.274642 F
0.436663 0.565737 0.936572 F
0.865652 0.426045 0.728796 F
0.568717 0.133011 0.393454 F
0.549433 0.430512 0.053069 F
0.363081 0.564160 0.481493 F
0.198295 0.631989 0.136606 F
0.432713 0.792572 0.808440 F
0.637715 0.200275 0.860431 F
0.573933 0.370107 0.529309 F
0.792624 0.431838 0.182076 F
0.686957 0.613234 0.401307 F
0.914923 0.294806 0.060325 F
0.395473 0.087843 0.734441 F
0.298054 0.911182 0.932514 F
0.619610 0.702997 0.605098 F
0.070606 0.383215 0.264218 F
0.950361 0.761006 0.525679 F
0.787451 0.049572 0.187120 F
0.261226 0.206509 0.857502 F
0.055822 0.798247 0.807623 F
0.736785 0.945901 0.477575 F
0.193658 0.244888 0.141102 F
0.623879 0.564467 0.800463 F
0.931268 0.373476 0.469317 F
0.430674 0.058984 0.127337 F
0.378655 0.949421 0.537268 F
0.544003 0.613732 0.200586 F
0.072262 0.434441 0.866475 F
