Ca8 Cr12 F42                            
   1.00000000000000     
     7.4273499999999997   -0.0084730000000000   -0.4809640000000000
    -3.6033890000000000    6.6467460000000003    0.2179940000000000
     1.0139240000000000    0.2301190000000000   18.5674489999999999
   Ca   Cr   F 
     8    12    42
Direct
  0.5296561689996157  0.8177157853356322  0.6895377210708061
  0.8490146662834493  0.5172606408852455  0.3158330680982696
  0.5846828497044977  0.0832601692823071  0.9897087968695940
  0.0351439382884809  0.8426931954250442  0.6720208530382588
  0.8371018104967625  0.0084922500905150  0.3471891726138054
  0.1062420135887626  0.5880071068369860  0.9807443114423094
  0.9952120114619508  0.8583538321875253  0.1526634088862602
  0.2460742016008366  0.2297637571994820  0.5028532450868428
  0.3393017168107818  0.0080356982861103  0.3433369862869524
  0.9977033970210141  0.2957864154174235  0.6666506739642235
  0.6318139022310113  0.6100496150043124  0.9992681032566643
  0.3277136538087934  0.9749944209767349  0.8261168563466335
  0.9340602843503171  0.3089713511258710  0.1603399502515485
  0.7241343733068991  0.6993291800294013  0.5052562309935558
  0.4417573376830648  0.8091258474590715  0.1742442500552540
  0.2230958813317261  0.7095826444511772  0.5007724212461435
  0.3301880328688026  0.4691775677606033  0.8281249369804946
  0.8229150957416274  0.4672434598855475  0.8186492837464373
  0.7301341397448202  0.2050708241414375  0.5053799771319198
  0.4477683273412128  0.3242583386466700  0.1704264095315445
  0.7298314572794810  0.1369246500175624  0.6097544442330207
  0.8023720185439224  0.5165404382190093  0.9211352343844530
  0.5055686887207995  0.2737159642631206  0.2985008031981334
  0.1572022462473232  0.7285779953141379  0.3835862573129759
  0.3593684303899232  0.7946744535828357  0.0536819491237558
  0.2607044145871716  0.4714840123596253  0.7148273764597611
  0.7223265817824611  0.8871485973293852  0.9711996092450150
  0.9314122561901178  0.8356291730570751  0.2702620913670526
  0.1369715499319547  0.1581405878397730  0.6155157683660911
  0.9041889289965607  0.6995698108453363  0.0489943410861922
  0.8582041193814149  0.9861405891507457  0.7217986790376615
  0.1717088690348239  0.1219558013657909  0.3880625530808389
  0.5236380771170571  0.3293114038604186  0.0373742541167832
  0.7762143923807194  0.2697990116842807  0.4010847779389617
  0.8779172797907582  0.4538477806706880  0.7120505752915600
  0.3714485162339057  0.5220723302460175  0.9451107683713550
  0.2602393964399607  0.7485216569165327  0.6142274921351457
  0.5198603677725928  0.9115432869804742  0.3055120365432992
  0.7537510792725489  0.4365274247423062  0.1805887764304031
  0.6006316968466102  0.3792205679157928  0.5214934170770192
  0.6063254506223654  0.1610565992456724  0.8602619730686176
  0.4220710756287248  0.7679675740598907  0.8125236301406562
  0.4215508143382876  0.6008602717789145  0.4887615721490965
  0.1454622020509300  0.6655117499313130  0.1976611643191710
  0.9382614987777225  0.2795781882473056  0.2671571019913534
  0.7079948099513028  0.7199576989305667  0.6110245727863078
  0.2719302981861327  0.9004001647249623  0.9271392389262861
  0.3784125503986492  0.0188335075257255  0.7229003151222907
  0.7487321956100923  0.6851334550837127  0.3996040794923851
  0.9073014925096049  0.3118764273760322  0.0528846126987971
  0.1454459437723086  0.2132402811731327  0.1515535093719858
  0.8388990040683351  0.0192095659943370  0.4788878052172893
  0.0516515356288067  0.7751013789638149  0.7952094655812123
  0.2430171280481380  0.1803017654214720  0.8351555720410703
  0.0259785657923198  0.8135825756461170  0.5239509264138130
  0.7366426043579890  0.9549867203775525  0.1482022760696089
  0.0551709171466308  0.4264960646981905  0.8579258317236927
  0.4930641662428980  0.5858498733513434  0.2011614696852588
  0.4172020521361864  1.0058320904190581  0.4848548667273070
  0.3748024669259903  0.0385864287703482  0.1574726946373602
  0.6020881082737689  0.5319296231569944  0.7920957694393844
  0.0417067101040764  0.4110815807594148  0.5169897332462011
 
             NaN             NaN             NaN
             NaN             NaN             NaN
             NaN             NaN             NaN
             NaN             NaN             NaN
             NaN             NaN             NaN
             NaN             NaN             NaN
             NaN             NaN             NaN
             NaN             NaN             NaN
             NaN             NaN             NaN
             NaN             NaN             NaN
             NaN             NaN             NaN
             NaN             NaN             NaN
             NaN             NaN             NaN
             NaN             NaN             NaN
             NaN             NaN             NaN
             NaN             NaN             NaN
             NaN             NaN             NaN
             NaN             NaN             NaN
             NaN             NaN             NaN
             NaN             NaN             NaN
             NaN             NaN             NaN
             NaN             NaN             NaN
             NaN             NaN             NaN
             NaN             NaN             NaN
             NaN             NaN             NaN
             NaN             NaN             NaN
             NaN             NaN             NaN
             NaN             NaN             NaN
             NaN             NaN             NaN
             NaN             NaN             NaN
             NaN             NaN             NaN
             NaN             NaN             NaN
             NaN             NaN             NaN
             NaN             NaN             NaN
             NaN             NaN             NaN
             NaN             NaN             NaN
             NaN             NaN             NaN
             NaN             NaN             NaN
             NaN             NaN             NaN
             NaN             NaN             NaN
             NaN             NaN             NaN
             NaN             NaN             NaN
             NaN             NaN             NaN
             NaN             NaN             NaN
             NaN             NaN             NaN
             NaN             NaN             NaN
             NaN             NaN             NaN
             NaN             NaN             NaN
             NaN             NaN             NaN
             NaN             NaN             NaN
             NaN             NaN             NaN
             NaN             NaN             NaN
             NaN             NaN             NaN
             NaN             NaN             NaN
             NaN             NaN             NaN
             NaN             NaN             NaN
             NaN             NaN             NaN
             NaN             NaN             NaN
             NaN             NaN             NaN
             NaN             NaN             NaN
             NaN             NaN             NaN
             NaN             NaN             NaN
