Ca8 Cr12 F42
1.0
7.427350 -0.008473 -0.480964
-3.603389 6.646746 0.217994
1.013924 0.230119 18.567449
Ca Cr F
8 12 42
direct
0.556703 0.829902 0.705375 Ca
0.834232 0.514273 0.316113 Ca
0.594558 0.095077 -0.009105 Ca
0.023511 0.833095 0.672870 Ca
0.829603 0.007210 0.346116 Ca
0.117218 0.596309 0.979017 Ca
0.994980 0.863081 0.152190 Ca
0.229029 0.210704 0.501970 Ca
0.331022 0.001234 0.339373 Cr
0.990083 0.285399 0.667431 Cr
0.645538 0.627819 0.995351 Cr
0.327770 0.979805 0.825638 Cr
0.939197 0.318012 0.160193 Cr
0.710238 0.688374 0.504835 Cr
0.447081 0.817641 0.171239 Cr
0.208639 0.694843 0.500226 Cr
0.330365 0.472132 0.826782 Cr
0.824110 0.466929 0.819259 Cr
0.717344 0.193685 0.504337 Cr
0.451348 0.330340 0.167792 Cr
0.722664 0.130284 0.609151 F
0.811392 0.527102 0.920725 F
0.495847 0.267253 0.293268 F
0.146817 0.722050 0.377395 F
0.380870 0.789497 0.050522 F
0.251225 0.453098 0.719545 F
0.738381 0.905849 0.965182 F
0.922015 0.833448 0.268590 F
0.124794 0.146456 0.615287 F
0.917245 0.716395 0.045799 F
0.852103 -0.019697 0.724103 F
0.165533 0.115384 0.385004 F
0.534230 0.347705 0.034516 F
0.758295 0.261183 0.399544 F
0.870749 0.442101 0.713930 F
0.387551 0.534769 0.937307 F
0.234858 0.733081 0.615896 F
0.514843 0.909575 0.299714 F
0.757829 0.445977 0.178221 F
0.582972 0.359235 0.521120 F
0.615465 0.176077 0.856423 F
0.425490 0.775156 0.810449 F
0.405247 0.581116 0.490875 F
0.151155 0.674733 0.192786 F
0.933089 0.283569 0.266871 F
0.702586 0.711223 0.610638 F
0.287658 0.909880 0.928105 F
0.363732 0.023582 0.722966 F
0.732011 0.680742 0.398117 F
0.916749 0.323279 0.051997 F
0.147631 0.217484 0.152740 F
0.838266 1.021010 0.476626 F
0.043740 0.765805 0.797974 F
0.235098 0.178220 0.839709 F
0.014673 0.806237 0.519143 F
0.740862 0.963136 0.144058 F
0.055603 0.427789 0.859617 F
0.495925 0.592392 0.198458 F
0.410793 -0.011024 0.481933 F
0.381996 0.046265 0.148358 F
0.605871 0.534965 0.793033 F
0.023537 0.398528 0.518180 F
