Na2 Ca2 V4 Si2 P4 O24                   
   1.00000000000000     
     8.8769229999999997    0.1371510000000000    0.0891240000000000
     4.3107420000000003    7.6965310000000002    0.0835970000000000
     4.4383100000000004    2.5601180000000001    7.2084089999999996
   Ca   Na   V    Si   P    O 
     2     2     4     2     4    24
Direct
  0.7361706865633247  0.4229270941722724  0.1881976592933630
  0.0050162771862822  0.9927989277254878  0.0004808158941774
  0.1428625252664093  0.7402369460179579  0.4178617096168158
  0.8710873487978471  0.2520104570700134  0.6047859665402976
  0.3513742282453065  0.3550115939557703  0.3604135165041563
  0.6241524420257754  0.6442052455199463  0.6500023440085504
  0.1622750589500070  0.1452409968012197  0.1396562147682106
  0.8475617834858775  0.8521881012643368  0.8621496223096748
  0.4508870040077774  0.7554011512315476  0.0369374176736176
  0.5430829997523235  0.2523685565247082  0.9639430963650147
  0.0236050565345562  0.4566702918248590  0.7547696072972889
  0.9670747141755830  0.5508442959114944  0.2510390847592631
  0.7431520548369226  0.0325212375370978  0.4726515203478872
  0.2497306388621634  0.9621811404015377  0.5368768434827937
  0.2099492399394549  0.4200167831866970  0.5953204088467059
  0.7788524506218245  0.5651543271638477  0.4136465603150821
  0.5748432868790296  0.2119676116792140  0.4456064148490516
  0.4279202760253062  0.7971900600716433  0.5468617534067163
  0.4304862895020549  0.5774286410569455  0.2340133924012064
  0.5646182148887247  0.4291766001075256  0.7687107448058154
  0.9066898835189647  0.0756279609868152  0.2801088639321199
  0.0833665086171841  0.9323402320038705  0.7249886353388013
  0.0266601054581895  0.2884118988862600  0.9434504448188694
  0.9473229225252933  0.7250944692533705  0.0761606390039220
  0.2555907876888788  0.9265673285773385  0.0701723967172474
  0.7395747786444539  0.0799854387673171  0.9335332831166170
  0.5026155226404573  0.2966187657361256  0.1421449604404192
  0.4862670374956542  0.7173923222176872  0.8585909422396419
  0.1245403919738719  0.5332415069233434  0.2916322450651180
  0.8602747180586378  0.4755472846844636  0.7204469151953962
  0.2583919113699998  0.1474046463566278  0.5011794020844919
  0.7302263047392721  0.8525883054879477  0.5022303281205741
  0.3697010569519653  0.2015512707550620  0.0011423467465699
  0.6407025796827667  0.7727755354200663  1.0095910220117581
  0.2029749862766073  0.9824582336196079  0.3793258125262948
  0.7874976079183780  0.0153514400889559  0.6290953980377536
  1.0050786004145813  0.3733012186632945  0.2193688041153999
 -0.0069068123564653  0.6336690055374983  0.7768660065544706
 
             NaN             NaN             NaN
             NaN             NaN             NaN
             NaN             NaN             NaN
             NaN             NaN             NaN
             NaN             NaN             NaN
             NaN             NaN             NaN
             NaN             NaN             NaN
             NaN             NaN             NaN
             NaN             NaN             NaN
             NaN             NaN             NaN
             NaN             NaN             NaN
             NaN             NaN             NaN
             NaN             NaN             NaN
             NaN             NaN             NaN
             NaN             NaN             NaN
             NaN             NaN             NaN
             NaN             NaN             NaN
             NaN             NaN             NaN
             NaN             NaN             NaN
             NaN             NaN             NaN
             NaN             NaN             NaN
             NaN             NaN             NaN
             NaN             NaN             NaN
             NaN             NaN             NaN
             NaN             NaN             NaN
             NaN             NaN             NaN
             NaN             NaN             NaN
             NaN             NaN             NaN
             NaN             NaN             NaN
             NaN             NaN             NaN
             NaN             NaN             NaN
             NaN             NaN             NaN
             NaN             NaN             NaN
             NaN             NaN             NaN
             NaN             NaN             NaN
             NaN             NaN             NaN
             NaN             NaN             NaN
             NaN             NaN             NaN
