Na2 Ca2 V4 Si2 P4 O24
1.0
8.876923 0.137151 0.089124
4.310742 7.696531 0.083597
4.438310 2.560118 7.208409
Ca Na V Si P O
2 2 4 2 4 24
direct
0.618031 0.454789 0.312252 Ca
1.002697 0.991513 0.001259 Ca
0.255078 0.638138 0.474917 Na
0.878339 0.251836 0.597221 Na
0.356269 0.357315 0.346135 V
0.627936 0.651100 0.651779 V
0.153334 0.147665 0.138301 V
0.846786 0.854669 0.856350 V
0.449901 0.756161 0.039304 Si
0.542949 0.253230 0.957095 Si
0.027489 0.461946 0.748834 P
0.963307 0.545517 0.244613 P
0.741597 0.044962 0.464361 P
0.251162 0.960942 0.530610 P
0.208628 0.432828 0.581012 O
0.782846 0.570654 0.415886 O
0.575559 0.229311 0.442175 O
0.418311 0.780991 0.551272 O
0.427872 0.581942 0.237115 O
0.564547 0.422727 0.756387 O
0.906015 0.072291 0.271318 O
0.082229 0.946048 0.718918 O
0.045806 0.283466 0.924838 O
0.943953 0.723002 0.071657 O
0.257927 0.931244 0.059570 O
0.736387 0.077812 0.931343 O
0.514283 0.303404 0.126705 O
0.486606 0.705883 0.864993 O
0.130911 0.516233 0.276720 O
0.858216 0.483661 0.723442 O
0.287384 0.134303 0.486632 O
0.707527 0.873304 0.503601 O
0.360055 0.207749 0.009287 O
0.636764 0.786729 0.995502 O
0.198598 0.984219 0.376578 O
0.792473 0.022437 0.619319 O
-0.014356 0.371397 0.222682 O
1.001552 0.634181 0.774445 O
