Na2 Ca2 V4 P4 S2 O24                    
   1.00000000000000     
     8.9260289999999998    0.2468960000000000    0.1188820000000000
     4.3813899999999997    7.7932129999999997    0.1527230000000000
     4.3185909999999996    2.6424509999999999    7.3262130000000001
   Ca   Na   V    P    S    O 
     2     2     4     4     2    24
Direct
  0.4965667473345588  0.3024838867188370  0.6585836149441450
  0.0149517093215451  0.9690054655310195  0.0145696575439947
  0.7450847665304078  0.4136310138065426  0.1429750342917838
  0.5916476332832811  0.8599987350088810  0.2479866310574774
  0.3452667157847437  0.3691240835849428  0.3474339596596662
  0.6441073550393440  0.6442794070597718  0.6377047284186188
  0.1499282305473038  0.1456113736408272  0.1438937980334810
  0.8498059574831111  0.8563899246925210  0.8531289377877300
  0.9535023542108775  0.5393071202487407  0.2527655868157949
  0.7494349025342175  0.0342521493593091  0.4479202706169773
  0.4573658086648156  0.7539811629551607  0.0329793194425081
  0.5535974236345782  0.2505380905404740  0.9676928856483137
  0.0347310315225528  0.4554026781790909  0.7474823766273754
  0.2431562204220189  0.9629753707815878  0.5467586773418865
  0.2225439966734655  0.4208750789798637  0.6029954395518305
  0.7638358631407812  0.5657990371326870  0.4105437661765053
  0.5836468141580060  0.2234553107005800  0.4184030738682025
  0.4034120559807045  0.7855386363433209  0.5635592894060846
  0.4244379477223951  0.5918264874951081  0.2172866243385780
  0.5788703670051647  0.4085182880953051  0.7775433859575894
  0.9171850514261557  0.0638006154851806  0.2687699819105400
  0.0850529087354701  0.9412132273981687  0.7246386303538122
  0.0433124679032421  0.2807497980746850  0.9160038064755923
  0.9323105612238606  0.7263947504120251  0.0851032201547482
  0.2795092356859287  0.9299140261834662  0.0427455124877689
  0.7333744209958480  0.0762723160430875  0.9565161542838170
  0.5180040260315599  0.2998971049093865  0.1241333222294437
  0.5017133588339482  0.7125800121829761  0.8650238770631899
  0.1100064739624508  0.5104816815920762  0.3016236076972487
  0.8949562691051984  0.4833265133452627  0.6871953657916133
  0.2875855802902125  0.1171532975040560  0.5138643378102374
  0.7115163356713246  0.8755816957327193  0.4679232564166049
  0.3962496155853908  0.2042212759183853  0.9883567835715918
  0.6210482766620843  0.7843246194085701  0.0188450167806145
  0.1960424128819343 -0.0062961239689900  0.3939850542984171
  0.7651826074939202  1.0166191696598852  0.6228035167483633
  0.9888445259699019  0.3817206303706557  0.2003729303658456
 -0.0011105363806245  0.6093316081538491  0.7928443486864826
 
             NaN             NaN             NaN
             NaN             NaN             NaN
             NaN             NaN             NaN
             NaN             NaN             NaN
             NaN             NaN             NaN
             NaN             NaN             NaN
             NaN             NaN             NaN
             NaN             NaN             NaN
             NaN             NaN             NaN
             NaN             NaN             NaN
             NaN             NaN             NaN
             NaN             NaN             NaN
             NaN             NaN             NaN
             NaN             NaN             NaN
             NaN             NaN             NaN
             NaN             NaN             NaN
             NaN             NaN             NaN
             NaN             NaN             NaN
             NaN             NaN             NaN
             NaN             NaN             NaN
             NaN             NaN             NaN
             NaN             NaN             NaN
             NaN             NaN             NaN
             NaN             NaN             NaN
             NaN             NaN             NaN
             NaN             NaN             NaN
             NaN             NaN             NaN
             NaN             NaN             NaN
             NaN             NaN             NaN
             NaN             NaN             NaN
             NaN             NaN             NaN
             NaN             NaN             NaN
             NaN             NaN             NaN
             NaN             NaN             NaN
             NaN             NaN             NaN
             NaN             NaN             NaN
             NaN             NaN             NaN
             NaN             NaN             NaN
