Na2 Ca2 V4 P4 S2 O24
1.0
8.926029 0.246896 0.118882
4.381390 7.793213 0.152723
4.318591 2.642451 7.326213
Ca Na V P S O
2 2 4 4 2 24
direct
0.472320 0.340917 0.603346 Ca
0.010276 0.980574 0.008950 Ca
0.716945 0.418563 0.180448 Na
0.603827 0.893161 0.244677 Na
0.353908 0.356326 0.346361 V
0.645728 0.648790 0.639751 V
0.145229 0.153181 0.141684 V
0.850581 0.854869 0.854497 V
0.954808 0.540954 0.249077 P
0.753937 0.034353 0.447637 P
0.461942 0.753298 0.039632 P
0.545053 0.254234 0.956679 P
0.045457 0.457952 0.741341 S
0.243384 0.961629 0.548455 S
0.227977 0.432217 0.590052 O
0.765068 0.568944 0.409488 O
0.585172 0.222317 0.431964 O
0.407875 0.784973 0.552355 O
0.442188 0.579574 0.212169 O
0.560455 0.426257 0.785069 O
0.914530 0.071899 0.262368 O
0.093082 0.929258 0.729158 O
0.063770 0.273580 0.900690 O
0.932405 0.733009 0.086918 O
0.275538 0.920032 0.059081 O
0.733053 0.087616 0.932148 O
0.514940 0.276319 0.129271 O
0.510923 0.727892 0.862466 O
0.116183 0.497284 0.298872 O
0.897822 0.491368 0.687675 O
0.291960 0.107823 0.527665 O
0.710469 0.882902 0.457956 O
0.387345 0.206416 -0.012812 O
0.615370 0.792984 0.032439 O
0.188180 1.008377 0.396300 O
0.790400 0.989030 0.618579 O
0.976763 0.392059 0.192856 O
0.010674 0.602766 0.799170 O
