Na64 Rh32 O96
1.0
   0.0000000000000000   10.9532816642733906    0.0000000000000000
  18.9390623600000012    0.0000000000000000    0.0000000000000000
   0.0000000000000000   -3.7240528032235121  -10.4207724893078630
Na Rh O
63 32 96
direct
   0.2500000000000000    0.5000000000000000    0.2500000000000000 Na
   0.0000000000000000    0.0000000000000000    0.0000000000000000 Na
   0.0000000000000000    0.0000000000000000    0.5000000000000000 Na
   0.0000000000000000    0.5000000000000000    0.0000000000000000 Na
   0.0000000000000000    0.5000000000000000    0.5000000000000000 Na
   0.5000000000000000    0.0000000000000000    0.0000000000000000 Na
   0.4999999999999999    0.0000000000000000    0.5000000000000000 Na
   0.5000000000000000    0.5000000000000000    0.0000000000000000 Na
   0.4999999999999999    0.5000000000000000    0.5000000000000000 Na
   0.2500000000000000    0.0000000000000000    0.2500000000000000 Na
   0.2499999999999999    0.0000000000000000    0.7500000000000000 Na
   0.2499999999999999    0.5000000000000000    0.7500000000000000 Na
   0.7500000000000001    0.0000000000000000    0.2500000000000000 Na
   0.7500000000000000    0.0000000000000000    0.7500000000000000 Na
   0.7500000000000001    0.5000000000000000    0.2500000000000000 Na
   0.7500000000000000    0.5000000000000000    0.7500000000000000 Na
   0.2499999999999999    0.3297675750000000    0.7500000000000000 Na
   0.2500000000000000    0.8297675750000000    0.2500000000000000 Na
   0.2499999999999999    0.8297675750000000    0.7500000000000000 Na
   0.7500000000000001    0.3297675750000000    0.2500000000000000 Na
   0.7500000000000000    0.3297675750000000    0.7500000000000000 Na
   0.7500000000000001    0.8297675750000000    0.2500000000000000 Na
   0.7500000000000000    0.8297675750000000    0.7500000000000000 Na
   0.2500000000000000    0.1702324249999999    0.2500000000000000 Na
   0.2499999999999999    0.1702324249999999    0.7500000000000000 Na
   0.2500000000000000    0.6702324249999999    0.2500000000000000 Na
   0.2499999999999999    0.6702324249999999    0.7500000000000000 Na
   0.7500000000000001    0.1702324249999999    0.2500000000000000 Na
   0.7500000000000000    0.1702324249999999    0.7500000000000000 Na
   0.7500000000000001    0.6702324249999999    0.2500000000000000 Na
   0.7500000000000000    0.6702324249999999    0.7500000000000000 Na
   0.2500000000000000    0.2500000000000000    0.0000000000000000 Na
   0.2500000000000000    0.2500000000000000    0.5000000000000000 Na
   0.2500000000000000    0.7500000000000000    0.0000000000000000 Na
   0.2500000000000000    0.7500000000000000    0.5000000000000000 Na
   0.7500000000000000    0.2500000000000000    0.0000000000000000 Na
   0.7500000000000000    0.2500000000000000    0.5000000000000000 Na
   0.7500000000000000    0.7500000000000000    0.0000000000000000 Na
   0.7500000000000000    0.7500000000000000    0.5000000000000000 Na
   0.0000000000000000    0.2500000000000000    0.2500000000000000 Na
   0.0000000000000000    0.2500000000000000    0.7500000000000000 Na
   0.0000000000000000    0.7500000000000000    0.2500000000000000 Na
   0.0000000000000000    0.7500000000000000    0.7500000000000000 Na
   0.5000000000000000    0.2500000000000000    0.2500000000000000 Na
   0.4999999999999999    0.2500000000000000    0.7500000000000000 Na
   0.5000000000000000    0.7500000000000000    0.2500000000000000 Na
   0.4999999999999999    0.7500000000000000    0.7500000000000000 Na
   0.0000000000000000    0.0797675750000000    0.2500000000000000 Na
   0.0000000000000000    0.0797675750000000    0.7500000000000000 Na
   0.0000000000000000    0.5797675750000000    0.2500000000000000 Na
   0.0000000000000000    0.5797675750000000    0.7500000000000000 Na
   0.5000000000000000    0.0797675750000000    0.2500000000000000 Na
   0.4999999999999999    0.0797675750000000    0.7500000000000000 Na
   0.5000000000000000    0.5797675750000000    0.2500000000000000 Na
   0.4999999999999999    0.5797675750000000    0.7500000000000000 Na
   0.0000000000000000    0.4202324250000000    0.2500000000000000 Na
   0.0000000000000000    0.4202324250000000    0.7500000000000000 Na
   0.0000000000000000    0.9202324249999999    0.2500000000000000 Na
   0.0000000000000000    0.9202324249999999    0.7500000000000000 Na
   0.5000000000000000    0.4202324250000000    0.2500000000000000 Na
   0.4999999999999999    0.4202324250000000    0.7500000000000000 Na
   0.5000000000000000    0.9202324249999999    0.2500000000000000 Na
   0.4999999999999999    0.9202324249999999    0.7500000000000000 Na
   0.2500000000000000    0.4165299250000000    0.0000000000000000 Rh
   0.2500000000000000    0.4165299250000000    0.5000000000000000 Rh
   0.2500000000000000    0.9165299249999999    0.0000000000000000 Rh
   0.2500000000000000    0.9165299249999999    0.5000000000000000 Rh
   0.7500000000000000    0.4165299250000000    0.0000000000000000 Rh
   0.7500000000000000    0.4165299250000000    0.5000000000000000 Rh
   0.7500000000000000    0.9165299249999999    0.0000000000000000 Rh
   0.7500000000000000    0.9165299249999999    0.5000000000000000 Rh
   0.2500000000000000    0.0834700750000000    0.0000000000000000 Rh
   0.2500000000000000    0.0834700750000000    0.5000000000000000 Rh
   0.2500000000000000    0.5834700750000000    0.0000000000000000 Rh
   0.2500000000000000    0.5834700750000000    0.5000000000000000 Rh
   0.7500000000000000    0.0834700750000000    0.0000000000000000 Rh
   0.7500000000000000    0.0834700750000000    0.5000000000000000 Rh
   0.7500000000000000    0.5834700750000000    0.0000000000000000 Rh
   0.7500000000000000    0.5834700750000000    0.5000000000000000 Rh
   0.0000000000000000    0.1665299249999999    0.0000000000000000 Rh
   0.0000000000000000    0.1665299249999999    0.5000000000000000 Rh
   0.0000000000000000    0.6665299250000000    0.0000000000000000 Rh
   0.0000000000000000    0.6665299250000000    0.5000000000000000 Rh
   0.5000000000000000    0.1665299249999999    0.0000000000000000 Rh
   0.4999999999999999    0.1665299249999999    0.5000000000000000 Rh
   0.5000000000000000    0.6665299250000000    0.0000000000000000 Rh
   0.4999999999999999    0.6665299250000000    0.5000000000000000 Rh
   0.0000000000000000    0.3334700750000000    0.0000000000000000 Rh
   0.0000000000000000    0.3334700750000000    0.5000000000000000 Rh
   0.0000000000000000    0.8334700750000000    0.0000000000000000 Rh
   0.0000000000000000    0.8334700750000000    0.5000000000000000 Rh
   0.5000000000000000    0.3334700750000000    0.0000000000000000 Rh
   0.4999999999999999    0.3334700750000000    0.5000000000000000 Rh
   0.5000000000000000    0.8334700750000000    0.0000000000000000 Rh
   0.4999999999999999    0.8334700750000000    0.5000000000000000 Rh
   0.3726438174999999    0.4078432575000001    0.3964161950000001 O
   0.3726438174999999    0.4078432575000001    0.8964161950000000 O
   0.3726438174999999    0.9078432574999999    0.3964161950000001 O
   0.3726438174999999    0.9078432574999999    0.8964161950000000 O
   0.8726438174999999    0.4078432575000001    0.3964161950000001 O
   0.8726438174999999    0.4078432575000001    0.8964161950000000 O
   0.8726438174999999    0.9078432574999999    0.3964161950000001 O
   0.8726438174999999    0.9078432574999999    0.8964161950000000 O
   0.3726438174999999    0.0921567424999999    0.3964161950000001 O
   0.3726438174999999    0.0921567424999999    0.8964161950000000 O
   0.3726438174999999    0.5921567424999999    0.3964161950000001 O
   0.3726438174999999    0.5921567424999999    0.8964161950000000 O
   0.8726438174999999    0.0921567424999999    0.3964161950000001 O
   0.8726438174999999    0.0921567424999999    0.8964161950000000 O
   0.8726438174999999    0.5921567424999999    0.3964161950000001 O
   0.8726438174999999    0.5921567424999999    0.8964161950000000 O
   0.1273561825000001    0.0921567424999999    0.1035838049999999 O
   0.1273561825000000    0.0921567424999999    0.6035838050000000 O
   0.1273561825000001    0.5921567424999999    0.1035838049999999 O
   0.1273561825000000    0.5921567424999999    0.6035838050000000 O
   0.6273561825000000    0.0921567424999999    0.1035838049999999 O
   0.6273561825000000    0.0921567424999999    0.6035838050000000 O
   0.6273561825000000    0.5921567424999999    0.1035838049999999 O
   0.6273561825000000    0.5921567424999999    0.6035838050000000 O
   0.1273561825000001    0.4078432575000001    0.1035838049999999 O
   0.1273561825000000    0.4078432575000001    0.6035838050000000 O
   0.1273561825000001    0.9078432574999999    0.1035838049999999 O
   0.1273561825000000    0.9078432574999999    0.6035838050000000 O
   0.6273561825000000    0.4078432575000001    0.1035838049999999 O
   0.6273561825000000    0.4078432575000001    0.6035838050000000 O
   0.6273561825000000    0.9078432574999999    0.1035838049999999 O
   0.6273561825000000    0.9078432574999999    0.6035838050000000 O
   0.3520244050000001    0.0000000000000000    0.1044968950000001 O
   0.3520244050000000    0.0000000000000000    0.6044968950000000 O
   0.3520244050000001    0.5000000000000000    0.1044968950000001 O
   0.3520244050000000    0.5000000000000000    0.6044968950000000 O
   0.8520244050000000    0.0000000000000000    0.1044968950000001 O
   0.8520244050000000    0.0000000000000000    0.6044968950000000 O
   0.8520244050000000    0.5000000000000000    0.1044968950000001 O
   0.8520244050000000    0.5000000000000000    0.6044968950000000 O
   0.1479755949999999    0.0000000000000000    0.3955031050000000 O
   0.1479755949999999    0.0000000000000000    0.8955031050000000 O
   0.1479755949999999    0.5000000000000000    0.3955031050000000 O
   0.1479755949999999    0.5000000000000000    0.8955031050000000 O
   0.6479755949999999    0.0000000000000000    0.3955031050000000 O
   0.6479755949999999    0.0000000000000000    0.8955031050000000 O
   0.6479755949999999    0.5000000000000000    0.3955031050000000 O
   0.6479755949999999    0.5000000000000000    0.8955031050000000 O
   0.1226438174999999    0.1578432575000001    0.3964161950000001 O
   0.1226438174999999    0.1578432575000001    0.8964161950000000 O
   0.1226438174999999    0.6578432575000001    0.3964161950000001 O
   0.1226438174999999    0.6578432575000001    0.8964161950000000 O
   0.6226438174999999    0.1578432575000001    0.3964161950000001 O
   0.6226438174999999    0.1578432575000001    0.8964161950000000 O
   0.6226438174999999    0.6578432575000001    0.3964161950000001 O
   0.6226438174999999    0.6578432575000001    0.8964161950000000 O
   0.1226438174999999    0.3421567424999999    0.3964161950000001 O
   0.1226438174999999    0.3421567424999999    0.8964161950000000 O
   0.1226438174999999    0.8421567424999998    0.3964161950000001 O
   0.1226438174999999    0.8421567424999998    0.8964161950000000 O
   0.6226438174999999    0.3421567424999999    0.3964161950000001 O
   0.6226438174999999    0.3421567424999999    0.8964161950000000 O
   0.6226438174999999    0.8421567424999998    0.3964161950000001 O
   0.6226438174999999    0.8421567424999998    0.8964161950000000 O
   0.3773561825000000    0.3421567424999999    0.1035838049999999 O
   0.3773561825000000    0.3421567424999999    0.6035838050000000 O
   0.3773561825000000    0.8421567424999998    0.1035838049999999 O
   0.3773561825000000    0.8421567424999998    0.6035838050000000 O
   0.8773561825000000    0.3421567424999999    0.1035838049999999 O
   0.8773561825000000    0.3421567424999999    0.6035838050000000 O
   0.8773561825000000    0.8421567424999998    0.1035838049999999 O
   0.8773561825000000    0.8421567424999998    0.6035838050000000 O
   0.3773561825000000    0.1578432575000001    0.1035838049999999 O
   0.3773561825000000    0.1578432575000001    0.6035838050000000 O
   0.3773561825000000    0.6578432575000001    0.1035838049999999 O
   0.3773561825000000    0.6578432575000001    0.6035838050000000 O
   0.8773561825000000    0.1578432575000001    0.1035838049999999 O
   0.8773561825000000    0.1578432575000001    0.6035838050000000 O
   0.8773561825000000    0.6578432575000001    0.1035838049999999 O
   0.8773561825000000    0.6578432575000001    0.6035838050000000 O
   0.1020244050000001    0.2500000000000000    0.1044968950000001 O
   0.1020244050000000    0.2500000000000000    0.6044968950000000 O
   0.1020244050000001    0.7500000000000000    0.1044968950000001 O
   0.1020244050000000    0.7500000000000000    0.6044968950000000 O
   0.6020244050000000    0.2500000000000000    0.1044968950000001 O
   0.6020244050000000    0.2500000000000000    0.6044968950000000 O
   0.6020244050000000    0.7500000000000000    0.1044968950000001 O
   0.6020244050000000    0.7500000000000000    0.6044968950000000 O
   0.3979755949999998    0.2500000000000000    0.3955031050000000 O
   0.3979755949999998    0.2500000000000000    0.8955031050000000 O
   0.3979755949999998    0.7500000000000000    0.3955031050000000 O
   0.3979755949999998    0.7500000000000000    0.8955031050000000 O
   0.8979755949999998    0.2500000000000000    0.3955031050000000 O
   0.8979755949999998    0.2500000000000000    0.8955031050000000 O
   0.8979755949999998    0.7500000000000000    0.3955031050000000 O
   0.8979755949999998    0.7500000000000000    0.8955031050000000 O
