Mg8 Ni96 O192
1.0
  11.3142118988719833    0.0001399372770490    0.0010538950434318
  -5.6569850310825496    9.7977962256897833    0.0011439465476584
   0.0020637583593134    0.0037327866720701   28.0781936199349893
Mg Ni O
1 96 192
direct
   0.8333067717112632    0.4166137559894164    0.8333330923155020 Mg
   0.1666979352375924    0.0833657372485006    0.4166923577185901 Ni
   0.1666979352375924    0.5833657372485005    0.4166923577185901 Ni
   0.6666979352375926    0.0833657372485006    0.4166923577185901 Ni
   0.6666979352375925    0.5833657372485005    0.4166923577185901 Ni
   0.1668790708699951    0.0837579862551495    0.9210635526553200 Ni
   0.1668790708699951    0.5837579862551494    0.9210635526553200 Ni
   0.6668790708699951    0.0837579862551495    0.9210635526553200 Ni
   0.6668790708699952    0.5837579862551494    0.9210635526553200 Ni
   0.1666971742829022    0.3333668895326296    0.4166917931587369 Ni
   0.1666971742829021    0.8333668895326294    0.4166917931587369 Ni
   0.6666971742829022    0.3333668895326295    0.4166917931587369 Ni
   0.6666971742829022    0.8333668895326296    0.4166917931587369 Ni
   0.1668898020382354    0.3330797790445480    0.9210662899620226 Ni
   0.1668898020382353    0.8330797790445478    0.9210662899620226 Ni
   0.6668898020382354    0.3330797790445480    0.9210662899620226 Ni
   0.6668898020382354    0.8330797790445479    0.9210662899620226 Ni
   0.4166979899250847    0.0833670384057748    0.4166899202845177 Ni
   0.4166979899250846    0.5833670384057748    0.4166899202845177 Ni
   0.9166979899250848    0.0833670384057748    0.4166899202845177 Ni
   0.9166979899250848    0.5833670384057748    0.4166899202845177 Ni
   0.4166617633866399    0.0833106624201507    0.9183568207761843 Ni
   0.4166617633866398    0.5833106624201506    0.9183568207761843 Ni
   0.9166617633866398    0.0833106624201507    0.9183568207761843 Ni
   0.9166617633866398    0.5833106624201506    0.9183568207761843 Ni
   0.4166986581860561    0.3333658322027199    0.4166922086543746 Ni
   0.4166986581860561    0.8333658322027198    0.4166922086543745 Ni
   0.9166986581860561    0.3333658322027198    0.4166922086543745 Ni
   0.9166986581860561    0.8333658322027199    0.4166922086543746 Ni
   0.4162211915771458    0.3330940833878487    0.9210599985010066 Ni
   0.4162211915771457    0.8330940833878487    0.9210599985010065 Ni
   0.9162211915771458    0.3330940833878487    0.9210599985010066 Ni
   0.9162211915771457    0.8330940833878486    0.9210599985010066 Ni
   0.0833088575783714    0.1666436327286185    0.0834486031640569 Ni
   0.0833088575783714    0.6666436327286184    0.0834486031640569 Ni
   0.5833088575783716    0.1666436327286185    0.0834486031640569 Ni
   0.5833088575783715    0.6666436327286184    0.0834486031640569 Ni
   0.0833343502357663    0.1666624883806875    0.5832357703343927 Ni
   0.0833343502357662    0.6666624883806874    0.5832357703343927 Ni
   0.5833343502357663    0.1666624883806875    0.5832357703343927 Ni
   0.5833343502357663    0.6666624883806874    0.5832357703343927 Ni
   0.0833190328909962    0.4166478218153336    0.0834985135642805 Ni
   0.0833190328909961    0.9166478218153334    0.0834985135642805 Ni
   0.5833190328909963    0.4166478218153337    0.0834985135642805 Ni
   0.5833190328909962    0.9166478218153336    0.0834985135642805 Ni
   0.0833241242279949    0.4166572297942186    0.5831905332097262 Ni
   0.0833241242279949    0.9166572297942185    0.5831905332097261 Ni
   0.5833241242279950    0.4166572297942186    0.5831905332097262 Ni
   0.5833241242279950    0.9166572297942187    0.5831905332097262 Ni
   0.3333234422592826    0.1666416166128274    0.0834489981066155 Ni
   0.3333234422592826    0.6666416166128273    0.0834489981066155 Ni
   0.8333234422592827    0.1666416166128274    0.0834489981066155 Ni
   0.8333234422592827    0.6666416166128273    0.0834489981066155 Ni
   0.3333170210580242    0.1666615440154713    0.5832352490199805 Ni
   0.3333170210580242    0.6666615440154712    0.5832352490199805 Ni
   0.8333170210580243    0.1666615440154712    0.5832352490199806 Ni
   0.8333170210580242    0.6666615440154712    0.5832352490199805 Ni
   0.3333224019650948    0.4166581567740460    0.0834480811592907 Ni
   0.3333224019650948    0.9166581567740457    0.0834480811592907 Ni
   0.8333224019650949    0.4166581567740461    0.0834480811592907 Ni
   0.8333224019650949    0.9166581567740459    0.0834480811592907 Ni
   0.3333179809567082    0.4166453385892937    0.5832363982569039 Ni
   0.3333179809567082    0.9166453385892936    0.5832363982569039 Ni
   0.8333179809567083    0.4166453385892938    0.5832363982569040 Ni
   0.8333179809567082    0.9166453385892935    0.5832363982569040 Ni
   0.0000003251433367    0.0000011295166028    0.2500374329200530 Ni
   0.0000003251433367    0.5000011295166027    0.2500374329200530 Ni
   0.5000003251433369    0.0000011295166028    0.2500374329200530 Ni
   0.5000003251433368    0.5000011295166027    0.2500374329200530 Ni
   0.9997718805786447    0.0002345345106439    0.7455581778349692 Ni
   0.9997718805786446    0.5002345345106439    0.7455581778349692 Ni
   0.4997718805786447    0.0002345345106439    0.7455581778349694 Ni
   0.4997718805786447    0.5002345345106439    0.7455581778349692 Ni
   0.0000001895364332    0.2500004684949489    0.2500376840140596 Ni
   0.0000001895364332    0.7500004684949487    0.2500376840140596 Ni
   0.5000001895364332    0.2500004684949489    0.2500376840140596 Ni
   0.5000001895364332    0.7500004684949488    0.2500376840140596 Ni
   0.9997741524239935    0.2495737940893719    0.7455568905891043 Ni
   0.9997741524239935    0.7495737940893719    0.7455568905891043 Ni
   0.4997741524239935    0.2495737940893719    0.7455568905891043 Ni
   0.4997741524239934    0.7495737940893719    0.7455568905891043 Ni
   0.2500000971621451    0.0000009596125702    0.2500372490910168 Ni
   0.2500000971621451    0.5000009596125702    0.2500372490910168 Ni
   0.7500000971621452    0.0000009596125702    0.2500372490910168 Ni
   0.7500000971621452    0.5000009596125702    0.2500372490910168 Ni
   0.2504368741733394    0.0002367485343822    0.7455534279948232 Ni
   0.2504368741733393    0.5002367485343820    0.7455534279948232 Ni
   0.7504368741733394    0.0002367485343822    0.7455534279948232 Ni
   0.7504368741733394    0.5002367485343822    0.7455534279948232 Ni
   0.2499996205005164    0.2500003738696322    0.2500383422083984 Ni
   0.2499996205005163    0.7500003738696320    0.2500383422083984 Ni
   0.7499996205005164    0.2500003738696323    0.2500383422083984 Ni
   0.7499996205005164    0.7500003738696321    0.2500383422083984 Ni
   0.2499979476652603    0.2500236628382831    0.7482057548035296 Ni
   0.2499979476652603    0.7500236628382829    0.7482057548035296 Ni
   0.7499979476652604    0.2500236628382830    0.7482057548035296 Ni
   0.7499979476652604    0.7500236628382829    0.7482057548035296 Ni
   0.0833329799908458    0.1666703147051729    0.4501600096420901 O
   0.0833329799908458    0.6666703147051728    0.4501600096420901 O
   0.5833329799908459    0.1666703147051729    0.4501600096420901 O
   0.5833329799908459    0.6666703147051729    0.4501600096420901 O
   0.0838513623456370    0.1668836522090479    0.9536600644173178 O
   0.0838513623456369    0.6668836522090477    0.9536600644173178 O
   0.5838513623456371    0.1668836522090479    0.9536600644173178 O
   0.5838513623456371    0.6668836522090479    0.9536600644173178 O
   0.0833364451623834    0.4166702662155574    0.4501611918507802 O
   0.0833364451623834    0.9166702662155573    0.4501611918507802 O
   0.5833364451623835    0.4166702662155574    0.4501611918507802 O
   0.5833364451623835    0.9166702662155574    0.4501611918507802 O
   0.0832979680831286    0.4166146457720764    0.9548107843474335 O
   0.0832979680831285    0.9166146457720762    0.9548107843474335 O
   0.5832979680831286    0.4166146457720764    0.9548107843474336 O
   0.5832979680831286    0.9166146457720763    0.9548107843474335 O
   0.3333373327266913    0.1666692178306139    0.4501602641656600 O
   0.3333373327266912    0.6666692178306138    0.4501602641656600 O
   0.8333373327266914    0.1666692178306139    0.4501602641656600 O
   0.8333373327266913    0.6666692178306138    0.4501602641656600 O
   0.3330157300402489    0.1668911098012568    0.9536655465010149 O
   0.3330157300402489    0.6668911098012567    0.9536655465010149 O
   0.8330157300402490    0.1668911098012568    0.9536655465010149 O
   0.8330157300402490    0.6668911098012567    0.9536655465010149 O
   0.3333362631283022    0.4166729633680124    0.4501601239155762 O
   0.3333362631283022    0.9166729633680124    0.4501601239155762 O
   0.8333362631283023    0.4166729633680124    0.4501601239155762 O
   0.8333362631283022    0.9166729633680123    0.4501601239155762 O
   0.3330567654479977    0.4161148839203054    0.9536483864270336 O
   0.3330567654479976    0.9161148839203054    0.9536483864270336 O
   0.8330567654479978    0.4161148839203054    0.9536483864270336 O
   0.8330567654479978    0.9161148839203055    0.9536483864270336 O
   0.0000580157827859    0.0000576322581510    0.3832073572334171 O
   0.0000580157827858    0.5000576322581509    0.3832073572334171 O
   0.5000580157827860    0.0000576322581510    0.3832073572334171 O
   0.5000580157827859    0.5000576322581509    0.3832073572334171 O
   0.0042787995944025    0.4957436833121746    0.8843953745688601 O
   0.0042787995944025    0.9957436833121746    0.8843953745688600 O
   0.5042787995944026    0.4957436833121747    0.8843953745688601 O
   0.5042787995944026    0.9957436833121747    0.8843953745688601 O
   0.0000568075088707    0.2500594944302084    0.3832063250766439 O
   0.0000568075088706    0.7500594944302083    0.3832063250766439 O
   0.5000568075088707    0.2500594944302084    0.3832063250766439 O
   0.5000568075088707    0.7500594944302084    0.3832063250766439 O
   0.0042470621247699    0.2584490734423137    0.8844106964032104 O
   0.0042470621247698    0.7584490734423136    0.8844106964032104 O
   0.5042470621247699    0.2584490734423137    0.8844106964032104 O
   0.5042470621247700    0.7584490734423135    0.8844106964032104 O
   0.2500558044047091    0.0000596187795981    0.3832065332501928 O
   0.2500558044047091    0.5000596187795980    0.3832065332501927 O
   0.7500558044047091    0.0000596187795981    0.3832065332501927 O
   0.7500558044047091    0.5000596187795980    0.3832065332501928 O
   0.2415280198057909    0.4957551285112529    0.8843966381792326 O
   0.2415280198057909    0.9957551285112528    0.8843966381792325 O
   0.7415280198057911    0.4957551285112529    0.8843966381792326 O
   0.7415280198057910    0.9957551285112529    0.8843966381792326 O
   0.2500573193489868    0.2500581927181452    0.3832065877631525 O
   0.2500573193489868    0.7500581927181451    0.3832065877631524 O
   0.7500573193489869    0.2500581927181452    0.3832065877631524 O
   0.7500573193489868    0.7500581927181451    0.3832065877631525 O
   0.2500128250468461    0.2499999201572611    0.8869034989789318 O
   0.2500128250468461    0.7499999201572609    0.8869034989789317 O
   0.7500128250468462    0.2499999201572610    0.8869034989789318 O
   0.7500128250468461    0.7499999201572610    0.8869034989789318 O
   0.9999207087490379    0.9999990052470693    0.1169608010902111 O
   0.9999207087490378    0.4999990052470692    0.1169608010902111 O
   0.4999207087490380    0.9999990052470693    0.1169608010902111 O
   0.4999207087490379    0.4999990052470692    0.1169608010902111 O
   0.9999948207772680    0.9999263887030948    0.6166960133232230 O
   0.9999948207772679    0.4999263887030947    0.6166960133232230 O
   0.4999948207772680    0.9999263887030948    0.6166960133232230 O
   0.4999948207772680    0.4999263887030948    0.6166960133232230 O
   0.9999232080211075    0.2498768406230947    0.1169614668575533 O
   0.9999232080211075    0.7498768406230946    0.1169614668575533 O
   0.4999232080211075    0.2498768406230947    0.1169614668575533 O
   0.4999232080211075    0.7498768406230947    0.1169614668575533 O
   0.9999906686731975    0.2500283128126982    0.6166965910307122 O
   0.9999906686731975    0.7500283128126981    0.6166965910307121 O
   0.4999906686731976    0.2500283128126982    0.6166965910307122 O
   0.4999906686731975    0.7500283128126981    0.6166965910307122 O
   0.2500454230569603    0.9999966947373188    0.1169611451671477 O
   0.2500454230569603    0.4999966947373187    0.1169611451671477 O
   0.7500454230569604    0.9999966947373188    0.1169611451671477 O
   0.7500454230569603    0.4999966947373187    0.1169611451671477 O
   0.2498968725882404    0.9999297353585008    0.6166966405040901 O
   0.2498968725882403    0.4999297353585008    0.6166966405040900 O
   0.7498968725882403    0.9999297353585008    0.6166966405040901 O
   0.7498968725882403    0.4999297353585008    0.6166966405040901 O
   0.2499620468896432    0.2499602697908021    0.1169281524373730 O
   0.2499620468896432    0.7499602697908020    0.1169281524373730 O
   0.7499620468896434    0.2499602697908021    0.1169281524373730 O
   0.7499620468896433    0.7499602697908020    0.1169281524373730 O
   0.2499615541461889    0.2499614752710481    0.6167276450896210 O
   0.2499615541461889    0.7499614752710481    0.6167276450896210 O
   0.7499615541461890    0.2499614752710481    0.6167276450896210 O
   0.7499615541461889    0.7499614752710480    0.6167276450896210 O
   0.1666505811195350    0.0832838850409353    0.0499894272932589 O
   0.1666505811195350    0.5832838850409353    0.0499894272932589 O
   0.6666505811195350    0.0832838850409353    0.0499894272932589 O
   0.6666505811195351    0.5832838850409353    0.0499894272932589 O
   0.1667196680594649    0.0834227378391238    0.5497446179958762 O
   0.1667196680594648    0.5834227378391237    0.5497446179958762 O
   0.6667196680594650    0.0834227378391238    0.5497446179958762 O
   0.6667196680594649    0.5834227378391239    0.5497446179958762 O
   0.1666498781075789    0.3333687932619707    0.0499886746143950 O
   0.1666498781075788    0.8333687932619706    0.0499886746143950 O
   0.6666498781075789    0.3333687932619707    0.0499886746143950 O
   0.6666498781075789    0.8333687932619706    0.0499886746143950 O
   0.1667216746556218    0.3333142811967009    0.5497449817144899 O
   0.1667216746556218    0.8333142811967008    0.5497449817144899 O
   0.6667216746556219    0.3333142811967008    0.5497449817144899 O
   0.6667216746556218    0.8333142811967007    0.5497449817144899 O
   0.4166753469911932    0.0833399723330914    0.0499624360600858 O
   0.4166753469911932    0.5833399723330913    0.0499624360600858 O
   0.9166753469911932    0.0833399723330914    0.0499624360600858 O
   0.9166753469911932    0.5833399723330913    0.0499624360600858 O
   0.4166846248151817    0.0833501207540966    0.5497722947620227 O
   0.4166846248151816    0.5833501207540965    0.5497722947620227 O
   0.9166846248151816    0.0833501207540966    0.5497722947620227 O
   0.9166846248151816    0.5833501207540965    0.5497722947620227 O
   0.4167328496603794    0.3333668697015766    0.0499890224459867 O
   0.4167328496603793    0.8333668697015765    0.0499890224459867 O
   0.9167328496603795    0.3333668697015766    0.0499890224459867 O
   0.9167328496603793    0.8333668697015766    0.0499890224459867 O
   0.4166115239978359    0.3333141405292392    0.5497457184674845 O
   0.4166115239978359    0.8333141405292391    0.5497457184674845 O
   0.9166115239978362    0.3333141405292392    0.5497457184674845 O
   0.9166115239978359    0.8333141405292391    0.5497457184674845 O
   0.1666389327150145    0.0833054378984096    0.2835277147701573 O
   0.1666389327150145    0.5833054378984095    0.2835277147701574 O
   0.6666389327150145    0.0833054378984096    0.2835277147701574 O
   0.6666389327150145    0.5833054378984095    0.2835277147701574 O
   0.1624154592202421    0.0748844479645892    0.7821616219153179 O
   0.1624154592202420    0.5748844479645890    0.7821616219153179 O
   0.6624154592202421    0.0748844479645892    0.7821616219153180 O
   0.6624154592202420    0.5748844479645892    0.7821616219153180 O
   0.1666389565078157    0.3333073686154073    0.2835277425741355 O
   0.1666389565078157    0.8333073686154071    0.2835277425741355 O
   0.6666389565078159    0.3333073686154073    0.2835277425741355 O
   0.6666389565078158    0.8333073686154073    0.2835277425741355 O
   0.1624170227856976    0.3375515885989860    0.7821621754600014 O
   0.1624170227856976    0.8375515885989859    0.7821621754600014 O
   0.6624170227856977    0.3375515885989860    0.7821621754600014 O
   0.6624170227856976    0.8375515885989858    0.7821621754600014 O
   0.4166382473350888    0.0833059717689646    0.2835272936103174 O
   0.4166382473350888    0.5833059717689645    0.2835272936103174 O
   0.9166382473350889    0.0833059717689646    0.2835272936103174 O
   0.9166382473350888    0.5833059717689646    0.2835272936103174 O
   0.4166292856928782    0.0833248219434458    0.7796676165098805 O
   0.4166292856928782    0.5833248219434457    0.7796676165098805 O
   0.9166292856928783    0.0833248219434458    0.7796676165098805 O
   0.9166292856928784    0.5833248219434457    0.7796676165098805 O
   0.4166395132989922    0.3333065311788397    0.2835279195167411 O
   0.4166395132989922    0.8333065311788396    0.2835279195167412 O
   0.9166395132989922    0.3333065311788397    0.2835279195167411 O
   0.9166395132989921    0.8333065311788397    0.2835279195167412 O
   0.4251516785394509    0.3375844333278702    0.7821818426110971 O
   0.4251516785394508    0.8375844333278700    0.7821818426110971 O
   0.9251516785394509    0.3375844333278702    0.7821818426110972 O
   0.9251516785394509    0.8375844333278702    0.7821818426110972 O
   0.0833659501123450    0.1666988452826334    0.2165508161173158 O
   0.0833659501123450    0.6666988452826333    0.2165508161173158 O
   0.5833659501123450    0.1666988452826334    0.2165508161173158 O
   0.5833659501123452    0.6666988452826333    0.2165508161173158 O
   0.0828439121970923    0.1664574052268614    0.7129328243912187 O
   0.0828439121970922    0.6664574052268614    0.7129328243912186 O
   0.5828439121970923    0.1664574052268615    0.7129328243912187 O
   0.5828439121970924    0.6664574052268615    0.7129328243912187 O
   0.0833644761809558    0.4166982315641453    0.2165511364327226 O
   0.0833644761809557    0.9166982315641453    0.2165511364327226 O
   0.5833644761809559    0.4166982315641453    0.2165511364327226 O
   0.5833644761809559    0.9166982315641452    0.2165511364327226 O
   0.0833530975187226    0.4167142796865280    0.7117685147794486 O
   0.0833530975187225    0.9167142796865279    0.7117685147794486 O
   0.5833530975187227    0.4167142796865280    0.7117685147794486 O
   0.5833530975187226    0.9167142796865279    0.7117685147794486 O
   0.3333598959823141    0.1666973600124250    0.2165523149258074 O
   0.3333598959823141    0.6666973600124249    0.2165523149258074 O
   0.8333598959823142    0.1666973600124250    0.2165523149258074 O
   0.8333598959823142    0.6666973600124250    0.2165523149258074 O
   0.3335928377786934    0.1665055686723498    0.7129444479593030 O
   0.3335928377786934    0.6665055686723497    0.7129444479593030 O
   0.8335928377786934    0.1665055686723498    0.7129444479593031 O
   0.8335928377786934    0.6665055686723497    0.7129444479593030 O
   0.3333606089277591    0.4166962925125575    0.2165518367551357 O
   0.3333606089277591    0.9166962925125574    0.2165518367551357 O
   0.8333606089277592    0.4166962925125575    0.2165518367551357 O
   0.8333606089277592    0.9166962925125575    0.2165518367551357 O
   0.3335896049831473    0.4171601392358771    0.7129428419134416 O
   0.3335896049831472    0.9171601392358769    0.7129428419134416 O
   0.8335896049831473    0.4171601392358772    0.7129428419134417 O
   0.8335896049831474    0.9171601392358771    0.7129428419134416 O
