Mg8 Co16 S32
1.0
        9.8046779633         0.0000000000         0.0000000000
        0.0000000000         9.8046779633         0.0000000000
        0.0000000000         0.0000000000         9.8046779633
   Mg   Co    S
    7   16   32
Direct
     0.750000000         0.750000000         0.750000000
     0.000000000         0.000000000         0.500000000
     0.250000000         0.750000000         0.250000000
     0.000000000         0.500000000         0.000000000
     0.250000000         0.250000000         0.750000000
     0.500000000         0.000000000         0.000000000
     0.750000000         0.250000000         0.250000000
     0.125000000         0.125000000         0.125000000
     0.625000000         0.875000000         0.375000000
     0.375000000         0.125000000         0.375000000
     0.875000000         0.875000000         0.125000000
     0.125000000         0.625000000         0.625000000
     0.625000000         0.375000000         0.875000000
     0.375000000         0.625000000         0.875000000
     0.875000000         0.375000000         0.625000000
     0.625000000         0.125000000         0.625000000
     0.125000000         0.875000000         0.875000000
     0.875000000         0.125000000         0.875000000
     0.375000000         0.875000000         0.625000000
     0.625000000         0.625000000         0.125000000
     0.125000000         0.375000000         0.375000000
     0.875000000         0.625000000         0.375000000
     0.375000000         0.375000000         0.125000000
     0.356566012         0.356566012         0.356566012
     0.893433988         0.106565997         0.106565997
     0.606566012         0.106565997         0.393433988
     0.106565997         0.893433988         0.106565997
     0.143434003         0.143434003         0.356566012
     0.143434003         0.356566012         0.143434003
     0.393433988         0.893433988         0.393433988
     0.356566012         0.143434003         0.143434003
     0.356566012         0.856566012         0.856566012
     0.893433988         0.606566012         0.606566012
     0.606566012         0.606566012         0.893433988
     0.106565997         0.393433988         0.606566012
     0.143434003         0.643433988         0.856566012
     0.143434003         0.856566012         0.643433988
     0.393433988         0.393433988         0.893433988
     0.356566012         0.643433988         0.643433988
     0.856566012         0.356566012         0.856566012
     0.393433988         0.106565997         0.606566012
     0.106565997         0.106565997         0.893433988
     0.606566012         0.893433988         0.606566012
     0.643433988         0.143434003         0.856566012
     0.643433988         0.356566012         0.643433988
     0.893433988         0.893433988         0.893433988
     0.856566012         0.143434003         0.643433988
     0.856566012         0.856566012         0.356566012
     0.393433988         0.606566012         0.106565997
     0.106565997         0.606566012         0.393433988
     0.606566012         0.393433988         0.106565997
     0.643433988         0.643433988         0.356566012
     0.643433988         0.856566012         0.143434003
     0.893433988         0.393433988         0.393433988
     0.856566012         0.643433988         0.143434003
