V16 O40                                 
   1.00000000000000     
     7.1418523458852246   -0.0001103109611802    0.0000194032492536
    -0.0001641098992217   10.6651283809758084   -0.0000195226382751
     0.0000300693149836   -0.0000242408872607   11.4855150290008918
   Zn   V    O 
     1    16    40
Direct
  0.2499924513932179  0.5925463906403982  0.7500060305443296
  0.0015270799087841  0.2103823471317031  0.1018158336908454
  0.4984732639602184  0.2103813586292354  0.1018136320585235
  0.2500154465473719  0.3082787564576251  0.8966390559074715
  0.7500161792490591  0.3000033885121260  0.8956652606184485
  0.2500038022514743  0.3082978439886077  0.6033539551754165
  0.7500149605968491  0.3000146779812993  0.6043302416491952
  0.0015253136152316  0.2103901584393746  0.3981851048262258
  0.4984843336775611  0.2103920432104995  0.3981832942132664
  0.2499962056261031  0.7052029373283676  0.1044237882878424
  0.7499903800802649  0.7004475879779137  0.1031333274989849
  0.9971454117206052  0.7858014953702464  0.8987250543093286
  0.5028241631782046  0.7858012324789408  0.8987253015352213
  0.9971708274413170  0.7858026632736317  0.6012767039555761
  0.5028337116501153  0.7858034924597692  0.6012812962300739
  0.2500015624498813  0.7051980852989317  0.3955815585839714
  0.7499977417006612  0.7004335275271467  0.3968554448026699
  0.2500050386633835  0.2533742380021191  0.7499994758647871
  0.7500109423221998  0.2398487720118914  0.7500013944861202
  0.9988961056683274  0.2640720963766421  0.2499890681130839
  0.5011160544474575  0.2640665544408701  0.2499920831192983
  0.0030911147549432  0.2581972905183960  0.5710795888023924
  0.4969179715549265  0.2581998575290608  0.5710756897396098
  0.2500133320916076  0.2628650320774060  0.4319908813752101
  0.7500091326387365  0.2511311320900571  0.4333411375390816
  0.2500060077777311  0.2628538321827460  0.0680089921744833
  0.7500168695098758  0.2511290532154052  0.0666565207436886
  0.0030887226350361  0.2581963149064149  0.9289223236042370
  0.4969279361276408  0.2581975688523113  0.9289247732119917
  0.0100482598190507  0.0619568452212055  0.1097095317786614
  0.4899667984237120  0.0619521782217419  0.1097030842609326
  0.2500139076996876  0.4613004108761685  0.8743589897323011
  0.7500180096879641  0.4482392240101650  0.8805728050778712
  0.0100423952062611  0.0619549459294210  0.3902911492580855
  0.4899522855440109  0.0619487088677393  0.3903012886912537
  0.2500075492391324  0.4612998311378434  0.6256397170118434
  0.7500164619662661  0.4482338618717078  0.6194330904535087
  0.0290961648926440  0.7143862835069044  0.7500026563543459
  0.4708916435289666  0.7143865548098643  0.7500013099102321
  0.2499916898495327  0.7660561203251225  0.2499989090753075
  0.7499874362331981  0.7565538570366162  0.2500047092652936
  0.2499912605398883  0.7394294312602888  0.5681850721272769
  0.7499960083773634  0.7340739660662366  0.5777698524034234
  0.9974708786287022  0.7516549275578120  0.4308055825065658
  0.5025196324467145  0.7516631459439425  0.4308058869124714
  0.9974646521006177  0.7516487330772402  0.0691970164222834
  0.5025092573787555  0.7516672416689565  0.0691933294363275
  0.2499702978818746  0.7394329425317960  0.9318167044278044
  0.7499837199302365  0.7340715667756379  0.9222284688485543
  0.2499849935903220  0.5572125140749280  0.1192411255174729
  0.7499596093243557  0.5522799319260111  0.1161106057556058
  0.9903567104540579  0.9325894246739604  0.8784934609633812
  0.5096528511509402  0.9325894858978977  0.8784927849810490
  0.2499972827184797  0.5572216531438986  0.3807578382655816
  0.7499819343757874  0.5522960937675734  0.3838939638567056
  0.9903637642816495  0.9325901326584570  0.6215065704095453
  0.5096524814910555  0.9325901402517088  0.6215076836349833
 
  0.00000000E+00  0.00000000E+00  0.00000000E+00
  0.00000000E+00  0.00000000E+00  0.00000000E+00
  0.00000000E+00  0.00000000E+00  0.00000000E+00
  0.00000000E+00  0.00000000E+00  0.00000000E+00
  0.00000000E+00  0.00000000E+00  0.00000000E+00
  0.00000000E+00  0.00000000E+00  0.00000000E+00
  0.00000000E+00  0.00000000E+00  0.00000000E+00
  0.00000000E+00  0.00000000E+00  0.00000000E+00
  0.00000000E+00  0.00000000E+00  0.00000000E+00
  0.00000000E+00  0.00000000E+00  0.00000000E+00
  0.00000000E+00  0.00000000E+00  0.00000000E+00
  0.00000000E+00  0.00000000E+00  0.00000000E+00
  0.00000000E+00  0.00000000E+00  0.00000000E+00
  0.00000000E+00  0.00000000E+00  0.00000000E+00
  0.00000000E+00  0.00000000E+00  0.00000000E+00
  0.00000000E+00  0.00000000E+00  0.00000000E+00
  0.00000000E+00  0.00000000E+00  0.00000000E+00
  0.00000000E+00  0.00000000E+00  0.00000000E+00
  0.00000000E+00  0.00000000E+00  0.00000000E+00
  0.00000000E+00  0.00000000E+00  0.00000000E+00
  0.00000000E+00  0.00000000E+00  0.00000000E+00
  0.00000000E+00  0.00000000E+00  0.00000000E+00
  0.00000000E+00  0.00000000E+00  0.00000000E+00
  0.00000000E+00  0.00000000E+00  0.00000000E+00
  0.00000000E+00  0.00000000E+00  0.00000000E+00
  0.00000000E+00  0.00000000E+00  0.00000000E+00
  0.00000000E+00  0.00000000E+00  0.00000000E+00
  0.00000000E+00  0.00000000E+00  0.00000000E+00
  0.00000000E+00  0.00000000E+00  0.00000000E+00
  0.00000000E+00  0.00000000E+00  0.00000000E+00
  0.00000000E+00  0.00000000E+00  0.00000000E+00
  0.00000000E+00  0.00000000E+00  0.00000000E+00
  0.00000000E+00  0.00000000E+00  0.00000000E+00
  0.00000000E+00  0.00000000E+00  0.00000000E+00
  0.00000000E+00  0.00000000E+00  0.00000000E+00
  0.00000000E+00  0.00000000E+00  0.00000000E+00
  0.00000000E+00  0.00000000E+00  0.00000000E+00
  0.00000000E+00  0.00000000E+00  0.00000000E+00
  0.00000000E+00  0.00000000E+00  0.00000000E+00
  0.00000000E+00  0.00000000E+00  0.00000000E+00
  0.00000000E+00  0.00000000E+00  0.00000000E+00
  0.00000000E+00  0.00000000E+00  0.00000000E+00
  0.00000000E+00  0.00000000E+00  0.00000000E+00
  0.00000000E+00  0.00000000E+00  0.00000000E+00
  0.00000000E+00  0.00000000E+00  0.00000000E+00
  0.00000000E+00  0.00000000E+00  0.00000000E+00
  0.00000000E+00  0.00000000E+00  0.00000000E+00
  0.00000000E+00  0.00000000E+00  0.00000000E+00
  0.00000000E+00  0.00000000E+00  0.00000000E+00
  0.00000000E+00  0.00000000E+00  0.00000000E+00
  0.00000000E+00  0.00000000E+00  0.00000000E+00
  0.00000000E+00  0.00000000E+00  0.00000000E+00
  0.00000000E+00  0.00000000E+00  0.00000000E+00
  0.00000000E+00  0.00000000E+00  0.00000000E+00
  0.00000000E+00  0.00000000E+00  0.00000000E+00
  0.00000000E+00  0.00000000E+00  0.00000000E+00
  0.00000000E+00  0.00000000E+00  0.00000000E+00
