Tb16 Mg8 S32
1.0
       11.1718978882         0.0000000000         0.0000000000
        0.0000000000        11.1718978882         0.0000000000
        0.0000000000         0.0000000000        11.1718978882
Mg   Tb   Mg    S
1   16    6   32
Direct
     0.750000000         0.250000000         0.250000000
     0.875000000         0.625000000         0.375000000
     0.875000000         0.875000000         0.125000000
     0.625000000         0.875000000         0.375000000
     0.625000000         0.625000000         0.125000000
     0.875000000         0.125000000         0.875000000
     0.875000000         0.375000000         0.625000000
     0.625000000         0.375000000         0.875000000
     0.625000000         0.125000000         0.625000000
     0.375000000         0.625000000         0.875000000
     0.375000000         0.875000000         0.625000000
     0.125000000         0.875000000         0.875000000
     0.125000000         0.625000000         0.625000000
     0.375000000         0.125000000         0.375000000
     0.375000000         0.375000000         0.125000000
     0.125000000         0.375000000         0.375000000
     0.125000000         0.125000000         0.125000000
     0.000000000         0.000000000         0.500000000
     0.250000000         0.250000000         0.750000000
     0.000000000         0.500000000         0.000000000
     0.250000000         0.750000000         0.250000000
     0.500000000         0.000000000         0.000000000
     0.750000000         0.750000000         0.750000000
     0.379339248         0.379339248         0.879339278
     0.379339248         0.120660752         0.620660722
     0.120660752         0.379339248         0.620660722
     0.120660752         0.120660752         0.879339278
     0.129339248         0.129339248         0.370660752
     0.129339248         0.870660722         0.629339278
     0.870660722         0.129339248         0.629339278
     0.870660722         0.870660722         0.370660752
     0.379339248         0.879339278         0.379339248
     0.379339248         0.620660722         0.120660752
     0.120660752         0.879339278         0.120660752
     0.120660752         0.620660722         0.379339248
     0.129339248         0.629339278         0.870660722
     0.129339248         0.370660752         0.129339248
     0.870660722         0.629339278         0.129339248
     0.870660722         0.370660752         0.870660722
     0.879339278         0.379339248         0.379339248
     0.879339278         0.120660752         0.120660752
     0.620660722         0.379339248         0.120660752
     0.620660722         0.120660752         0.379339248
     0.629339278         0.129339248         0.870660722
     0.629339278         0.870660722         0.129339248
     0.370660752         0.129339248         0.129339248
     0.370660752         0.870660722         0.870660722
     0.879339278         0.879339278         0.879339278
     0.879339278         0.620660722         0.620660722
     0.620660722         0.879339278         0.620660722
     0.620660722         0.620660722         0.879339278
     0.629339278         0.629339278         0.370660752
     0.629339278         0.370660752         0.629339278
     0.370660752         0.629339278         0.629339278
     0.370660752         0.370660752         0.370660752
