Ca1 V4 P6 O24                           
   1.00000000000000     
     2.6174430000000002    7.1178660000000002    4.5045960000000003
     0.1986900000000000    0.1315900000000000    8.8261149999999997
     7.5682980000000004    0.1284560000000000    4.5228000000000002
   Ca   V    P    O 
     1     4     6    24
Direct
  0.2523027196670796  0.8266096660054034  0.5897798889346312
  0.6549931867380390  0.6316903753498266  0.6415837165537694
  0.1384337458808484  0.1445947696843136  0.1372857877178894
  0.8384737649449437  0.8503142492888753  0.8627559738379745
  0.3594590107626058  0.3512763113983828  0.3581416772594764
  0.2527882215138660  0.5209490338847642  0.9674826232297044
  0.0326538200201339  0.7432863831322838  0.4614039834937466
  0.9666941377509084  0.2499852326850625  0.5227789505467262
  0.4579010768542625  0.0264876261477016  0.7488798909660317
  0.5406148760246289  0.9678943308372869  0.2424296834680494
  0.7475883652963556  0.4619174750530931  0.0382844182133187
  0.5741672531595260  0.7776884740137524  0.4133267569511226
  0.2914223820839789  0.0432816902662859  0.9352007180978542
  0.4224569898761931  0.5604442496470790  0.7791820351908747
  0.9315362642410383  0.2888560978282259  0.0471746946600483
  0.7845687493008325  0.4121721927115172  0.5781028795957071
  0.0542889384093707  0.9323440130917826  0.2994958184505546
  0.9583725206894393  0.0548703298487348  0.6843080252170272
  0.5770570702461661  0.4239585963142662  0.2180763467087318
  0.7072531688813409  0.9537078063086628  0.0556976941496346
  0.2186668220886904  0.5776940236849301  0.4191545077107792
  0.0787127560881850  0.7018436372392224  0.9278080680662261
  0.4216331695899450  0.2158322113246548  0.5816937098661809
  0.2380791671567214  0.3433431778360775  0.9893068577863847
  0.8619789384287311  0.7207656045774816  0.4817776209145697
  0.9859270723210225  0.2505664358534962  0.3386737353106364
  0.4804488422885965  0.8636750754129715  0.7091473355889806
  0.3500658129018175  0.9921616052470130  0.2469615344209229
  0.7163319665869301  0.5059630999412293  0.8604759031720011
  0.2807880901203043  0.4924562887868613  0.1382301587144996
  0.0082272565978130  0.7456375127224313  0.6479725836387773
  0.1444239342551916  0.2664856563852696  0.4989558809165107
  0.6434227639301769  0.9900488206760555  0.7627158686407300
  0.5165238486548329  0.1318883686189679  0.2789372774544093
  0.7631085448987693  0.6372665983106647  0.0205519855768356
 
             NaN             NaN             NaN
             NaN             NaN             NaN
             NaN             NaN             NaN
             NaN             NaN             NaN
             NaN             NaN             NaN
             NaN             NaN             NaN
             NaN             NaN             NaN
             NaN             NaN             NaN
             NaN             NaN             NaN
             NaN             NaN             NaN
             NaN             NaN             NaN
             NaN             NaN             NaN
             NaN             NaN             NaN
             NaN             NaN             NaN
             NaN             NaN             NaN
             NaN             NaN             NaN
             NaN             NaN             NaN
             NaN             NaN             NaN
             NaN             NaN             NaN
             NaN             NaN             NaN
             NaN             NaN             NaN
             NaN             NaN             NaN
             NaN             NaN             NaN
             NaN             NaN             NaN
             NaN             NaN             NaN
             NaN             NaN             NaN
             NaN             NaN             NaN
             NaN             NaN             NaN
             NaN             NaN             NaN
             NaN             NaN             NaN
             NaN             NaN             NaN
             NaN             NaN             NaN
             NaN             NaN             NaN
             NaN             NaN             NaN
             NaN             NaN             NaN
