Ca1 V4 P6 O24
1.0
2.617443 7.117866 4.504596
0.198690 0.131590 8.826115
7.568298 0.128456 4.522800
Ca V P O
1 4 6 24
direct
0.309979 0.781250 0.586832 Ca
0.650502 0.638566 0.644280 V
0.135494 0.143394 0.141052 V
0.844827 0.851628 0.858025 V
0.358081 0.352255 0.352410 V
0.247973 0.528200 0.964500 P
0.035876 0.747166 0.466338 P
0.960078 0.252448 0.523323 P
0.459270 0.029764 0.748076 P
0.533897 0.970529 0.243466 P
0.746723 0.459781 0.038163 P
0.571651 0.783853 0.414773 O
0.296677 0.050460 0.934239 O
0.415234 0.567836 0.774159 O
0.927857 0.283972 0.048468 O
0.789067 0.427545 0.562161 O
0.058520 0.927348 0.290112 O
0.936762 0.070274 0.698804 O
0.575856 0.431930 0.222716 O
0.695267 0.949974 0.057009 O
0.208130 0.572028 0.427806 O
0.071454 0.710734 0.939802 O
0.420913 0.217173 0.579562 O
0.222844 0.354587 0.992729 O
0.852947 0.728648 0.508894 O
0.972925 0.242833 0.347548 O
0.469706 0.867271 0.716773 O
0.340158 -0.000014 0.252239 O
0.703686 0.498937 0.869306 O
0.286654 0.493858 0.132839 O
0.027845 0.761230 0.638300 O
0.146367 0.255886 0.494388 O
0.649800 0.987388 0.753541 O
0.519212 0.136077 0.271419 O
0.775476 0.634470 0.004589 O
