K32 Mn16 P16 C16 O112
1.0
  10.8338785172000005    0.0000000000000000    0.0000000000000000
   0.0000000000000000   14.5334300994000003    0.0000000000000000
  -0.2703557584000000    0.0000000000000000   19.0925054150000015
K Mn P C O
31 16 16 16 112
direct
   0.3753806354999999    0.2637479900000000    0.6271883695000000 K
   0.3753806354999999    0.2637479900000000    0.1271883695000000 K
   0.3753806354999999    0.7637479899999999    0.1271883695000000 K
   0.3753806354999999    0.7637479899999999    0.6271883695000000 K
   0.8753806355000000    0.2637479900000000    0.1271883695000000 K
   0.8753806355000000    0.2637479900000000    0.6271883695000000 K
   0.8753806355000000    0.7637479899999999    0.1271883695000000 K
   0.8753806355000000    0.7637479899999999    0.6271883695000000 K
   0.3753806354999999    0.4862520100000000    0.1271883695000000 K
   0.3753806354999999    0.9862520100000000    0.1271883695000000 K
   0.3753806354999999    0.9862520100000000    0.6271883695000000 K
   0.8753806355000000    0.4862520100000000    0.1271883695000000 K
   0.8753806355000000    0.4862520100000000    0.6271883695000000 K
   0.8753806355000000    0.9862520100000000    0.1271883695000000 K
   0.8753806355000000    0.9862520100000000    0.6271883695000000 K
   0.1246193720000000    0.2362519950000000    0.3728116155000000 K
   0.1246193720000000    0.2362519950000000    0.8728116155000000 K
   0.1246193720000000    0.7362519949999999    0.3728116155000000 K
   0.1246193720000000    0.7362519949999999    0.8728116155000000 K
   0.6246193720000000    0.2362519950000000    0.3728116155000000 K
   0.6246193720000000    0.2362519950000000    0.8728116155000000 K
   0.6246193720000000    0.7362519949999999    0.3728116155000000 K
   0.6246193720000000    0.7362519949999999    0.8728116155000000 K
   0.1246193720000000    0.0137480005000000    0.3728116155000000 K
   0.1246193720000000    0.0137480005000000    0.8728116155000000 K
   0.1246193720000000    0.5137480005000000    0.3728116155000000 K
   0.1246193720000000    0.5137480005000000    0.8728116155000000 K
   0.6246193720000000    0.0137480005000000    0.3728116155000000 K
   0.6246193720000000    0.0137480005000000    0.8728116155000000 K
   0.6246193720000000    0.5137480005000000    0.3728116155000000 K
   0.6246193720000000    0.5137480005000000    0.8728116155000000 K
   0.1397156270000000    0.1250000000000000    0.0690103770000000 Mn
   0.1397156270000000    0.1250000000000000    0.5690103770000000 Mn
   0.1397156270000000    0.6250000000000000    0.0690103770000000 Mn
   0.1397156270000000    0.6250000000000000    0.5690103770000000 Mn
   0.6397156270000000    0.1250000000000000    0.0690103770000000 Mn
   0.6397156270000000    0.1250000000000000    0.5690103770000000 Mn
   0.6397156270000000    0.6250000000000000    0.0690103770000000 Mn
   0.6397156270000000    0.6250000000000000    0.5690103770000000 Mn
   0.3602843880000000    0.3750000000000000    0.4309896230000000 Mn
   0.3602843880000000    0.3750000000000000    0.9309896230000000 Mn
   0.3602843880000000    0.8750000000000001    0.4309896230000000 Mn
   0.3602843880000000    0.8750000000000001    0.9309896230000000 Mn
   0.8602843880000000    0.3750000000000000    0.4309896230000000 Mn
   0.8602843880000000    0.3750000000000000    0.9309896230000000 Mn
   0.8602843880000000    0.8750000000000001    0.4309896230000000 Mn
   0.8602843880000000    0.8750000000000001    0.9309896230000000 Mn
   0.1113548725000000    0.3750000000000000    0.0370931255000000 P
   0.1113548725000000    0.3750000000000000    0.5370931255000000 P
   0.1113548725000000    0.8750000000000001    0.0370931255000000 P
   0.1113548725000000    0.8750000000000001    0.5370931255000000 P
   0.6113548725000000    0.3750000000000000    0.0370931255000000 P
   0.6113548725000000    0.3750000000000000    0.5370931255000000 P
   0.6113548725000000    0.8750000000000001    0.0370931255000000 P
   0.6113548725000000    0.8750000000000001    0.5370931255000000 P
   0.3886451125000000    0.1250000000000000    0.4629068675000000 P
   0.3886451124999999    0.1250000000000000    0.9629068675000001 P
   0.3886451125000000    0.6250000000000000    0.4629068675000000 P
   0.3886451124999999    0.6250000000000000    0.9629068675000001 P
   0.8886451125000001    0.1250000000000000    0.4629068675000000 P
   0.8886451125000000    0.1250000000000000    0.9629068675000001 P
   0.8886451125000001    0.6250000000000000    0.4629068675000000 P
   0.8886451125000000    0.6250000000000000    0.9629068675000001 P
   0.1146188750000000    0.1250000000000000    0.1966683715000000 C
   0.1146188750000000    0.1250000000000000    0.6966683715000000 C
   0.1146188750000000    0.6250000000000000    0.1966683715000000 C
   0.1146188750000000    0.6250000000000000    0.6966683715000000 C
   0.6146188750000000    0.1250000000000000    0.1966683715000000 C
   0.6146188750000000    0.1250000000000000    0.6966683715000000 C
   0.6146188750000000    0.6250000000000000    0.1966683715000000 C
   0.6146188750000000    0.6250000000000000    0.6966683715000000 C
   0.3853811324999999    0.3750000000000000    0.3033316135000000 C
   0.3853811324999999    0.3750000000000000    0.8033316135000000 C
   0.3853811324999999    0.8750000000000001    0.3033316135000000 C
   0.3853811324999999    0.8750000000000001    0.8033316135000000 C
   0.8853811324999999    0.3750000000000000    0.3033316135000000 C
   0.8853811324999998    0.3750000000000000    0.8033316135000000 C
   0.8853811324999999    0.8750000000000001    0.3033316135000000 C
   0.8853811324999998    0.8750000000000001    0.8033316135000000 C
   0.3988776204999999    0.3750000000000000    0.2388956250000000 O
   0.3988776205000000    0.3750000000000000    0.7388956250000001 O
   0.3988776204999999    0.8750000000000001    0.2388956250000000 O
   0.3988776205000000    0.8750000000000001    0.7388956250000001 O
   0.8988776204999999    0.3750000000000000    0.2388956250000000 O
   0.8988776205000000    0.3750000000000000    0.7388956250000001 O
   0.8988776204999999    0.8750000000000001    0.2388956250000000 O
   0.8988776205000000    0.8750000000000001    0.7388956250000001 O
   0.1011223720000000    0.1250000000000000    0.2611043750000000 O
   0.1011223720000000    0.1250000000000000    0.7611043750000001 O
   0.1011223720000000    0.6250000000000000    0.2611043750000000 O
   0.1011223720000000    0.6250000000000000    0.7611043750000001 O
   0.6011223720000000    0.1250000000000000    0.2611043750000000 O
   0.6011223720000000    0.1250000000000000    0.7611043750000001 O
   0.6011223720000000    0.6250000000000000    0.2611043750000000 O
   0.6011223720000000    0.6250000000000000    0.7611043750000001 O
   0.2219488770000000    0.1250000000000000    0.1647091210000000 O
   0.2219488770000000    0.1250000000000000    0.6647091210000000 O
   0.2219488770000000    0.6250000000000000    0.1647091210000000 O
   0.2219488770000000    0.6250000000000000    0.6647091210000000 O
   0.7219488769999999    0.1250000000000000    0.1647091210000000 O
   0.7219488770000000    0.1250000000000000    0.6647091210000000 O
   0.7219488769999999    0.6250000000000000    0.1647091210000000 O
   0.7219488770000000    0.6250000000000000    0.6647091210000000 O
   0.2780511380000000    0.3750000000000000    0.3352908790000000 O
   0.2780511379999999    0.3750000000000000    0.8352908790000001 O
   0.2780511380000000    0.8750000000000001    0.3352908790000000 O
   0.2780511379999999    0.8750000000000001    0.8352908790000001 O
   0.7780511379999998    0.3750000000000000    0.3352908790000000 O
   0.7780511379999999    0.3750000000000000    0.8352908790000001 O
   0.7780511379999998    0.8750000000000001    0.3352908790000000 O
   0.7780511379999999    0.8750000000000001    0.8352908790000001 O
   0.0224418750000000    0.1250000000000000    0.1501423715000000 O
   0.0224418750000000    0.1250000000000000    0.6501423715000000 O
   0.0224418750000000    0.6250000000000000    0.1501423715000000 O
   0.0224418750000000    0.6250000000000000    0.6501423715000000 O
   0.5224418750000001    0.1250000000000000    0.1501423715000000 O
   0.5224418750000001    0.1250000000000000    0.6501423715000000 O
   0.5224418750000001    0.6250000000000000    0.1501423715000000 O
   0.5224418750000001    0.6250000000000000    0.6501423715000000 O
   0.4775581360000000    0.3750000000000000    0.3498576285000000 O
   0.4775581360000000    0.3750000000000000    0.8498576285000000 O
   0.4775581360000000    0.8750000000000001    0.3498576285000000 O
   0.4775581360000000    0.8750000000000001    0.8498576285000000 O
   0.9775581360000000    0.3750000000000000    0.3498576285000000 O
   0.9775581359999999    0.3750000000000000    0.8498576285000000 O
   0.9775581360000000    0.8750000000000001    0.3498576285000000 O
   0.9775581359999999    0.8750000000000001    0.8498576285000000 O
   0.3077933790000000    0.1250000000000000    0.0307216255000000 O
   0.3077933790000000    0.1250000000000000    0.5307216255000000 O
   0.3077933790000000    0.6250000000000000    0.0307216255000000 O
   0.3077933790000000    0.6250000000000000    0.5307216255000000 O
   0.8077933790000000    0.1250000000000000    0.0307216255000000 O
   0.8077933789999999    0.1250000000000000    0.5307216255000000 O
   0.8077933790000000    0.6250000000000000    0.0307216255000000 O
   0.8077933789999999    0.6250000000000000    0.5307216255000000 O
   0.1922066210000000    0.3750000000000000    0.4692783655000000 O
   0.1922066210000000    0.3750000000000000    0.9692783655000001 O
   0.1922066210000000    0.8750000000000001    0.4692783655000000 O
   0.1922066210000000    0.8750000000000001    0.9692783655000001 O
   0.6922066209999999    0.3750000000000000    0.4692783655000000 O
   0.6922066210000000    0.3750000000000000    0.9692783655000001 O
   0.6922066209999999    0.8750000000000001    0.4692783655000000 O
   0.6922066210000000    0.8750000000000001    0.9692783655000001 O
   0.4702903629999999    0.3750000000000000    0.0126773750000000 O
   0.4702903630000000    0.3750000000000000    0.5126773750000000 O
   0.4702903629999999    0.8750000000000001    0.0126773750000000 O
   0.4702903630000000    0.8750000000000001    0.5126773750000000 O
   0.9702903629999999    0.3750000000000000    0.0126773750000000 O
   0.9702903629999998    0.3750000000000000    0.5126773750000000 O
   0.9702903629999999    0.8750000000000001    0.0126773750000000 O
   0.9702903629999998    0.8750000000000001    0.5126773750000000 O
   0.0297096240000000    0.1250000000000000    0.4873226285000001 O
   0.0297096240000000    0.1250000000000000    0.9873226285000001 O
   0.0297096240000000    0.6250000000000000    0.4873226285000001 O
   0.0297096240000000    0.6250000000000000    0.9873226285000001 O
   0.5297096240000000    0.1250000000000000    0.4873226285000001 O
   0.5297096240000000    0.1250000000000000    0.9873226285000001 O
   0.5297096240000000    0.6250000000000000    0.4873226285000001 O
   0.5297096240000000    0.6250000000000000    0.9873226285000001 O
   0.1349788755000000    0.4633319975000000    0.0797908755000000 O
   0.1349788755000000    0.4633319975000000    0.5797908755000000 O
   0.1349788755000000    0.9633319975000001    0.0797908755000000 O
   0.1349788755000000    0.9633319975000001    0.5797908755000000 O
   0.6349788755000000    0.4633319975000000    0.0797908755000000 O
   0.6349788755000000    0.4633319975000000    0.5797908755000000 O
   0.6349788755000000    0.9633319975000001    0.0797908755000000 O
   0.6349788755000000    0.9633319975000001    0.5797908755000000 O
   0.1349788755000000    0.2866680025000000    0.0797908755000000 O
   0.1349788755000000    0.2866680025000000    0.5797908755000000 O
   0.1349788755000000    0.7866680025000000    0.0797908755000000 O
   0.1349788755000000    0.7866680025000000    0.5797908755000000 O
   0.6349788755000000    0.2866680025000000    0.0797908755000000 O
   0.6349788755000000    0.2866680025000000    0.5797908755000000 O
   0.6349788755000000    0.7866680025000000    0.0797908755000000 O
   0.6349788755000000    0.7866680025000000    0.5797908755000000 O
   0.3650211394999999    0.2133319975000000    0.4202091395000000 O
   0.3650211395000000    0.2133319975000000    0.9202091394999999 O
   0.3650211394999999    0.7133319975000000    0.4202091395000000 O
   0.3650211395000000    0.7133319975000000    0.9202091394999999 O
   0.8650211394999999    0.2133319975000000    0.4202091395000000 O
   0.8650211394999999    0.2133319975000000    0.9202091394999999 O
   0.8650211394999999    0.7133319975000000    0.4202091395000000 O
   0.8650211394999999    0.7133319975000000    0.9202091394999999 O
   0.3650211394999999    0.0366679990000000    0.4202091395000000 O
   0.3650211395000000    0.0366679990000000    0.9202091394999999 O
   0.3650211394999999    0.5366679990000001    0.4202091395000000 O
   0.3650211395000000    0.5366679990000001    0.9202091394999999 O
   0.8650211394999999    0.0366679990000000    0.4202091395000000 O
   0.8650211394999999    0.0366679990000000    0.9202091394999999 O
   0.8650211394999999    0.5366679990000001    0.4202091395000000 O
   0.8650211394999999    0.5366679990000001    0.9202091394999999 O
