Ca1 Cr12 F42                            
   1.00000000000000     
     7.2530180000000000   -0.0368690000000000   -0.0277230000000000
    -3.6088209999999998    6.2736580000000002    0.0189900000000000
     0.0121770000000000    0.0873730000000000   17.3452629999999992
   Ca   Cr   F 
     1    12    42
Direct
  0.2423460663006170  0.4107965148751284  0.3639997050871771
  0.3105645144273426  1.0001339980062212  0.3355658820604776
  0.7053112176773587  0.7111354133878367  0.9968529248073507
  0.9977841358926492  0.2931909877698369  0.6686351332346682
  0.3481572733020473  0.9991384923201059  0.8329658106323492
  0.6533779450492616  0.6527765595764659  0.5031585287563187
  0.9844811523501819  0.3502572325161962  0.1566912239487470
  0.6592450977503493  0.1518206223522105  0.4998302949143679
  0.4865567237175424  0.3507841693829084  0.1619856738032954
  0.8481596313715680  0.4994336955351608  0.8332886256254156
  0.3481382154265620  0.4990184633075784  0.8332032606666385
  0.1523976084574841  0.6609735745430427  0.5072181747226316
  0.4878437836830332  0.8511418635608543  0.1593378601122712
  0.5649097674259059  0.8315662278110278  0.0561450692019577
  0.2556098934795695  0.4437558979185671  0.7281498513130025
  0.2114124586685565  0.7346180112034746  0.3967676156162905
  0.4228434559819555  0.2645893594544685  0.2733113806227336
  0.8180614857207945  0.5651270617339338  0.9377461283632935
  0.7442078545040900  0.1725953048265711  0.6054806473622919
  0.8919731278722890  0.0705977575798701  0.7285462725420563
  0.2358564644156816  0.1288063008443709  0.4128053672676449
  0.9150786280859080  0.8029743868006792  0.0620455708624836
  0.1267391219911570  0.2189252641404805  0.6014335301891932
  0.0596881407280787  0.9117023331946115  0.2905717880418646
  0.8083681117227631  0.9255764105349821  0.9330640379864601
  0.1005691026214712  0.5680971685495784  0.6101693660299825
  0.4096141021135740  0.8637923134630241  0.2650626468105978
  0.4421824957793439  0.5656554073634371  0.9373590953906835
  0.8686499856997416  0.4219175485395086  0.7298509904316824
  0.5854493700661216  0.1229731705272819  0.3920253079951880
  0.5495553750738914  0.4448594251725139  0.0584503819163434
  0.3472561185493063  0.5554545056668975  0.4932858808275449
  0.1974671242088210  0.6427570719758327  0.1357205483151994
  0.4365537212879169  0.7950029034918008  0.8147435377678030
  0.6391514297882569  0.2061679440969119  0.8550265673791537
  0.5827356636268533  0.3635764956366299  0.5221573685993331
  0.7799581630617890  0.4378723644377714  0.1800892616434006
  0.6131357572294062  0.5865339616260479  0.3971052962589339
  0.9114836385711007  0.3047387506383312  0.0587612184602523
  0.3856449556838417  0.0718195902451357  0.7344373431000331
  0.3045014739434663  0.9264056153246112  0.9313893838543459
  0.6416801080727710  0.6958671294199849  0.6027700679434117
  0.0626734600730298  0.3972823879657893  0.2630920942872786
  0.9524426402207957  0.7551757562942765  0.5072717186147697
  0.7754931258782384  0.0601853745997143  0.1846163416336411
  0.2597810466954527  0.2048209200783335  0.8513657891810125
  0.0556869526085968  0.7905094354789990  0.8109303880269813
  0.7403309493140773  0.9440634684645853  0.4784863820103625
  0.1913367725191497  0.2598545198367893  0.1452836999141178
  0.6266903446627032  0.5567504752896455  0.8012357178380187
  0.9456666046213940  0.3768153856889645  0.4670757481789721
  0.4255518344785003  0.0711770287364760  0.1311290353712746
  0.3788744050197829  0.9374844887214067  0.5346465874623254
  0.5398251555840876  0.6272426375622514  0.1953793877566464
  0.0693472248943632  0.4415210327641197  0.8650022093752091
 
             NaN             NaN             NaN
             NaN             NaN             NaN
             NaN             NaN             NaN
             NaN             NaN             NaN
             NaN             NaN             NaN
             NaN             NaN             NaN
             NaN             NaN             NaN
             NaN             NaN             NaN
             NaN             NaN             NaN
             NaN             NaN             NaN
             NaN             NaN             NaN
             NaN             NaN             NaN
             NaN             NaN             NaN
             NaN             NaN             NaN
             NaN             NaN             NaN
             NaN             NaN             NaN
             NaN             NaN             NaN
             NaN             NaN             NaN
             NaN             NaN             NaN
             NaN             NaN             NaN
             NaN             NaN             NaN
             NaN             NaN             NaN
             NaN             NaN             NaN
             NaN             NaN             NaN
             NaN             NaN             NaN
             NaN             NaN             NaN
             NaN             NaN             NaN
             NaN             NaN             NaN
             NaN             NaN             NaN
             NaN             NaN             NaN
             NaN             NaN             NaN
             NaN             NaN             NaN
             NaN             NaN             NaN
             NaN             NaN             NaN
             NaN             NaN             NaN
             NaN             NaN             NaN
             NaN             NaN             NaN
             NaN             NaN             NaN
             NaN             NaN             NaN
             NaN             NaN             NaN
             NaN             NaN             NaN
             NaN             NaN             NaN
             NaN             NaN             NaN
             NaN             NaN             NaN
             NaN             NaN             NaN
             NaN             NaN             NaN
             NaN             NaN             NaN
             NaN             NaN             NaN
             NaN             NaN             NaN
             NaN             NaN             NaN
             NaN             NaN             NaN
             NaN             NaN             NaN
             NaN             NaN             NaN
             NaN             NaN             NaN
             NaN             NaN             NaN
