Ca1 Cr12 F42                            
   1.00000000000000     
     7.2530180000000000   -0.0368690000000000   -0.0277230000000000
    -3.6088209999999998    6.2736580000000002    0.0189900000000000
     0.0121770000000000    0.0873730000000000   17.3452629999999992
   Ca   Cr   F 
     1    12    42
Direct
  0.2459590768594958  0.4295806855223373  0.3643623287042279
  0.2982106727302160  0.9896308500960529  0.3295023415843342
  0.7131909915577539  0.7114574254145629  0.9975842740484494
  0.9975043868485091  0.2961619638592926  0.6690626086487818
  0.3568366304808847 -0.0002050164875861  0.8351504075229307
  0.6415023809269269  0.6627158508015257  0.5063467453608264
  0.9922423722259726  0.3444935886853966  0.1538355028196691
  0.6427682002269973  0.1602972776201789  0.5032893076311572
  0.4934029130150100  0.3439241363257708  0.1594355078005540
  0.8563923701133417  0.5012586641467269  0.8354679567629837
  0.3542878250660445  0.4978070695833483  0.8339979550352492
  0.1386994801748284  0.6673780868286499  0.5093712396867563
  0.4960347522767010  0.8452377624150805  0.1603918064769934
  0.5615441491998685  0.8198581756521577  0.0562169743545823
  0.2569059563459345  0.4398412203009877  0.7289775918737988
  0.1912857891578124  0.7335712349412377  0.3970045398072909
  0.4205851111056119  0.2536143863580167  0.2685632641863008
  0.8349368796368013  0.5735241973091306  0.9393196792934223
  0.7393725508007625  0.1848093093368910  0.6075977875879947
  0.8913749435587782  0.0705834101334977  0.7275208582701910
  0.1810302967763172  0.1087615337026286  0.3946567588774120
  0.9224103505469579  0.8098133916992672  0.0631083067222074
  0.1209163810529629  0.2217263582103867  0.5995078651794039
  0.0706147124584912  0.8672610370320633  0.2695022841313198
  0.8106200703909300  0.9263692021073157  0.9341803873948301
  0.1021999856895141  0.5744235790490821  0.6123200752192435
  0.4362390957581620  0.8662548261437515  0.2691795205165536
  0.4503582731147156  0.5614934642340148  0.9378950557107056
  0.8725924689782535  0.4236942775030363  0.7320947002015155
  0.5560603532397593  0.1318720151074103  0.3970948324414971
  0.5676690183272760  0.4424787549615891  0.0567924547256782
  0.3353433168532913  0.5643347550350690  0.4914043859721006
  0.2025062274425249  0.6397477250913804  0.1392687639956361
  0.4441374893620396  0.7948573560230067  0.8168152839980245
  0.6470899603230524  0.2090693080492219  0.8585639872056583
  0.5629505479019457  0.3705415496463069  0.5253340779053965
  0.7839885666390106  0.4251510989075768  0.1805662678459514
  0.6171065445052305  0.5992125114447153  0.3998829343336707
  0.9207798980756908  0.3092533321392311  0.0557553947607111
  0.3975383702901343  0.0740567007321677  0.7368579857426985
  0.3123733102945582  0.9263719486590433  0.9335344768038546
  0.6186626635137574  0.7071298903584117  0.6051158876574597
  0.0692303494386370  0.3814794010794031  0.2603003882729355
  0.9400971678651506  0.7627256823666835  0.5162448463448951
  0.7885659813391227  0.0521384943190526  0.1792553549562155
  0.2661257695714906  0.2035828162130489  0.8526087355996308
  0.0647813594450647  0.7913788279676192  0.8121660927995827
  0.7244796686343626  0.9530666768187708  0.4802681426862303
  0.2022360015358503  0.2598073195269269  0.1376646594246163
  0.6341515055414066  0.5574423104049603  0.8029856881785186
  0.9270551169569921  0.3858940709704622  0.4705200734906329
  0.4334339612887292  0.0637798279734942  0.1303151387727513
  0.3627384268951471  0.9453557805783468  0.5371332287720135
  0.5476270942422327  0.6201066571169050  0.1942099140252506
  0.0767262034174115  0.4414952771656267  0.8665732104324989
 
             NaN             NaN             NaN
             NaN             NaN             NaN
             NaN             NaN             NaN
             NaN             NaN             NaN
             NaN             NaN             NaN
             NaN             NaN             NaN
             NaN             NaN             NaN
             NaN             NaN             NaN
             NaN             NaN             NaN
             NaN             NaN             NaN
             NaN             NaN             NaN
             NaN             NaN             NaN
             NaN             NaN             NaN
             NaN             NaN             NaN
             NaN             NaN             NaN
             NaN             NaN             NaN
             NaN             NaN             NaN
             NaN             NaN             NaN
             NaN             NaN             NaN
             NaN             NaN             NaN
             NaN             NaN             NaN
             NaN             NaN             NaN
             NaN             NaN             NaN
             NaN             NaN             NaN
             NaN             NaN             NaN
             NaN             NaN             NaN
             NaN             NaN             NaN
             NaN             NaN             NaN
             NaN             NaN             NaN
             NaN             NaN             NaN
             NaN             NaN             NaN
             NaN             NaN             NaN
             NaN             NaN             NaN
             NaN             NaN             NaN
             NaN             NaN             NaN
             NaN             NaN             NaN
             NaN             NaN             NaN
             NaN             NaN             NaN
             NaN             NaN             NaN
             NaN             NaN             NaN
             NaN             NaN             NaN
             NaN             NaN             NaN
             NaN             NaN             NaN
             NaN             NaN             NaN
             NaN             NaN             NaN
             NaN             NaN             NaN
             NaN             NaN             NaN
             NaN             NaN             NaN
             NaN             NaN             NaN
             NaN             NaN             NaN
             NaN             NaN             NaN
             NaN             NaN             NaN
             NaN             NaN             NaN
             NaN             NaN             NaN
             NaN             NaN             NaN
