Na2 Ca2 V4 P2 S4 O24                    
   1.00000000000000     
     8.9712169999999993    0.3576480000000000    0.1711190000000000
     4.2706540000000004    7.8991749999999996    0.1830090000000000
     4.1566979999999996    2.5927069999999999    7.4436520000000002
   Ca   Na   V    P    S    O 
     2     2     4     2     4    24
Direct
  0.6467007848153433  0.3875122619801112  0.4800963664018920
  0.0145131278349356  0.9862447210355167  0.0112999410637244
  0.4094113579806387  0.0832012406240916  0.7570716334245725
  0.5848528311133104  0.8841615393586485  0.2526763548852634
  0.3527870098120308  0.3644103967518086  0.3573446551501094
  0.6492703785864211  0.6484624314037196  0.6531468818176790
  0.1456246485704173  0.1473391801895942  0.1484251909854377
  0.8526352021832873  0.8510475877923053  0.8490409880622559
  0.7595059193860546  0.0326062247705417  0.4435363141545821
  0.4627956763732694  0.7438304242830794  0.0568273130711347
  0.0489620844664235  0.4464310785194879  0.7519645954853266
  0.9583501438002315  0.5537399261143272  0.2484678812571300
  0.2438742124640812  0.9662500970853374  0.5599446471679104
  0.5456267758135767  0.2520365855983031  0.9522221824908997
  0.2287111489875523  0.4324203590375519  0.6016358831956895
  0.7764882812821033  0.5877047694576993  0.4002518675620787
  0.5803171447178939  0.2070742396264620  0.4401842336665603
  0.4082644740983446  0.7937392897397580  0.5623342476887064
  0.4574047232643366  0.5749136116821469  0.2317509483342164
  0.5816654484120578  0.3978370055266580  0.7701185799644932
  0.9111729115062447  0.0771428481305760  0.2599490722101261
  0.0896545736736498  0.9329301600503681  0.7340431115139587
  0.0802791490273551  0.2597629467820431  0.9019498227486837
  0.9371650837464444  0.7269666305285182  0.0886737112642685
  0.2716875623128888  0.9076433131476094  0.0787589151037311
  0.7221488180032435  0.0866099298691613  0.9523963384320284
  0.4948507538160219  0.3083689350830360  0.1039512576644943
  0.4944136742201521  0.7194828602069504  0.8830204191563774
  0.1072944229752282  0.5232993983839501  0.2955346916577802
  0.9056081145304169  0.4723863577939598  0.6961206462952894
  0.2828903303869092  0.1131280798891919  0.5521602872618774
  0.7260201561104048  0.8723643799588192  0.4646259456380907
  0.4025227192102947  0.2021470493056528  0.9684903958111865
  0.6088788094592211  0.8074486955281820  0.0276830080565508
  0.1966284696669492  0.0212431201449627  0.3993018411432711
  0.7951939887275994  1.0184268667931227  0.6045169992964811
  0.9738744333645150  0.3974302760188654  0.2178737869285032
  0.9998268561402692  0.5882662953244862  0.8218971929574803
 
             NaN             NaN             NaN
             NaN             NaN             NaN
             NaN             NaN             NaN
             NaN             NaN             NaN
             NaN             NaN             NaN
             NaN             NaN             NaN
             NaN             NaN             NaN
             NaN             NaN             NaN
             NaN             NaN             NaN
             NaN             NaN             NaN
             NaN             NaN             NaN
             NaN             NaN             NaN
             NaN             NaN             NaN
             NaN             NaN             NaN
             NaN             NaN             NaN
             NaN             NaN             NaN
             NaN             NaN             NaN
             NaN             NaN             NaN
             NaN             NaN             NaN
             NaN             NaN             NaN
             NaN             NaN             NaN
             NaN             NaN             NaN
             NaN             NaN             NaN
             NaN             NaN             NaN
             NaN             NaN             NaN
             NaN             NaN             NaN
             NaN             NaN             NaN
             NaN             NaN             NaN
             NaN             NaN             NaN
             NaN             NaN             NaN
             NaN             NaN             NaN
             NaN             NaN             NaN
             NaN             NaN             NaN
             NaN             NaN             NaN
             NaN             NaN             NaN
             NaN             NaN             NaN
             NaN             NaN             NaN
             NaN             NaN             NaN
