Na2 Ca2 V4 P2 S4 O24
1.0
8.971217 0.357648 0.171119
4.270654 7.899175 0.183009
4.156698 2.592707 7.443652
Ca Na V P S O
2 2 4 2 4 24
direct
0.636775 0.400976 0.521607 Ca
0.005102 0.984855 0.024756 Ca
0.418187 0.088745 0.751186 Na
0.590399 0.881981 0.254610 Na
0.354510 0.360055 0.356908 V
0.650924 0.654460 0.640659 V
0.146000 0.149647 0.143668 V
0.847060 0.844011 0.858961 V
0.753972 0.040709 0.444385 P
0.458931 0.748784 0.049289 P
0.044471 0.447018 0.750520 S
0.956863 0.549682 0.248293 S
0.241270 0.966557 0.560167 S
0.541958 0.256863 0.946505 S
0.224410 0.433964 0.599689 O
0.776338 0.564174 0.403409 O
0.583218 0.221755 0.444777 O
0.402135 0.790081 0.556470 O
0.435026 0.583810 0.221997 O
0.571310 0.409212 0.771013 O
0.913431 0.078077 0.265423 O
0.087849 0.935439 0.736099 O
0.074550 0.262242 0.899601 O
0.925010 0.733364 0.099800 O
0.271758 0.916094 0.064338 O
0.723428 0.095916 0.935473 O
0.492941 0.299606 0.106401 O
0.506008 0.725934 0.870305 O
0.099634 0.522092 0.303185 O
0.903496 0.472406 0.691585 O
0.291764 0.105376 0.550963 O
0.713056 0.891406 0.447526 O
0.402391 0.203886 0.960759 O
0.602559 0.802119 0.041275 O
0.182109 0.031466 0.404171 O
0.794307 0.988639 0.616587 O
0.995756 0.404944 0.188796 O
-0.004077 0.589786 0.817176 O
