Mg16 Ti32 O64
1.0
  11.4390879999999999    0.0000000000000000    0.0000000000000008
   0.0000000000000015    9.2766680000000008    0.0000000000000006
   0.0000000000000000    0.0000000000000000   10.5826110000000000
Mg Ti O
15 32 64
direct
   0.5625000000000000    0.2523279999999989    0.6563110000000001 Mg
   0.8125000000000000    0.2523279999999989    0.6563110000000001 Mg
   0.0625000000000000    0.2523279999999989    0.6563110000000001 Mg
   0.1875000000000000    0.7476720000000000    0.3436889999999990 Mg
   0.6875000000000000    0.7476720000000000    0.3436889999999990 Mg
   0.4374999999999999    0.7476720000000000    0.3436889999999990 Mg
   0.9374999999999999    0.7476720000000000    0.3436889999999990 Mg
   0.0625000000000000    0.7523279999999991    0.8436889999999990 Mg
   0.5624999999999999    0.7523279999999991    0.8436889999999990 Mg
   0.3125000000000000    0.7523279999999991    0.8436889999999990 Mg
   0.8124999999999999    0.7523279999999991    0.8436889999999989 Mg
   0.1875000000000001    0.2476720000000000    0.1563110000000000 Mg
   0.6875000000000000    0.2476720000000000    0.1563110000000000 Mg
   0.4374999999999999    0.2476720000000000    0.1563110000000000 Mg
   0.9375000000000000    0.2476720000000000    0.1563110000000000 Mg
   0.0625000000000000    0.4348269999999990    0.8839690000000001 Ti
   0.5624999999999999    0.4348269999999990    0.8839690000000000 Ti
   0.3124999999999999    0.4348269999999990    0.8839690000000000 Ti
   0.8124999999999999    0.4348269999999990    0.8839690000000000 Ti
   0.1875000000000000    0.5651729999999999    0.1160309999999990 Ti
   0.6874999999999999    0.5651729999999999    0.1160309999999990 Ti
   0.4375000000000000    0.5651729999999999    0.1160309999999990 Ti
   0.9374999999999999    0.5651729999999999    0.1160309999999990 Ti
   0.0625000000000000    0.9348269999999990    0.6160309999999990 Ti
   0.5625000000000000    0.9348269999999990    0.6160309999999990 Ti
   0.3125000000000000    0.9348269999999990    0.6160309999999990 Ti
   0.8124999999999999    0.9348269999999990    0.6160309999999990 Ti
   0.1875000000000000    0.0651730000000000    0.3839690000000000 Ti
   0.6875000000000000    0.0651730000000000    0.3839689999999999 Ti
   0.4375000000000000    0.0651730000000000    0.3839689999999999 Ti
   0.9375000000000000    0.0651730000000000    0.3839689999999998 Ti
   0.0625000000000000    0.4144459999999990    0.4021330000000000 Ti
   0.5625000000000000    0.4144459999999990    0.4021330000000000 Ti
   0.3124999999999999    0.4144459999999990    0.4021330000000000 Ti
   0.8125000000000000    0.4144459999999990    0.4021330000000000 Ti
   0.1875000000000000    0.5855540000000000    0.5978669999999990 Ti
   0.6874999999999999    0.5855540000000000    0.5978669999999990 Ti
   0.4375000000000000    0.5855540000000000    0.5978669999999990 Ti
   0.9374999999999999    0.5855540000000000    0.5978669999999990 Ti
   0.0625000000000000    0.9144459999999991    0.0978669999999990 Ti
   0.5625000000000000    0.9144459999999991    0.0978669999999990 Ti
   0.3125000000000000    0.9144459999999991    0.0978669999999990 Ti
   0.8124999999999999    0.9144459999999991    0.0978669999999990 Ti
   0.1875000000000000    0.0855540000000000    0.9021330000000001 Ti
   0.6875000000000000    0.0855540000000000    0.9021330000000001 Ti
   0.4375000000000000    0.0855540000000000    0.9021330000000001 Ti
   0.9375000000000000    0.0855540000000000    0.9021330000000001 Ti
   0.0625000000000000    0.2136110000000000    0.3143539999999990 O
   0.5625000000000000    0.2136110000000000    0.3143539999999990 O
   0.3124999999999999    0.2136110000000000    0.3143539999999990 O
   0.8125000000000000    0.2136110000000000    0.3143539999999990 O
   0.1875000000000000    0.7863889999999999    0.6856460000000001 O
   0.6875000000000000    0.7863889999999999    0.6856460000000001 O
   0.4374999999999999    0.7863889999999999    0.6856460000000001 O
   0.9374999999999999    0.7863889999999999    0.6856460000000001 O
   0.0625000000000000    0.7136110000000000    0.1856460000000000 O
   0.5624999999999999    0.7136110000000000    0.1856460000000000 O
   0.3124999999999999    0.7136110000000000    0.1856460000000000 O
   0.8124999999999999    0.7136110000000000    0.1856460000000000 O
   0.1875000000000001    0.2863889999999999    0.8143539999999990 O
   0.6875000000000000    0.2863889999999999    0.8143539999999990 O
   0.4374999999999999    0.2863889999999999    0.8143539999999990 O
   0.9375000000000000    0.2863889999999999    0.8143539999999990 O
   0.0625000000000000    0.1274069999999980    0.0399290000000000 O
   0.5625000000000000    0.1274069999999980    0.0399290000000000 O
   0.3125000000000000    0.1274069999999980    0.0399290000000000 O
   0.8125000000000000    0.1274069999999980    0.0399290000000000 O
   0.1875000000000000    0.8725930000000008    0.9600709999999991 O
   0.6875000000000000    0.8725930000000008    0.9600709999999991 O
   0.4374999999999999    0.8725930000000008    0.9600709999999991 O
   0.9374999999999999    0.8725930000000008    0.9600709999999991 O
   0.0625000000000000    0.6274069999999980    0.4600709999999990 O
   0.5624999999999999    0.6274069999999980    0.4600709999999990 O
   0.3125000000000000    0.6274069999999980    0.4600709999999990 O
   0.8124999999999999    0.6274069999999980    0.4600709999999990 O
   0.1875000000000000    0.3725930000000010    0.5399290000000000 O
   0.6875000000000000    0.3725930000000010    0.5399290000000000 O
   0.4375000000000000    0.3725930000000010    0.5399290000000000 O
   0.9375000000000000    0.3725930000000010    0.5399290000000000 O
   0.0625000000000000    0.0257929999999990    0.7812910000000001 O
   0.5625000000000000    0.0257929999999990    0.7812910000000000 O
   0.3125000000000000    0.0257929999999990    0.7812910000000001 O
   0.8125000000000000    0.0257929999999990    0.7812910000000000 O
   0.1874999999999999    0.9742069999999989    0.2187089999999990 O
   0.6874999999999999    0.9742069999999989    0.2187089999999990 O
   0.4374999999999999    0.9742069999999989    0.2187089999999990 O
   0.9374999999999999    0.9742069999999989    0.2187089999999990 O
   0.0625000000000000    0.5257930000000000    0.7187089999999990 O
   0.5624999999999999    0.5257930000000000    0.7187089999999989 O
   0.3125000000000000    0.5257930000000000    0.7187089999999990 O
   0.8124999999999999    0.5257930000000000    0.7187089999999990 O
   0.1875000000000001    0.4742069999999998    0.2812910000000000 O
   0.6875000000000000    0.4742069999999998    0.2812910000000000 O
   0.4375000000000000    0.4742069999999998    0.2812910000000000 O
   0.9374999999999999    0.4742069999999998    0.2812910000000000 O
   0.0625000000000000    0.4033389999999989    0.0727770000000000 O
   0.5625000000000000    0.4033389999999989    0.0727770000000000 O
   0.3124999999999999    0.4033389999999989    0.0727770000000000 O
   0.8125000000000000    0.4033389999999989    0.0727770000000000 O
   0.1875000000000000    0.5966610000000000    0.9272229999999991 O
   0.6874999999999999    0.5966610000000000    0.9272229999999990 O
   0.4375000000000000    0.5966610000000000    0.9272229999999990 O
   0.9374999999999999    0.5966610000000000    0.9272229999999990 O
   0.0625000000000000    0.9033389999999991    0.4272229999999990 O
   0.5625000000000000    0.9033389999999991    0.4272229999999990 O
   0.3125000000000000    0.9033389999999991    0.4272229999999991 O
   0.8124999999999999    0.9033389999999991    0.4272229999999990 O
   0.1875000000000000    0.0966610000000000    0.5727770000000001 O
   0.6875000000000000    0.0966610000000000    0.5727770000000001 O
   0.4375000000000000    0.0966610000000000    0.5727770000000001 O
   0.9375000000000000    0.0966610000000000    0.5727770000000001 O
