V54 P54 O270
1.0
18.739213 -0.000005 -0.000002
0.000003 18.736427 -0.510966
-0.000101 0.389793 14.080581
Li V P O
1 54 54 270
direct
   0.6656650000000000    0.6666630000000000    0.3333450000000000 Li
0.248997 0.249847 0.202512 V
0.248997 0.249847 0.535845 V
0.248997 0.249847 0.869178 V
0.248997 0.583181 0.202512 V
0.248997 0.583181 0.535845 V
0.248997 0.583181 0.869178 V
0.248997 0.916514 0.202512 V
0.248997 0.916514 0.535845 V
0.248997 0.916514 0.869178 V
0.582331 0.249847 0.202512 V
0.582331 0.249847 0.535845 V
0.582331 0.249847 0.869178 V
0.582331 0.583181 0.202512 V
0.582331 0.583181 0.535845 V
0.582331 0.583181 0.869178 V
0.582331 0.916514 0.202512 V
0.582331 0.916514 0.535845 V
0.582331 0.916514 0.869178 V
0.915664 0.249847 0.202512 V
0.915664 0.249847 0.535845 V
0.915664 0.249847 0.869178 V
0.915664 0.583181 0.202512 V
0.915664 0.583181 0.535845 V
0.915664 0.583181 0.869178 V
0.915664 0.916514 0.202512 V
0.915664 0.916514 0.535845 V
0.915664 0.916514 0.869178 V
0.082329 0.083486 0.130822 V
0.082329 0.083486 0.464155 V
0.082329 0.083486 0.797488 V
0.082329 0.416819 0.130822 V
0.082329 0.416819 0.464155 V
0.082329 0.416819 0.797488 V
0.082329 0.750152 0.130822 V
0.082329 0.750152 0.464155 V
0.082329 0.750152 0.797488 V
0.415662 0.083486 0.130822 V
0.415662 0.083486 0.464155 V
0.415662 0.083486 0.797488 V
0.415662 0.416819 0.130822 V
0.415662 0.416819 0.464155 V
0.415662 0.416819 0.797488 V
0.415662 0.750152 0.130822 V
0.415662 0.750152 0.464155 V
0.415662 0.750152 0.797488 V
0.748996 0.083486 0.130822 V
0.748996 0.083486 0.464155 V
0.748996 0.083486 0.797488 V
0.748996 0.416819 0.130822 V
0.748996 0.416819 0.464155 V
0.748996 0.416819 0.797488 V
0.748996 0.750152 0.130822 V
0.748996 0.750152 0.464155 V
0.748996 0.750152 0.797488 V
0.082318 0.250056 0.166855 P
0.082318 0.250056 0.500188 P
0.082318 0.250056 0.833522 P
0.082318 0.583389 0.166855 P
0.082318 0.583389 0.500188 P
0.082318 0.583389 0.833522 P
0.082318 0.916723 0.166855 P
0.082318 0.916723 0.500188 P
0.082318 0.916723 0.833522 P
0.415651 0.250056 0.166855 P
0.415651 0.250056 0.500188 P
0.415651 0.250056 0.833522 P
0.415651 0.583389 0.166855 P
0.415651 0.583389 0.500188 P
0.415651 0.583389 0.833522 P
0.415651 0.916723 0.166855 P
0.415651 0.916723 0.500188 P
0.415651 0.916723 0.833522 P
0.748985 0.250056 0.166855 P
0.748985 0.250056 0.500188 P
0.748985 0.250056 0.833522 P
0.748985 0.583389 0.166855 P
0.748985 0.583389 0.500188 P
0.748985 0.583389 0.833522 P
0.748985 0.916723 0.166855 P
0.748985 0.916723 0.500188 P
0.748985 0.916723 0.833522 P
0.248984 0.083278 0.166475 P
0.248984 0.083278 0.499809 P
0.248984 0.083278 0.833142 P
0.248984 0.416611 0.166475 P
0.248984 0.416611 0.499809 P
0.248984 0.416611 0.833142 P
0.248984 0.749945 0.166475 P
0.248984 0.749945 0.499809 P
0.248984 0.749945 0.833142 P
0.582317 0.083278 0.166475 P
0.582317 0.083278 0.499809 P
0.582317 0.083278 0.833142 P
0.582317 0.416611 0.166475 P
0.582317 0.416611 0.499809 P
0.582317 0.416611 0.833142 P
0.582317 0.749945 0.166475 P
0.582317 0.749945 0.499809 P
0.582317 0.749945 0.833142 P
0.915650 0.083278 0.166475 P
0.915650 0.083278 0.499809 P
0.915650 0.083278 0.833142 P
0.915650 0.416611 0.166475 P
0.915650 0.416611 0.499809 P
0.915650 0.416611 0.833142 P
0.915650 0.749945 0.166475 P
0.915650 0.749945 0.499809 P
0.915650 0.749945 0.833142 P
0.249018 0.249788 0.089672 O
0.249018 0.249788 0.423005 O
0.249018 0.249788 0.756338 O
0.249018 0.583122 0.089672 O
0.249018 0.583122 0.423005 O
0.249018 0.583122 0.756338 O
0.249018 0.916455 0.089672 O
0.249018 0.916455 0.423005 O
0.249018 0.916455 0.756338 O
0.582351 0.249788 0.089672 O
0.582351 0.249788 0.423005 O
0.582351 0.249788 0.756338 O
0.582351 0.583122 0.089672 O
0.582351 0.583122 0.423005 O
0.582351 0.583122 0.756338 O
0.582351 0.916455 0.089672 O
0.582351 0.916455 0.423005 O
0.582351 0.916455 0.756338 O
0.915684 0.249788 0.089672 O
0.915684 0.249788 0.423005 O
0.915684 0.249788 0.756338 O
0.915684 0.583122 0.089672 O
0.915684 0.583122 0.423005 O
0.915684 0.583122 0.756338 O
0.915684 0.916455 0.089672 O
0.915684 0.916455 0.423005 O
0.915684 0.916455 0.756338 O
0.082352 0.083542 0.243668 O
0.082352 0.083542 0.577001 O
0.082352 0.083542 0.910334 O
0.082352 0.416875 0.243668 O
0.082352 0.416875 0.577001 O
0.082352 0.416875 0.910334 O
0.082352 0.750209 0.243668 O
0.082352 0.750209 0.577001 O
0.082352 0.750209 0.910334 O
0.415685 0.083542 0.243668 O
0.415685 0.083542 0.577001 O
0.415685 0.083542 0.910334 O
0.415685 0.416875 0.243668 O
0.415685 0.416875 0.577001 O
0.415685 0.416875 0.910334 O
0.415685 0.750209 0.243668 O
0.415685 0.750209 0.577001 O
0.415685 0.750209 0.910334 O
0.749018 0.083542 0.243668 O
0.749018 0.083542 0.577001 O
0.749018 0.083542 0.910334 O
0.749018 0.416875 0.243668 O
0.749018 0.416875 0.577001 O
0.749018 0.416875 0.910334 O
0.749018 0.750209 0.243668 O
0.749018 0.750209 0.577001 O
0.749018 0.750209 0.910334 O
0.149155 0.249923 0.231794 O
0.149155 0.249923 0.565128 O
0.149155 0.249923 0.898461 O
0.149155 0.583256 0.231794 O
0.149155 0.583256 0.565128 O
0.149155 0.583256 0.898461 O
0.149155 0.916589 0.231794 O
0.149155 0.916589 0.565128 O
0.149155 0.916589 0.898461 O
0.482489 0.249923 0.231794 O
0.482489 0.249923 0.565128 O
0.482489 0.249923 0.898461 O
0.482489 0.583256 0.231794 O
0.482489 0.583256 0.565128 O
0.482489 0.583256 0.898461 O
0.482489 0.916589 0.231794 O
0.482489 0.916589 0.565128 O
0.482489 0.916589 0.898461 O
0.815822 0.249923 0.231794 O
0.815822 0.249923 0.565128 O
0.815822 0.249923 0.898461 O
0.815822 0.583256 0.231794 O
0.815822 0.583256 0.565128 O
0.815822 0.583256 0.898461 O
0.815822 0.916589 0.231794 O
0.815822 0.916589 0.565128 O
0.815822 0.916589 0.898461 O
0.015523 0.249903 0.231862 O
0.015523 0.249903 0.565195 O
0.015523 0.249903 0.898529 O
0.015523 0.583236 0.231862 O
0.015523 0.583236 0.565195 O
0.015523 0.583236 0.898529 O
0.015523 0.916569 0.231862 O
0.015523 0.916569 0.565195 O
0.015523 0.916569 0.898529 O
0.348856 0.249903 0.231862 O
0.348856 0.249903 0.565195 O
0.348856 0.249903 0.898529 O
0.348856 0.583236 0.231862 O
0.348856 0.583236 0.565195 O
0.348856 0.583236 0.898529 O
0.348856 0.916569 0.231862 O
0.348856 0.916569 0.565195 O
0.348856 0.916569 0.898529 O
0.682189 0.249903 0.231862 O
0.682189 0.249903 0.565195 O
0.682189 0.249903 0.898529 O
0.682189 0.583236 0.231862 O
0.682189 0.583236 0.565195 O
0.682189 0.583236 0.898529 O
0.682189 0.916569 0.231862 O
0.682189 0.916569 0.565195 O
0.682189 0.916569 0.898529 O
0.248969 0.149983 0.231593 O
0.248969 0.149983 0.564927 O
0.248969 0.149983 0.898260 O
0.248969 0.483316 0.231593 O
0.248969 0.483316 0.564927 O
0.248969 0.483316 0.898260 O
0.248969 0.816650 0.231593 O
0.248969 0.816650 0.564927 O
0.248969 0.816650 0.898260 O
0.582302 0.149983 0.231593 O
0.582302 0.149983 0.564927 O
0.582302 0.149983 0.898260 O
0.582302 0.483316 0.231593 O
0.582302 0.483316 0.564927 O
0.582302 0.483316 0.898260 O
0.582302 0.816650 0.231593 O
0.582302 0.816650 0.564927 O
0.582302 0.816650 0.898260 O
0.915636 0.149983 0.231593 O
0.915636 0.149983 0.564927 O
0.915636 0.149983 0.898260 O
0.915636 0.483316 0.231593 O
0.915636 0.483316 0.564927 O
0.915636 0.483316 0.898260 O
0.915636 0.816650 0.231593 O
0.915636 0.816650 0.564927 O
0.915636 0.816650 0.898260 O
0.248977 0.016402 0.231323 O
0.248977 0.016402 0.564656 O
0.248977 0.016402 0.897989 O
0.248977 0.349736 0.231323 O
0.248977 0.349736 0.564656 O
0.248977 0.349736 0.897989 O
0.248977 0.683069 0.231323 O
0.248977 0.683069 0.564656 O
0.248977 0.683069 0.897989 O
0.582310 0.016402 0.231323 O
0.582310 0.016402 0.564656 O
0.582310 0.016402 0.897989 O
0.582310 0.349736 0.231323 O
0.582310 0.349736 0.564656 O
0.582310 0.349736 0.897989 O
0.582310 0.683069 0.231323 O
0.582310 0.683069 0.564656 O
0.582310 0.683069 0.897989 O
0.915644 0.016402 0.231323 O
0.915644 0.016402 0.564656 O
0.915644 0.016402 0.897989 O
0.915644 0.349736 0.231323 O
0.915644 0.349736 0.564656 O
0.915644 0.349736 0.897989 O
0.915644 0.683069 0.231323 O
0.915644 0.683069 0.564656 O
0.915644 0.683069 0.897989 O
0.182189 0.083429 0.101470 O
0.182189 0.083429 0.434804 O
0.182189 0.083429 0.768137 O
0.182189 0.416762 0.101470 O
0.182189 0.416762 0.434804 O
0.182189 0.416762 0.768137 O
0.182189 0.750096 0.101470 O
0.182189 0.750096 0.434804 O
0.182189 0.750096 0.768137 O
0.515522 0.083429 0.101470 O
0.515522 0.083429 0.434804 O
0.515522 0.083429 0.768137 O
0.515522 0.416762 0.101470 O
0.515522 0.416762 0.434804 O
0.515522 0.416762 0.768137 O
0.515522 0.750096 0.101470 O
0.515522 0.750096 0.434804 O
0.515522 0.750096 0.768137 O
0.848856 0.083429 0.101470 O
0.848856 0.083429 0.434804 O
0.848856 0.083429 0.768137 O
0.848856 0.416762 0.101470 O
0.848856 0.416762 0.434804 O
0.848856 0.416762 0.768137 O
0.848856 0.750096 0.101470 O
0.848856 0.750096 0.434804 O
0.848856 0.750096 0.768137 O
0.315821 0.083415 0.101540 O
0.315821 0.083415 0.434873 O
0.315821 0.083415 0.768206 O
0.315821 0.416749 0.101540 O
0.315821 0.416749 0.434873 O
0.315821 0.416749 0.768206 O
0.315821 0.750082 0.101540 O
0.315821 0.750082 0.434873 O
0.315821 0.750082 0.768206 O
0.649154 0.083415 0.101540 O
0.649154 0.083415 0.434873 O
0.649154 0.083415 0.768206 O
0.649154 0.416749 0.101540 O
0.649154 0.416749 0.434873 O
0.649154 0.416749 0.768206 O
0.649154 0.750082 0.101540 O
0.649154 0.750082 0.434873 O
0.649154 0.750082 0.768206 O
0.982488 0.083415 0.101540 O
0.982488 0.083415 0.434873 O
0.982488 0.083415 0.768206 O
0.982488 0.416749 0.101540 O
0.982488 0.416749 0.434873 O
0.982488 0.416749 0.768206 O
0.982488 0.750082 0.101540 O
0.982488 0.750082 0.434873 O
0.982488 0.750082 0.768206 O
0.082305 0.183350 0.101740 O
0.082305 0.183350 0.435074 O
0.082305 0.183350 0.768407 O
0.082305 0.516684 0.101740 O
0.082305 0.516684 0.435074 O
0.082305 0.516684 0.768407 O
0.082305 0.850017 0.101740 O
0.082305 0.850017 0.435074 O
0.082305 0.850017 0.768407 O
0.415638 0.183350 0.101740 O
0.415638 0.183350 0.435074 O
0.415638 0.183350 0.768407 O
0.415638 0.516684 0.101740 O
0.415638 0.516684 0.435074 O
0.415638 0.516684 0.768407 O
0.415638 0.850017 0.101740 O
0.415638 0.850017 0.435074 O
0.415638 0.850017 0.768407 O
0.748972 0.183350 0.101740 O
0.748972 0.183350 0.435074 O
0.748972 0.183350 0.768407 O
0.748972 0.516684 0.101740 O
0.748972 0.516684 0.435074 O
0.748972 0.516684 0.768407 O
0.748972 0.850017 0.101740 O
0.748972 0.850017 0.435074 O
0.748972 0.850017 0.768407 O
0.082307 0.316931 0.102009 O
0.082307 0.316931 0.435342 O
0.082307 0.316931 0.768675 O
0.082307 0.650264 0.102009 O
0.082307 0.650264 0.435342 O
0.082307 0.650264 0.768675 O
0.082307 0.983597 0.102009 O
0.082307 0.983597 0.435342 O
0.082307 0.983597 0.768675 O
0.415641 0.316931 0.102009 O
0.415641 0.316931 0.435342 O
0.415641 0.316931 0.768675 O
0.415641 0.650264 0.102009 O
0.415641 0.650264 0.435342 O
0.415641 0.650264 0.768675 O
0.415641 0.983597 0.102009 O
0.415641 0.983597 0.435342 O
0.415641 0.983597 0.768675 O
0.748974 0.316931 0.102009 O
0.748974 0.316931 0.435342 O
0.748974 0.316931 0.768675 O
0.748974 0.650264 0.102009 O
0.748974 0.650264 0.435342 O
0.748974 0.650264 0.768675 O
0.748974 0.983597 0.102009 O
0.748974 0.983597 0.435342 O
0.748974 0.983597 0.768675 O
