Ca1 Ti12 F42                            
   1.00000000000000     
     7.5130509999999999   -0.0000510000000000    0.0385920000000000
    -3.7461080000000000    6.4969140000000003   -0.0156180000000000
    -0.0324580000000000   -0.0082140000000000   17.6856760000000008
   Ca   Ti   F 
     1    12    42
Direct
  0.7717252524517177  0.5036376141534389  0.3094546269558412
  0.2761475009293501 -0.0037430782541590  0.3354147364357464
  0.7321943678313173  0.7328378403377055  0.9965221531088063
  0.0001404067139663  0.2695759216883128  0.6684864434034419
  0.3631046065883627  1.0046599814995334  0.8321705452161011
  0.6524425696856085  0.6696875616659803  0.5147447238035765
  0.9689949885050838  0.3215511769691937  0.1612151335219466
  0.6508942862793873  0.1677492105094710  0.5018392050346990
  0.4677473525667523  0.3229973197409267  0.1494012254039437
  0.8629972405729532  0.5037546660057354  0.8312810860461455
  0.3633140365554963  0.5044922519334349  0.8320590150695328
  0.1532366743446361  0.6632970726989368  0.5115136598174443
  0.4744972942773314  0.8250255268709303  0.1646296601490394
  0.5694135222080513  0.8059363148723001  0.0623394440864174
  0.2495929356171102  0.4148281336101724  0.7291762898029283
  0.1759002906230015  0.7599958892537370  0.4055867212214299
  0.4219990728944996  0.2409864663526762  0.2613548863482827
  0.8350707504894259  0.5865037853408384  0.9351414146839051
  0.7594811151672736  0.1924237882650460  0.6055570305736833
  0.8804311135371554  0.0605404726224215  0.7325084810663597
  0.2030170360866313  0.1496293306707213  0.3898860402122536
  0.9280461963897444  0.8078777802538817  0.0662139403538660
  0.1091129734434845  0.1774776516270770  0.6003547133572686
  0.0202940269603176  0.8269875174068724  0.2829579301057916
  0.8324750105499722  0.9518705115801502  0.9371386324515162
  0.1242255850197908  0.5465705930830717  0.6098919712306087
  0.4014769808048770  0.8686209604429611  0.2693604799165885
  0.4723266346542227  0.5853876518689723  0.9336059686415303
  0.8917489724728913  0.4277172511016913  0.7294004390402409
  0.5655042749389251  0.1567528611939511  0.3910060080732677
  0.5603414581496126  0.4474311690689154  0.0539572698605813
  0.3639363965618498  0.5890208195860177  0.4881499818437018
  0.1947275712521296  0.6122128504799390  0.1437684487300488
  0.4362978179846664  0.7866263505789908  0.8090114531228074
  0.6541882014696271  0.2205062105368697  0.8538138014794291
  0.5741149545490275  0.3728575888050580  0.5263873489421089
  0.7569890225727022  0.4190642090230828  0.1815073142137998
  0.6957795730042148  0.6288799053164043  0.4084756058894934
  0.8769771651855158  0.2887781074869172  0.0662071876694125
  0.3988226573278574  0.0817114998266737  0.7335461499336022
  0.3240936509917554  0.9260003400973420  0.9308183549376225
  0.6131484545394829  0.7057187233988146  0.6118094916147495
 -0.0029892981867935  0.3829865513604087  0.2676697614559743
  0.9422664126006531  0.7370837359710397  0.5323333652285991
  0.7578825508817796  0.0335070389123006  0.1885377826933397
  0.2868008491366814  0.2203790460591457  0.8548134553948225
  0.0702776048649985  0.7892691229021551  0.8110776359036279
  0.7273951266372597  0.9573112132108916  0.4848334817257625
  0.1783848552750862  0.2428451936087409  0.1418745907813526
  0.6372754937358204  0.5526594685182390  0.8016053343227616
  0.9271136499792996  0.3966885003438865  0.4700169801881842
  0.4261349386210361  0.0485551548373416  0.1308506440164720
  0.3761771771458441  0.9424043305228537  0.5317560631772177
  0.5274512024912292  0.5957729751954042  0.1980534362446605
  0.0879430781372042  0.4551187581655634  0.8616836511301221
 
             NaN             NaN             NaN
             NaN             NaN             NaN
             NaN             NaN             NaN
             NaN             NaN             NaN
             NaN             NaN             NaN
             NaN             NaN             NaN
             NaN             NaN             NaN
             NaN             NaN             NaN
             NaN             NaN             NaN
             NaN             NaN             NaN
             NaN             NaN             NaN
             NaN             NaN             NaN
             NaN             NaN             NaN
             NaN             NaN             NaN
             NaN             NaN             NaN
             NaN             NaN             NaN
             NaN             NaN             NaN
             NaN             NaN             NaN
             NaN             NaN             NaN
             NaN             NaN             NaN
             NaN             NaN             NaN
             NaN             NaN             NaN
             NaN             NaN             NaN
             NaN             NaN             NaN
             NaN             NaN             NaN
             NaN             NaN             NaN
             NaN             NaN             NaN
             NaN             NaN             NaN
             NaN             NaN             NaN
             NaN             NaN             NaN
             NaN             NaN             NaN
             NaN             NaN             NaN
             NaN             NaN             NaN
             NaN             NaN             NaN
             NaN             NaN             NaN
             NaN             NaN             NaN
             NaN             NaN             NaN
             NaN             NaN             NaN
             NaN             NaN             NaN
             NaN             NaN             NaN
             NaN             NaN             NaN
             NaN             NaN             NaN
             NaN             NaN             NaN
             NaN             NaN             NaN
             NaN             NaN             NaN
             NaN             NaN             NaN
             NaN             NaN             NaN
             NaN             NaN             NaN
             NaN             NaN             NaN
             NaN             NaN             NaN
             NaN             NaN             NaN
             NaN             NaN             NaN
             NaN             NaN             NaN
             NaN             NaN             NaN
             NaN             NaN             NaN
