Ca1 Ti12 F42
1.0
7.513051 -0.000051 0.038592
-3.746108 6.496914 -0.015618
-0.032458 -0.008214 17.685676
Ca Ti F
1 12 42
direct
0.737820 0.499567 0.332143 Ca
0.283239 0.002944 0.334231 Ti
0.730133 0.730070 0.997694 Ti
0.000555 0.266127 0.668687 Ti
0.357676 0.997396 0.833252 Ti
0.649284 0.659522 0.506632 Ti
0.989010 0.343174 0.159809 Ti
0.649548 0.156904 0.500333 Ti
0.489268 0.345830 0.159463 Ti
0.857551 0.496936 0.832146 Ti
0.357994 0.498010 0.834653 Ti
0.150807 0.655203 0.508005 Ti
0.492214 0.845976 0.165621 Ti
0.573198 0.816785 0.062164 F
0.247174 0.414402 0.730625 F
0.171731 0.747106 0.399434 F
0.406118 0.246179 0.265779 F
0.830041 0.581502 0.935987 F
0.761093 0.181092 0.602838 F
0.879693 0.053668 0.731154 F
0.199526 0.132525 0.398698 F
0.933273 0.819901 0.064686 F
0.118819 0.180888 0.601504 F
0.049980 0.841838 0.276466 F
0.820473 0.940493 0.934215 F
0.114500 0.537471 0.606184 F
0.426820 0.880146 0.272674 F
0.464042 0.573506 0.936743 F
0.888832 0.420684 0.729888 F
0.564814 0.146272 0.390544 F
0.576184 0.460492 0.060714 F
0.356874 0.575832 0.479149 F
0.207619 0.637911 0.146630 F
0.432757 0.780523 0.811391 F
0.649085 0.214134 0.855032 F
0.575936 0.365938 0.522381 F
0.773007 0.423366 0.195075 F
0.687084 0.614015 0.401249 F
0.895333 0.319766 0.065982 F
0.397389 0.074710 0.734572 F
0.318590 0.919832 0.931905 F
0.603091 0.696419 0.602592 F
0.053190 0.383064 0.266706 F
0.939075 0.730673 0.524664 F
0.779454 0.052937 0.185189 F
0.280178 0.212375 0.855118 F
0.066092 0.782262 0.811478 F
0.725705 0.947525 0.477871 F
0.203617 0.272580 0.139530 F
0.631337 0.546070 0.803551 F
0.923852 0.388847 0.462157 F
0.445663 0.072794 0.136384 F
0.376503 0.930635 0.528690 F
0.538140 0.616647 0.199400 F
0.082528 0.448758 0.863528 F
