Ca1 Ti12 F42
1.0
7.514285 0.001258 0.053040
-3.745589 6.494347 -0.020859
0.001403 -0.002755 17.690975
Ca Ti F
1 12 42
direct
0.861789 0.499158 0.330550 Ca
0.284708 0.005585 0.335083 Ti
0.729383 0.729619 0.997543 Ti
0.000280 0.264051 0.668944 Ti
0.357627 0.996811 0.833162 Ti
0.649870 0.659304 0.506703 Ti
0.989289 0.345058 0.159664 Ti
0.650622 0.157317 0.500035 Ti
0.486647 0.346670 0.159605 Ti
0.857441 0.496310 0.832054 Ti
0.357965 0.497455 0.834589 Ti
0.153595 0.654876 0.508470 Ti
0.492636 0.847933 0.165201 Ti
0.571642 0.817477 0.061301 F
0.246623 0.413408 0.730815 F
0.177119 0.743025 0.398775 F
0.396819 0.242405 0.264685 F
0.830047 0.581386 0.935770 F
0.763251 0.178675 0.602087 F
0.878328 0.051353 0.731303 F
0.195792 0.120312 0.402750 F
0.932221 0.820636 0.064453 F
0.121458 0.180140 0.602276 F
0.041543 0.828182 0.280494 F
0.820165 0.939686 0.933725 F
0.113465 0.535909 0.606434 F
0.431316 0.892791 0.270983 F
0.463626 0.572780 0.936640 F
0.888273 0.419051 0.729938 F
0.573709 0.158932 0.388866 F
0.575941 0.460033 0.060599 F
0.359181 0.574137 0.483200 F
0.207305 0.640517 0.147522 F
0.432888 0.779847 0.811097 F
0.648819 0.213414 0.855047 F
0.577594 0.366129 0.523696 F
0.769477 0.423375 0.198680 F
0.694350 0.611096 0.401985 F
0.889877 0.328636 0.067001 F
0.398344 0.075043 0.734515 F
0.317225 0.918352 0.931718 F
0.615449 0.702831 0.603720 F
0.043646 0.382676 0.267364 F
0.942237 0.731283 0.523622 F
0.780404 0.053718 0.183449 F
0.279882 0.211781 0.855101 F
0.066495 0.781340 0.810919 F
0.724141 0.946364 0.476314 F
0.201766 0.274396 0.138115 F
0.631710 0.545321 0.803481 F
0.924514 0.391001 0.459557 F
0.445631 0.074562 0.135451 F
0.377013 0.931611 0.528187 F
0.539650 0.619449 0.196672 F
0.081889 0.448090 0.863651 F
