Ca9 V12 F42                             
   1.00000000000000     
     7.5323390000000003    0.0088970000000000    0.0209370000000000
    -3.7643160000000000    6.4668729999999996   -0.0801270000000000
    -0.5610820000000000    0.4788710000000000   18.4620819999999988
   Ca   V    F 
     9    12    42
Direct
  0.1179982924111479  0.5625043098778706  0.3384322901871365
  0.5012622227103259  0.8527267371673526  0.6664262694690298
  0.6152844373306638  0.1316002166650196  0.9875622052915701
  0.9846575246041871  0.8147692172380623  0.6662292037709393
  0.8096812407063254  0.9757957544996873  0.3360141524832568
  0.1377318907443167  0.6141529410836187  0.0035379939071394
  0.9689656673808995  0.8060714787265955  0.1644464077936030
  0.8604187678697485  0.0014182686600071  0.8390019387074086
  0.2099401357945567  0.1803354665848349  0.5021567881389707
  0.3417589543440379  0.0447908081519033  0.3313589014130156
  1.0103481444545062  0.3236740461706415  0.6693628744567057
  0.6482478206281702  0.6415859252675354  0.9989981656251657
  0.3304320703774692  0.9879567946845238  0.8244488494339772
  0.9601592806686878  0.2885099900542930  0.1618497790539180
  0.6814641030990405  0.6812828462880436  0.4991172565736945
  0.4671702172045764  0.7967186122232764  0.1684453918651418
  0.1823576834192922  0.6798726822354839  0.5106427106800666
  0.3360923784593557  0.4988657674743111  0.8320001335441681
  0.8294407417176524  0.4895087668649761  0.8288732358833761
  0.6904891817715090  0.1811007444324332  0.4949309863428132
  0.4705837384667796  0.3017061678233253  0.1583578017172748
  0.7515612361692673  0.1832312968063188  0.6054369816853017
  0.8030655240983404  0.5072216337255512  0.9409502587824016
  0.4354815830592144  0.2874253537464406  0.2657318933281165
  0.2369101464404588  0.8223053642231158  0.4124805797559427
  0.4988858020439282  0.8076048437507808  0.0549457756138908
  0.2915579643186739  0.4798711290347809  0.7220078730185052
  0.7584572184644973  0.9320791766110593  0.9500699387830299
  0.0439830071447747  0.8237748240002326  0.2857167402329448
  0.1174479046296416  0.1558469159422711  0.6153002314255421
  0.9396791006767340  0.7507208963505202  0.0477838087122273
  0.8422642424249012  0.0169517303485062  0.7184276948336706
  0.1604788269638455  0.1488423983034785  0.3818912499752300
  0.5243798979754865  0.3416244208791487  0.0456387945283882
  0.6314642082872344  0.1428093178580126  0.3807831220882186
  0.8728775546600988  0.4753922555628267  0.7190782388948683
  0.3669585571142226  0.5376734710825448  0.9453946574186377
  0.1540147376227680  0.6184400020047283  0.6201588021002422
  0.4240402438603486  0.8138283888779345  0.2843806067331148
  0.7869390887885737  0.4238538241627476  0.1795347400604647
  0.5615318182636591  0.3627098488148276  0.5093718133489927
  0.6357333317332038  0.1780738653661083  0.8570605065360627
  0.4639435053559440  0.8144966351617984  0.8014941365030940
  0.3586388503494550  0.5503493648171986  0.4852795333550136
  0.1646802917622449  0.5973048694922827  0.1350768880610788
 -0.0022832927550306  0.2931262459028208  0.2743685567581425
  0.6682794599116832  0.7129098407809020  0.6119996742347266
  0.3022003863598914  0.9116743169890961  0.9364375850022693
  0.3199411204938804  0.9917658890250400  0.7096239752220809
  0.6967296718681379  0.6766868653593956  0.3895802518589352
  0.9150176313616755  0.2913497544372177  0.0487384065036606
  0.1490352845482585  0.1724070141271638  0.1437857838190932
  0.8246516978545325  1.0040212404005224  0.4756277398222367
  0.0192759304882046  0.8040363543432584  0.8017349977300744
  0.2195892170578440  0.1818308029570945  0.8471088790394642
  0.9970794116723712  0.8034088352272474  0.5320517652605957
  0.7740994233243540 -0.0199262389002070  0.2010538887466619
  0.0254112116264406  0.3784780623737071  0.8524514683524587
  0.5944822725736043  0.6156115086578527  0.1599920970272729
  0.4109750534830968  0.9596961864517102  0.5457476359928618
  0.3446481374721127 -0.0164293203858516  0.1585492252159950
  0.6437036673702250  0.6133607409895845  0.8195345399406828
  0.9690713419067652  0.4194602654781805  0.4521431442285946
 
             NaN             NaN             NaN
             NaN             NaN             NaN
             NaN             NaN             NaN
             NaN             NaN             NaN
             NaN             NaN             NaN
             NaN             NaN             NaN
             NaN             NaN             NaN
             NaN             NaN             NaN
             NaN             NaN             NaN
             NaN             NaN             NaN
             NaN             NaN             NaN
             NaN             NaN             NaN
             NaN             NaN             NaN
             NaN             NaN             NaN
             NaN             NaN             NaN
             NaN             NaN             NaN
             NaN             NaN             NaN
             NaN             NaN             NaN
             NaN             NaN             NaN
             NaN             NaN             NaN
             NaN             NaN             NaN
             NaN             NaN             NaN
             NaN             NaN             NaN
             NaN             NaN             NaN
             NaN             NaN             NaN
             NaN             NaN             NaN
             NaN             NaN             NaN
             NaN             NaN             NaN
             NaN             NaN             NaN
             NaN             NaN             NaN
             NaN             NaN             NaN
             NaN             NaN             NaN
             NaN             NaN             NaN
             NaN             NaN             NaN
             NaN             NaN             NaN
             NaN             NaN             NaN
             NaN             NaN             NaN
             NaN             NaN             NaN
             NaN             NaN             NaN
             NaN             NaN             NaN
             NaN             NaN             NaN
             NaN             NaN             NaN
             NaN             NaN             NaN
             NaN             NaN             NaN
             NaN             NaN             NaN
             NaN             NaN             NaN
             NaN             NaN             NaN
             NaN             NaN             NaN
             NaN             NaN             NaN
             NaN             NaN             NaN
             NaN             NaN             NaN
             NaN             NaN             NaN
             NaN             NaN             NaN
             NaN             NaN             NaN
             NaN             NaN             NaN
             NaN             NaN             NaN
             NaN             NaN             NaN
             NaN             NaN             NaN
             NaN             NaN             NaN
             NaN             NaN             NaN
             NaN             NaN             NaN
             NaN             NaN             NaN
             NaN             NaN             NaN
