Ca9 V12 F42
1.0
7.532339 0.008897 0.020937
-3.764316 6.466873 -0.080127
-0.561082 0.478871 18.462082
Ca V F
9 12 42
direct
1.087781 0.495915 0.336798 Ca
0.486529 0.829610 0.666897 Ca
0.625690 0.145818 0.989663 Ca
0.979501 0.805530 0.663309 Ca
0.824892 0.997972 0.334626 Ca
0.146121 0.624357 0.005329 Ca
0.990552 0.837371 0.163422 Ca
0.857354 1.000576 0.837959 Ca
0.198876 0.176375 0.503330 Ca
0.324469 1.001535 0.330920 V
0.995369 0.314305 0.667092 V
0.654678 0.652161 0.999678 V
0.329185 0.987206 0.824671 V
0.984745 0.322424 0.169141 V
0.675394 0.669352 0.496933 V
0.487430 0.824089 0.167737 V
0.168095 0.663491 0.498925 V
0.333151 0.497383 0.831785 V
0.828342 0.489361 0.828849 V
0.674348 0.160702 0.497179 V
0.490347 0.325726 0.165325 V
0.725634 0.157353 0.608007 F
0.805642 0.510407 0.941674 F
0.457367 0.287267 0.276687 F
0.192727 0.728116 0.389660 F
0.510170 0.814078 0.054488 F
0.278514 0.479158 0.720805 F
0.765258 0.943166 0.950332 F
0.025377 0.862250 0.282152 F
0.103911 0.143906 0.615753 F
0.946503 0.763064 0.047634 F
0.834534 0.008210 0.717959 F
0.170846 0.130248 0.386170 F
0.539549 0.360926 0.051703 F
0.612862 0.128990 0.384103 F
0.869224 0.474106 0.718166 F
0.371827 0.542953 0.945249 F
0.143696 0.607877 0.612633 F
0.466240 0.847584 0.279411 F
0.805714 0.450802 0.189011 F
0.554355 0.352390 0.510172 F
0.634458 0.179406 0.856985 F
0.462052 0.812666 0.802850 F
0.357225 0.540340 0.481749 F
0.181384 0.626874 0.136451 F
1.013376 0.323106 0.283594 F
0.661985 0.702371 0.609437 F
0.310926 0.922812 0.938268 F
0.311781 0.977621 0.708823 F
0.688882 0.670576 0.383926 F
0.921980 0.307738 0.054884 F
0.174815 0.207598 0.148382 F
0.808163 0.983748 0.472572 F
0.017767 0.802511 0.802900 F
0.217170 0.181112 0.845506 F
0.986722 0.789760 0.526202 F
0.795783 0.014194 0.197595 F
0.024276 0.379029 0.853250 F
0.612227 0.638720 0.169854 F
0.384596 0.949360 0.534353 F
0.364509 0.011133 0.156562 F
0.639572 0.609315 0.817253 F
0.958214 0.376754 0.463987 F
