Ca64 V128 O256
1.0
  11.8295164108000002    0.0000000000000000    0.0000000000000000
   0.0000000000000000   18.5728492735999993    0.0000000000000000
   0.0000000000000000    0.0000000000000000   21.4594116210000010
Ca V O
63 128 256
direct
   0.5625000000000000    0.6282924265000001    0.9229353965000000 Ca
   0.0625000000000000    0.3782924415000000    0.3270646035000000 Ca
   0.0625000000000000    0.3782924415000000    0.8270646035000001 Ca
   0.0625000000000000    0.8782924415000001    0.3270646035000000 Ca
   0.0625000000000000    0.8782924415000001    0.8270646035000001 Ca
   0.3125000000000000    0.3782924415000000    0.3270646035000000 Ca
   0.3125000000000000    0.3782924415000000    0.8270646035000001 Ca
   0.3125000000000000    0.8782924415000001    0.3270646035000000 Ca
   0.3125000000000000    0.8782924415000001    0.8270646035000001 Ca
   0.5625000000000000    0.3782924415000000    0.3270646035000000 Ca
   0.5625000000000000    0.3782924415000000    0.8270646035000001 Ca
   0.5625000000000000    0.8782924415000001    0.3270646035000000 Ca
   0.5625000000000000    0.8782924415000001    0.8270646035000001 Ca
   0.8125000000000001    0.3782924415000000    0.3270646035000000 Ca
   0.8125000000000001    0.3782924415000000    0.8270646035000001 Ca
   0.8125000000000001    0.8782924415000001    0.3270646035000000 Ca
   0.8125000000000001    0.8782924415000001    0.8270646035000001 Ca
   0.1875000000000000    0.1217075735000000    0.1729354115000000 Ca
   0.1875000000000000    0.1217075735000000    0.6729354115000000 Ca
   0.1875000000000000    0.6217075735000001    0.1729354115000000 Ca
   0.1875000000000000    0.6217075735000001    0.6729354115000000 Ca
   0.4375000000000001    0.1217075735000000    0.1729354115000000 Ca
   0.4375000000000001    0.1217075735000000    0.6729354115000000 Ca
   0.4375000000000001    0.6217075735000001    0.1729354115000000 Ca
   0.4375000000000001    0.6217075735000001    0.6729354115000000 Ca
   0.6875000000000000    0.1217075735000000    0.1729354115000000 Ca
   0.6875000000000000    0.1217075735000000    0.6729354115000000 Ca
   0.6875000000000000    0.6217075735000001    0.1729354115000000 Ca
   0.6875000000000000    0.6217075735000001    0.6729354115000000 Ca
   0.9375000000000001    0.1217075735000000    0.1729354115000000 Ca
   0.9375000000000001    0.1217075735000000    0.6729354115000000 Ca
   0.9375000000000001    0.6217075735000001    0.1729354115000000 Ca
   0.9375000000000001    0.6217075735000001    0.6729354115000000 Ca
   0.0625000000000000    0.1282924265000000    0.4229353965000001 Ca
   0.0625000000000000    0.1282924265000000    0.9229353965000000 Ca
   0.0625000000000000    0.6282924265000001    0.4229353965000001 Ca
   0.0625000000000000    0.6282924265000001    0.9229353965000000 Ca
   0.3125000000000000    0.1282924265000000    0.4229353965000001 Ca
   0.3125000000000000    0.1282924265000000    0.9229353965000000 Ca
   0.3125000000000000    0.6282924265000001    0.4229353965000001 Ca
   0.5625000000000000    0.1282924265000000    0.4229353965000001 Ca
   0.5625000000000000    0.1282924265000000    0.9229353965000000 Ca
   0.5625000000000000    0.6282924265000001    0.4229353965000001 Ca
   0.8125000000000001    0.1282924265000000    0.4229353965000001 Ca
   0.8125000000000001    0.1282924265000000    0.9229353965000000 Ca
   0.8125000000000001    0.6282924265000001    0.4229353965000001 Ca
   0.8125000000000001    0.6282924265000001    0.9229353965000000 Ca
   0.1875000000000000    0.3717075585000000    0.0770645885000000 Ca
   0.1875000000000000    0.3717075585000000    0.5770645885000001 Ca
   0.1875000000000000    0.8717075585000000    0.0770645885000000 Ca
   0.1875000000000000    0.8717075585000000    0.5770645885000001 Ca
   0.4375000000000001    0.3717075585000000    0.0770645885000000 Ca
   0.4375000000000001    0.3717075585000000    0.5770645885000001 Ca
   0.4375000000000001    0.8717075585000000    0.0770645885000000 Ca
   0.4375000000000001    0.8717075585000000    0.5770645885000001 Ca
   0.6875000000000000    0.3717075585000000    0.0770645885000000 Ca
   0.6875000000000000    0.3717075585000000    0.5770645885000001 Ca
   0.6875000000000000    0.8717075585000000    0.0770645885000000 Ca
   0.6875000000000000    0.8717075585000000    0.5770645885000001 Ca
   0.9375000000000001    0.3717075585000000    0.0770645885000000 Ca
   0.9375000000000001    0.3717075585000000    0.5770645885000001 Ca
   0.9375000000000001    0.8717075585000000    0.0770645885000000 Ca
   0.9375000000000001    0.8717075585000000    0.5770645885000001 Ca
   0.0625000000000000    0.4680497645000000    0.4427774250000000 V
   0.0625000000000000    0.4680497645000000    0.9427774250000001 V
   0.0625000000000000    0.9680497645000001    0.4427774250000000 V
   0.0625000000000000    0.9680497645000001    0.9427774250000001 V
   0.3125000000000000    0.4680497645000000    0.4427774250000000 V
   0.3125000000000000    0.4680497645000000    0.9427774250000001 V
   0.3125000000000000    0.9680497645000001    0.4427774250000000 V
   0.3125000000000000    0.9680497645000001    0.9427774250000001 V
   0.5625000000000000    0.4680497645000000    0.4427774250000000 V
   0.5625000000000000    0.4680497645000000    0.9427774250000001 V
   0.5625000000000000    0.9680497645000001    0.4427774250000000 V
   0.5625000000000000    0.9680497645000001    0.9427774250000001 V
   0.8125000000000001    0.4680497645000000    0.4427774250000000 V
   0.8125000000000001    0.4680497645000000    0.9427774250000001 V
   0.8125000000000001    0.9680497645000001    0.4427774250000000 V
   0.8125000000000001    0.9680497645000001    0.9427774250000001 V
   0.1875000000000000    0.0319502240000000    0.0572225750000000 V
   0.1875000000000000    0.0319502240000000    0.5572225750000001 V
   0.1875000000000000    0.5319502240000000    0.0572225750000000 V
   0.1875000000000000    0.5319502240000000    0.5572225750000001 V
   0.4375000000000001    0.0319502240000000    0.0572225750000000 V
   0.4375000000000001    0.0319502240000000    0.5572225750000001 V
   0.4375000000000001    0.5319502240000000    0.0572225750000000 V
   0.4375000000000001    0.5319502240000000    0.5572225750000001 V
   0.6875000000000000    0.0319502240000000    0.0572225750000000 V
   0.6875000000000000    0.0319502240000000    0.5572225750000001 V
   0.6875000000000000    0.5319502240000000    0.0572225750000000 V
   0.6875000000000000    0.5319502240000000    0.5572225750000001 V
   0.9375000000000001    0.0319502240000000    0.0572225750000000 V
   0.9375000000000001    0.0319502240000000    0.5572225750000001 V
   0.9375000000000001    0.5319502240000000    0.0572225750000000 V
   0.9375000000000001    0.5319502240000000    0.5572225750000001 V
   0.0625000000000000    0.2180497795000000    0.3072225750000000 V
   0.0625000000000000    0.2180497795000000    0.8072225750000001 V
   0.0625000000000000    0.7180497795000000    0.3072225750000000 V
   0.0625000000000000    0.7180497795000000    0.8072225750000001 V
   0.3125000000000000    0.2180497795000000    0.3072225750000000 V
   0.3125000000000000    0.2180497795000000    0.8072225750000001 V
   0.3125000000000000    0.7180497795000000    0.3072225750000000 V
   0.3125000000000000    0.7180497795000000    0.8072225750000001 V
   0.5625000000000000    0.2180497795000000    0.3072225750000000 V
   0.5625000000000000    0.2180497795000000    0.8072225750000001 V
   0.5625000000000000    0.7180497795000000    0.3072225750000000 V
   0.5625000000000000    0.7180497795000000    0.8072225750000001 V
   0.8125000000000001    0.2180497795000000    0.3072225750000000 V
   0.8125000000000001    0.2180497795000000    0.8072225750000001 V
   0.8125000000000001    0.7180497795000000    0.3072225750000000 V
   0.8125000000000001    0.7180497795000000    0.8072225750000001 V
   0.1875000000000000    0.2819502355000000    0.1927774250000000 V
   0.1875000000000000    0.2819502355000000    0.6927774249999999 V
   0.1875000000000000    0.7819502355000000    0.1927774250000000 V
   0.1875000000000000    0.7819502355000000    0.6927774249999999 V
   0.4375000000000001    0.2819502355000000    0.1927774250000000 V
   0.4375000000000001    0.2819502355000000    0.6927774249999999 V
   0.4375000000000001    0.7819502355000000    0.1927774250000000 V
   0.4375000000000001    0.7819502355000000    0.6927774249999999 V
   0.6875000000000000    0.2819502355000000    0.1927774250000000 V
   0.6875000000000000    0.2819502355000000    0.6927774249999999 V
   0.6875000000000000    0.7819502355000000    0.1927774250000000 V
   0.6875000000000000    0.7819502355000000    0.6927774249999999 V
   0.9375000000000001    0.2819502355000000    0.1927774250000000 V
   0.9375000000000001    0.2819502355000000    0.6927774249999999 V
   0.9375000000000001    0.7819502355000000    0.1927774250000000 V
   0.9375000000000001    0.7819502355000000    0.6927774249999999 V
   0.0625000000000000    0.4587707220000001    0.1973187925000000 V
   0.0625000000000000    0.4587707220000001    0.6973187925000001 V
   0.0625000000000000    0.9587707220000001    0.1973187925000000 V
   0.0625000000000000    0.9587707220000001    0.6973187925000001 V
   0.3125000000000000    0.4587707220000001    0.1973187925000000 V
   0.3125000000000000    0.4587707220000001    0.6973187925000001 V
   0.3125000000000000    0.9587707220000001    0.1973187925000000 V
   0.3125000000000000    0.9587707220000001    0.6973187925000001 V
   0.5625000000000000    0.4587707220000001    0.1973187925000000 V
   0.5625000000000000    0.4587707220000001    0.6973187925000001 V
   0.5625000000000000    0.9587707220000001    0.1973187925000000 V
   0.5625000000000000    0.9587707220000001    0.6973187925000001 V
   0.8125000000000001    0.4587707220000001    0.1973187925000000 V
   0.8125000000000001    0.4587707220000001    0.6973187925000001 V
   0.8125000000000001    0.9587707220000001    0.1973187925000000 V
   0.8125000000000001    0.9587707220000001    0.6973187925000001 V
   0.1875000000000000    0.0412292665000000    0.3026812075000000 V
   0.1875000000000000    0.0412292665000000    0.8026812074999999 V
   0.1875000000000000    0.5412292665000000    0.3026812075000000 V
   0.1875000000000000    0.5412292665000000    0.8026812074999999 V
   0.4375000000000001    0.0412292665000000    0.3026812075000000 V
   0.4375000000000001    0.0412292665000000    0.8026812074999999 V
   0.4375000000000001    0.5412292665000000    0.3026812075000000 V
   0.4375000000000001    0.5412292665000000    0.8026812074999999 V
   0.6875000000000000    0.0412292665000000    0.3026812075000000 V
   0.6875000000000000    0.0412292665000000    0.8026812074999999 V
   0.6875000000000000    0.5412292665000000    0.3026812075000000 V
   0.6875000000000000    0.5412292665000000    0.8026812074999999 V
   0.9375000000000001    0.0412292665000000    0.3026812075000000 V
   0.9375000000000001    0.0412292665000000    0.8026812074999999 V
   0.9375000000000001    0.5412292665000000    0.3026812075000000 V
   0.9375000000000001    0.5412292665000000    0.8026812074999999 V
   0.0625000000000000    0.2087707370000000    0.0526812115000000 V
   0.0625000000000000    0.2087707370000000    0.5526812115000000 V
   0.0625000000000000    0.7087707370000000    0.0526812115000000 V
   0.0625000000000000    0.7087707370000000    0.5526812115000000 V
   0.3125000000000000    0.2087707370000000    0.0526812115000000 V
   0.3125000000000000    0.2087707370000000    0.5526812115000000 V
   0.3125000000000000    0.7087707370000000    0.0526812115000000 V
   0.3125000000000000    0.7087707370000000    0.5526812115000000 V
   0.5625000000000000    0.2087707370000000    0.0526812115000000 V
   0.5625000000000000    0.2087707370000000    0.5526812115000000 V
   0.5625000000000000    0.7087707370000000    0.0526812115000000 V
   0.5625000000000000    0.7087707370000000    0.5526812115000000 V
   0.8125000000000001    0.2087707370000000    0.0526812115000000 V
   0.8125000000000001    0.2087707370000000    0.5526812115000000 V
   0.8125000000000001    0.7087707370000000    0.0526812115000000 V
   0.8125000000000001    0.7087707370000000    0.5526812115000000 V
   0.1875000000000000    0.2912292780000000    0.4473187925000001 V
   0.1875000000000000    0.2912292780000000    0.9473187925000001 V
   0.1875000000000000    0.7912292780000000    0.4473187925000001 V
   0.1875000000000000    0.7912292780000000    0.9473187925000001 V
   0.4375000000000001    0.2912292780000000    0.4473187925000001 V
   0.4375000000000001    0.2912292780000000    0.9473187925000001 V
   0.4375000000000001    0.7912292780000000    0.4473187925000001 V
   0.4375000000000001    0.7912292780000000    0.9473187925000001 V
   0.6875000000000000    0.2912292780000000    0.4473187925000001 V
   0.6875000000000000    0.2912292780000000    0.9473187925000001 V
   0.6875000000000000    0.7912292780000000    0.4473187925000001 V
   0.6875000000000000    0.7912292780000000    0.9473187925000001 V
   0.9375000000000001    0.2912292780000000    0.4473187925000001 V
   0.9375000000000001    0.2912292780000000    0.9473187925000001 V
   0.9375000000000001    0.7912292780000000    0.4473187925000001 V
   0.9375000000000001    0.7912292780000000    0.9473187925000001 V
   0.0625000000000000    0.3530363440000000    0.1676069945000000 O
   0.0625000000000000    0.3530363440000000    0.6676069945000001 O
   0.0625000000000000    0.8530363439999999    0.1676069945000000 O
   0.0625000000000000    0.8530363439999999    0.6676069945000001 O
   0.3125000000000000    0.3530363440000000    0.1676069945000000 O
   0.3125000000000000    0.3530363440000000    0.6676069945000001 O
   0.3125000000000000    0.8530363439999999    0.1676069945000000 O
   0.3125000000000000    0.8530363439999999    0.6676069945000001 O
   0.5625000000000000    0.3530363440000000    0.1676069945000000 O
   0.5625000000000000    0.3530363440000000    0.6676069945000001 O
   0.5625000000000000    0.8530363439999999    0.1676069945000000 O
   0.5625000000000000    0.8530363439999999    0.6676069945000001 O
   0.8125000000000001    0.3530363440000000    0.1676069945000000 O
   0.8125000000000001    0.3530363440000000    0.6676069945000001 O
   0.8125000000000001    0.8530363439999999    0.1676069945000000 O
   0.8125000000000001    0.8530363439999999    0.6676069945000001 O
   0.1875000000000000    0.1469636560000000    0.3323929905000000 O
   0.1875000000000000    0.1469636560000000    0.8323929904999999 O
   0.1875000000000000    0.6469636560000001    0.3323929905000000 O
   0.1875000000000000    0.6469636560000001    0.8323929904999999 O
   0.4375000000000001    0.1469636560000000    0.3323929905000000 O
   0.4375000000000001    0.1469636560000000    0.8323929904999999 O
   0.4375000000000001    0.6469636560000001    0.3323929905000000 O
   0.4375000000000001    0.6469636560000001    0.8323929904999999 O
   0.6875000000000000    0.1469636560000000    0.3323929905000000 O
   0.6875000000000000    0.1469636560000000    0.8323929904999999 O
   0.6875000000000000    0.6469636560000001    0.3323929905000000 O
   0.6875000000000000    0.6469636560000001    0.8323929904999999 O
   0.9375000000000001    0.1469636560000000    0.3323929905000000 O
   0.9375000000000001    0.1469636560000000    0.8323929904999999 O
   0.9375000000000001    0.6469636560000001    0.3323929905000000 O
   0.9375000000000001    0.6469636560000001    0.8323929904999999 O
   0.0625000000000000    0.1030363365000000    0.0823929980000000 O
   0.0625000000000000    0.1030363365000000    0.5823929980000000 O
   0.0625000000000000    0.6030363365000001    0.0823929980000000 O
   0.0625000000000000    0.6030363365000001    0.5823929980000000 O
   0.3125000000000000    0.1030363365000000    0.0823929980000000 O
   0.3125000000000000    0.1030363365000000    0.5823929980000000 O
   0.3125000000000000    0.6030363365000001    0.0823929980000000 O
   0.3125000000000000    0.6030363365000001    0.5823929980000000 O
   0.5625000000000000    0.1030363365000000    0.0823929980000000 O
   0.5625000000000000    0.1030363365000000    0.5823929980000000 O
   0.5625000000000000    0.6030363365000001    0.0823929980000000 O
   0.5625000000000000    0.6030363365000001    0.5823929980000000 O
   0.8125000000000001    0.1030363365000000    0.0823929980000000 O
   0.8125000000000001    0.1030363365000000    0.5823929980000000 O
   0.8125000000000001    0.6030363365000001    0.0823929980000000 O
   0.8125000000000001    0.6030363365000001    0.5823929980000000 O
   0.1875000000000000    0.3969636560000000    0.4176070095000000 O
   0.1875000000000000    0.3969636560000000    0.9176070095000000 O
   0.1875000000000000    0.8969636560000001    0.4176070095000000 O
   0.1875000000000000    0.8969636560000001    0.9176070095000000 O
   0.4375000000000001    0.3969636560000000    0.4176070095000000 O
   0.4375000000000001    0.3969636560000000    0.9176070095000000 O
   0.4375000000000001    0.8969636560000001    0.4176070095000000 O
   0.4375000000000001    0.8969636560000001    0.9176070095000000 O
   0.6875000000000000    0.3969636560000000    0.4176070095000000 O
   0.6875000000000000    0.3969636560000000    0.9176070095000000 O
   0.6875000000000000    0.8969636560000001    0.4176070095000000 O
   0.6875000000000000    0.8969636560000001    0.9176070095000000 O
   0.9375000000000001    0.3969636560000000    0.4176070095000000 O
   0.9375000000000001    0.3969636560000000    0.9176070095000000 O
   0.9375000000000001    0.8969636560000001    0.4176070095000000 O
   0.9375000000000001    0.8969636560000001    0.9176070095000000 O
   0.0625000000000000    0.3086244465000000    0.0112672400000000 O
   0.0625000000000000    0.3086244465000000    0.5112672400000000 O
   0.0625000000000000    0.8086244465000000    0.0112672400000000 O
   0.0625000000000000    0.8086244465000000    0.5112672400000000 O
   0.3125000000000000    0.3086244465000000    0.0112672400000000 O
   0.3125000000000000    0.3086244465000000    0.5112672400000000 O
   0.3125000000000000    0.8086244465000000    0.0112672400000000 O
   0.3125000000000000    0.8086244465000000    0.5112672400000000 O
   0.5625000000000000    0.3086244465000000    0.0112672400000000 O
   0.5625000000000000    0.3086244465000000    0.5112672400000000 O
   0.5625000000000000    0.8086244465000000    0.0112672400000000 O
   0.5625000000000000    0.8086244465000000    0.5112672400000000 O
   0.8125000000000001    0.3086244465000000    0.0112672400000000 O
   0.8125000000000001    0.3086244465000000    0.5112672400000000 O
   0.8125000000000001    0.8086244465000000    0.0112672400000000 O
   0.8125000000000001    0.8086244465000000    0.5112672400000000 O
   0.1875000000000000    0.1913755535000000    0.4887327550000000 O
   0.1875000000000000    0.1913755535000000    0.9887327550000000 O
   0.1875000000000000    0.6913755535000000    0.4887327550000000 O
   0.1875000000000000    0.6913755535000000    0.9887327550000000 O
   0.4375000000000001    0.1913755535000000    0.4887327550000000 O
   0.4375000000000001    0.1913755535000000    0.9887327550000000 O
   0.4375000000000001    0.6913755535000000    0.4887327550000000 O
   0.4375000000000001    0.6913755535000000    0.9887327550000000 O
   0.6875000000000000    0.1913755535000000    0.4887327550000000 O
   0.6875000000000000    0.1913755535000000    0.9887327550000000 O
   0.6875000000000000    0.6913755535000000    0.4887327550000000 O
   0.6875000000000000    0.6913755535000000    0.9887327550000000 O
   0.9375000000000001    0.1913755535000000    0.4887327550000000 O
   0.9375000000000001    0.1913755535000000    0.9887327550000000 O
   0.9375000000000001    0.6913755535000000    0.4887327550000000 O
   0.9375000000000001    0.6913755535000000    0.9887327550000000 O
   0.0625000000000000    0.0586244500000000    0.2387327550000000 O
   0.0625000000000000    0.0586244500000000    0.7387327550000000 O
   0.0625000000000000    0.5586244500000001    0.2387327550000000 O
   0.0625000000000000    0.5586244500000001    0.7387327550000000 O
   0.3125000000000000    0.0586244500000000    0.2387327550000000 O
   0.3125000000000000    0.0586244500000000    0.7387327550000000 O
   0.3125000000000000    0.5586244500000001    0.2387327550000000 O
   0.3125000000000000    0.5586244500000001    0.7387327550000000 O
   0.5625000000000000    0.0586244500000000    0.2387327550000000 O
   0.5625000000000000    0.0586244500000000    0.7387327550000000 O
   0.5625000000000000    0.5586244500000001    0.2387327550000000 O
   0.5625000000000000    0.5586244500000001    0.7387327550000000 O
   0.8125000000000001    0.0586244500000000    0.2387327550000000 O
   0.8125000000000001    0.0586244500000000    0.7387327550000000 O
   0.8125000000000001    0.5586244500000001    0.2387327550000000 O
   0.8125000000000001    0.5586244500000001    0.7387327550000000 O
   0.1875000000000000    0.4413755535000001    0.2612672450000000 O
   0.1875000000000000    0.4413755535000001    0.7612672450000000 O
   0.1875000000000000    0.9413755535000000    0.2612672450000000 O
   0.1875000000000000    0.9413755535000000    0.7612672450000000 O
   0.4375000000000001    0.4413755535000001    0.2612672450000000 O
   0.4375000000000001    0.4413755535000001    0.7612672450000000 O
   0.4375000000000001    0.9413755535000000    0.2612672450000000 O
   0.4375000000000001    0.9413755535000000    0.7612672450000000 O
   0.6875000000000000    0.4413755535000001    0.2612672450000000 O
   0.6875000000000000    0.4413755535000001    0.7612672450000000 O
   0.6875000000000000    0.9413755535000000    0.2612672450000000 O
   0.6875000000000000    0.9413755535000000    0.7612672450000000 O
   0.9375000000000001    0.4413755535000001    0.2612672450000000 O
   0.9375000000000001    0.4413755535000001    0.7612672450000000 O
   0.9375000000000001    0.9413755535000000    0.2612672450000000 O
   0.9375000000000001    0.9413755535000000    0.7612672450000000 O
   0.0625000000000000    0.2615539430000000    0.3909527065000000 O
   0.0625000000000000    0.2615539430000000    0.8909527065000000 O
   0.0625000000000000    0.7615539430000000    0.3909527065000000 O
   0.0625000000000000    0.7615539430000000    0.8909527065000000 O
   0.3125000000000000    0.2615539430000000    0.3909527065000000 O
   0.3125000000000000    0.2615539430000000    0.8909527065000000 O
   0.3125000000000000    0.7615539430000000    0.3909527065000000 O
   0.3125000000000000    0.7615539430000000    0.8909527065000000 O
   0.5625000000000000    0.2615539430000000    0.3909527065000000 O
   0.5625000000000000    0.2615539430000000    0.8909527065000000 O
   0.5625000000000000    0.7615539430000000    0.3909527065000000 O
   0.5625000000000000    0.7615539430000000    0.8909527065000000 O
   0.8125000000000001    0.2615539430000000    0.3909527065000000 O
   0.8125000000000001    0.2615539430000000    0.8909527065000000 O
   0.8125000000000001    0.7615539430000000    0.3909527065000000 O
   0.8125000000000001    0.7615539430000000    0.8909527065000000 O
   0.1875000000000000    0.2384460570000000    0.1090472790000000 O
   0.1875000000000000    0.2384460570000000    0.6090472790000000 O
   0.1875000000000000    0.7384460570000001    0.1090472790000000 O
   0.1875000000000000    0.7384460570000001    0.6090472790000000 O
   0.4375000000000001    0.2384460570000000    0.1090472790000000 O
   0.4375000000000001    0.2384460570000000    0.6090472790000000 O
   0.4375000000000001    0.7384460570000001    0.1090472790000000 O
   0.4375000000000001    0.7384460570000001    0.6090472790000000 O
   0.6875000000000000    0.2384460570000000    0.1090472790000000 O
   0.6875000000000000    0.2384460570000000    0.6090472790000000 O
   0.6875000000000000    0.7384460570000001    0.1090472790000000 O
   0.6875000000000000    0.7384460570000001    0.6090472790000000 O
   0.9375000000000001    0.2384460570000000    0.1090472790000000 O
   0.9375000000000001    0.2384460570000000    0.6090472790000000 O
   0.9375000000000001    0.7384460570000001    0.1090472790000000 O
   0.9375000000000001    0.7384460570000001    0.6090472790000000 O
   0.0625000000000000    0.0115539405000000    0.3590472935000000 O
   0.0625000000000000    0.0115539405000000    0.8590472935000000 O
   0.0625000000000000    0.5115539405000000    0.3590472935000000 O
   0.0625000000000000    0.5115539405000000    0.8590472935000000 O
   0.3125000000000000    0.0115539405000000    0.3590472935000000 O
   0.3125000000000000    0.0115539405000000    0.8590472935000000 O
   0.3125000000000000    0.5115539405000000    0.3590472935000000 O
   0.3125000000000000    0.5115539405000000    0.8590472935000000 O
   0.5625000000000000    0.0115539405000000    0.3590472935000000 O
   0.5625000000000000    0.0115539405000000    0.8590472935000000 O
   0.5625000000000000    0.5115539405000000    0.3590472935000000 O
   0.5625000000000000    0.5115539405000000    0.8590472935000000 O
   0.8125000000000001    0.0115539405000000    0.3590472935000000 O
   0.8125000000000001    0.0115539405000000    0.8590472935000000 O
   0.8125000000000001    0.5115539405000000    0.3590472935000000 O
   0.8125000000000001    0.5115539405000000    0.8590472935000000 O
   0.1875000000000000    0.4884460569999999    0.1409527210000000 O
   0.1875000000000000    0.4884460569999999    0.6409527210000000 O
   0.1875000000000000    0.9884460570000001    0.1409527210000000 O
   0.1875000000000000    0.9884460570000001    0.6409527210000000 O
   0.4375000000000001    0.4884460569999999    0.1409527210000000 O
   0.4375000000000001    0.4884460569999999    0.6409527210000000 O
   0.4375000000000001    0.9884460570000001    0.1409527210000000 O
   0.4375000000000001    0.9884460570000001    0.6409527210000000 O
   0.6875000000000000    0.4884460569999999    0.1409527210000000 O
   0.6875000000000000    0.4884460569999999    0.6409527210000000 O
   0.6875000000000000    0.9884460570000001    0.1409527210000000 O
   0.6875000000000000    0.9884460570000001    0.6409527210000000 O
   0.9375000000000001    0.4884460569999999    0.1409527210000000 O
   0.9375000000000001    0.4884460569999999    0.6409527210000000 O
   0.9375000000000001    0.9884460570000001    0.1409527210000000 O
   0.9375000000000001    0.9884460570000001    0.6409527210000000 O
   0.0625000000000000    0.4590163530000000    0.0360753165000000 O
   0.0625000000000000    0.4590163530000000    0.5360753165000001 O
   0.0625000000000000    0.9590163530000000    0.0360753165000000 O
   0.0625000000000000    0.9590163530000000    0.5360753165000001 O
   0.3125000000000000    0.4590163530000000    0.0360753165000000 O
   0.3125000000000000    0.4590163530000000    0.5360753165000001 O
   0.3125000000000000    0.9590163530000000    0.0360753165000000 O
   0.3125000000000000    0.9590163530000000    0.5360753165000001 O
   0.5625000000000000    0.4590163530000000    0.0360753165000000 O
   0.5625000000000000    0.4590163530000000    0.5360753165000001 O
   0.5625000000000000    0.9590163530000000    0.0360753165000000 O
   0.5625000000000000    0.9590163530000000    0.5360753165000001 O
   0.8125000000000001    0.4590163530000000    0.0360753165000000 O
   0.8125000000000001    0.4590163530000000    0.5360753165000001 O
   0.8125000000000001    0.9590163530000000    0.0360753165000000 O
   0.8125000000000001    0.9590163530000000    0.5360753165000001 O
   0.1875000000000000    0.0409836360000000    0.4639246760000000 O
   0.1875000000000000    0.0409836360000000    0.9639246760000001 O
   0.1875000000000000    0.5409836360000000    0.4639246760000000 O
   0.1875000000000000    0.5409836360000000    0.9639246760000001 O
   0.4375000000000001    0.0409836360000000    0.4639246760000000 O
   0.4375000000000001    0.0409836360000000    0.9639246760000001 O
   0.4375000000000001    0.5409836360000000    0.4639246760000000 O
   0.4375000000000001    0.5409836360000000    0.9639246760000001 O
   0.6875000000000000    0.0409836360000000    0.4639246760000000 O
   0.6875000000000000    0.0409836360000000    0.9639246760000001 O
   0.6875000000000000    0.5409836360000000    0.4639246760000000 O
   0.6875000000000000    0.5409836360000000    0.9639246760000001 O
   0.9375000000000001    0.0409836360000000    0.4639246760000000 O
   0.9375000000000001    0.0409836360000000    0.9639246760000001 O
   0.9375000000000001    0.5409836360000000    0.4639246760000000 O
   0.9375000000000001    0.5409836360000000    0.9639246760000001 O
   0.0625000000000000    0.2090163680000000    0.2139246910000000 O
   0.0625000000000000    0.2090163680000000    0.7139246910000000 O
   0.0625000000000000    0.7090163680000000    0.2139246910000000 O
   0.0625000000000000    0.7090163680000000    0.7139246910000000 O
   0.3125000000000000    0.2090163680000000    0.2139246910000000 O
   0.3125000000000000    0.2090163680000000    0.7139246910000000 O
   0.3125000000000000    0.7090163680000000    0.2139246910000000 O
   0.3125000000000000    0.7090163680000000    0.7139246910000000 O
   0.5625000000000000    0.2090163680000000    0.2139246910000000 O
   0.5625000000000000    0.2090163680000000    0.7139246910000000 O
   0.5625000000000000    0.7090163680000000    0.2139246910000000 O
   0.5625000000000000    0.7090163680000000    0.7139246910000000 O
   0.8125000000000001    0.2090163680000000    0.2139246910000000 O
   0.8125000000000001    0.2090163680000000    0.7139246910000000 O
   0.8125000000000001    0.7090163680000000    0.2139246910000000 O
   0.8125000000000001    0.7090163680000000    0.7139246910000000 O
   0.1875000000000000    0.2909836470000000    0.2860753240000000 O
   0.1875000000000000    0.2909836470000000    0.7860753240000001 O
   0.1875000000000000    0.7909836470000000    0.2860753240000000 O
   0.1875000000000000    0.7909836470000000    0.7860753240000001 O
   0.4375000000000001    0.2909836470000000    0.2860753240000000 O