Ca1 Ti12 F42                            
   1.00000000000000     
     7.4999060000000002   -0.0053460000000000    0.0204450000000000
    -3.7441580000000001    6.5372279999999998   -0.1564230000000000
    -0.0737210000000000   -0.4127100000000000   17.8210030000000010
   Ca   Ti   F 
     1    12    42
Direct
  0.8705818158156129  0.0546476744787265  0.8478032298724921
  0.2650966642467559 -0.0067355840313850  0.3336998311888457
  0.7092679090054849  0.6786911972118120  0.0142392296712880
  0.0237772161838912  0.3191002856373952  0.6578546491191283
  0.3554533659818535  1.0174424031464309  0.8340327137858256
  0.6482445348772591  0.6564363855950343  0.4985064057995181
  0.9825343175150435  0.3261975379803793  0.1680538150388824
  0.6473861349222499  0.1567627038603815  0.4968074182391740
  0.4802753882215013  0.3234660847151933  0.1681648155920400
  0.8618044140417286  0.5256465371020135  0.8300886576006716
  0.3643419553108019  0.5268613514742152  0.8349692812211410
  0.1487890043934571  0.6582593895438879  0.4972586474320027
  0.4814652707167164  0.8259211102497899  0.1723870170184353
  0.5577409617583616  0.7890309390189639  0.0699529944704500
  0.2618616643564877  0.4618881099851506  0.7320925132812278
  0.1692268159089128  0.7513104358159179  0.3941511707295313
  0.4129388286176661  0.2315535369671140  0.2721850837956381
  0.8165553822523710  0.5605767020788928  0.9358945215602121
  0.7634357375808097  0.2034027381702226  0.6002057514716038
  0.8964769858900595  0.1077358650167765  0.7281429181620992
  0.1774206907525158  0.1144238033600214  0.3989416053921971
  0.9160385955731342  0.7581963632747906  0.0789744605519357
  0.1403508746294667  0.2131461392738445  0.5998159519005318
  0.0571446865276418  0.8714438179336739  0.2678779124798434
  0.8236106269668727  0.9173315066901720  0.9553703735082157
  0.1247276561844279  0.5691362553782078  0.6001403088592425
  0.4161608067759704  0.8698300225613498  0.2732142704068656
  0.4593111085249859  0.5668870189387684  0.9378133367701058
  0.9143001836703779  0.4757302662679903  0.7288011978149244
  0.5360738527368677  0.1107251734418658  0.3954628389595797
  0.5413366235594496  0.4169273976129943  0.0648413783768172
  0.3549046076235235  0.5793778694166527  0.4774238232060749
  0.1998070582208428  0.6142626900060956  0.1478612793126914
  0.4891343949483015  0.8311621197326154  0.8256795629268665
  0.6657021217448722  0.2249019102267995  0.8426672372307644
  0.5740517481706262  0.3670229035697861  0.5183352089057188
  0.7660229462982738  0.4033176138073675  0.1868943514330693
  0.6797255612854811  0.6085800728514993  0.4003872039237856
  0.9105295471125883  0.2819910133019765  0.0683289015107964
  0.3640760898206640  0.0369651663911106  0.7326703885348864
  0.3471316081638965  0.9778481739454532  0.9345823729902438
  0.6158600203853296  0.6994359487763425  0.5974688558849934
  0.0649187362636037  0.3792437193473058  0.2658730490185297
  0.9424270737554593  0.7369502674712457  0.5188814914231538
  0.7687966448868284  0.0399823214360294  0.1894409796293727
  0.2530716321176358  0.2230255181629908  0.8473968005051280
  0.0395963449292690  0.8319314276280857  0.8265429075590695
  0.7234401667487896  0.9459800349263715  0.4796184131586735
  0.1941707396489980  0.2417184201175767  0.1482220534769511
  0.6423960592147947  0.5866980823008944  0.8026925677651443
  0.9217957642478343  0.3786599201814386  0.4685241886802555
  0.4280674940157045  0.0444279992977490  0.1406622714427373
  0.3747993698453685  0.9364090231543702  0.5265661087753796
  0.5330522914150336  0.6021647983112031  0.1987853801701354
  0.0698942835078148  0.4421509486706733  0.8640968261365457
 
             NaN             NaN             NaN
             NaN             NaN             NaN
             NaN             NaN             NaN
             NaN             NaN             NaN
             NaN             NaN             NaN
             NaN             NaN             NaN
             NaN             NaN             NaN
             NaN             NaN             NaN
             NaN             NaN             NaN
             NaN             NaN             NaN
             NaN             NaN             NaN
             NaN             NaN             NaN
             NaN             NaN             NaN
             NaN             NaN             NaN
             NaN             NaN             NaN
             NaN             NaN             NaN
             NaN             NaN             NaN
             NaN             NaN             NaN
             NaN             NaN             NaN
             NaN             NaN             NaN
             NaN             NaN             NaN
             NaN             NaN             NaN
             NaN             NaN             NaN
             NaN             NaN             NaN
             NaN             NaN             NaN
             NaN             NaN             NaN
             NaN             NaN             NaN
             NaN             NaN             NaN
             NaN             NaN             NaN
             NaN             NaN             NaN
             NaN             NaN             NaN
             NaN             NaN             NaN
             NaN             NaN             NaN
             NaN             NaN             NaN
             NaN             NaN             NaN
             NaN             NaN             NaN
             NaN             NaN             NaN
             NaN             NaN             NaN
             NaN             NaN             NaN
             NaN             NaN             NaN
             NaN             NaN             NaN
             NaN             NaN             NaN
             NaN             NaN             NaN
             NaN             NaN             NaN
             NaN             NaN             NaN
             NaN             NaN             NaN
             NaN             NaN             NaN
             NaN             NaN             NaN
             NaN             NaN             NaN
             NaN             NaN             NaN
             NaN             NaN             NaN
             NaN             NaN             NaN
             NaN             NaN             NaN
             NaN             NaN             NaN
             NaN             NaN             NaN
