Ca1 Ti12 F42
1.0
7.499906 -0.005346 0.020445
-3.744158 6.537228 -0.156423
-0.073721 -0.412710 17.821003
Ca Ti F
1 12 42
direct
0.835803 0.028849 0.855708 Ca
0.266443 1.000674 0.333491 Ti
0.710079 0.683694 0.010999 Ti
0.026903 0.317062 0.655696 Ti
0.354630 -0.005041 0.831003 Ti
0.650318 0.664017 0.497385 Ti
-0.011569 0.336894 0.169939 Ti
0.650408 0.164562 0.495349 Ti
0.486902 0.334793 0.168817 Ti
0.860533 0.504317 0.831581 Ti
0.360334 0.503877 0.834031 Ti
0.151291 0.666300 0.497896 Ti
0.487086 0.835907 0.171949 Ti
0.559545 0.795163 0.068561 F
0.262187 0.448882 0.730207 F
0.173295 0.760396 0.394350 F
0.413118 0.239527 0.271908 F
0.820954 0.559665 0.935897 F
0.766766 0.205048 0.598124 F
0.904177 0.094879 0.720648 F
0.179652 0.122527 0.398786 F
0.921021 0.774910 0.074771 F
0.148532 0.225302 0.593291 F
0.057798 0.878855 0.267954 F
0.808062 0.913472 0.948679 F
0.123694 0.574102 0.600681 F
0.419174 0.880528 0.272387 F
0.455309 0.549359 0.937543 F
0.908366 0.453875 0.729281 F
0.539244 0.121204 0.394339 F
0.552218 0.422522 0.064598 F
0.356821 0.586608 0.477649 F
0.202870 0.624630 0.149217 F
0.481874 0.806063 0.821926 F
0.660354 0.205196 0.845098 F
0.578629 0.376067 0.518073 F
0.772079 0.414114 0.189368 F
0.679820 0.613342 0.399298 F
0.909620 0.289917 0.070156 F
0.368096 0.012507 0.730541 F
0.328717 0.939310 0.931077 F
0.620750 0.709629 0.596417 F
0.069159 0.386019 0.267791 F
0.945042 0.746067 0.517724 F
0.774340 0.048843 0.189637 F
0.258248 0.202672 0.843777 F
0.040633 0.807889 0.820045 F
0.724407 0.951817 0.476925 F
0.200942 0.255487 0.148226 F
0.640265 0.565059 0.803444 F
0.924815 0.387696 0.467980 F
0.436915 0.056672 0.139028 F
0.378514 0.944748 0.526020 F
0.538875 0.613122 0.198330 F
0.067559 0.419963 0.862380 F
