Ca3 V8 F24                              
   1.00000000000000     
     7.8509830000000003    0.0001210000000000    0.0000110000000000
     0.0001010000000000    8.1124620000000007    0.0001640000000000
     0.0000080000000000    0.0001890000000000    7.9819630000000004
   Ca   V    F 
     3     8    24
Direct
  0.5000423454984785  0.5610698583442728  0.4999328501246315
 -0.0000143845570091  0.4959004295804285  0.4999122002979462
  0.4999978788652137  0.0044528309145119  1.0000840630469783
  0.2484925559570837  0.2515386193296300  0.2482809835985325
  0.2485135672118935  0.2515249337192954  0.7516570473374938
  0.2430100756730431  0.7594326498737478  0.2440413446982753
  0.2431400371640323  0.7593769432243539  0.7561306584432387
  0.7515121007244155  0.2515412163465884  0.2482878420120267
  0.7514969597605957  0.2515210470954630  0.7516874224532430
  0.7569943630657714  0.7593799596318519  0.2441161220795970
  0.7568522891253089  0.7593338061728772  0.7560583741902004
  0.9999941642003747  0.2069379052558975  0.2169456990919260
  0.9999904193761129  0.2067898685163642  0.7829676688856785
  1.0000039817915731  0.8155063813841603  0.2589312218515264
  0.9999527186777508  0.8154294735043354  0.7410615328318210
  0.5000243432948090  0.3188636849668929  0.3011493997071895
  0.5000422971026401  0.3189807645884229  0.6988483902409437
  0.5000038159700434  0.6963946038373315  0.2542928094476574
  0.5000092603311542  0.6962991553549238  0.7456102350303511
  0.3104975391151399  0.2286092467946216  0.9999673412440045
  0.2001426526758828  0.2829173563192800  0.4999698392288835
  0.2805967080714722  0.7970191912008820  1.0000918005390851
  0.2406486080939096  0.7077443147226780  0.5000739374111262
  0.6895074654861127  0.2286183535573906  0.9999766137695311
  0.7999159460879224  0.2828256366191329  0.4999808995861664
  0.7195048863281678  0.7969901800697942  1.0000787839830192
  0.7593065153149859  0.7078371532375325  0.5000471328799699
  0.3192125966114179  0.0048117335897937  0.2492396782160871
  0.3190796641567060  0.0048320289505854  0.7506492607483373
  0.1878554206151941  0.5047489736073139  0.2588132422296195
  0.1881820899383936  0.5046630661787722  0.7411886318505129
  0.6808336563882895  0.0048647373179891  0.2492092882963618
  0.6809231999407019  0.0047979269119622  0.7506874659906227
  0.8121222796124067  0.5046774622793663  0.2588395573088942
  0.8117896340706494  0.5047217506701113  0.7411795806943078
 
             NaN             NaN             NaN
             NaN             NaN             NaN
             NaN             NaN             NaN
             NaN             NaN             NaN
             NaN             NaN             NaN
             NaN             NaN             NaN
             NaN             NaN             NaN
             NaN             NaN             NaN
             NaN             NaN             NaN
             NaN             NaN             NaN
             NaN             NaN             NaN
             NaN             NaN             NaN
             NaN             NaN             NaN
             NaN             NaN             NaN
             NaN             NaN             NaN
             NaN             NaN             NaN
             NaN             NaN             NaN
             NaN             NaN             NaN
             NaN             NaN             NaN
             NaN             NaN             NaN
             NaN             NaN             NaN
             NaN             NaN             NaN
             NaN             NaN             NaN
             NaN             NaN             NaN
             NaN             NaN             NaN
             NaN             NaN             NaN
             NaN             NaN             NaN
             NaN             NaN             NaN
             NaN             NaN             NaN
             NaN             NaN             NaN
             NaN             NaN             NaN
             NaN             NaN             NaN
             NaN             NaN             NaN
             NaN             NaN             NaN
             NaN             NaN             NaN
