Ca3 V8 F24                              
   1.00000000000000     
     7.8509830000000003    0.0001210000000000    0.0000110000000000
     0.0001010000000000    8.1124620000000007    0.0001640000000000
     0.0000080000000000    0.0001890000000000    7.9819630000000004
   Ca   V    F 
     3     8    24
Direct
  0.4997717840337615  0.5231283049641027  0.5010248264601537
  0.0002425170590395  0.5142324144179813  0.5003328226941615
  0.4999290751372514  0.0092248091656268  0.9999749277011563
  0.2461222365367896  0.2545040164474837  0.2461815472866345
  0.2455288934594806  0.2545653371744753  0.7541691544318766
  0.2484722399655881  0.7593956469517084  0.2460464706008542
  0.2479935106667328  0.7595163618778257  0.7543259869022413
  0.7540994869282772  0.2545460904258151  0.2462005542109608
  0.7547595536139468  0.2545849489420046  0.7540140811794970
  0.7518991152090351  0.7596959543643096  0.2454293658702521
  0.7519422949717138  0.7586001463812212  0.7539550059877492
  0.9994348158498982  0.2062409802919285  0.2106651717640809
  0.9997913399222563  0.2065614901682039  0.7892081195553683
  0.9990450238764199  0.8063517034133939  0.2628066634699436
  0.9999933015936078  0.8035132551004939  0.7370239723286515
  0.5005723685379402  0.3119722960089075  0.2987827340235230
  0.5001174611937860  0.3125643506862031  0.7010929454611075
  0.5007009250432857  0.6933821590689105  0.2694206849428554
  0.5007610322731647  0.6951672461789394  0.7306430343625877
  0.3128471133204294  0.2356957515059674 -0.0005217751550809
  0.2011711679039693  0.2919773837966804  0.5008505697902615
  0.2893282671097284  0.7921796114464861  0.9997165716407193
  0.2445809544488030  0.7071120621761265  0.4991102726753159
  0.6873549132873736  0.2356215877109737 -0.0002508939646959
  0.7988653777198818  0.2922991771649640  0.5003693133144081
  0.7099283059422746  0.7925188777354953  0.9993717528207379
  0.7550831389377309  0.7067280683631754  0.5000273946451119
  0.3171788092818492  1.0073066177099099  0.2446931783057683
  0.3169117942424602  0.0077411774834840  0.7553021515606433
  0.1910575038042212  0.5075220371123591  0.2581864266244622
  0.1912726268980751  0.5069089190021570  0.7417743327630327
  0.6829287677455437  1.0076179270401262  0.2447902222795537
  0.6829659392930809  1.0080378267112704  0.7551975875973803
  0.8089923431343127  0.5070255028049642  0.2583158478163655
  0.8085336556825481  0.5069173055203030  0.7417578969185465
 
             NaN             NaN             NaN
             NaN             NaN             NaN
             NaN             NaN             NaN
             NaN             NaN             NaN
             NaN             NaN             NaN
             NaN             NaN             NaN
             NaN             NaN             NaN
             NaN             NaN             NaN
             NaN             NaN             NaN
             NaN             NaN             NaN
             NaN             NaN             NaN
             NaN             NaN             NaN
             NaN             NaN             NaN
             NaN             NaN             NaN
             NaN             NaN             NaN
             NaN             NaN             NaN
             NaN             NaN             NaN
             NaN             NaN             NaN
             NaN             NaN             NaN
             NaN             NaN             NaN
             NaN             NaN             NaN
             NaN             NaN             NaN
             NaN             NaN             NaN
             NaN             NaN             NaN
             NaN             NaN             NaN
             NaN             NaN             NaN
             NaN             NaN             NaN
             NaN             NaN             NaN
             NaN             NaN             NaN
             NaN             NaN             NaN
             NaN             NaN             NaN
             NaN             NaN             NaN
             NaN             NaN             NaN
             NaN             NaN             NaN
             NaN             NaN             NaN
