Na2 Ca2 V4 Si4 P2 O24                   
   1.00000000000000     
     8.8456048112084780    0.0995656654042692    0.0896667306347511
     4.2505488714095332    7.6416672660860394    0.0571004480004462
     4.4235955440544794    2.5053256532220622    7.2395069603458317
   Ca   Na   V    Si   P    O 
     2     2     4     4     2    24
Direct
  0.4978775053550550  0.5024818315656233  0.4986402970158834
  0.0013417615302894  0.9975462829560006  0.0021269996521652
  0.1084590498371496  0.7499888633139039  0.3915615349681639
  0.8982396483168766  0.2499802049771060  0.6017650010598944
  0.3648580873528499  0.3548047800089549  0.3489904162343720
  0.6469494771360962  0.6422085217391001  0.6539504909566238
  0.1510205529949359  0.1451903146249447  0.1351548111333973
  0.8460117118829443  0.8577718604524670  0.8530898118651927
  0.0331054094929066  0.4571853604121917  0.7547863190431502
  0.7452330993353684  0.0427934946341034  0.4668886982630450
  0.4601801285436154  0.7500049715205762  0.0398106899068823
  0.5422099949513299  0.2500323942280465  0.9577509499433623
  0.9672306488285576  0.5434719881758522  0.2445185296802588
  0.2555601145724694  0.9564911793858590  0.5327346271017096
  0.2254673738728029  0.4442771744589934  0.5730751153703768
  0.7780232198810569  0.5581502143898623  0.4126755978543598
  0.5675666108283933  0.2297878890880325  0.4414875505230738
  0.4256311423635341  0.7787212293582504  0.5550706048143272
  0.4385491574047149  0.5812001522013726  0.2374970958947222
  0.5632460334571825  0.4188385027960189  0.7578523954852620
  0.9269645413674681  0.0557041721888390  0.2745693747576001
  0.0873648687204855  0.9418083444103593  0.7219452575609958
  0.0584591230155867  0.2702349848781982  0.9324587200087301
  0.9449180690752260  0.7212629732917094  0.0744074018060712
  0.2625170803748869  0.9188140855229103  0.0614163332706845
  0.7420911600606763  0.0812105061708082  0.9367678996519235
  0.4906454723641413  0.3107123268040374  0.1317908683482486
  0.5050498987754728  0.6921161463484131  0.8671943921585056
  0.1204042919163403  0.5289449465075162  0.2928582721541857
  0.8625375778204329  0.4773042245126435  0.7111329284273131
  0.2824783995791678  0.1378020906219589  0.4879852273511872
  0.7208982066225414  0.8468856221790049  0.5143022563008115
  0.3681915579544630  0.1893492236446901  0.0092682703171650
  0.6327442739550599  0.8079244234328008  0.9950044993622483
  0.2072518653083458  0.9710251912940143  0.3795435226053560
  0.7888604413366465  0.0226822780502761  0.6374588577486414
  0.0120117393202872  0.3621937915910567  0.2175506133635730
  0.9856400954946123  0.6530832452635033  0.7791574000405067
 
  0.00000000E+00  0.00000000E+00  0.00000000E+00
  0.00000000E+00  0.00000000E+00  0.00000000E+00
  0.00000000E+00  0.00000000E+00  0.00000000E+00
  0.00000000E+00  0.00000000E+00  0.00000000E+00
  0.00000000E+00  0.00000000E+00  0.00000000E+00
  0.00000000E+00  0.00000000E+00  0.00000000E+00
  0.00000000E+00  0.00000000E+00  0.00000000E+00
  0.00000000E+00  0.00000000E+00  0.00000000E+00
  0.00000000E+00  0.00000000E+00  0.00000000E+00
  0.00000000E+00  0.00000000E+00  0.00000000E+00
  0.00000000E+00  0.00000000E+00  0.00000000E+00
  0.00000000E+00  0.00000000E+00  0.00000000E+00
  0.00000000E+00  0.00000000E+00  0.00000000E+00
  0.00000000E+00  0.00000000E+00  0.00000000E+00
  0.00000000E+00  0.00000000E+00  0.00000000E+00
  0.00000000E+00  0.00000000E+00  0.00000000E+00
  0.00000000E+00  0.00000000E+00  0.00000000E+00
  0.00000000E+00  0.00000000E+00  0.00000000E+00
  0.00000000E+00  0.00000000E+00  0.00000000E+00
  0.00000000E+00  0.00000000E+00  0.00000000E+00
  0.00000000E+00  0.00000000E+00  0.00000000E+00
  0.00000000E+00  0.00000000E+00  0.00000000E+00
  0.00000000E+00  0.00000000E+00  0.00000000E+00
  0.00000000E+00  0.00000000E+00  0.00000000E+00
  0.00000000E+00  0.00000000E+00  0.00000000E+00
  0.00000000E+00  0.00000000E+00  0.00000000E+00
  0.00000000E+00  0.00000000E+00  0.00000000E+00
  0.00000000E+00  0.00000000E+00  0.00000000E+00
  0.00000000E+00  0.00000000E+00  0.00000000E+00
  0.00000000E+00  0.00000000E+00  0.00000000E+00
  0.00000000E+00  0.00000000E+00  0.00000000E+00
  0.00000000E+00  0.00000000E+00  0.00000000E+00
  0.00000000E+00  0.00000000E+00  0.00000000E+00
  0.00000000E+00  0.00000000E+00  0.00000000E+00
  0.00000000E+00  0.00000000E+00  0.00000000E+00
  0.00000000E+00  0.00000000E+00  0.00000000E+00
  0.00000000E+00  0.00000000E+00  0.00000000E+00
  0.00000000E+00  0.00000000E+00  0.00000000E+00
