Na64 Mo32 O96
1.0
   0.0000000000000000   11.1975996295200382    0.0000000000000000
  19.3615068219704369    0.0000000000000000    0.0000000000000000
   0.0000000000000000   -3.8071195069970791  -10.6532125934631559
Na Mo O
63 32 96
direct
   0.2500000000000000    0.5000000000000000    0.2500000000000000 Na
   0.0000000000000000    0.0000000000000000    0.0000000000000000 Na
   0.0000000000000000    0.0000000000000000    0.5000000000000000 Na
   0.0000000000000000    0.5000000000000000    0.0000000000000000 Na
   0.0000000000000000    0.5000000000000000    0.5000000000000000 Na
   0.5000000000000000    0.0000000000000000    0.0000000000000000 Na
   0.5000000000000000    0.0000000000000000    0.5000000000000000 Na
   0.5000000000000000    0.5000000000000000    0.0000000000000000 Na
   0.5000000000000000    0.5000000000000000    0.5000000000000000 Na
   0.2500000000000000    0.0000000000000000    0.2500000000000000 Na
   0.2500000000000000    0.0000000000000000    0.7500000000000000 Na
   0.2500000000000000    0.5000000000000000    0.7500000000000000 Na
   0.7500000000000001    0.0000000000000000    0.2500000000000000 Na
   0.7500000000000000    0.0000000000000000    0.7500000000000000 Na
   0.7500000000000001    0.5000000000000000    0.2500000000000000 Na
   0.7500000000000000    0.5000000000000000    0.7500000000000000 Na
   0.2500000000000000    0.3297675750000000    0.7500000000000000 Na
   0.2500000000000000    0.8297675750000000    0.2500000000000000 Na
   0.2500000000000000    0.8297675750000000    0.7500000000000000 Na
   0.7500000000000001    0.3297675750000000    0.2500000000000000 Na
   0.7500000000000000    0.3297675750000000    0.7500000000000000 Na
   0.7500000000000001    0.8297675750000000    0.2500000000000000 Na
   0.7500000000000000    0.8297675750000000    0.7500000000000000 Na
   0.2500000000000000    0.1702324249999999    0.2500000000000000 Na
   0.2500000000000000    0.1702324249999999    0.7500000000000000 Na
   0.2500000000000000    0.6702324249999999    0.2500000000000000 Na
   0.2500000000000000    0.6702324249999999    0.7500000000000000 Na
   0.7500000000000001    0.1702324249999999    0.2500000000000000 Na
   0.7500000000000000    0.1702324249999999    0.7500000000000000 Na
   0.7500000000000001    0.6702324249999999    0.2500000000000000 Na
   0.7500000000000000    0.6702324249999999    0.7500000000000000 Na
   0.2500000000000000    0.2500000000000000    0.0000000000000000 Na
   0.2500000000000000    0.2500000000000000    0.5000000000000000 Na
   0.2500000000000000    0.7500000000000000    0.0000000000000000 Na
   0.2500000000000000    0.7500000000000000    0.5000000000000000 Na
   0.7499999999999999    0.2500000000000000    0.0000000000000000 Na
   0.7500000000000000    0.2500000000000000    0.5000000000000000 Na
   0.7499999999999999    0.7500000000000000    0.0000000000000000 Na
   0.7500000000000000    0.7500000000000000    0.5000000000000000 Na
   0.0000000000000000    0.2500000000000000    0.2500000000000000 Na
   0.0000000000000000    0.2500000000000000    0.7500000000000000 Na
   0.0000000000000000    0.7500000000000000    0.2500000000000000 Na
   0.0000000000000000    0.7500000000000000    0.7500000000000000 Na
   0.5000000000000000    0.2500000000000000    0.2500000000000000 Na
   0.5000000000000000    0.2500000000000000    0.7500000000000000 Na
   0.5000000000000000    0.7500000000000000    0.2500000000000000 Na
   0.5000000000000000    0.7500000000000000    0.7500000000000000 Na
   0.0000000000000000    0.0797675750000000    0.2500000000000000 Na
   0.0000000000000000    0.0797675750000000    0.7500000000000000 Na
   0.0000000000000000    0.5797675750000001    0.2500000000000000 Na
   0.0000000000000000    0.5797675750000001    0.7500000000000000 Na
   0.5000000000000000    0.0797675750000000    0.2500000000000000 Na
   0.5000000000000000    0.0797675750000000    0.7500000000000000 Na
   0.5000000000000000    0.5797675750000001    0.2500000000000000 Na
   0.5000000000000000    0.5797675750000001    0.7500000000000000 Na
   0.0000000000000000    0.4202324250000000    0.2500000000000000 Na
   0.0000000000000000    0.4202324250000000    0.7500000000000000 Na
   0.0000000000000000    0.9202324250000000    0.2500000000000000 Na
   0.0000000000000000    0.9202324250000000    0.7500000000000000 Na
   0.5000000000000000    0.4202324250000000    0.2500000000000000 Na
   0.5000000000000000    0.4202324250000000    0.7500000000000000 Na
   0.5000000000000000    0.9202324250000000    0.2500000000000000 Na
   0.5000000000000000    0.9202324250000000    0.7500000000000000 Na
   0.2500000000000000    0.4165299250000000    0.0000000000000000 Mo
   0.2500000000000000    0.4165299250000000    0.5000000000000000 Mo
   0.2500000000000000    0.9165299250000000    0.0000000000000000 Mo
   0.2500000000000000    0.9165299250000000    0.5000000000000000 Mo
   0.7499999999999999    0.4165299250000000    0.0000000000000000 Mo
   0.7500000000000000    0.4165299250000000    0.5000000000000000 Mo
   0.7499999999999999    0.9165299250000000    0.0000000000000000 Mo
   0.7500000000000000    0.9165299250000000    0.5000000000000000 Mo
   0.2500000000000000    0.0834700750000000    0.0000000000000000 Mo
   0.2500000000000000    0.0834700750000000    0.5000000000000000 Mo
   0.2500000000000000    0.5834700750000000    0.0000000000000000 Mo
   0.2500000000000000    0.5834700750000000    0.5000000000000000 Mo
   0.7499999999999999    0.0834700750000000    0.0000000000000000 Mo
   0.7500000000000000    0.0834700750000000    0.5000000000000000 Mo
   0.7499999999999999    0.5834700750000000    0.0000000000000000 Mo
   0.7500000000000000    0.5834700750000000    0.5000000000000000 Mo
   0.0000000000000000    0.1665299249999999    0.0000000000000000 Mo
   0.0000000000000000    0.1665299249999999    0.5000000000000000 Mo
   0.0000000000000000    0.6665299250000000    0.0000000000000000 Mo
   0.0000000000000000    0.6665299250000000    0.5000000000000000 Mo
   0.5000000000000000    0.1665299249999999    0.0000000000000000 Mo
   0.5000000000000000    0.1665299249999999    0.5000000000000000 Mo
   0.5000000000000000    0.6665299250000000    0.0000000000000000 Mo
   0.5000000000000000    0.6665299250000000    0.5000000000000000 Mo
   0.0000000000000000    0.3334700750000000    0.0000000000000000 Mo
   0.0000000000000000    0.3334700750000000    0.5000000000000000 Mo
   0.0000000000000000    0.8334700750000000    0.0000000000000000 Mo
   0.0000000000000000    0.8334700750000000    0.5000000000000000 Mo
   0.5000000000000000    0.3334700750000000    0.0000000000000000 Mo
   0.5000000000000000    0.3334700750000000    0.5000000000000000 Mo
   0.5000000000000000    0.8334700750000000    0.0000000000000000 Mo
   0.5000000000000000    0.8334700750000000    0.5000000000000000 Mo
   0.3726438175000000    0.4078432575000001    0.3964161950000001 O
   0.3726438175000000    0.4078432575000001    0.8964161950000002 O
   0.3726438175000000    0.9078432575000001    0.3964161950000001 O
   0.3726438175000000    0.9078432575000001    0.8964161950000002 O
   0.8726438175000000    0.4078432575000001    0.3964161950000001 O
   0.8726438175000001    0.4078432575000001    0.8964161950000002 O
   0.8726438175000000    0.9078432575000001    0.3964161950000001 O
   0.8726438175000001    0.9078432575000001    0.8964161950000002 O
   0.3726438175000000    0.0921567424999999    0.3964161950000001 O
   0.3726438175000000    0.0921567424999999    0.8964161950000002 O
   0.3726438175000000    0.5921567425000001    0.3964161950000001 O
   0.3726438175000000    0.5921567425000001    0.8964161950000002 O
   0.8726438175000000    0.0921567424999999    0.3964161950000001 O
   0.8726438175000001    0.0921567424999999    0.8964161950000002 O
   0.8726438175000000    0.5921567425000001    0.3964161950000001 O
   0.8726438175000001    0.5921567425000001    0.8964161950000002 O
   0.1273561825000001    0.0921567424999999    0.1035838049999999 O
   0.1273561825000001    0.0921567424999999    0.6035838050000000 O
   0.1273561825000001    0.5921567425000001    0.1035838049999999 O
   0.1273561825000001    0.5921567425000001    0.6035838050000000 O
   0.6273561825000001    0.0921567424999999    0.1035838049999999 O
   0.6273561825000000    0.0921567424999999    0.6035838050000000 O
   0.6273561825000001    0.5921567425000001    0.1035838049999999 O
   0.6273561825000000    0.5921567425000001    0.6035838050000000 O
   0.1273561825000001    0.4078432575000001    0.1035838049999999 O
   0.1273561825000001    0.4078432575000001    0.6035838050000000 O
   0.1273561825000001    0.9078432575000001    0.1035838049999999 O
   0.1273561825000001    0.9078432575000001    0.6035838050000000 O
   0.6273561825000001    0.4078432575000001    0.1035838049999999 O
   0.6273561825000000    0.4078432575000001    0.6035838050000000 O
   0.6273561825000001    0.9078432575000001    0.1035838049999999 O
   0.6273561825000000    0.9078432575000001    0.6035838050000000 O
   0.3520244050000000    0.0000000000000000    0.1044968950000000 O
   0.3520244050000000    0.0000000000000000    0.6044968950000000 O
   0.3520244050000000    0.5000000000000000    0.1044968950000000 O
   0.3520244050000000    0.5000000000000000    0.6044968950000000 O
   0.8520244050000001    0.0000000000000000    0.1044968950000000 O
   0.8520244050000000    0.0000000000000000    0.6044968950000000 O
   0.8520244050000001    0.5000000000000000    0.1044968950000000 O
   0.8520244050000000    0.5000000000000000    0.6044968950000000 O
   0.1479755950000000    0.0000000000000000    0.3955031050000000 O
   0.1479755949999999    0.0000000000000000    0.8955031050000000 O
   0.1479755950000000    0.5000000000000000    0.3955031050000000 O
   0.1479755949999999    0.5000000000000000    0.8955031050000000 O
   0.6479755949999999    0.0000000000000000    0.3955031050000000 O
   0.6479755949999999    0.0000000000000000    0.8955031050000000 O
   0.6479755949999999    0.5000000000000000    0.3955031050000000 O
   0.6479755949999999    0.5000000000000000    0.8955031050000000 O
   0.1226438175000000    0.1578432575000001    0.3964161950000001 O
   0.1226438175000000    0.1578432575000001    0.8964161950000002 O
   0.1226438175000000    0.6578432575000001    0.3964161950000001 O
   0.1226438175000000    0.6578432575000001    0.8964161950000002 O
   0.6226438175000000    0.1578432575000001    0.3964161950000001 O
   0.6226438175000000    0.1578432575000001    0.8964161950000002 O
   0.6226438175000000    0.6578432575000001    0.3964161950000001 O
   0.6226438175000000    0.6578432575000001    0.8964161950000002 O
   0.1226438175000000    0.3421567424999999    0.3964161950000001 O
   0.1226438175000000    0.3421567424999999    0.8964161950000002 O
   0.1226438175000000    0.8421567425000001    0.3964161950000001 O
   0.1226438175000000    0.8421567425000001    0.8964161950000002 O
   0.6226438175000000    0.3421567424999999    0.3964161950000001 O
   0.6226438175000000    0.3421567424999999    0.8964161950000002 O
   0.6226438175000000    0.8421567425000001    0.3964161950000001 O
   0.6226438175000000    0.8421567425000001    0.8964161950000002 O
   0.3773561825000000    0.3421567424999999    0.1035838049999999 O
   0.3773561825000000    0.3421567424999999    0.6035838050000000 O
   0.3773561825000000    0.8421567425000001    0.1035838049999999 O
   0.3773561825000000    0.8421567425000001    0.6035838050000000 O
   0.8773561825000001    0.3421567424999999    0.1035838049999999 O
   0.8773561825000000    0.3421567424999999    0.6035838050000000 O
   0.8773561825000001    0.8421567425000001    0.1035838049999999 O
   0.8773561825000000    0.8421567425000001    0.6035838050000000 O
   0.3773561825000000    0.1578432575000001    0.1035838049999999 O
   0.3773561825000000    0.1578432575000001    0.6035838050000000 O
   0.3773561825000000    0.6578432575000001    0.1035838049999999 O
   0.3773561825000000    0.6578432575000001    0.6035838050000000 O
   0.8773561825000001    0.1578432575000001    0.1035838049999999 O
   0.8773561825000000    0.1578432575000001    0.6035838050000000 O
   0.8773561825000001    0.6578432575000001    0.1035838049999999 O
   0.8773561825000000    0.6578432575000001    0.6035838050000000 O
   0.1020244050000001    0.2500000000000000    0.1044968950000000 O
   0.1020244050000000    0.2500000000000000    0.6044968950000000 O
   0.1020244050000001    0.7500000000000000    0.1044968950000000 O
   0.1020244050000000    0.7500000000000000    0.6044968950000000 O
   0.6020244050000001    0.2500000000000000    0.1044968950000000 O
   0.6020244050000001    0.2500000000000000    0.6044968950000000 O
   0.6020244050000001    0.7500000000000000    0.1044968950000000 O
   0.6020244050000001    0.7500000000000000    0.6044968950000000 O
   0.3979755949999999    0.2500000000000000    0.3955031050000000 O
   0.3979755949999999    0.2500000000000000    0.8955031050000000 O
   0.3979755949999999    0.7500000000000000    0.3955031050000000 O
   0.3979755949999999    0.7500000000000000    0.8955031050000000 O
   0.8979755949999999    0.2500000000000000    0.3955031050000000 O
   0.8979755949999999    0.2500000000000000    0.8955031050000000 O
   0.8979755949999999    0.7500000000000000    0.3955031050000000 O
   0.8979755949999999    0.7500000000000000    0.8955031050000000 O
