Ca1 Cr12 F42                            
   1.00000000000000     
     7.2432819999999998   -0.0290700000000000   -0.0129320000000000
    -3.5972559999999998    6.3283030000000000   -0.1384240000000000
     0.0455260000000000   -0.3199890000000000   17.3938160000000011
   Ca   Cr   F 
     1    12    42
Direct
  0.8284730793035282  0.9728185748677126  0.8243208373573562
  0.2929897190565157  0.0045009482378582  0.3325253205834547
  0.6835866513466590  0.6613941697812867  0.0080113094692799
  0.0244293294104851  0.3371083225776108  0.6547833759218210
  0.3375381125706400  0.9830017359360588  0.8343820507815733
  0.6605690969053168  0.6758493859165727  0.4964038821730468
  0.9893562665497783  0.3340841317923137  0.1681583698986903
  0.6612458908867306  0.1754770022857960  0.4943512750301142
  0.4879763827517316  0.3319501993623489  0.1685413179442125
  0.8396964779215164  0.4827133442719190  0.8344068838848187
  0.3376905008322513  0.4812922389440083  0.8336867190269061
  0.1606522561482955  0.6776322810506487  0.4973264337243655
  0.4899090575543192  0.8337119677611885  0.1687755270738968
  0.5313730047718005  0.7748509437901283  0.0635177084571497
  0.2696321706733644  0.4719195953620502  0.7269501322365929
  0.1897781485676618  0.7550598143236592  0.3922947041141321
  0.4255089740976998  0.2546629840965678  0.2728249600388287
  0.8110405640069347  0.5328451318905949  0.9406230014671952
  0.7615063993628288  0.2157973668455286  0.5983562740829796
  0.9129349424762565  0.0924409951893941  0.7115996529275963
  0.1955489785517386  0.1230807240537887  0.3962544768971770
  0.9063804916150116  0.7809470733963063  0.0701008145797609
  0.1518125677341217  0.2479771585239812  0.5902022192244150
  0.0763783579312520  0.8769105072418870  0.2694219254528246
  0.7873647695659041  0.8891132632298610  0.9432506058263328
  0.1291926994610532  0.5997597152374208  0.6035224901492000
  0.4416136226094218  0.8849716157911486  0.2729490639773314
  0.4202104014323997  0.5059332802336247  0.9379866893878401
  0.8736701518795020  0.4361666818667803  0.7292906791567150
  0.5617702426487280  0.1369967746449780  0.3908029338555740
  0.5516211263546739  0.4072415896356101  0.0635735248880701
  0.3667785094759174  0.5881407527348557  0.4807094830208612
  0.1932567571335506  0.6258907223494864  0.1546151008950138
  0.4443663364610285  0.7822345754168311  0.8339195481923095
  0.6447775907982357  0.1843503761799878  0.8472759240413453
  0.5802982698615096  0.3870622117242827  0.5150761131926422
  0.7803766112738844  0.4166461870636464  0.1896211667225917
  0.6849863775669416  0.6311358309396494  0.3974971877125055
  0.9223546324817378  0.3013375528527898  0.0687280407904648
  0.3749860634125990 -0.0005630435825777  0.7319185097319126
  0.3034113324066259  0.9639690528912626  0.9366073042188470
  0.6389704921364778  0.7219649679068728  0.5960377624486656
  0.0567809254396747  0.3641862413270199  0.2670450213538101
  0.9557771639050385  0.7675266674317429  0.5134187902504520
  0.7855413454816119  0.0410712986785703  0.1817446951534258
  0.2281691227635708  0.1804202405625643  0.8326217072137533
  0.0319576455347740  0.7803756723889077  0.8199142546950493
  0.7436634413375871  0.9653786703861602  0.4764098320445481
  0.1976166299254258  0.2497064618044806  0.1466403018572741
  0.6284524781231536  0.5619240213379951  0.8055220027280005
  0.9395263272262631  0.3955376903347225  0.4650446882236381
  0.4294491867183337  0.0502451407946961  0.1373991560503596
  0.3846326476451313  0.9594798471089913  0.5272131547253059
  0.5495864825962884  0.6154687552238997  0.1990379303565798
  0.0489593126117365  0.4016548347725983  0.8613405535734333
 
             NaN             NaN             NaN
             NaN             NaN             NaN
             NaN             NaN             NaN
             NaN             NaN             NaN
             NaN             NaN             NaN
             NaN             NaN             NaN
             NaN             NaN             NaN
             NaN             NaN             NaN
             NaN             NaN             NaN
             NaN             NaN             NaN
             NaN             NaN             NaN
             NaN             NaN             NaN
             NaN             NaN             NaN
             NaN             NaN             NaN
             NaN             NaN             NaN
             NaN             NaN             NaN
             NaN             NaN             NaN
             NaN             NaN             NaN
             NaN             NaN             NaN
             NaN             NaN             NaN
             NaN             NaN             NaN
             NaN             NaN             NaN
             NaN             NaN             NaN
             NaN             NaN             NaN
             NaN             NaN             NaN
             NaN             NaN             NaN
             NaN             NaN             NaN
             NaN             NaN             NaN
             NaN             NaN             NaN
             NaN             NaN             NaN
             NaN             NaN             NaN
             NaN             NaN             NaN
             NaN             NaN             NaN
             NaN             NaN             NaN
             NaN             NaN             NaN
             NaN             NaN             NaN
             NaN             NaN             NaN
             NaN             NaN             NaN
             NaN             NaN             NaN
             NaN             NaN             NaN
             NaN             NaN             NaN
             NaN             NaN             NaN
             NaN             NaN             NaN
             NaN             NaN             NaN
             NaN             NaN             NaN
             NaN             NaN             NaN
             NaN             NaN             NaN
             NaN             NaN             NaN
             NaN             NaN             NaN
             NaN             NaN             NaN
             NaN             NaN             NaN
             NaN             NaN             NaN
             NaN             NaN             NaN
             NaN             NaN             NaN
             NaN             NaN             NaN
