Ca1 Cr12 F42
1.0
7.243282 -0.029070 -0.012932
-3.597256 6.328303 -0.138424
0.045526 -0.319989 17.393816
Ca Cr F
1 12 42
direct
0.810147 0.976387 0.812861 Ca
0.285235 0.000391 0.333608 Cr
0.695634 0.674098 0.009881 Cr
0.021350 0.323116 0.657014 Cr
0.355172 0.995516 0.834505 Cr
0.653692 0.662808 0.496961 Cr
0.988445 0.337270 0.169515 Cr
0.655179 0.163792 0.495942 Cr
0.486521 0.334322 0.169353 Cr
0.855669 0.496010 0.835147 Cr
0.354751 0.494187 0.833334 Cr
0.154379 0.665530 0.497751 Cr
0.489658 0.836593 0.170235 Cr
0.548015 0.791261 0.065948 F
0.273714 0.451081 0.726272 F
0.175464 0.749755 0.393838 F
0.426100 0.251011 0.273560 F
0.817359 0.541981 0.941392 F
0.756566 0.208891 0.600823 F
0.898687 0.084538 0.716580 F
0.193955 0.123975 0.397854 F
0.913191 0.778715 0.074233 F
0.134341 0.219128 0.591961 F
0.067495 0.878891 0.270697 F
0.811324 0.906208 0.948265 F
0.136747 0.585125 0.603616 F
0.426929 0.874966 0.273640 F
0.439457 0.544511 0.938032 F
0.893289 0.448924 0.730069 F
0.554518 0.123207 0.392629 F
0.547512 0.415188 0.064135 F
0.361217 0.579200 0.476824 F
0.195966 0.626405 0.150667 F
0.459083 0.793235 0.819096 F
0.660907 0.196925 0.847923 F
0.570674 0.373054 0.515471 F
0.780437 0.422047 0.189149 F
0.687929 0.621789 0.398648 F
0.915438 0.293501 0.070493 F
0.380245 0.042578 0.732417 F
0.331308 0.946039 0.935341 F
0.620733 0.705036 0.596816 F
0.062051 0.380129 0.267974 F
0.947010 0.749713 0.518859 F
0.782485 0.046544 0.188331 F
0.249659 0.196023 0.847021 F
0.049655 0.794190 0.821096 F
0.739334 0.954153 0.479030 F
0.194124 0.248612 0.149466 F
0.642960 0.569986 0.805606 F
0.932875 0.383120 0.466016 F
0.429763 0.053363 0.138034 F
0.379531 0.946115 0.529559 F
0.547123 0.616935 0.200833 F
0.068039 0.420160 0.862370 F
