Mg8 Mn16 S32
1.0
       10.3094396591         0.0000000000         0.0000000000
        0.0000000000        10.3094396591         0.0000000000
        0.0000000000         0.0000000000        10.3094396591
   Mg   Mn    S
    7   16   32
Direct
     0.750000000         0.750000000         0.750000000
     0.000000000         0.000000000         0.500000000
     0.250000000         0.750000000         0.250000000
     0.000000000         0.500000000         0.000000000
     0.250000000         0.250000000         0.750000000
     0.500000000         0.000000000         0.000000000
     0.750000000         0.250000000         0.250000000
     0.125000000         0.125000000         0.125000000
     0.625000000         0.875000000         0.375000000
     0.375000000         0.125000000         0.375000000
     0.875000000         0.875000000         0.125000000
     0.125000000         0.625000000         0.625000000
     0.625000000         0.375000000         0.875000000
     0.375000000         0.625000000         0.875000000
     0.875000000         0.375000000         0.625000000
     0.625000000         0.125000000         0.625000000
     0.125000000         0.875000000         0.875000000
     0.875000000         0.125000000         0.875000000
     0.375000000         0.875000000         0.625000000
     0.625000000         0.625000000         0.125000000
     0.125000000         0.375000000         0.375000000
     0.875000000         0.625000000         0.375000000
     0.375000000         0.375000000         0.125000000
     0.362989008         0.362989008         0.362989008
     0.887010992         0.112989001         0.112989001
     0.612989008         0.112989001         0.387010992
     0.112989001         0.887010992         0.112989001
     0.137011006         0.137011006         0.362989008
     0.137011006         0.362989008         0.137011006
     0.387010992         0.887010992         0.387010992
     0.362989008         0.137011006         0.137011006
     0.362989008         0.862989008         0.862989008
     0.887010992         0.612989008         0.612989008
     0.612989008         0.612989008         0.887010992
     0.112989001         0.387010992         0.612989008
     0.137011006         0.637010992         0.862989008
     0.137011006         0.862989008         0.637010992
     0.387010992         0.387010992         0.887010992
     0.362989008         0.637010992         0.637010992
     0.862989008         0.362989008         0.862989008
     0.387010992         0.112989001         0.612989008
     0.112989001         0.112989001         0.887010992
     0.612989008         0.887010992         0.612989008
     0.637010992         0.137011006         0.862989008
     0.637010992         0.362989008         0.637010992
     0.887010992         0.887010992         0.887010992
     0.862989008         0.137011006         0.637010992
     0.862989008         0.862989008         0.362989008
     0.387010992         0.612989008         0.112989001
     0.112989001         0.612989008         0.387010992
     0.612989008         0.387010992         0.112989001
     0.637010992         0.637010992         0.362989008
     0.637010992         0.862989008         0.137011006
     0.887010992         0.387010992         0.387010992
     0.862989008         0.637010992         0.137011006
