Ca9 Cr12 F42                            
   1.00000000000000     
     7.4685680000000003    0.0778900000000000   -0.5334880000000000
    -3.5479660000000002    6.6111959999999996    0.2138870000000000
     0.8993460000000000    0.1605640000000000   18.7365570000000012
   Ca   Cr   F 
     9    12    42
Direct
  0.5782339803255341  0.5017209139823767  0.3368126233545097
  0.5318059705231083  0.8704402300326477  0.6800789845253453
  0.5804966008760124  0.0773380493777546  0.0066482209437420
  0.0102778490592878  0.8314341022159596  0.6632033141398939
  0.8539676861555449  0.0336914299672428  0.3456546479595106
  0.1045280272309649  0.5938585168421802  0.9794710582582087
  0.9457835304893238  0.7996596773448313  0.1649564258645502
  0.8408541499780450  0.9019554414267144  0.8456648788390003
  0.2220598669398160  0.2080424161972757  0.5039340329358994
  0.3272589954887384  0.9592540415852630  0.3460662535546440
  0.0186731226997047  0.3294265467567984  0.6565288713746381
  0.6343499595196209  0.6216428779413337  0.9970095703418240
  0.3394641395237834  0.9841139815904630  0.8290863265805605
  0.9420550407059607  0.2957153239449758  0.1573056710492981
  0.6949991705577934  0.6901160525898260  0.5066839768485547
  0.4438170494435739  0.7905389363049119  0.1688028417730726
  0.2223878068858549  0.7192741012972869  0.5025418917255705
  0.3183226295376073  0.4730234841972681  0.8258230308120825
  0.8130766645023703  0.4547013123340663  0.8220445644825952
  0.7213212555609364  0.2354702640587522  0.5031717878111999
  0.4440109465068283  0.2952057960432769  0.1614254856340530
  0.7551524974301633  0.1429293513095229  0.6035850472068869
  0.8757740857723842  0.6591040251812915  0.9158483805472202
  0.4470503689928220  0.1924736678325000  0.2783892857540931
  0.1743110570622075  0.7027126660407831  0.3984146831975381
  0.3813658219837489  0.7329157258742602  0.0488488851855223
  0.2578454065794858  0.4995755337283522  0.7221311472102386
  0.7314102664851723  0.9046904685697761  0.9596982844639756
  0.8377188809272407  0.7750095763463045  0.2740338602361079
  0.1455710737269731  0.1659819511403097  0.6234386310772863
  0.8996646008337438  0.7014956938013494  0.0514356461256787
  0.8473248487022105  0.9798655574625587  0.7282456543191962
  0.1808251451846147  0.1089562755513680  0.3791699628124943
  0.5272322636056949  0.3451586501477940  0.0321313657021970
  0.6854119241679365  0.3066135751841302  0.4024881349935908
  0.8896028777800239  0.4905877477544527  0.6802406051040562
  0.3856860084275957  0.5266169453474112  0.9313364483998475
  0.2656379379218178  0.7777324728996795  0.6066239274995952
  0.5163332064728398  0.8577464181095036  0.3173852297197128
  0.7494010203335849  0.4197020352753748  0.1687880651743418
  0.5664196189048845  0.3575376401879239  0.5432392563144891
  0.6614137289987914  0.2242568530242982  0.8868550887698727
  0.5143065811693104  0.8527619227455371  0.8104504040901808
  0.4311761465058205  0.5185619633777525  0.4476608259938146
  0.1579127314758393  0.6719988959997522  0.1882989316180619
  0.9457309702808600  0.2548440092494025  0.2582680267750862
  0.6512558225793943  0.7124812800675570  0.6106023929336695
  0.3077400490219905  0.9068430744262557  0.9321716155086163
  0.3422084499847137  0.0134188111070284  0.7246630707374631
  0.7918603729487925  0.7429602714759624  0.4093783847295256
  0.9161754793636896  0.3117120839501263  0.0498840806060322
  0.1387613419532415  0.1695321801939539  0.1508163174397144
  0.8770554474225929  0.1082062138647227  0.4625712142488488
 -0.0060667934481640  0.7340707393258210  0.7857053682587992
  0.1751141258139216  0.1249611252100120  0.8440704064343723
  0.9820483033632190  0.8379411842225615  0.5372251522164622
  0.7268879263299592  0.9256292968312552  0.1393473140680224
  0.0509307911555104  0.4295205265455040  0.8605541011285729
  0.4614220617810856  0.5429123224266900  0.2068218167377972
  0.3799197243595537  1.0051950232226505  0.4826800013329208
  0.4283838493439350  0.0377152263551396  0.1273344574648990
  0.5965550395671945  0.5328499706372936  0.8007913937402978
  0.0961561581410393  0.4360946865773859  0.5325179980350103
 
             NaN             NaN             NaN
             NaN             NaN             NaN
             NaN             NaN             NaN
             NaN             NaN             NaN
             NaN             NaN             NaN
             NaN             NaN             NaN
             NaN             NaN             NaN
             NaN             NaN             NaN
             NaN             NaN             NaN
             NaN             NaN             NaN
             NaN             NaN             NaN
             NaN             NaN             NaN
             NaN             NaN             NaN
             NaN             NaN             NaN
             NaN             NaN             NaN
             NaN             NaN             NaN
             NaN             NaN             NaN
             NaN             NaN             NaN
             NaN             NaN             NaN
             NaN             NaN             NaN
             NaN             NaN             NaN
             NaN             NaN             NaN
             NaN             NaN             NaN
             NaN             NaN             NaN
             NaN             NaN             NaN
             NaN             NaN             NaN
             NaN             NaN             NaN
             NaN             NaN             NaN
             NaN             NaN             NaN
             NaN             NaN             NaN
             NaN             NaN             NaN
             NaN             NaN             NaN
             NaN             NaN             NaN
             NaN             NaN             NaN
             NaN             NaN             NaN
             NaN             NaN             NaN
             NaN             NaN             NaN
             NaN             NaN             NaN
             NaN             NaN             NaN
             NaN             NaN             NaN
             NaN             NaN             NaN
             NaN             NaN             NaN
             NaN             NaN             NaN
             NaN             NaN             NaN
             NaN             NaN             NaN
             NaN             NaN             NaN
             NaN             NaN             NaN
             NaN             NaN             NaN
             NaN             NaN             NaN
             NaN             NaN             NaN
             NaN             NaN             NaN
             NaN             NaN             NaN
             NaN             NaN             NaN
             NaN             NaN             NaN
             NaN             NaN             NaN
             NaN             NaN             NaN
             NaN             NaN             NaN
             NaN             NaN             NaN
             NaN             NaN             NaN
             NaN             NaN             NaN
             NaN             NaN             NaN
             NaN             NaN             NaN
             NaN             NaN             NaN
