Li32 Mn16 Si16 O64
1.0
10.097444 0.000000 0.000000
0.000000 10.882910 0.000000
0.000000 0.000000 12.754115
Li Mn Si O
31 16 16 64
direct
0.721639 0.334427 0.374543 Li
0.221639 0.334427 0.125457 Li
0.221639 0.334427 0.625457 Li
0.221639 0.834427 0.125457 Li
0.221639 0.834427 0.625457 Li
0.721639 0.334427 0.125457 Li
0.721639 0.834427 0.125457 Li
0.721639 0.834427 0.625457 Li
0.221639 0.334427 0.374543 Li
0.221639 0.334427 0.874543 Li
0.221639 0.834427 0.374543 Li
0.221639 0.834427 0.874543 Li
0.721639 0.334427 0.874543 Li
0.721639 0.834427 0.374543 Li
0.721639 0.834427 0.874543 Li
0.471639 0.165573 0.375457 Li
0.471639 0.165573 0.875457 Li
0.471639 0.665573 0.375457 Li
0.471639 0.665573 0.875457 Li
0.971639 0.165573 0.375457 Li
0.971639 0.165573 0.875457 Li
0.971639 0.665573 0.375457 Li
0.971639 0.665573 0.875457 Li
0.471639 0.165573 0.124543 Li
0.471639 0.165573 0.624543 Li
0.471639 0.665573 0.124543 Li
0.471639 0.665573 0.624543 Li
0.971639 0.165573 0.124543 Li
0.971639 0.165573 0.624543 Li
0.971639 0.665573 0.124543 Li
0.971639 0.665573 0.624543 Li
0.220346 0.083037 0.000000 Mn
0.220346 0.083037 0.500000 Mn
0.220346 0.583037 0.000000 Mn
0.220346 0.583037 0.500000 Mn
0.720346 0.083037 0.000000 Mn
0.720346 0.083037 0.500000 Mn
0.720346 0.583037 0.000000 Mn
0.720346 0.583037 0.500000 Mn
0.470346 0.416963 0.250000 Mn
0.470346 0.416963 0.750000 Mn
0.470346 0.916963 0.250000 Mn
0.470346 0.916963 0.750000 Mn
0.970346 0.416963 0.250000 Mn
0.970346 0.416963 0.750000 Mn
0.970346 0.916963 0.250000 Mn
0.970346 0.916963 0.750000 Mn
0.475044 0.410247 0.000000 Si
0.475044 0.410247 0.500000 Si
0.475044 0.910247 0.000000 Si
0.475044 0.910247 0.500000 Si
0.975044 0.410247 0.000000 Si
0.975044 0.410247 0.500000 Si
0.975044 0.910247 0.000000 Si
0.975044 0.910247 0.500000 Si
0.225044 0.089753 0.250000 Si
0.225044 0.089753 0.750000 Si
0.225044 0.589753 0.250000 Si
0.225044 0.589753 0.750000 Si
0.725044 0.089753 0.250000 Si
0.725044 0.089753 0.750000 Si
0.725044 0.589753 0.250000 Si
0.725044 0.589753 0.750000 Si
0.138693 0.406036 0.000000 O
0.138693 0.406036 0.500000 O
0.138693 0.906036 0.000000 O
0.138693 0.906036 0.500000 O
0.638693 0.406036 0.000000 O
0.638693 0.406036 0.500000 O
0.638693 0.906036 0.000000 O
0.638693 0.906036 0.500000 O
0.388693 0.093964 0.250000 O
0.388693 0.093964 0.750000 O
0.388693 0.593964 0.250000 O
0.388693 0.593964 0.750000 O
0.888693 0.093964 0.250000 O
0.888693 0.093964 0.750000 O
0.888693 0.593964 0.250000 O
0.888693 0.593964 0.750000 O
0.427874 0.056694 0.000000 O
0.427874 0.056694 0.500000 O
0.427874 0.556694 0.000000 O
0.427874 0.556694 0.500000 O
0.927874 0.056694 0.000000 O
0.927874 0.056694 0.500000 O
0.927874 0.556694 0.000000 O
0.927874 0.556694 0.500000 O
0.177874 0.443306 0.250000 O
0.177874 0.443306 0.750000 O
0.177874 0.943306 0.250000 O
0.177874 0.943306 0.750000 O
0.677874 0.443306 0.250000 O
0.677874 0.443306 0.750000 O
0.677874 0.943306 0.250000 O
0.677874 0.943306 0.750000 O
0.418646 0.339676 0.105911 O
0.418646 0.339676 0.605911 O
0.418646 0.839676 0.105911 O
0.418646 0.839676 0.605911 O
0.918646 0.339676 0.105911 O
0.918646 0.339676 0.605911 O
0.918646 0.839676 0.105911 O
0.918646 0.839676 0.605911 O
0.168646 0.160324 0.355911 O
0.168646 0.160324 0.855911 O
0.168646 0.660324 0.355911 O
0.168646 0.660324 0.855911 O
0.668646 0.160324 0.355911 O
0.668646 0.160324 0.855911 O
0.668646 0.660324 0.355911 O
0.668646 0.660324 0.855911 O
0.168646 0.160324 0.144089 O
0.168646 0.160324 0.644089 O
0.168646 0.660324 0.144089 O
0.168646 0.660324 0.644089 O
0.668646 0.160324 0.144089 O
0.668646 0.160324 0.644089 O
0.668646 0.660324 0.144089 O
0.668646 0.660324 0.644089 O
0.418646 0.339676 0.394089 O
0.418646 0.339676 0.894089 O
0.418646 0.839676 0.394089 O
0.418646 0.839676 0.894089 O
0.918646 0.339676 0.394089 O
0.918646 0.339676 0.894089 O
0.918646 0.839676 0.394089 O
0.918646 0.839676 0.894089 O
