Sc16 Al8 Se32                           
   1.00000000000000     
    11.0304091278202030   -0.0000236532253956    0.0000090629291821
    -0.0000236510061376   11.0303957544479694   -0.0000040662387874
     0.0000090630740468   -0.0000040672154740   11.0303993103523812
Al   Sc   Al   Se
1    16     6    32
Direct
  0.7499994300439080  0.2499997105733661  0.7500006295834764
  0.1249943747895211  0.8749989308980566  0.3750037966610879
  0.8749960849149646  0.1249971422669790  0.3750041183943141
  0.8749969443184317  0.8749992788838544  0.6249972820503478
  0.1249942376378606  0.1249967619032147  0.6249978890757114
  0.1249942538050871  0.3750009586073328  0.8749961704644018
  0.8749963942805704  0.6250026361382457  0.8749961727342658
  0.8749961031383213  0.3750009964142663  0.1250028252484780
  0.1249935399055757  0.6250030322939122  0.1250025798177185
  0.6250041186963816  0.8750001267435024  0.8749973608190722
  0.3750036161788418  0.1249966704174770  0.8749964333838121
  0.3750034068983465  0.8749995016242738  0.1250016857648496
  0.6250053352157611  0.1249969266395109  0.1250020668540738
  0.6250061282887985  0.3750008025096384  0.3750032131835187
  0.3750029169566894  0.6250035561175861  0.3750036218944984
  0.3750025494518814  0.3750007881078143  0.6249980347636621
  0.6250058391416058  0.6250034008201586  0.6249979814022952
  0.7499994537749457  0.7500004702379262  0.2499995089379901
  0.4999994282178935  0.0000003479347836  0.4999997677051284
  0.2499999505161611  0.7500003858798542  0.7500006024483076
  0.0000001242765432  0.4999999578921192  0.4999997617637650
  0.2500000113446749  0.2499996738616929  0.2499994703968950
  0.0000000531090510  0.0000003584919784  0.0000002628333022
  0.8776364509745420  0.1223626133033069  0.6223631065987438
  0.1223629308878733  0.8776380759481635  0.6223629234936693
  0.1223622175940364  0.1223617723095504  0.3776369392908732
  0.8776364859423533  0.8776378679257640  0.3776361739487154
  0.3723736261825118  0.1276252750371381  0.6276271781979592
  0.1276279942787255  0.3723710769423099  0.6276329772624855
  0.1276272368757612  0.1276258916500634  0.8723741051596303
  0.3723733151148388  0.3723720188284920  0.8723743993552687
  0.8776364204362543  0.6223633966703963  0.1223627710577907
  0.1223733126799317  0.3776260110971196  0.1223731585436711
  0.1223626138886795  0.6223632765137324  0.8776383479339036
  0.8776364746872832  0.3776364026278629  0.8776383352129867
  0.3723732908503650  0.6276279442899703  0.1276259252742668
  0.1276271781798076  0.8723745916432535  0.1276262846427532
  0.1276368875096189  0.6276378895962893  0.3723623918855076
  0.3723690783101383  0.8723662391766729  0.3723636733745261
  0.3776275742110485  0.1223720957554106  0.1223722348377520
  0.6223675060397442  0.8776326928557038  0.1223722670797364
  0.6223726188456639  0.1223731200507062  0.8776278015166183
  0.3776266916820627  0.8776278629965308  0.8776280188818962
  0.8723616020055072  0.1276371605011814  0.1276375545733246
  0.6276371336953527  0.3723609103992424  0.1276370653376004
  0.6276366674439521  0.1276365290363613  0.3723614455232317
  0.8723630188530498  0.3723621037340135  0.3723623942809189
  0.3776368901594039  0.6223636423172866  0.6223633324311831
  0.6223626616207926  0.3776360999949556  0.6223634645794979
  0.6223627665185836  0.6223639503930685  0.3776357664128064
  0.3776375107393852  0.3776369020520490  0.3776366234327312
  0.8723633823685417  0.6276376056756698  0.6276371270950937
  0.6276364382793962  0.8723643316775972  0.6276379593439065
  0.6276365554128538  0.6276387121207337  0.8723635518428218
  0.8723617788561104  0.8723635951722442  0.8723631493726233
 
  0.00000000E+00  0.00000000E+00  0.00000000E+00
  0.00000000E+00  0.00000000E+00  0.00000000E+00
  0.00000000E+00  0.00000000E+00  0.00000000E+00
  0.00000000E+00  0.00000000E+00  0.00000000E+00
  0.00000000E+00  0.00000000E+00  0.00000000E+00
  0.00000000E+00  0.00000000E+00  0.00000000E+00
  0.00000000E+00  0.00000000E+00  0.00000000E+00
  0.00000000E+00  0.00000000E+00  0.00000000E+00
  0.00000000E+00  0.00000000E+00  0.00000000E+00
  0.00000000E+00  0.00000000E+00  0.00000000E+00
  0.00000000E+00  0.00000000E+00  0.00000000E+00
  0.00000000E+00  0.00000000E+00  0.00000000E+00
  0.00000000E+00  0.00000000E+00  0.00000000E+00
  0.00000000E+00  0.00000000E+00  0.00000000E+00
  0.00000000E+00  0.00000000E+00  0.00000000E+00
  0.00000000E+00  0.00000000E+00  0.00000000E+00
  0.00000000E+00  0.00000000E+00  0.00000000E+00
  0.00000000E+00  0.00000000E+00  0.00000000E+00
  0.00000000E+00  0.00000000E+00  0.00000000E+00
  0.00000000E+00  0.00000000E+00  0.00000000E+00
  0.00000000E+00  0.00000000E+00  0.00000000E+00
  0.00000000E+00  0.00000000E+00  0.00000000E+00
  0.00000000E+00  0.00000000E+00  0.00000000E+00
  0.00000000E+00  0.00000000E+00  0.00000000E+00
  0.00000000E+00  0.00000000E+00  0.00000000E+00
  0.00000000E+00  0.00000000E+00  0.00000000E+00
  0.00000000E+00  0.00000000E+00  0.00000000E+00
  0.00000000E+00  0.00000000E+00  0.00000000E+00
  0.00000000E+00  0.00000000E+00  0.00000000E+00
  0.00000000E+00  0.00000000E+00  0.00000000E+00
  0.00000000E+00  0.00000000E+00  0.00000000E+00
  0.00000000E+00  0.00000000E+00  0.00000000E+00
  0.00000000E+00  0.00000000E+00  0.00000000E+00
  0.00000000E+00  0.00000000E+00  0.00000000E+00
  0.00000000E+00  0.00000000E+00  0.00000000E+00
  0.00000000E+00  0.00000000E+00  0.00000000E+00
  0.00000000E+00  0.00000000E+00  0.00000000E+00
  0.00000000E+00  0.00000000E+00  0.00000000E+00
  0.00000000E+00  0.00000000E+00  0.00000000E+00
  0.00000000E+00  0.00000000E+00  0.00000000E+00
  0.00000000E+00  0.00000000E+00  0.00000000E+00
  0.00000000E+00  0.00000000E+00  0.00000000E+00
  0.00000000E+00  0.00000000E+00  0.00000000E+00
  0.00000000E+00  0.00000000E+00  0.00000000E+00
  0.00000000E+00  0.00000000E+00  0.00000000E+00
  0.00000000E+00  0.00000000E+00  0.00000000E+00
  0.00000000E+00  0.00000000E+00  0.00000000E+00
  0.00000000E+00  0.00000000E+00  0.00000000E+00
  0.00000000E+00  0.00000000E+00  0.00000000E+00
  0.00000000E+00  0.00000000E+00  0.00000000E+00
  0.00000000E+00  0.00000000E+00  0.00000000E+00
  0.00000000E+00  0.00000000E+00  0.00000000E+00
  0.00000000E+00  0.00000000E+00  0.00000000E+00
  0.00000000E+00  0.00000000E+00  0.00000000E+00
  0.00000000E+00  0.00000000E+00  0.00000000E+00
  0.00000000E+00  0.00000000E+00  0.00000000E+00
