Ca24 Cr16 Si24 O96
1.0
  12.0145526199999981    0.0000000000000000    0.0000000000000007
   0.0000000000000019   12.0145526199999981    0.0000000000000007
   0.0000000000000000    0.0000000000000000   12.0145526199999981
Ca Cr Si O
23 16 24 96
direct
   0.1250000000000000    0.5000000000000000    0.7500000000000000 Ca2+
   0.1250000000000000    0.0000000000000000    0.2500000000000000 Ca2+
   0.8750000000000000    0.5000000000000000    0.2500000000000000 Ca2+
   0.0000000000000000    0.2500000000000000    0.1250000000000000 Ca2+
   0.5000000000000000    0.2500000000000000    0.8750000000000000 Ca2+
   0.6250000000000000    0.0000000000000000    0.2500000000000000 Ca2+
   0.2500000000000000    0.1250000000000000    0.0000000000000000 Ca2+
   0.2500000000000000    0.6250000000000000    0.0000000000000000 Ca2+
   0.3750000000000000    0.5000000000000000    0.2500000000000000 Ca2+
   0.0000000000000000    0.2500000000000000    0.6250000000000000 Ca2+
   0.5000000000000000    0.2500000000000000    0.3750000000000000 Ca2+
   0.2500000000000000    0.8750000000000000    0.5000000000000000 Ca2+
   0.6250000000000000    0.5000000000000000    0.7500000000000000 Ca2+
   0.3750000000000000    0.0000000000000000    0.7500000000000000 Ca2+
   0.5000000000000000    0.7500000000000000    0.6250000000000000 Ca2+
   0.0000000000000000    0.7500000000000000    0.3750000000000000 Ca2+
   0.7500000000000000    0.6250000000000000    0.5000000000000000 Ca2+
   0.7500000000000000    0.1250000000000000    0.5000000000000000 Ca2+
   0.8750000000000000    0.0000000000000000    0.7500000000000000 Ca2+
   0.7500000000000000    0.8750000000000000    0.0000000000000000 Ca2+
   0.5000000000000000    0.7500000000000000    0.1250000000000000 Ca2+
   0.0000000000000000    0.7500000000000000    0.8750000000000000 Ca2+
   0.7500000000000000    0.3750000000000000    0.0000000000000000 Ca2+
   0.7500000000000000    0.2500000000000000    0.2500000000000000 Cr3+
   0.0000000000000000    0.0000000000000000    0.5000000000000000 Cr3+
   0.5000000000000000    0.0000000000000000    0.0000000000000000 Cr3+
   0.2500000000000000    0.2500000000000000    0.7500000000000000 Cr3+
   0.2500000000000000    0.2500000000000000    0.2500000000000000 Cr3+
   0.2500000000000000    0.7500000000000000    0.2500000000000000 Cr3+
   0.0000000000000000    0.5000000000000000    0.0000000000000000 Cr3+
   0.0000000000000000    0.0000000000000000    0.0000000000000000 Cr3+
   0.2500000000000000    0.7500000000000000    0.7500000000000000 Cr3+
   0.5000000000000000    0.5000000000000000    0.0000000000000000 Cr3+
   0.0000000000000000    0.5000000000000000    0.5000000000000000 Cr3+
   0.7500000000000000    0.7500000000000000    0.2500000000000000 Cr3+
   0.7500000000000000    0.7500000000000000    0.7500000000000000 Cr3+
   0.7500000000000000    0.2500000000000000    0.7500000000000000 Cr3+
   0.5000000000000000    0.0000000000000000    0.5000000000000000 Cr3+
   0.5000000000000000    0.5000000000000000    0.5000000000000000 Cr3+
   0.7500000000000000    0.1250000000000000    0.0000000000000000 Si4+
   0.7500000000000000    0.3750000000000000    0.5000000000000000 Si4+
   0.1250000000000000    0.5000000000000000    0.2500000000000000 Si4+
   0.5000000000000000    0.7500000000000000    0.3750000000000000 Si4+
   0.3750000000000000    0.5000000000000000    0.7500000000000000 Si4+
   0.5000000000000000    0.2500000000000000    0.1250000000000000 Si4+
   0.2500000000000000    0.3750000000000000    0.0000000000000000 Si4+
   0.0000000000000000    0.7500000000000000    0.1250000000000000 Si4+
   0.0000000000000000    0.2500000000000000    0.3750000000000000 Si4+
   0.1250000000000000    0.0000000000000000    0.7500000000000000 Si4+
   0.3750000000000000    0.0000000000000000    0.2500000000000000 Si4+
   0.2500000000000000    0.1250000000000000    0.5000000000000000 Si4+
   0.2500000000000000    0.6250000000000000    0.5000000000000000 Si4+
   0.2500000000000000    0.8750000000000000    0.0000000000000000 Si4+
   0.6250000000000000    0.0000000000000000    0.7500000000000000 Si4+
   0.0000000000000000    0.2500000000000000    0.8750000000000000 Si4+
   0.8750000000000000    0.0000000000000000    0.2500000000000000 Si4+
   0.0000000000000000    0.7500000000000000    0.6250000000000000 Si4+
   0.7500000000000000    0.8750000000000000    0.5000000000000000 Si4+
   0.5000000000000000    0.2500000000000000    0.6250000000000000 Si4+
   0.5000000000000000    0.7500000000000000    0.8750000000000000 Si4+
   0.6250000000000000    0.5000000000000000    0.2500000000000000 Si4+
   0.8750000000000000    0.5000000000000000    0.7500000000000000 Si4+
   0.7500000000000000    0.6250000000000000    0.0000000000000000 Si4+
   0.3456077700000000    0.0392800200000000    0.5477188799999999 O2-
   0.5477188799999999    0.3456077700000000    0.0392800200000000 O2-
   0.4607199800000000    0.4522811200000001    0.8456077700000000 O2-
   0.1543922300000000    0.0392800200000000    0.4522811200000001 O2-
   0.2977188799999999    0.7107199800000000    0.5956077700000000 O2-
   0.0477188799999999    0.1543922300000000    0.9607199800000000 O2-
   0.2022811200000001    0.2892800200000000    0.0956077700000000 O2-
   0.0392800200000000    0.5477188799999999    0.3456077700000000 O2-
   0.2977188799999999    0.2892800200000000    0.9043922300000000 O2-
   0.0956077700000000    0.2022811200000001    0.2892800200000000 O2-
   0.7107199800000000    0.5956077700000000    0.2977188799999999 O2-
   0.2107199800000000    0.9043922300000000    0.7022811200000001 O2-
   0.9043922300000000    0.7022811200000001    0.2107199800000000 O2-
   0.2892800200000000    0.0956077700000000    0.2022811200000001 O2-
   0.9043922300000000    0.2977188799999999    0.2892800200000000 O2-
   0.2892800200000000    0.9043922300000000    0.2977188799999999 O2-
   0.5956077700000000    0.2977188799999999    0.7107199800000000 O2-
   0.8456077700000000    0.4607199800000000    0.4522811200000001 O2-
   0.1543922300000000    0.9607199800000000    0.0477188799999999 O2-
   0.2022811200000001    0.2107199800000000    0.5956077700000000 O2-
   0.4522811200000001    0.1543922300000000    0.0392800200000000 O2-
   0.0392800200000000    0.4522811200000001    0.1543922300000000 O2-
   0.9607199800000000    0.0477188799999999    0.1543922300000000 O2-
   0.7022811200000001    0.2107199800000000    0.9043922300000000 O2-
   0.1543922300000000    0.4607199800000000    0.9522811200000001 O2-
   0.9522811200000001    0.1543922300000000    0.4607199800000000 O2-
   0.0392800200000000    0.0477188799999999    0.6543922300000000 O2-
   0.3456077700000000    0.4607199800000000    0.0477188799999999 O2-
   0.2022811200000001    0.7892800200000000    0.9043922300000000 O2-
   0.4522811200000001    0.3456077700000000    0.5392800200000000 O2-
   0.2977188799999999    0.2107199800000000    0.4043922300000000 O2-
   0.4607199800000000    0.9522811200000001    0.1543922300000000 O2-
   0.7977188799999999    0.2892800200000000    0.5956077700000000 O2-
   0.5392800200000000    0.4522811200000001    0.3456077700000000 O2-
   0.4607199800000000    0.0477188799999999    0.3456077700000000 O2-
   0.0477188799999999    0.6543922300000000    0.0392800200000000 O2-
   0.0477188799999999    0.3456077700000000    0.4607199800000000 O2-
   0.3456077700000000    0.5392800200000000    0.4522811200000001 O2-
   0.6543922300000000    0.0392800200000000    0.0477188799999999 O2-
   0.9043922300000000    0.2022811200000001    0.7892800200000000 O2-
   0.2107199800000000    0.5956077700000000    0.2022811200000001 O2-
   0.5956077700000000    0.2022811200000001    0.2107199800000000 O2-
   0.2107199800000000    0.4043922300000000    0.2977188799999999 O2-
   0.5956077700000000    0.7977188799999999    0.2892800200000000 O2-
   0.2892800200000000    0.5956077700000000    0.7977188799999999 O2-
   0.7892800200000000    0.9043922300000000    0.2022811200000001 O2-
   0.4043922300000000    0.2977188799999999    0.2107199800000000 O2-
   0.4522811200000001    0.8456077700000000    0.4607199800000000 O2-
   0.8456077700000000    0.5392800200000000    0.0477188799999999 O2-
   0.0477188799999999    0.8456077700000000    0.5392800200000000 O2-
   0.9607199800000000    0.9522811200000001    0.3456077700000000 O2-
   0.6543922300000000    0.5392800200000000    0.9522811200000001 O2-
   0.7977188799999999    0.2107199799999999    0.0956077700000000 O2-
   0.5477188799999999    0.6543922300000000    0.4607199799999999 O2-
   0.7022811200000001    0.7892800200000000    0.5956077700000000 O2-
   0.5392800200000000    0.0477188799999999    0.8456077700000000 O2-
   0.7977188799999999    0.7892800200000000    0.4043922300000000 O2-
   0.5956077700000000    0.7022811200000001    0.7892800200000000 O2-
   0.2107199799999999    0.0956077700000000    0.7977188799999999 O2-
   0.7107199800000000    0.4043922300000000    0.2022811200000001 O2-
   0.4043922300000000    0.2022811200000001    0.7107199800000000 O2-
   0.7892800200000000    0.5956077700000000    0.7022811200000001 O2-
   0.4043922300000000    0.7977188799999999    0.7892800200000000 O2-
   0.7892800200000000    0.4043922300000000    0.7977188799999999 O2-
   0.0956077700000000    0.7977188799999999    0.2107199799999999 O2-
   0.3456077700000000    0.9607199800000000    0.9522811200000001 O2-
   0.6543922300000000    0.4607199799999999    0.5477188799999999 O2-
   0.7022811200000001    0.7107199800000000    0.0956077700000000 O2-
   0.9522811200000001    0.6543922300000000    0.5392800200000000 O2-
   0.5392800200000000    0.9522811200000001    0.6543922300000000 O2-
   0.4607199799999999    0.5477188799999999    0.6543922300000000 O2-
   0.2022811200000001    0.7107199800000000    0.4043922300000000 O2-
   0.6543922300000000    0.9607199800000000    0.4522811200000001 O2-
   0.4522811200000001    0.6543922300000000    0.9607199800000000 O2-
   0.5392800200000000    0.5477188799999999    0.1543922300000000 O2-
   0.8456077700000000    0.9607199800000000    0.5477188799999999 O2-
   0.7022811200000001    0.2892800200000001    0.4043922300000000 O2-
   0.9522811200000001    0.8456077700000000    0.0392800200000001 O2-
   0.7977188799999999    0.7107199800000000    0.9043922300000000 O2-
   0.9607199800000000    0.4522811200000001    0.6543922300000000 O2-
   0.2977188799999999    0.7892800200000000    0.0956077700000000 O2-
   0.0392800200000001    0.9522811200000001    0.8456077700000000 O2-
   0.9607199800000000    0.5477188799999999    0.8456077700000000 O2-
   0.5477188799999999    0.1543922300000000    0.5392800200000000 O2-
   0.5477188799999999    0.8456077700000000    0.9607199800000000 O2-
   0.8456077700000000    0.0392800200000001    0.9522811200000001 O2-
   0.1543922300000000    0.5392800200000000    0.5477188799999999 O2-
   0.4043922300000000    0.7022811200000001    0.2892800200000001 O2-
   0.7107199800000000    0.0956077700000000    0.7022811200000001 O2-
   0.0956077700000000    0.7022811200000001    0.7107199800000000 O2-
   0.7107199800000000    0.9043922300000000    0.7977188799999999 O2-
   0.0956077700000000    0.2977188799999999    0.7892800200000000 O2-
   0.7892800200000000    0.0956077700000000    0.2977188799999999 O2-
   0.2892800200000001    0.4043922300000000    0.7022811200000001 O2-
   0.9043922300000000    0.7977188799999999    0.7107199800000000 O2-
   0.9522811200000001    0.3456077700000000    0.9607199800000000 O2-
