Ca4 Mn4 P6 O24                          
   1.00000000000000     
     2.6595380000000000    7.9317859999999998    4.5533419999999998
    -0.0753270000000000    0.3488400000000000    8.7155850000000008
     7.7066249999999998    0.3209360000000000    4.2123830000000000
   Ca   Mn   P    O 
     4     4     6    24
Direct
  0.2525000882124709  0.8527878744326185  0.6199683070082612
  0.9007777726275215  0.9922579845827322  0.0859198853677379
  0.3830589740299524  0.7263028503421771  0.0904014338271968
  0.1550679220195597  0.3997761004454590  0.7604197435070424
  0.6649223607246194  0.6454697595294522  0.6162492642070102
  0.1693617915590647  0.1334666242143263  0.1717682939778969
  0.8354538935504017  0.8698010623524960  0.8250511666269004
  0.3332786539185963  0.3179926009766638  0.3648944039991868
  0.2344020685808345  0.5386068069082885  0.9735540300498737
  0.0380563196432023  0.7655188777338271  0.4349303445085397
  0.9682947652124492  0.2380426855071844  0.5879371912709894
  0.4592319764404397  0.0376398045570352  0.7284645785409937
  0.5496906768741971  0.9085011172082863  0.2483608705446094
  0.7606796456645690  0.4803784044122877 -0.0071282579537330
  0.5684432438509700  0.7424783100895904  0.4253683139717891
  0.2939437011093203  0.0701432629821507  0.9062802061468226
  0.3526902317860038  0.5406865161214689  0.7710495885933015
  0.8996802948008155  0.2830898993865167  1.0015296642099789
  0.8112876126545386  0.4141651429106142  0.5573501961722380
  0.0846545835621622  0.9155535910481526  0.2450464915434748
  0.9134654598647283  0.0791263160287812  0.7668776431977689
  0.6156746175160651  0.5065794833771881  0.1744235749558670
  0.7232301327952934  0.8801209564351660  0.0831096447759793
  0.2017311598759458  0.5829894317172386  0.4229799200400684
  0.1097142693681806  0.7463415284362175  0.9609773133948118
  0.4287207171780475  0.2198348151057054  0.5715890696854680
  0.1408872353825426  0.4023754808123177  0.0444280467180035
  0.8708518686986970  0.7578308856318180  0.4595298606050471
  0.0718302048381391  0.1504098743467685  0.4277573426036968
  0.4619443436290593  0.8700191104240581  0.6988440746428952
  0.3983559405945780  0.9147610247277135  0.2208801708782129
  0.6628765029710350  0.5434270248793511  0.8600695580556830
  0.3283604954246256  0.4804419537404856  0.1048937957788562
  0.0259913818846240  0.8124048032341320  0.5938975476397228
  0.1053575562642039  0.2693423594767477  0.6062459383918811
  0.6227471628723474  0.9791215147835712  0.7632753589597612
  0.5086455654450270  0.0893646751915183  0.2790306386387609
  0.8707077214201475  0.6077825858578300  0.8986702596044935
 
             NaN             NaN             NaN
             NaN             NaN             NaN
             NaN             NaN             NaN
             NaN             NaN             NaN
             NaN             NaN             NaN
             NaN             NaN             NaN
             NaN             NaN             NaN
             NaN             NaN             NaN
             NaN             NaN             NaN
             NaN             NaN             NaN
             NaN             NaN             NaN
             NaN             NaN             NaN
             NaN             NaN             NaN
             NaN             NaN             NaN
             NaN             NaN             NaN
             NaN             NaN             NaN
             NaN             NaN             NaN
             NaN             NaN             NaN
             NaN             NaN             NaN
             NaN             NaN             NaN
             NaN             NaN             NaN
             NaN             NaN             NaN
             NaN             NaN             NaN
             NaN             NaN             NaN
             NaN             NaN             NaN
             NaN             NaN             NaN
             NaN             NaN             NaN
             NaN             NaN             NaN
             NaN             NaN             NaN
             NaN             NaN             NaN
             NaN             NaN             NaN
             NaN             NaN             NaN
             NaN             NaN             NaN
             NaN             NaN             NaN
             NaN             NaN             NaN
             NaN             NaN             NaN
             NaN             NaN             NaN
             NaN             NaN             NaN
