Ca4 Mn4 P6 O24
1.0
2.659538 7.931786 4.553342
-0.075327 0.348840 8.715585
7.706625 0.320936 4.212383
Ca Mn P O
4 4 6 24
direct
0.286997 0.810772 0.603879 Ca
0.915816 0.988987 0.073985 Ca
0.382833 0.732053 0.096043 Ca
0.130885 0.403892 0.763377 Ca
0.648895 0.650646 0.626078 Mn
0.170473 0.140755 0.166629 Mn
0.827123 0.876180 0.829524 Mn
0.333997 0.330108 0.364903 Mn
0.250468 0.541822 0.963775 P
0.035627 0.766582 0.437037 P
0.960937 0.243807 0.582116 P
0.449363 0.047766 0.733815 P
0.542493 0.920508 0.252470 P
0.750858 0.482008 0.003423 P
0.566798 0.749025 0.422307 O
0.279951 0.074417 0.910509 O
0.384941 0.555829 0.768617 O
0.892753 0.287510 -0.003138 O
0.797369 0.416338 0.571090 O
0.083163 0.917411 0.248633 O
0.919395 0.079080 0.760438 O
0.608528 0.491384 0.190963 O
0.713753 0.904669 0.086044 O
0.203445 0.585367 0.423557 O
0.112658 0.741530 0.953424 O
0.417511 0.233327 0.580580 O
0.174647 0.398032 0.012721 O
0.871996 0.753866 0.461031 O
0.046920 0.168485 0.416684 O
0.459215 0.884672 0.694623 O
0.396118 0.924028 0.217913 O
0.649716 0.559146 0.870620 O
0.321569 0.487235 0.112557 O
1.021265 0.806763 0.600794 O
0.104029 0.275026 0.590066 O
0.607525 -0.006707 0.774585 O
0.487677 0.098414 0.295408 O
0.857465 0.608795 0.924306 O
