Ca8 Cr12 F42                            
   1.00000000000000     
     7.3780229999999998   -0.0248750000000000   -0.5141110000000000
    -3.5986340000000001    6.7227829999999997    0.1680590000000000
     0.9295909999999999    0.0438220000000000   18.6089359999999999
   Ca   Cr   F 
     8    12    42
Direct
  0.7510743758236528  0.9083263719813023  0.8251002935715713
  0.8467757850565125  0.5163344619218584  0.3136248203069967
  0.5698010205085619  0.0705175044646651 -0.0045879515586014
  0.0445802480543487  0.8544927079829079  0.6663871193117713
  0.8412946463857677  0.0109214372688467  0.3450135909056681
  0.0900218700615599  0.5761593756164102  0.9790501670213078
  0.9895529386782148  0.8507218625537916  0.1517944828547608
  0.2778180807160808  0.2515318296239482  0.5033431614330419
  0.3473998483060655  0.0151157993235649  0.3436805014442512
  1.0056893138359162  0.3134245770660079  0.6619841963468135
  0.6144247533403420  0.5959900791301530  0.9950842041374109
  0.3026171500078352  0.9607131225650098  0.8309334071264309
  0.9343730640111539  0.3052375933813377  0.1589118908308734
  0.7338339674464424  0.7176665907204879  0.5001497646986530
  0.4425920092854883  0.8060818218758239  0.1728703778252155
  0.2160172344873553  0.7175394364294880  0.4976838276252100
  0.3028690262305418  0.4530113547428010  0.8275147858118478
  0.8060283722937641  0.4544396866231617  0.8153163726248321
  0.7452256798815605  0.2226277080161411  0.4985806890064362
  0.4450418210778378  0.3164103282631021  0.1688762169687050
  0.7547986112205466  0.1878761839348906  0.6005269156921340
  0.7797295149579828  0.4837337976918101  0.9209161315588281
  0.5000553202776008  0.2706017869051082  0.2932000410653768
  0.1783366832306982  0.7392248586564453  0.3869246575713700
  0.3669686226923964  0.7683735185529788  0.0485150681838244
  0.2489334888685131  0.4365173526807918  0.7244848637887809
  0.7092498438148301  0.8672386105740292  0.9513027421383721
  0.9327472541071271  0.8327175748122676  0.2684859133764414
  0.1448692841117589  0.1703687950844097  0.6116361954652620
  0.8930095236062517  0.6966790393092397  0.0450649898601898
  0.8905242486915363  1.0222407786625112  0.7244429065905145
  0.1776445670266812  0.1276527534778747  0.3872826281209591
  0.5121905934225274  0.3254447926192532  0.0356878870446425
  0.7686489464197546  0.2663400032611760  0.3935604123047005
  0.8893394389818823  0.4745925908112756  0.7126709184499709
  0.3489805017441953  0.5006101469449640  0.9388447761107024
  0.1915536693009956  0.6986313306974072  0.6013521090140717
  0.5211254699184745  0.9158681572934455  0.3002270872399522
  0.7548306619939735  0.4350656668707152  0.1783526000277135
  0.6475634538533964  0.4261402326970657  0.5133903516441914
  0.6036097726243679  0.1079920287069909  0.8653745177420089
  0.3849324142069740  0.7427960095062051  0.8236955994357860
  0.4266314458610337  0.6114592654737729  0.4906700797235983
  0.1459134545019326  0.6664565334296243  0.1944623940830018
  0.9419033979252712  0.2812242975871066  0.2651580442389435
  0.7473579260946951  0.7461722417548499  0.6013210024993891
  0.2504746497631609  0.8961376319457843  0.9340756078328140
  0.3492140805450135  0.0079290492876076  0.7316153728519169
  0.7450715388300300  0.6840990896988017  0.3940807858206498
  0.8988780807009901  0.3018915757238548  0.0501296145198657
  0.1398640925766659  0.2008820065201863  0.1502718674272698
  0.7905401029573162  0.9928406626589712  0.4706444033746872
  0.0055069504456933  0.7956595200092627  0.8066089152967605
  0.2318126669439625  0.1763517490229722  0.8449075032758644
  0.0435451627040029  0.8537286025393539  0.5071684491853046
  0.7337602509625093  0.9480326070766161  0.1417539812734810
  0.0121743245790789  0.3763682463099938  0.8544288901204024
  0.4919239794237786  0.5812811810571979  0.1967585775136270
  0.4441516855163692  0.0518021364249550  0.4869786314748767
  0.3789532056010458  0.0333881250300767  0.1479413598164823
  0.6050803819649265  0.5608681471929241  0.8038609475141117
  0.0459335792789891  0.3763220002785814  0.4993862525689522
 
             NaN             NaN             NaN
             NaN             NaN             NaN
             NaN             NaN             NaN
             NaN             NaN             NaN
             NaN             NaN             NaN
             NaN             NaN             NaN
             NaN             NaN             NaN
             NaN             NaN             NaN
             NaN             NaN             NaN
             NaN             NaN             NaN
             NaN             NaN             NaN
             NaN             NaN             NaN
             NaN             NaN             NaN
             NaN             NaN             NaN
             NaN             NaN             NaN
             NaN             NaN             NaN
             NaN             NaN             NaN
             NaN             NaN             NaN
             NaN             NaN             NaN
             NaN             NaN             NaN
             NaN             NaN             NaN
             NaN             NaN             NaN
             NaN             NaN             NaN
             NaN             NaN             NaN
             NaN             NaN             NaN
             NaN             NaN             NaN
             NaN             NaN             NaN
             NaN             NaN             NaN
             NaN             NaN             NaN
             NaN             NaN             NaN
             NaN             NaN             NaN
             NaN             NaN             NaN
             NaN             NaN             NaN
             NaN             NaN             NaN
             NaN             NaN             NaN
             NaN             NaN             NaN
             NaN             NaN             NaN
             NaN             NaN             NaN
             NaN             NaN             NaN
             NaN             NaN             NaN
             NaN             NaN             NaN
             NaN             NaN             NaN
             NaN             NaN             NaN
             NaN             NaN             NaN
             NaN             NaN             NaN
             NaN             NaN             NaN
             NaN             NaN             NaN
             NaN             NaN             NaN
             NaN             NaN             NaN
             NaN             NaN             NaN
             NaN             NaN             NaN
             NaN             NaN             NaN
             NaN             NaN             NaN
             NaN             NaN             NaN
             NaN             NaN             NaN
             NaN             NaN             NaN
             NaN             NaN             NaN
             NaN             NaN             NaN
             NaN             NaN             NaN
             NaN             NaN             NaN
             NaN             NaN             NaN
             NaN             NaN             NaN
