Ca8 Cr12 F42
1.0
7.378023 -0.024875 -0.514111
-3.598634 6.722783 0.168059
0.929591 0.043822 18.608936
Ca Cr F
8 12 42
direct
0.733659 0.880813 0.800018 Ca
0.840056 0.514611 0.314903 Ca
0.571164 0.070776 0.001912 Ca
0.048302 0.855635 0.670344 Ca
0.836376 0.009458 0.345522 Ca
0.099891 0.575352 0.978924 Ca
0.994556 0.854826 0.153355 Ca
0.259105 0.238681 0.503097 Ca
0.339970 0.008727 0.342086 Cr
0.983420 0.283758 0.665391 Cr
0.630916 0.613351 0.996711 Cr
0.321010 0.975430 0.832978 Cr
0.942747 0.311371 0.160305 Cr
0.725182 0.707559 0.501566 Cr
0.450154 0.810814 0.172982 Cr
0.212041 0.710530 0.498289 Cr
0.314053 0.460947 0.826673 Cr
0.809473 0.456003 0.817803 Cr
0.731812 0.210844 0.499961 Cr
0.453626 0.322078 0.167628 Cr
0.733275 0.154413 0.601784 F
0.818620 0.556028 0.916342 F
0.495277 0.264093 0.291359 F
0.167510 0.731246 0.383732 F
0.371959 0.755065 0.051365 F
0.234635 0.433117 0.724341 F
0.725972 0.890814 0.960963 F
0.929579 0.832702 0.269583 F
0.132168 0.157836 0.612513 F
0.905413 0.702310 0.047633 F
0.877595 -0.002961 0.728653 F
0.173436 0.124901 0.386390 F
0.526752 0.339372 0.033546 F
0.762257 0.264148 0.395304 F
0.851840 0.423089 0.715185 F
0.373552 0.518676 0.935640 F
0.207076 0.718370 0.605568 F
0.518025 0.913337 0.299091 F
0.762749 0.441822 0.179065 F
0.625048 0.403927 0.515762 F
0.601012 0.168186 0.873905 F
0.442465 0.796085 0.819464 F
0.417588 0.600963 0.492341 F
0.155226 0.677362 0.195586 F
0.941998 0.283158 0.266727 F
0.743397 0.736751 0.604114 F
0.270044 0.889288 0.933986 F
0.359164 0.048607 0.735002 F
0.733941 0.679916 0.394947 F
0.906043 0.307847 0.051669 F
0.147156 0.204108 0.152065 F
0.800887 0.999340 0.471823 F
0.041032 0.766431 0.798100 F
0.185983 0.137522 0.851899 F
0.032021 0.837780 0.507342 F
0.740216 0.952062 0.141763 F
0.031848 0.403046 0.859446 F
0.495499 0.583695 0.198800 F
0.429642 0.031473 0.483966 F
0.395722 0.041919 0.140900 F
0.604955 0.549766 0.797858 F
0.034439 0.382177 0.506518 F
