Ca9 Cr12 F42                            
   1.00000000000000     
     7.4706479999999997    0.0691680000000000   -0.5025710000000000
    -3.5560659999999999    6.6133600000000001    0.2118230000000000
     0.9779820000000000    0.1955570000000000   18.7366509999999984
   Ca   Cr   F 
     9    12    42
Direct
  0.7738733787490233  0.4925976607921427  0.3176122910590564
  0.5280972395458861  0.8544237556102203  0.6806139117539942
  0.5781430475507747  0.0781069318604537  0.0077609878342813
  0.0141340231093352  0.8271152267000801  0.6613545632293309
  0.8293801143044917  0.0131250759580226  0.3494823213714682
  0.1034556175121537  0.5942018337042043  0.9794227223014076
  0.9646928839885334  0.8354851631896523  0.1573947919215115
  0.8415371401615346  0.9018737596029140  0.8451537033699026
  0.2256843926372127  0.2103542903426714  0.5012552434991804
  0.3171941992308049  0.9723892455889285  0.3433798081067323
  0.0153723818672731  0.3230993251789087  0.6571923133429394
  0.6310835686906842  0.6217306908405646  0.9967209080787001
  0.3401305169146056  0.9831118208185927  0.8280764361095052
  0.9348253288401125  0.3100875966987573  0.1619369586133246
  0.6962277986448981  0.6876317356118236  0.5072033431707439
  0.4396117535333417  0.8028243815847844  0.1716900498646012
  0.2089808205968353  0.7060343978282972  0.4972962782160764
  0.3179043745305776  0.4712669537284029  0.8259770554928139
  0.8132841796769696  0.4543634540414274  0.8219059487893148
  0.7180480424483591  0.2039583120226069  0.5060956972146258
  0.4395068311874937  0.3105852420601991  0.1654185029358715
  0.7444301137836362  0.1333040002939541  0.6089918121471669
  0.8746603020177162  0.6589013270862552  0.9154874267542539
  0.4651990120231844  0.2225163822469085  0.2853064908880967
  0.1376766124367066  0.6983613275204092  0.3893186699266877
  0.3770848519933949  0.7418259147873769  0.0489652231781719
  0.2589642181478240  0.4948401385240260  0.7211890865878132
  0.7301272955054756  0.9056874592556312  0.9596539733760565
  0.8898518930846819  0.8113245260230713  0.2710761164864692
  0.1416439168274763  0.1622309381810041  0.6193340051866016
  0.8974360131679617  0.7036114149817436  0.0501116376049211
  0.8497478750608778  0.9785886958970025  0.7278353549602272
  0.1605350135165864  0.1038522605514345  0.3814523080754881
  0.5265200500856153  0.3464513300560483  0.0325840456549571
  0.7248168591833704  0.2644539703856879  0.4012686906427092
  0.8906847869604135  0.4864346251197205  0.6824599704280274
  0.3826660440170855  0.5263467683654426  0.9318806868748126
  0.2713327103396921  0.7682989377070513  0.6029828753436206
  0.5061367102924805  0.8808051935239405  0.3094583726422542
  0.7471732808778953  0.4394068184910154  0.1774143790607496
  0.5682662095012461  0.3457945774552584  0.5333224128138099
  0.6603928407965540  0.2237034574047811  0.8868806935015385
  0.5137552803203533  0.8498903821462065  0.8104498129508215
  0.4065277519658395  0.5613616140743574  0.4794757321218910
  0.1476500147917861  0.6759209678949389  0.1901183625416536
  0.9150504743294476  0.2773200505420306  0.2677808343580992
  0.6710091555025244  0.7131284244701206  0.6124046292924064
  0.3070400338595505  0.9083864564894029  0.9315028432773858
  0.3422045361110335  0.0065300052249953  0.7230286855064634
  0.7432145441337354  0.6929863595501473  0.4023837343221075
  0.9118412816795072  0.3177593405107331  0.0531221419363916
  0.1340078066146049  0.1887707417343947  0.1550996280016506
  0.8675871418729386  0.0622845295394825  0.4717999049921104
  0.9951214555326047  0.7343577420436205  0.7852219682106067
  0.1766720440970104  0.1252784693507323  0.8429182389024845
  0.9902100780337832  0.8170628860077045  0.5327151370920689
  0.7249290711732073  0.9410829074787799  0.1398433409647168
  0.0502111131554557  0.4286254072607250  0.8604743835004385
  0.4698056107964561  0.5653961080068228  0.2031255565599110
  0.3765919881051687  0.9922180562975811  0.4754213204802582
  0.4097351809062673  0.0435992210078169  0.1316720956439354
  0.5966600963289466  0.5320493815399487  0.8004968685310487
  0.0480551253673056  0.4233791791902703  0.5280833524168926
 
             NaN             NaN             NaN
             NaN             NaN             NaN
             NaN             NaN             NaN
             NaN             NaN             NaN
             NaN             NaN             NaN
             NaN             NaN             NaN
             NaN             NaN             NaN
             NaN             NaN             NaN
             NaN             NaN             NaN
             NaN             NaN             NaN
             NaN             NaN             NaN
             NaN             NaN             NaN
             NaN             NaN             NaN
             NaN             NaN             NaN
             NaN             NaN             NaN
             NaN             NaN             NaN
             NaN             NaN             NaN
             NaN             NaN             NaN
             NaN             NaN             NaN
             NaN             NaN             NaN
             NaN             NaN             NaN
             NaN             NaN             NaN
             NaN             NaN             NaN
             NaN             NaN             NaN
             NaN             NaN             NaN
             NaN             NaN             NaN
             NaN             NaN             NaN
             NaN             NaN             NaN
             NaN             NaN             NaN
             NaN             NaN             NaN
             NaN             NaN             NaN
             NaN             NaN             NaN
             NaN             NaN             NaN
             NaN             NaN             NaN
             NaN             NaN             NaN
             NaN             NaN             NaN
             NaN             NaN             NaN
             NaN             NaN             NaN
             NaN             NaN             NaN
             NaN             NaN             NaN
             NaN             NaN             NaN
             NaN             NaN             NaN
             NaN             NaN             NaN
             NaN             NaN             NaN
             NaN             NaN             NaN
             NaN             NaN             NaN
             NaN             NaN             NaN
             NaN             NaN             NaN
             NaN             NaN             NaN
             NaN             NaN             NaN
             NaN             NaN             NaN
             NaN             NaN             NaN
             NaN             NaN             NaN
             NaN             NaN             NaN
             NaN             NaN             NaN
             NaN             NaN             NaN
             NaN             NaN             NaN
             NaN             NaN             NaN
             NaN             NaN             NaN
             NaN             NaN             NaN
             NaN             NaN             NaN
             NaN             NaN             NaN
             NaN             NaN             NaN
