Ca9 Cr12 F42                            
   1.00000000000000     
     7.4706479999999997    0.0691680000000000   -0.5025710000000000
    -3.5560659999999999    6.6133600000000001    0.2118230000000000
     0.9779820000000000    0.1955570000000000   18.7366509999999984
   Ca   Cr   F 
     9    12    42
Direct
  0.7738733787490251  0.4925976607921462  0.3176122910590546
  0.5280972395458895  0.8544237556102172  0.6806139117539953
  0.5781430475507755  0.0781069318604545  0.0077609878342816
  0.0141340231093328  0.8271152267000803  0.6613545632293300
  0.8293801143044927  0.0131250759580234  0.3494823213714714
  0.1034556175121541  0.5942018337042071  0.9794227223014078
  0.9646928839885363  0.8354851631896489  0.1573947919215095
  0.8415371401615341  0.9018737596029113  0.8451537033699033
  0.2256843926372142  0.2103542903426717  0.5012552434991832
  0.3171941992308064  0.9723892455889267  0.3433798081067326
  0.0153723818672737  0.3230993251789064  0.6571923133429364
  0.6310835686906807  0.6217306908405650  0.9967209080786977
  0.3401305169146030  0.9831118208185941  0.8280764361095022
  0.9348253288401119  0.3100875966987575  0.1619369586133264
  0.6962277986449005  0.6876317356118260  0.5072033431707454
  0.4396117535333435  0.8028243815847838  0.1716900498645982
  0.2089808205968346  0.7060343978282971  0.4972962782160734
  0.3179043745305746  0.4712669537284032  0.8259770554928144
  0.8132841796769692  0.4543634540414292  0.8219059487893170
  0.7180480424483616  0.2039583120226056  0.5060956972146269
  0.4395068311874963  0.3105852420601969  0.1654185029358735
  0.7444301137836397  0.1333040002939573  0.6089918121471701
  0.8746603020177186  0.6589013270862555  0.9154874267542521
  0.4651990120231859  0.2225163822469093  0.2853064908880958
  0.1376766124367060  0.6983613275204091  0.3893186699266870
  0.3770848519933981  0.7418259147873776  0.0489652231781727
  0.2589642181478243  0.4948401385240237  0.7211890865878140
  0.7301272955054727  0.9056874592556280  0.9596539733760576
  0.8898518930846839  0.8113245260230707  0.2710761164864707
  0.1416439168274787  0.1622309381810025  0.6193340051866013
  0.8974360131679616  0.7036114149817447  0.0501116376049206
  0.8497478750608807  0.9785886958970059  0.7278353549602266
  0.1605350135165872  0.1038522605514354  0.3814523080754882
  0.5265200500856131  0.3464513300560516  0.0325840456549590
  0.7248168591833670  0.2644539703856871  0.4012686906427091
  0.8906847869604149  0.4864346251197224  0.6824599704280265
  0.3826660440170876  0.5263467683654446  0.9318806868748147
  0.2713327103396890  0.7682989377070542  0.6029828753436194
  0.5061367102924840  0.8808051935239398  0.3094583726422550
  0.7471732808778982  0.4394068184910142  0.1774143790607527
  0.5682662095012428  0.3457945774552554  0.5333224128138083
  0.6603928407965508  0.2237034574047820  0.8868806935015365
  0.5137552803203510  0.8498903821462035  0.8104498129508233
  0.4065277519658420  0.5613616140743561  0.4794757321218920
  0.1476500147917855  0.6759209678949414  0.1901183625416503
  0.9150504743294458  0.2773200505420301  0.2677808343580988
  0.6710091555025240  0.7131284244701191  0.6124046292924055
  0.3070400338595505  0.9083864564894034  0.9315028432773865
  0.3422045361110366  0.0065300052249962  0.7230286855064612
  0.7432145441337327  0.6929863595501446  0.4023837343221047
  0.9118412816795090  0.3177593405107352  0.0531221419363950
  0.1340078066146084  0.1887707417343912  0.1550996280016483
  0.8675871418729386  0.0622845295394808  0.4717999049921097
 -0.0048785444673967  0.7343577420436198  0.7852219682106072
  0.1766720440970102  0.1252784693507324  0.8429182389024874
  0.9902100780337844  0.8170628860077067  0.5327151370920683
  0.7249290711732054  0.9410829074787767  0.1398433409647176
  0.0502111131554550  0.4286254072607281  0.8604743835004374
  0.4698056107964588  0.5653961080068231  0.2031255565599102
  0.3765919881051691  0.9922180562975838  0.4754213204802581
  0.4097351809062666  0.0435992210078177  0.1316720956439329
  0.5966600963289449  0.5320493815399521  0.8004968685310505
  0.0480551253673044  0.4233791791902715  0.5280833524168923
 
             NaN             NaN             NaN
             NaN             NaN             NaN
             NaN             NaN             NaN
             NaN             NaN             NaN
             NaN             NaN             NaN
             NaN             NaN             NaN
             NaN             NaN             NaN
             NaN             NaN             NaN
             NaN             NaN             NaN
             NaN             NaN             NaN
             NaN             NaN             NaN
             NaN             NaN             NaN
             NaN             NaN             NaN
             NaN             NaN             NaN
             NaN             NaN             NaN
             NaN             NaN             NaN
             NaN             NaN             NaN
             NaN             NaN             NaN
             NaN             NaN             NaN
             NaN             NaN             NaN
             NaN             NaN             NaN
             NaN             NaN             NaN
             NaN             NaN             NaN
             NaN             NaN             NaN
             NaN             NaN             NaN
             NaN             NaN             NaN
             NaN             NaN             NaN
             NaN             NaN             NaN
             NaN             NaN             NaN
             NaN             NaN             NaN
             NaN             NaN             NaN
             NaN             NaN             NaN
             NaN             NaN             NaN
             NaN             NaN             NaN
             NaN             NaN             NaN
             NaN             NaN             NaN
             NaN             NaN             NaN
             NaN             NaN             NaN
             NaN             NaN             NaN
             NaN             NaN             NaN
             NaN             NaN             NaN
             NaN             NaN             NaN
             NaN             NaN             NaN
             NaN             NaN             NaN
             NaN             NaN             NaN
             NaN             NaN             NaN
             NaN             NaN             NaN
             NaN             NaN             NaN
             NaN             NaN             NaN
             NaN             NaN             NaN
             NaN             NaN             NaN
             NaN             NaN             NaN
             NaN             NaN             NaN
             NaN             NaN             NaN
             NaN             NaN             NaN
             NaN             NaN             NaN
             NaN             NaN             NaN
             NaN             NaN             NaN
             NaN             NaN             NaN
             NaN             NaN             NaN
             NaN             NaN             NaN
             NaN             NaN             NaN
             NaN             NaN             NaN
