V32 P32 O160
1.0
12.414699 0.000001 0.000001
0.000001 14.480869 -0.000217
0.000002 -0.000251 15.830505
Li V P O
1  32 32 160
direct
0.750000 0.750000 0.250000 Li
0.125000 0.111839 0.339021 V
0.125000 0.111839 0.839021 V
0.125000 0.611839 0.339021 V
0.125000 0.611839 0.839021 V
0.625000 0.111839 0.339021 V
0.625000 0.111839 0.839021 V
0.625000 0.611839 0.339021 V
0.625000 0.611839 0.839021 V
0.125000 0.138162 0.089020 V
0.125000 0.138162 0.589020 V
0.125000 0.638162 0.089020 V
0.125000 0.638162 0.589020 V
0.625000 0.138162 0.089020 V
0.625000 0.138162 0.589020 V
0.625000 0.638162 0.089020 V
0.625000 0.638162 0.589020 V
0.375000 0.388162 0.160980 V
0.375000 0.388162 0.660980 V
0.375000 0.888162 0.160980 V
0.375000 0.888162 0.660980 V
0.875000 0.388162 0.160980 V
0.875000 0.388162 0.660980 V
0.875000 0.888162 0.160980 V
0.875000 0.888162 0.660980 V
0.375000 0.361839 0.410979 V
0.375000 0.361839 0.910979 V
0.375000 0.861839 0.410979 V
0.375000 0.861839 0.910979 V
0.875000 0.361839 0.410979 V
0.875000 0.361839 0.910979 V
0.875000 0.861839 0.410979 V
0.875000 0.861839 0.910979 V
0.125000 0.304286 0.439085 P
0.125000 0.304286 0.939085 P
0.125000 0.804286 0.439085 P
0.125000 0.804286 0.939085 P
0.625000 0.304286 0.439085 P
0.625000 0.304286 0.939085 P
0.625000 0.804286 0.439085 P
0.625000 0.804286 0.939085 P
0.125000 0.445708 0.189077 P
0.125000 0.445708 0.689077 P
0.125000 0.945708 0.189077 P
0.125000 0.945708 0.689077 P
0.625000 0.445708 0.189077 P
0.625000 0.445708 0.689077 P
0.625000 0.945708 0.189077 P
0.625000 0.945708 0.689077 P
0.375000 0.195715 0.060919 P
0.375000 0.195715 0.560919 P
0.375000 0.695715 0.060919 P
0.375000 0.695715 0.560919 P
0.875000 0.195715 0.060919 P
0.875000 0.195715 0.560919 P
0.875000 0.695715 0.060919 P
0.875000 0.695715 0.560919 P
0.375000 0.054291 0.310920 P
0.375000 0.054291 0.810920 P
0.375000 0.554291 0.310920 P
0.375000 0.554291 0.810920 P
0.875000 0.054291 0.310920 P
0.875000 0.054291 0.810920 P
0.875000 0.554291 0.310920 P
0.875000 0.554291 0.810920 P
0.125000 0.499865 0.272503 O
0.125000 0.499865 0.772503 O
0.125000 0.999865 0.272503 O
0.125000 0.999865 0.772503 O
0.625000 0.499865 0.272503 O
0.625000 0.499865 0.772503 O
0.625000 0.999865 0.272503 O
0.625000 0.999865 0.772503 O
0.125000 0.250139 0.022508 O
0.125000 0.250139 0.522508 O
0.125000 0.750139 0.022508 O
0.125000 0.750139 0.522508 O
0.625000 0.250139 0.022508 O
0.625000 0.250139 0.522508 O
0.625000 0.750139 0.022508 O
0.625000 0.750139 0.522508 O
0.375000 0.000134 0.227496 O
0.375000 0.000134 0.727496 O
0.375000 0.500134 0.227496 O
0.375000 0.500134 0.727496 O
0.875000 0.000134 0.227496 O
0.875000 0.000134 0.727496 O
0.875000 0.500134 0.227496 O
0.875000 0.500134 0.727496 O
0.375000 0.249864 0.477494 O
0.375000 0.249864 0.977494 O
0.375000 0.749864 0.477494 O
0.375000 0.749864 0.977494 O
0.875000 0.249864 0.477494 O
0.875000 0.249864 0.977494 O
0.875000 0.749864 0.477494 O
0.875000 0.749864 0.977494 O
0.275435 0.117512 0.315989 O
0.275435 0.117512 0.815989 O
0.275435 0.617512 0.315989 O
0.275435 0.617512 0.815989 O
0.775435 0.117512 0.315989 O
0.775435 0.117512 0.815989 O
0.775435 0.617512 0.315989 O
0.775435 0.617512 0.815989 O
0.474564 0.132491 0.065984 O
0.474564 0.132491 0.565984 O
0.474564 0.632491 0.065984 O
0.474564 0.632491 0.565984 O
0.974564 0.132491 0.065984 O
0.974564 0.132491 0.565984 O
0.974564 0.632491 0.065984 O
0.974564 0.632491 0.565984 O
0.025436 0.382487 0.184010 O
0.025436 0.382487 0.684010 O
0.025436 0.882487 0.184010 O
0.025436 0.882487 0.684010 O
0.525436 0.382487 0.184010 O
0.525436 0.382487 0.684010 O
0.525436 0.882487 0.184010 O
0.525436 0.882487 0.684010 O
0.224564 0.367512 0.434013 O
0.224564 0.367512 0.934013 O
0.224564 0.867512 0.434013 O
0.224564 0.867512 0.934013 O
0.724564 0.367512 0.434013 O
0.724564 0.367512 0.934013 O
0.724564 0.867512 0.434013 O
0.724564 0.867512 0.934013 O
0.224564 0.382487 0.184010 O
0.224564 0.382487 0.684010 O
0.224564 0.882487 0.184010 O
0.224564 0.882487 0.684010 O
0.724564 0.382487 0.184010 O
0.724564 0.382487 0.684010 O
0.724564 0.882487 0.184010 O
0.724564 0.882487 0.684010 O
0.025436 0.367512 0.434013 O
0.025436 0.367512 0.934013 O
0.025436 0.867512 0.434013 O
0.025436 0.867512 0.934013 O
0.525436 0.367512 0.434013 O
0.525436 0.367512 0.934013 O
0.525436 0.867512 0.434013 O
0.525436 0.867512 0.934013 O
0.474564 0.117513 0.315989 O
0.474564 0.117513 0.815989 O
0.474564 0.617513 0.315989 O
0.474564 0.617513 0.815989 O
0.974564 0.117513 0.315989 O
0.974564 0.117513 0.815989 O
0.974564 0.617513 0.315989 O
0.974564 0.617513 0.815989 O
0.275436 0.132491 0.065984 O
0.275436 0.132491 0.565984 O
0.275436 0.632491 0.065984 O
0.275436 0.632491 0.565984 O
0.775436 0.132491 0.065984 O
0.775436 0.132491 0.565984 O
0.775436 0.632491 0.065984 O
0.775436 0.632491 0.565984 O
0.125000 0.237265 0.361418 O
0.125000 0.237265 0.861418 O
0.125000 0.737265 0.361418 O
0.125000 0.737265 0.861418 O
0.625000 0.237265 0.361418 O
0.625000 0.237265 0.861418 O
0.625000 0.737265 0.361418 O
0.625000 0.737265 0.861418 O
0.125000 0.012739 0.111412 O
0.125000 0.012739 0.611412 O
0.125000 0.512739 0.111412 O
0.125000 0.512739 0.611412 O
0.625000 0.012739 0.111412 O
0.625000 0.012739 0.611412 O
0.625000 0.512739 0.111412 O
0.625000 0.512739 0.611412 O
0.375000 0.262734 0.138584 O
0.375000 0.262734 0.638584 O
0.375000 0.762734 0.138584 O
0.375000 0.762734 0.638584 O
0.875000 0.262734 0.138584 O
0.875000 0.262734 0.638584 O
0.875000 0.762734 0.138584 O
0.875000 0.762734 0.638584 O
0.375000 0.487261 0.388588 O
0.375000 0.487261 0.888588 O
0.375000 0.987261 0.388588 O
0.375000 0.987261 0.888588 O
0.875000 0.487261 0.388588 O
0.875000 0.487261 0.888588 O
0.875000 0.987261 0.388588 O
0.875000 0.987261 0.888588 O
0.125000 0.071436 0.432337 O
0.125000 0.071436 0.932337 O
0.125000 0.571436 0.432337 O
0.125000 0.571436 0.932337 O
0.625000 0.071436 0.432337 O
0.625000 0.071436 0.932337 O
0.625000 0.571436 0.432337 O
0.625000 0.571436 0.932337 O
0.125000 0.178563 0.182335 O
0.125000 0.178563 0.682335 O
0.125000 0.678563 0.182335 O
0.125000 0.678563 0.682335 O
0.625000 0.178563 0.182335 O
0.625000 0.178563 0.682335 O
0.625000 0.678563 0.182335 O
0.625000 0.678563 0.682335 O
0.375000 0.428561 0.067664 O
0.375000 0.428561 0.567664 O
0.375000 0.928561 0.067664 O
0.375000 0.928561 0.567664 O
0.875000 0.428561 0.067664 O
0.875000 0.428561 0.567664 O
0.875000 0.928561 0.067664 O
0.875000 0.928561 0.567664 O
0.375000 0.321435 0.317665 O
0.375000 0.321435 0.817665 O
0.375000 0.821435 0.317665 O
0.375000 0.821435 0.817665 O
0.875000 0.321435 0.317665 O
0.875000 0.321435 0.817665 O
0.875000 0.821435 0.317665 O
0.875000 0.821435 0.817665 O
