Na32 Fe16 Si16 O64                      
   1.00000000000000     
    -0.0007059136546776   10.6357408226854293    0.0703769560702036
    11.4962689580160955   -0.0007666520438415    0.0040681693881937
    -0.0040042767223516  -10.6872605565200480  -13.5113459039441164
   Na   Fe   Si   O 
    31    16    16    64
Direct
  0.2496781234401597  0.8267131246693927  0.5006334863786105
  0.1240547277527359  0.0908554677352647  0.3743125004271775
  0.1240473852592187  0.0908428540937249  0.8743046003253689
  0.1240538633325683  0.5908503747535720  0.3743103623418041
  0.1240537116551551  0.5908474378219692  0.8743095712143987
  0.6240589778752038  0.0908501243914137  0.3743118820646634
  0.6240381390620598  0.0908483783445644  0.8743034954074616
  0.6240493215923328  0.5908456075154328  0.3743070794399689
  0.1240448834527751  0.4091546985500979  0.1243065267625180
  0.1240497764287400  0.4091520719022809  0.6243070977607243
  0.1240493684692224  0.9091573618952218  0.1243072100249493
  0.1240484857564913  0.9091534455482460  0.6243041178450874
  0.6240514787387657  0.4091519330487571  0.1243059466438471
  0.6240556596531960  0.4091510365171506  0.6243110524964685
  0.6240539042283769  0.9091549723380967  0.1243033231653750
  0.6240469300108622  0.9091533524572842  0.6243084931852187
  0.2496598806766774  0.1732921866931939  0.2506258887899599
  0.2496881306111678  0.1732912611525218  0.7506374167475380
  0.2496733048735628  0.6732922335696175  0.2506308503125858
  0.2496793500066711  0.6732886132180934  0.7506335652503801
  0.7496746518766521  0.1732961784287776  0.2506330000220434
  0.7496732164238441  0.1732929671447830  0.7506304145770922
  0.7496839880821580  0.6732931929676806  0.2506354446674960
  0.7496827944174361  0.6732954581068834  0.7506335847740240
  0.2496890875517782  0.3267062042395941  0.0006362131864793
  0.2496772636987307  0.3267120296435051  0.5006327741384425
  0.2496839285995374  0.8267054259923262  0.0006355008301062
  0.7496715387154794  0.3267188687187282  0.0006320104996009
  0.7496835348972594  0.3267043298091864  0.5006345559182913
  0.7496717652734171  0.8267189357205796  0.0006327776769319
  0.7496886574577778  0.8267041647409451  0.5006357720879225
  0.3758728978826635  0.4161951336813811  0.3775788184570617
  0.3758676854746689  0.4161990922724483  0.8775743062522728
  0.3758746180329607  0.9161895021092997  0.3775814294399641
  0.3758843531039044  0.9162057434853951  0.8775858795426527
  0.8758728524685798  0.4161990544573289  0.3775796486933503
  0.8758768755600295  0.4161906293333482  0.8775875216805834
  0.8758747102188890  0.9161984133337047  0.3775766823283966
  0.8758732918774806  0.9161964498469639  0.8775829575193165
  0.3758723601244634  0.0837928069360298  0.1275825096326613
  0.3758714510206868  0.0837973990590922  0.6275671962837992
  0.3758722002140408  0.5838060151471726  0.1275805008817044
  0.3758715488713860  0.5838046208398255  0.6275764905465271
  0.8758855360485690  0.0837706589181827  0.1275869346478055
  0.8758803265885674  0.0838041854771063  0.6275940091702673
  0.8758706729646903  0.5837969210455018  0.1275710821104336
  0.8758714421397524  0.5838028559326538  0.6275759804222553
  0.0034171586223904  0.1638281478662598  0.0007046859904413
  0.0033953511413151  0.1638454892188452  0.5006937592002227
  0.0033999723862712  0.6638388637773138  0.0006996062120854
  0.0033987668649011  0.6638496281178744  0.5006978992153214
  0.5034146296491742  0.1638405816060469  0.0006943047391953
  0.5034053570051327  0.1638430404325788  0.5007007358821984
  0.5033974880571987  0.6638484281625310  0.0006959255565821
  0.5033956070210402  0.6638411501235961  0.5006954907566433
  0.0034015765403328  0.3361321754591513  0.2507016979458625
  0.0033871189958839  0.3361595376404481  0.7506921936851222
  0.0034071241932982  0.8361380701248488  0.2506985062389622
  0.0033943001283009  0.8361548806426287  0.7506926520874105
  0.5033975063913926  0.3361477771248960  0.2506975864904943
  0.5033957245023868  0.3361414594338658  0.7506999099871654
  0.5033962215753263  0.8361541662735114  0.2506938650242442
  0.5033994730344927  0.8361514141192520  0.7506968712345916
  0.4519421161866952  0.2997893609564032 -0.0002098512094875
  0.4519373667027540  0.2998035781130155  0.4997879623001816
  0.4519470278851367  0.7997851517489795 -0.0002089047483336
  0.4519412651949326  0.7998061130312732  0.4997846799632030
  0.9519429501252978  0.2998096452648111 -0.0002186303311393
  0.9519423802899215  0.2997935999574308  0.4997885147297617
  0.9519396656102289  0.7998008243333145 -0.0002153811961338
  0.9519390345357330  0.7997935320622203  0.4997912512542615
  0.4519361075192646  0.2002172873321670  0.2497861807017019
  0.4519378881864309  0.2002147148124741  0.7497951668947963
  0.4519333255444493  0.7001985336193978  0.2497824002862168
  0.4519380871545282  0.7002020140239175  0.7497862518157686
  0.9519459334999806  0.2002452109410361  0.2497984846280236
  0.9519368790762318  0.2001916349931540  0.7497802987040844
  0.9519367528827242  0.7002183351424469  0.2497919462318287
  0.9519369845367932  0.7002046977176667  0.7497861589240822
  0.3501083559094330  0.0963706775503599  0.3985123888701750
  0.3500864502089494  0.0963652796060847  0.8985110776667332
  0.3501070401186910  0.5963653605557169  0.3985168396327912
  0.3501044863482325  0.5963666737535047  0.8985173498407933
  0.8501016831856003  0.0963666630289672  0.3985190135789194
  0.8501046568343478  0.0963663423731268  0.8985075695240504
  0.8500976934454005  0.5963648400700418  0.3985130056684062
  0.8501104828665619  0.5963702754179818  0.8985110224182790
  0.3501080439631380  0.4036273991856885  0.1485165762811756
  0.3501029657038244  0.4036272894954349  0.6485146072733463
  0.3500974225386266  0.9036292016025754  0.1485147440350513
  0.3500962309625694  0.9036286724110191  0.6485190441373644
  0.8500948249926784  0.4036295639037892  0.1485184631705817
  0.8501024322930005  0.4036275664912987  0.6485158055356676
  0.8500728406978469  0.9036290684390029  0.1485152655079801
  0.8501031030791510  0.9036271670958087  0.6485112626306287
  0.0551935828313467  0.4060930829940233  0.3520330194428752
  0.0551898892852343  0.4061014545700612  0.8520434878306715
  0.0551946857113871  0.9060951619441771  0.3520308826310014
  0.0551853837352688  0.9061007465783021  0.8520374202682571
  0.5551852279255172  0.4060960824697284  0.3520321186126463
  0.5551987868452674  0.4060964819799994  0.8520333509054285
  0.5551886752642670  0.9060987705117773  0.3520415320355183
  0.5552005414249800  0.9060926540206684  0.8520305874771513
  0.0551933362517965  0.0939154531685762  0.1020038554269503
  0.0551822933460590  0.0939053944260166  0.6020340737470379
  0.0551911252554399  0.5939121896909340  0.1020227674731911
  0.0551898095890841  0.5939077140553619  0.6020323203938448
  0.5551797952452682  0.0939081445206067  0.1020223231000147
  0.5551897262406915  0.0939132332360804  0.6020221669865544
  0.5551817837032519  0.5939055005103202  0.1020326098919719
  0.5551891161568692  0.5939067654894721  0.6020323015643850
  0.1589114502008436  0.3387909497414461  0.2517877883143947
  0.1589095491561242  0.3387905117239011  0.7517894670065787
  0.1589133418866684  0.8387983152041436  0.2517884518371634
  0.1588936649773884  0.8387872207223366  0.7517840959337430
  0.6589047178636608  0.3387914890943643  0.2517874001694593
  0.6589126827596491  0.3387983617618638  0.7517876297343191
  0.6589049426941547  0.8387899875020565  0.2517868986167482
  0.6589165630626117  0.8387942474939443  0.7517904928998892
  0.1589037544450239  0.1612095079203427  0.5017867655088596
  0.1589028100805218  0.1612108494755163  0.0017881512149152
  0.1589109727235371  0.6612033074978921  0.5017890737276366
  0.1589150127780933  0.6612023176849265  0.0017904511136974
  0.6589104488957772  0.1612006646926167  0.5017861036409724
  0.6588758134827100  0.1612264244630786  0.0017801612464141
  0.6589093024626970  0.6612031243126397  0.5017890648092965
  0.6589039481180087  0.6612118226243425  0.0017882624373663
 
  0.00000000E+00  0.00000000E+00  0.00000000E+00
  0.00000000E+00  0.00000000E+00  0.00000000E+00
  0.00000000E+00  0.00000000E+00  0.00000000E+00
  0.00000000E+00  0.00000000E+00  0.00000000E+00
  0.00000000E+00  0.00000000E+00  0.00000000E+00
  0.00000000E+00  0.00000000E+00  0.00000000E+00
  0.00000000E+00  0.00000000E+00  0.00000000E+00
  0.00000000E+00  0.00000000E+00  0.00000000E+00
  0.00000000E+00  0.00000000E+00  0.00000000E+00
  0.00000000E+00  0.00000000E+00  0.00000000E+00
  0.00000000E+00  0.00000000E+00  0.00000000E+00
  0.00000000E+00  0.00000000E+00  0.00000000E+00
  0.00000000E+00  0.00000000E+00  0.00000000E+00
  0.00000000E+00  0.00000000E+00  0.00000000E+00
  0.00000000E+00  0.00000000E+00  0.00000000E+00
  0.00000000E+00  0.00000000E+00  0.00000000E+00
  0.00000000E+00  0.00000000E+00  0.00000000E+00
  0.00000000E+00  0.00000000E+00  0.00000000E+00
  0.00000000E+00  0.00000000E+00  0.00000000E+00
  0.00000000E+00  0.00000000E+00  0.00000000E+00
  0.00000000E+00  0.00000000E+00  0.00000000E+00
  0.00000000E+00  0.00000000E+00  0.00000000E+00
  0.00000000E+00  0.00000000E+00  0.00000000E+00
  0.00000000E+00  0.00000000E+00  0.00000000E+00
  0.00000000E+00  0.00000000E+00  0.00000000E+00
  0.00000000E+00  0.00000000E+00  0.00000000E+00
  0.00000000E+00  0.00000000E+00  0.00000000E+00
  0.00000000E+00  0.00000000E+00  0.00000000E+00
  0.00000000E+00  0.00000000E+00  0.00000000E+00
  0.00000000E+00  0.00000000E+00  0.00000000E+00
  0.00000000E+00  0.00000000E+00  0.00000000E+00
  0.00000000E+00  0.00000000E+00  0.00000000E+00
  0.00000000E+00  0.00000000E+00  0.00000000E+00
  0.00000000E+00  0.00000000E+00  0.00000000E+00
  0.00000000E+00  0.00000000E+00  0.00000000E+00
  0.00000000E+00  0.00000000E+00  0.00000000E+00
  0.00000000E+00  0.00000000E+00  0.00000000E+00
  0.00000000E+00  0.00000000E+00  0.00000000E+00
  0.00000000E+00  0.00000000E+00  0.00000000E+00
  0.00000000E+00  0.00000000E+00  0.00000000E+00
  0.00000000E+00  0.00000000E+00  0.00000000E+00
  0.00000000E+00  0.00000000E+00  0.00000000E+00
  0.00000000E+00  0.00000000E+00  0.00000000E+00
  0.00000000E+00  0.00000000E+00  0.00000000E+00
  0.00000000E+00  0.00000000E+00  0.00000000E+00
  0.00000000E+00  0.00000000E+00  0.00000000E+00
  0.00000000E+00  0.00000000E+00  0.00000000E+00
  0.00000000E+00  0.00000000E+00  0.00000000E+00
  0.00000000E+00  0.00000000E+00  0.00000000E+00
  0.00000000E+00  0.00000000E+00  0.00000000E+00
  0.00000000E+00  0.00000000E+00  0.00000000E+00
  0.00000000E+00  0.00000000E+00  0.00000000E+00
  0.00000000E+00  0.00000000E+00  0.00000000E+00
  0.00000000E+00  0.00000000E+00  0.00000000E+00
  0.00000000E+00  0.00000000E+00  0.00000000E+00
  0.00000000E+00  0.00000000E+00  0.00000000E+00
  0.00000000E+00  0.00000000E+00  0.00000000E+00
  0.00000000E+00  0.00000000E+00  0.00000000E+00
  0.00000000E+00  0.00000000E+00  0.00000000E+00
  0.00000000E+00  0.00000000E+00  0.00000000E+00
  0.00000000E+00  0.00000000E+00  0.00000000E+00
  0.00000000E+00  0.00000000E+00  0.00000000E+00
  0.00000000E+00  0.00000000E+00  0.00000000E+00
  0.00000000E+00  0.00000000E+00  0.00000000E+00
  0.00000000E+00  0.00000000E+00  0.00000000E+00
  0.00000000E+00  0.00000000E+00  0.00000000E+00
  0.00000000E+00  0.00000000E+00  0.00000000E+00
  0.00000000E+00  0.00000000E+00  0.00000000E+00
  0.00000000E+00  0.00000000E+00  0.00000000E+00
  0.00000000E+00  0.00000000E+00  0.00000000E+00
  0.00000000E+00  0.00000000E+00  0.00000000E+00
  0.00000000E+00  0.00000000E+00  0.00000000E+00
  0.00000000E+00  0.00000000E+00  0.00000000E+00
  0.00000000E+00  0.00000000E+00  0.00000000E+00
  0.00000000E+00  0.00000000E+00  0.00000000E+00
  0.00000000E+00  0.00000000E+00  0.00000000E+00
  0.00000000E+00  0.00000000E+00  0.00000000E+00
  0.00000000E+00  0.00000000E+00  0.00000000E+00
  0.00000000E+00  0.00000000E+00  0.00000000E+00
  0.00000000E+00  0.00000000E+00  0.00000000E+00
  0.00000000E+00  0.00000000E+00  0.00000000E+00
  0.00000000E+00  0.00000000E+00  0.00000000E+00
  0.00000000E+00  0.00000000E+00  0.00000000E+00
  0.00000000E+00  0.00000000E+00  0.00000000E+00
  0.00000000E+00  0.00000000E+00  0.00000000E+00
  0.00000000E+00  0.00000000E+00  0.00000000E+00
  0.00000000E+00  0.00000000E+00  0.00000000E+00
  0.00000000E+00  0.00000000E+00  0.00000000E+00
  0.00000000E+00  0.00000000E+00  0.00000000E+00
  0.00000000E+00  0.00000000E+00  0.00000000E+00
  0.00000000E+00  0.00000000E+00  0.00000000E+00
  0.00000000E+00  0.00000000E+00  0.00000000E+00
  0.00000000E+00  0.00000000E+00  0.00000000E+00
  0.00000000E+00  0.00000000E+00  0.00000000E+00
  0.00000000E+00  0.00000000E+00  0.00000000E+00
  0.00000000E+00  0.00000000E+00  0.00000000E+00
  0.00000000E+00  0.00000000E+00  0.00000000E+00
  0.00000000E+00  0.00000000E+00  0.00000000E+00
  0.00000000E+00  0.00000000E+00  0.00000000E+00
  0.00000000E+00  0.00000000E+00  0.00000000E+00
  0.00000000E+00  0.00000000E+00  0.00000000E+00
  0.00000000E+00  0.00000000E+00  0.00000000E+00
  0.00000000E+00  0.00000000E+00  0.00000000E+00
  0.00000000E+00  0.00000000E+00  0.00000000E+00
  0.00000000E+00  0.00000000E+00  0.00000000E+00
  0.00000000E+00  0.00000000E+00  0.00000000E+00
  0.00000000E+00  0.00000000E+00  0.00000000E+00
  0.00000000E+00  0.00000000E+00  0.00000000E+00
  0.00000000E+00  0.00000000E+00  0.00000000E+00
  0.00000000E+00  0.00000000E+00  0.00000000E+00
  0.00000000E+00  0.00000000E+00  0.00000000E+00
  0.00000000E+00  0.00000000E+00  0.00000000E+00
  0.00000000E+00  0.00000000E+00  0.00000000E+00
  0.00000000E+00  0.00000000E+00  0.00000000E+00
  0.00000000E+00  0.00000000E+00  0.00000000E+00
  0.00000000E+00  0.00000000E+00  0.00000000E+00
  0.00000000E+00  0.00000000E+00  0.00000000E+00
  0.00000000E+00  0.00000000E+00  0.00000000E+00
  0.00000000E+00  0.00000000E+00  0.00000000E+00
  0.00000000E+00  0.00000000E+00  0.00000000E+00
  0.00000000E+00  0.00000000E+00  0.00000000E+00
  0.00000000E+00  0.00000000E+00  0.00000000E+00
  0.00000000E+00  0.00000000E+00  0.00000000E+00
  0.00000000E+00  0.00000000E+00  0.00000000E+00
  0.00000000E+00  0.00000000E+00  0.00000000E+00
  0.00000000E+00  0.00000000E+00  0.00000000E+00
  0.00000000E+00  0.00000000E+00  0.00000000E+00
  0.00000000E+00  0.00000000E+00  0.00000000E+00
