Na32 Mn32 O64
1.0
  11.2599999999999998    0.0000000000000000    0.0000000000000000
   0.0000000000000000   11.4399999999999995    0.0000000000000000
  -4.4904909999999996    0.0000000000000000   10.6304789999999993
Na Mn Na O
5 32 25 64
direct
   0.2500000000000000    0.5000000000000000    0.2500000000000000 Na
   0.4999999999999999    0.3750000000000001    0.7500000000000000 Na
   0.4999999999999999    0.8750000000000001    0.7500000000000000 Na
   0.7500000000000000    0.5000000000000000    0.7500000000000000 Na
   0.7500000000000000    0.0000000000000000    0.7500000000000000 Na
   0.0000000000000000    0.0000000000000000    0.0000000000000000 Mn
   0.0000000000000000    0.5000000000000000    0.0000000000000000 Mn
   0.0000000000000000    0.0000000000000000    0.5000000000000000 Mn
   0.0000000000000000    0.5000000000000000    0.5000000000000000 Mn
   0.0000000000000000    0.2500000000000000    0.0000000000000000 Mn
   0.0000000000000000    0.7500000000000001    0.0000000000000000 Mn
   0.0000000000000000    0.2500000000000000    0.5000000000000000 Mn
   0.0000000000000000    0.7500000000000001    0.5000000000000000 Mn
   0.5000000000000000    0.0000000000000000    0.0000000000000000 Mn
   0.5000000000000000    0.5000000000000000    0.0000000000000000 Mn
   0.5000000000000000    0.0000000000000000    0.5000000000000000 Mn
   0.5000000000000000    0.5000000000000000    0.5000000000000000 Mn
   0.5000000000000000    0.2500000000000000    0.0000000000000000 Mn
   0.5000000000000000    0.7500000000000001    0.0000000000000000 Mn
   0.5000000000000000    0.2500000000000000    0.5000000000000000 Mn
   0.5000000000000000    0.7500000000000001    0.5000000000000000 Mn
   0.2500000000000000    0.1250000000000000    0.0000000000000000 Mn
   0.2500000000000000    0.6250000000000000    0.0000000000000000 Mn
   0.2500000000000000    0.1250000000000000    0.5000000000000000 Mn
   0.2500000000000000    0.6250000000000000    0.5000000000000000 Mn
   0.2500000000000000    0.3750000000000001    0.0000000000000000 Mn
   0.2500000000000000    0.8750000000000001    0.0000000000000000 Mn
   0.2500000000000000    0.3750000000000001    0.5000000000000000 Mn
   0.2500000000000000    0.8750000000000001    0.5000000000000000 Mn
   0.7500000000000000    0.1250000000000000    0.0000000000000000 Mn
   0.7500000000000000    0.6250000000000000    0.0000000000000000 Mn
   0.7500000000000000    0.1250000000000000    0.5000000000000000 Mn
   0.7500000000000000    0.6250000000000000    0.5000000000000000 Mn
   0.7500000000000000    0.3750000000000001    0.0000000000000000 Mn
   0.7500000000000000    0.8750000000000001    0.0000000000000000 Mn
   0.7500000000000000    0.3750000000000001    0.5000000000000000 Mn
   0.7500000000000000    0.8750000000000001    0.5000000000000000 Mn
   0.0000000000000000    0.1250000000000000    0.2500000000000000 Na
   0.0000000000000000    0.6250000000000000    0.2500000000000000 Na
   0.9999999999999999    0.1250000000000000    0.7500000000000000 Na
   0.9999999999999999    0.6250000000000000    0.7500000000000000 Na
   0.0000000000000000    0.3750000000000001    0.2500000000000000 Na
   0.0000000000000000    0.8750000000000001    0.2500000000000000 Na
   0.9999999999999999    0.3750000000000001    0.7500000000000000 Na
   0.9999999999999999    0.8750000000000001    0.7500000000000000 Na
   0.5000000000000000    0.1250000000000000    0.2500000000000000 Na
   0.4999999999999999    0.1250000000000000    0.7500000000000000 Na
   0.4999999999999999    0.6250000000000000    0.7500000000000000 Na
   0.5000000000000000    0.8750000000000001    0.2500000000000000 Na
   0.2500000000000000    0.0000000000000000    0.2500000000000000 Na
   0.2500000000000000    0.0000000000000000    0.7500000000000000 Na
   0.2500000000000000    0.5000000000000000    0.7500000000000000 Na
   0.2500000000000000    0.2500000000000000    0.2500000000000000 Na
   0.2500000000000000    0.7500000000000001    0.2500000000000000 Na
   0.2500000000000000    0.2500000000000000    0.7500000000000000 Na
   0.2500000000000000    0.7500000000000001    0.7500000000000000 Na
   0.7500000000000000    0.0000000000000000    0.2500000000000000 Na
   0.7500000000000000    0.5000000000000000    0.2500000000000000 Na
   0.7500000000000000    0.2500000000000000    0.2500000000000000 Na
   0.7500000000000000    0.7500000000000001    0.2500000000000000 Na
   0.7500000000000000    0.2500000000000000    0.7500000000000000 Na
   0.7500000000000000    0.7500000000000001    0.7500000000000000 Na
   0.1390000000000000    0.0000000000000000    0.3975000000000000 O
   0.1390000000000000    0.5000000000000000    0.3975000000000000 O
   0.1390000000000000    0.0000000000000000    0.8975000000000001 O
   0.1390000000000000    0.5000000000000000    0.8975000000000001 O
   0.1390000000000000    0.2500000000000000    0.3975000000000000 O
   0.1390000000000000    0.7500000000000001    0.3975000000000000 O
   0.1390000000000000    0.2500000000000000    0.8975000000000001 O
   0.1390000000000000    0.7500000000000001    0.8975000000000001 O
   0.6390000000000001    0.0000000000000000    0.3975000000000000 O
   0.6390000000000001    0.5000000000000000    0.3975000000000000 O
   0.6390000000000001    0.0000000000000000    0.8975000000000001 O
   0.6390000000000001    0.5000000000000000    0.8975000000000001 O
   0.6390000000000001    0.2500000000000000    0.3975000000000000 O
   0.6390000000000001    0.7500000000000001    0.3975000000000000 O
   0.6390000000000001    0.2500000000000000    0.8975000000000001 O
   0.6390000000000001    0.7500000000000001    0.8975000000000001 O
   0.3610000000000000    0.0000000000000000    0.1025000000000000 O
   0.3610000000000000    0.5000000000000000    0.1025000000000000 O
   0.3610000000000000    0.0000000000000000    0.6025000000000000 O
   0.3610000000000000    0.5000000000000000    0.6025000000000000 O
   0.3610000000000000    0.2500000000000000    0.1025000000000000 O
   0.3610000000000000    0.7500000000000001    0.1025000000000000 O
   0.3610000000000000    0.2500000000000000    0.6025000000000000 O
   0.3610000000000000    0.7500000000000001    0.6025000000000000 O
   0.8610000000000001    0.0000000000000000    0.1025000000000000 O
   0.8610000000000001    0.5000000000000000    0.1025000000000000 O
   0.8610000000000001    0.0000000000000000    0.6025000000000000 O
   0.8610000000000001    0.5000000000000000    0.6025000000000000 O
   0.8610000000000001    0.2500000000000000    0.1025000000000000 O
   0.8610000000000001    0.7500000000000001    0.1025000000000000 O
   0.8610000000000001    0.2500000000000000    0.6025000000000000 O
   0.8610000000000001    0.7500000000000001    0.6025000000000000 O
   0.3890000000000000    0.1250000000000000    0.3975000000000000 O
   0.3890000000000000    0.6250000000000000    0.3975000000000000 O
   0.3890000000000000    0.1250000000000000    0.8975000000000001 O
   0.3890000000000000    0.6250000000000000    0.8975000000000001 O
   0.3890000000000000    0.3750000000000001    0.3975000000000000 O
   0.3890000000000000    0.8750000000000001    0.3975000000000000 O
   0.3890000000000000    0.3750000000000001    0.8975000000000001 O
   0.3890000000000000    0.8750000000000001    0.8975000000000001 O
   0.8890000000000001    0.1250000000000000    0.3975000000000000 O
   0.8890000000000001    0.6250000000000000    0.3975000000000000 O
   0.8890000000000000    0.1250000000000000    0.8975000000000001 O
   0.8890000000000000    0.6250000000000000    0.8975000000000001 O
   0.8890000000000001    0.3750000000000001    0.3975000000000000 O
   0.8890000000000001    0.8750000000000001    0.3975000000000000 O
   0.8890000000000000    0.3750000000000001    0.8975000000000001 O
   0.8890000000000000    0.8750000000000001    0.8975000000000001 O
   0.1110000000000000    0.1250000000000000    0.1025000000000000 O
   0.1110000000000000    0.6250000000000000    0.1025000000000000 O
   0.1110000000000000    0.1250000000000000    0.6025000000000000 O
   0.1110000000000000    0.6250000000000000    0.6025000000000000 O
   0.1110000000000000    0.3750000000000001    0.1025000000000000 O
   0.1110000000000000    0.8750000000000001    0.1025000000000000 O
   0.1110000000000000    0.3750000000000001    0.6025000000000000 O
   0.1110000000000000    0.8750000000000001    0.6025000000000000 O
   0.6110000000000000    0.1250000000000000    0.1025000000000000 O
   0.6110000000000000    0.6250000000000000    0.1025000000000000 O
   0.6110000000000000    0.1250000000000000    0.6025000000000000 O
   0.6110000000000000    0.6250000000000000    0.6025000000000000 O
   0.6110000000000000    0.3750000000000001    0.1025000000000000 O
   0.6110000000000000    0.8750000000000001    0.1025000000000000 O
   0.6110000000000000    0.3750000000000001    0.6025000000000000 O
   0.6110000000000000    0.8750000000000001    0.6025000000000000 O
