Ca1 V12 F42
1.0
7.375718 -0.006650 -0.110754
-3.678620 6.403435 0.125685
0.253924 0.099286 17.474578
Ca V F
1 12 42
direct
0.856150 0.009093 0.338310 Ca
0.300585 0.001752 0.333734 V
0.713122 0.711298 0.998236 V
0.000832 0.288102 0.668549 V
0.353728 -0.000975 0.833421 V
0.651811 0.658983 0.501143 V
0.991225 0.340160 0.165315 V
0.650786 0.160706 0.502386 V
0.497401 0.346110 0.164447 V
0.853860 0.499339 0.833342 V
0.353083 0.498369 0.833540 V
0.151952 0.653224 0.501900 V
0.488956 0.839595 0.163889 V
0.566757 0.816618 0.062712 F
0.248949 0.422430 0.730735 F
0.184295 0.749697 0.394573 F
0.434534 0.242667 0.269057 F
0.828659 0.580046 0.935651 F
0.746040 0.186163 0.606612 F
0.877235 0.072597 0.731648 F
0.172384 0.115598 0.394750 F
0.918162 0.795601 0.065022 F
0.114054 0.192106 0.603239 F
0.051418 0.894744 0.276112 F
0.804520 0.928072 0.936030 F
0.112064 0.544956 0.604545 F
0.442730 0.876854 0.271394 F
0.453914 0.564377 0.936809 F
0.891500 0.437631 0.730312 F
0.569830 0.111556 0.392482 F
0.557788 0.445427 0.060019 F
0.364856 0.577102 0.479471 F
0.204448 0.634090 0.155008 F
0.434310 0.789023 0.813025 F
0.645336 0.209529 0.854050 F
0.566515 0.366222 0.509314 F
0.787537 0.428268 0.184135 F
0.698559 0.675536 0.393984 F
0.924929 0.307364 0.067214 F
0.393708 0.074854 0.736119 F
0.318923 0.925171 0.931014 F
0.614171 0.689845 0.598617 F
0.019805 0.325422 0.273344 F
0.938614 0.734042 0.516930 F
0.777765 0.037153 0.187403 F
0.271115 0.206271 0.854018 F
0.064249 0.792132 0.812837 F
0.750392 0.964623 0.479667 F
0.203246 0.262038 0.151534 F
0.627800 0.548305 0.802434 F
0.933054 0.381663 0.466898 F
0.442413 0.065343 0.135272 F
0.369460 0.927881 0.530641 F
0.548469 0.622613 0.197346 F
0.078556 0.448867 0.864522 F
