Ca32 Mn64 O128
1.0
6.281362 0.000000 0.000000
0.000000 18.443552 0.000000
0.000000 0.000000 21.409275
Ca Mn O
31 64 128
direct
   0.1250000000000000    0.6216500000000000    0.6715800000000000 Ca
0.125000 0.121651 0.171578 Ca
0.125000 0.121651 0.671578 Ca
0.125000 0.621651 0.171578 Ca
0.625000 0.121651 0.171578 Ca
0.625000 0.121651 0.671578 Ca
0.625000 0.621651 0.171578 Ca
0.375000 0.378350 0.328422 Ca
0.375000 0.378350 0.828422 Ca
0.375000 0.878350 0.328422 Ca
0.375000 0.878350 0.828422 Ca
0.875000 0.378350 0.328422 Ca
0.875000 0.378350 0.828422 Ca
0.875000 0.878350 0.328422 Ca
0.875000 0.878350 0.828422 Ca
0.125000 0.371650 0.078422 Ca
0.125000 0.371650 0.578422 Ca
0.125000 0.871650 0.078422 Ca
0.125000 0.871650 0.578422 Ca
0.625000 0.371650 0.078422 Ca
0.625000 0.371650 0.578422 Ca
0.625000 0.871650 0.078422 Ca
0.625000 0.871650 0.578422 Ca
0.375000 0.128349 0.421578 Ca
0.375000 0.128349 0.921578 Ca
0.375000 0.628349 0.421578 Ca
0.375000 0.628349 0.921578 Ca
0.875000 0.128349 0.421578 Ca
0.875000 0.128349 0.921578 Ca
0.875000 0.628349 0.421578 Ca
0.875000 0.628349 0.921578 Ca
0.375000 0.209730 0.052375 Mn
0.375000 0.209730 0.552375 Mn
0.375000 0.709730 0.052375 Mn
0.375000 0.709730 0.552375 Mn
0.875000 0.209730 0.052375 Mn
0.875000 0.209730 0.552375 Mn
0.875000 0.709730 0.052375 Mn
0.875000 0.709730 0.552375 Mn
0.125000 0.040270 0.302375 Mn
0.125000 0.040270 0.802375 Mn
0.125000 0.540270 0.302375 Mn
0.125000 0.540270 0.802375 Mn
0.625000 0.040270 0.302375 Mn
0.625000 0.040270 0.802375 Mn
0.625000 0.540270 0.302375 Mn
0.625000 0.540270 0.802375 Mn
0.375000 0.459730 0.197625 Mn
0.375000 0.459730 0.697625 Mn
0.375000 0.959730 0.197625 Mn
0.375000 0.959730 0.697625 Mn
0.875000 0.459730 0.197625 Mn
0.875000 0.459730 0.697625 Mn
0.875000 0.959730 0.197625 Mn
0.875000 0.959730 0.697625 Mn
0.125000 0.290270 0.447625 Mn
0.125000 0.290270 0.947625 Mn
0.125000 0.790270 0.447625 Mn
0.125000 0.790270 0.947625 Mn
0.625000 0.290270 0.447625 Mn
0.625000 0.290270 0.947625 Mn
0.625000 0.790270 0.447625 Mn
0.625000 0.790270 0.947625 Mn
0.125000 0.281955 0.194502 Mn
0.125000 0.281955 0.694502 Mn
0.125000 0.781955 0.194502 Mn
0.125000 0.781955 0.694502 Mn
0.625000 0.281955 0.194502 Mn
0.625000 0.281955 0.694502 Mn
0.625000 0.781955 0.194502 Mn
0.625000 0.781955 0.694502 Mn
0.375000 0.218045 0.305498 Mn
0.375000 0.218045 0.805498 Mn
0.375000 0.718045 0.305498 Mn
0.375000 0.718045 0.805498 Mn
0.875000 0.218045 0.305498 Mn
0.875000 0.218045 0.805498 Mn
0.875000 0.718045 0.305498 Mn
0.875000 0.718045 0.805498 Mn
0.125000 0.031955 0.055498 Mn
0.125000 0.031955 0.555498 Mn
0.125000 0.531955 0.055498 Mn
0.125000 0.531955 0.555498 Mn
0.625000 0.031955 0.055498 Mn
0.625000 0.031955 0.555498 Mn
0.625000 0.531955 0.055498 Mn
0.625000 0.531955 0.555498 Mn
0.375000 0.468045 0.444502 Mn
0.375000 0.468045 0.944502 Mn
0.375000 0.968045 0.444502 Mn
0.375000 0.968045 0.944502 Mn
0.875000 0.468045 0.444502 Mn
0.875000 0.468045 0.944502 Mn
0.875000 0.968045 0.444502 Mn
0.875000 0.968045 0.944502 Mn
0.375000 0.456390 0.035073 O
0.375000 0.456390 0.535073 O
0.375000 0.956390 0.035073 O
0.375000 0.956390 0.535073 O
0.875000 0.456390 0.035073 O
0.875000 0.456390 0.535073 O
0.875000 0.956390 0.035073 O
0.875000 0.956390 0.535073 O
0.125000 0.043610 0.464927 O
0.125000 0.043610 0.964927 O
0.125000 0.543610 0.464927 O
0.125000 0.543610 0.964927 O
0.625000 0.043610 0.464927 O
0.625000 0.043610 0.964927 O
0.625000 0.543610 0.464927 O
0.625000 0.543610 0.964927 O
0.375000 0.206390 0.214927 O
0.375000 0.206390 0.714927 O
0.375000 0.706390 0.214927 O
0.375000 0.706390 0.714927 O
0.875000 0.206390 0.214927 O
0.875000 0.206390 0.714927 O
0.875000 0.706390 0.214927 O
0.875000 0.706390 0.714927 O
0.125000 0.293610 0.285073 O
0.125000 0.293610 0.785073 O
0.125000 0.793610 0.285073 O
0.125000 0.793610 0.785073 O
0.625000 0.293610 0.285073 O
0.625000 0.293610 0.785073 O
0.625000 0.793610 0.285073 O
0.625000 0.793610 0.785073 O
0.375000 0.009511 0.360449 O
0.375000 0.009511 0.860449 O
0.375000 0.509511 0.360449 O
0.375000 0.509511 0.860449 O
0.875000 0.009511 0.360449 O
0.875000 0.009511 0.860449 O
0.875000 0.509511 0.360449 O
0.875000 0.509511 0.860449 O
0.125000 0.490489 0.139552 O
0.125000 0.490489 0.639552 O
0.125000 0.990489 0.139552 O
0.125000 0.990489 0.639552 O
0.625000 0.490489 0.139552 O
0.625000 0.490489 0.639552 O
0.625000 0.990489 0.139552 O
0.625000 0.990489 0.639552 O
0.375000 0.259511 0.389551 O
0.375000 0.259511 0.889551 O
0.375000 0.759511 0.389551 O
0.375000 0.759511 0.889551 O
0.875000 0.259511 0.389551 O
0.875000 0.259511 0.889551 O
0.875000 0.759511 0.389551 O
0.875000 0.759511 0.889551 O
0.125000 0.240489 0.110449 O
0.125000 0.240489 0.610449 O
0.125000 0.740489 0.110449 O
0.125000 0.740489 0.610449 O
0.625000 0.240489 0.110449 O
0.625000 0.240489 0.610449 O
0.625000 0.740489 0.110449 O
0.625000 0.740489 0.610449 O
0.375000 0.306597 0.014551 O
0.375000 0.306597 0.514551 O
0.375000 0.806597 0.014551 O
0.375000 0.806597 0.514551 O
0.875000 0.306597 0.014551 O
0.875000 0.306597 0.514551 O
0.875000 0.806597 0.014551 O
0.875000 0.806597 0.514551 O
0.125000 0.193403 0.485449 O
0.125000 0.193403 0.985449 O
0.125000 0.693403 0.485449 O
0.125000 0.693403 0.985449 O
0.625000 0.193403 0.485449 O
0.625000 0.193403 0.985449 O
0.625000 0.693403 0.485449 O
0.625000 0.693403 0.985449 O
0.375000 0.056597 0.235449 O
0.375000 0.056597 0.735449 O
0.375000 0.556597 0.235449 O
0.375000 0.556597 0.735449 O
0.875000 0.056597 0.235449 O
0.875000 0.056597 0.735449 O
0.875000 0.556597 0.235449 O
0.875000 0.556597 0.735449 O
0.125000 0.443403 0.264551 O
0.125000 0.443403 0.764551 O
0.125000 0.943403 0.264551 O
0.125000 0.943403 0.764551 O
0.625000 0.443403 0.264551 O
0.625000 0.443403 0.764551 O
0.625000 0.943403 0.264551 O
0.625000 0.943403 0.764551 O
0.125000 0.391277 0.417784 O
0.125000 0.391277 0.917784 O
0.125000 0.891277 0.417784 O
0.125000 0.891277 0.917784 O
0.625000 0.391277 0.417784 O
0.625000 0.391277 0.917784 O
0.625000 0.891277 0.417784 O
0.625000 0.891277 0.917784 O
0.375000 0.108723 0.082216 O
0.375000 0.108723 0.582216 O
0.375000 0.608723 0.082216 O
0.375000 0.608723 0.582216 O
0.875000 0.108723 0.082216 O
0.875000 0.108723 0.582216 O
0.875000 0.608723 0.082216 O
0.875000 0.608723 0.582216 O
0.375000 0.358723 0.167784 O
0.375000 0.358723 0.667784 O
0.375000 0.858723 0.167784 O
0.375000 0.858723 0.667784 O
0.875000 0.358723 0.167784 O
0.875000 0.358723 0.667784 O
0.875000 0.858723 0.167784 O
0.875000 0.858723 0.667784 O
0.125000 0.141278 0.332216 O
0.125000 0.141278 0.832216 O
0.125000 0.641278 0.332216 O
0.125000 0.641278 0.832216 O
0.625000 0.141278 0.332216 O
0.625000 0.141278 0.832216 O
0.625000 0.641278 0.332216 O
0.625000 0.641278 0.832216 O
