Ca4 Mn4 P6 O24                          
   1.00000000000000     
     2.6810130000000001    8.0696239999999992    4.5892299999999997
    -0.1030160000000000    0.4342190000000000    8.6632610000000003
     7.6424469999999998    0.4180200000000000    4.1624100000000004
   Ca   Mn   P    O 
     4     4     6    24
Direct
  0.3520677169348073  0.6861555200247383  0.4940085323936547
  0.8887025674655094  1.0069646413702193  0.0912064911857105
  0.3560265342712444  0.7268177063843542  0.0435268276441175
  0.1246996780039960  0.3904874601360814  0.7924139738395568
  0.6841501106745519  0.6453694318883714  0.6142234214758593
  0.1805827273144196  0.1351125326976051  0.1782214399795877
  0.8365187287670719  0.8810984524955429  0.8182837422023688
  0.3269622245785043  0.2982287656892572  0.3772121349454997
  0.2090684587089517  0.5313395317106869  0.9951144955863063
  0.0362843259373859  0.7770164857236478  0.4258897632684670
  0.9715849275102731  0.2338836387921168  0.5955088302155070
  0.4696338206682609  0.0546734818514925  0.7306994806330279
  0.5700391278852633  0.9150054572987014  0.2451284003329559
  0.7338844245118039  0.4997878362549031  0.0014405567717958
  0.5859357385203530  0.7435168553746144  0.4215663761339617
  0.3045726976339999  0.0742260650835058  0.9158904917633540
  0.3079456982801320  0.5283301101949713  0.7879069123380373
  0.8705135306787581  0.3019079400013988  0.0358551325587950
  0.8196753464881770  0.4128037953630341  0.5496312120794311
  0.0852120352884648  0.9288347782362822  0.2387358164935086
  0.9017176243680166  0.0856189821590170  0.7765165445428295
  0.5785608162392171  0.5574353093054870  0.1704217370310389
  0.7399128523814046  0.8659590065527084  0.0789811542556663
  0.2037359541179788  0.5956343464706882  0.4133428292701788
  0.1169348408439463  0.7371399943626650  1.0021066674747965
  0.4151562991122919  0.2346572206063852  0.5785724007832215
  0.0919086491797460  0.4182363326284366  0.0749329026016801
  0.8763887415051586  0.7644783569787675  0.4450645586362681
  0.0896169928495515  0.1437594355567449  0.4350314584591638
  0.4965708416413976  0.8700049076867412  0.7085720456594987
  0.4105018527626983  0.9365241641060148  0.2254116793995520
  0.6537248961857557  0.5202381572785291  0.8708655207723635
  0.3303849823493111  0.4360156299091461  0.1075625839331552
  0.0200226860725343  0.8231778232722728  0.5888551230199129
  0.0895620944027242  0.2805640666896658  0.6256813039037018
  0.6264953492079037  0.0362896598406187  0.7480400646327744
  0.5576137465381494  0.0871266429869888  0.2682916881914849
  0.8430090373410809  0.6310843910625233  0.8809594514837056
 
             NaN             NaN             NaN
             NaN             NaN             NaN
             NaN             NaN             NaN
             NaN             NaN             NaN
             NaN             NaN             NaN
             NaN             NaN             NaN
             NaN             NaN             NaN
             NaN             NaN             NaN
             NaN             NaN             NaN
             NaN             NaN             NaN
             NaN             NaN             NaN
             NaN             NaN             NaN
             NaN             NaN             NaN
             NaN             NaN             NaN
             NaN             NaN             NaN
             NaN             NaN             NaN
             NaN             NaN             NaN
             NaN             NaN             NaN
             NaN             NaN             NaN
             NaN             NaN             NaN
             NaN             NaN             NaN
             NaN             NaN             NaN
             NaN             NaN             NaN
             NaN             NaN             NaN
             NaN             NaN             NaN
             NaN             NaN             NaN
             NaN             NaN             NaN
             NaN             NaN             NaN
             NaN             NaN             NaN
             NaN             NaN             NaN
             NaN             NaN             NaN
             NaN             NaN             NaN
             NaN             NaN             NaN
             NaN             NaN             NaN
             NaN             NaN             NaN
             NaN             NaN             NaN
             NaN             NaN             NaN
             NaN             NaN             NaN
