Ca4 Mn4 P6 O24
1.0
2.681013 8.069624 4.589230
-0.103016 0.434219 8.663261
7.642447 0.418020 4.162410
Ca Mn P O
4 4 6 24
direct
0.410368 0.645261 0.564190 Ca
0.918068 0.987073 0.072852 Ca
0.381754 0.726695 0.081402 Ca
0.124314 0.416861 0.769029 Ca
0.666438 0.657556 0.613885 Mn
0.179437 0.135718 0.168881 Mn
0.818095 0.885747 0.829316 Mn
0.321329 0.327534 0.365798 Mn
0.249471 0.531248 0.970144 P
0.036593 0.768862 0.427622 P
0.962983 0.238604 0.584548 P
0.453103 0.061936 0.729614 P
0.537183 0.915239 0.257591 P
0.749640 0.481939 0.007999 P
0.573015 0.738214 0.419776 O
0.286367 0.087891 0.910476 O
0.366246 0.534033 0.770630 O
0.894232 0.287964 0.003035 O
0.798908 0.409630 0.566505 O
0.087530 0.922164 0.243491 O
0.917437 0.079260 0.765449 O
0.604798 0.488534 0.197990 O
0.705569 0.918039 0.090009 O
0.202509 0.585462 0.409115 O
0.130782 0.733359 0.969507 O
0.411026 0.244455 0.575000 O
0.153210 0.402024 0.039496 O
0.877194 0.762552 0.437252 O
0.053608 0.157302 0.419294 O
0.475770 0.887133 0.700339 O
0.404160 0.914053 0.209057 O
0.655948 0.553656 0.871121 O
0.342972 0.458494 0.102344 O
1.011344 0.798772 0.602757 O
0.094104 0.285329 0.592206 O
0.609423 0.034865 0.751876 O
0.464208 0.087532 0.320575 O
0.846432 0.615420 0.935052 O
