Na2 Ca2 V4 P2 S4 O24                    
   1.00000000000000     
     8.9723687516516222    0.3805943890043935    0.1760557321050419
     4.2913996233704870    7.8887441986502571    0.1818557671299687
     4.1687864728468451    2.5942320879583773    7.4125184360476526
   Ca   Na   V    P    S    O 
     2     2     4     2     4    24
Direct
   0.8493727815033481    0.2420220469593417    0.5882021263313320 Ca
  0.0035532874031787  0.9908279044397688  0.0184709291400154
  0.4219895200305004  0.0779691831695573  0.7498512476367267
  0.5933828735580704  0.9065667070707946  0.2500266774229658
  0.3494446167782073  0.3552513354892426  0.3571292554825547
  0.6523741083261072  0.6544022597653694  0.6386295056041860
  0.1447258965825711  0.1506307180439066  0.1428234941391011
  0.8456901283443869  0.8475351422957260  0.8614634656978595
  0.7533615256149915  0.0400071920805516  0.4455147877095698
  0.4599581645011313  0.7466993607108634  0.0545421842199971
  0.0476577813597245  0.4525579526198769  0.7499778708067879
  0.9520432822645901  0.5478255965975123  0.2500771070218306
  0.2405203274728507  0.9606075990211878  0.5588650840809564
  0.5393493927957564  0.2594461795469698  0.9411240643456082
  0.2329315123691131  0.4289279748552914  0.5998844105932690
  0.7664475286985635  0.5700199045770376  0.4002393129921913
  0.5829535273431716  0.2262785213094318  0.4405094501432814
  0.4044321600337426  0.7813662674596884  0.5567296786048104
  0.4254325679663680  0.5850948528656801  0.2331983720199986
  0.5721820759440348  0.4100453923083407  0.7640657084525984
  0.9150895321768289  0.0743100739692935  0.2669638373491736
  0.0897761950176701  0.9281812148555488  0.7358773714155191
  0.0706238331853157  0.2673904354543879  0.9002812867162149
  0.9301180765186601  0.7334247803471925  0.0998567029943942
  0.2737724110301514  0.9172429367446142  0.0592793928396276
  0.7184606421629809  0.0953985460056117  0.9436373496110591
  0.4791384890790980  0.3107279617177028  0.1004092790167448
  0.5172367581983650  0.7148764941542183  0.8770688436327418
  0.0922735522778169  0.5104921235953626  0.3149425397671166
  0.9061547887161439  0.4886759154183693  0.6871190087127772
  0.2941941797481817  0.0978507059225819  0.5486888304814528
  0.7060251661700576  0.8972198248789809  0.4439706669740673
  0.4021603051148048  0.2059284191638824  0.9509777899614065
  0.6028209689702280  0.7939119865926543  0.0561208889979525
  0.1893704956646047  0.0204950763985892  0.3995826027997964
  0.7850241534737066  0.9828004776157613  0.6230651022515588
  0.9890266543455581  0.4077151607104099  0.1853201909017912
  0.0122100727654555  0.5939373392935323  0.8125816793931904
 
  0.00000000E+00  0.00000000E+00  0.00000000E+00
  0.00000000E+00  0.00000000E+00  0.00000000E+00
  0.00000000E+00  0.00000000E+00  0.00000000E+00
  0.00000000E+00  0.00000000E+00  0.00000000E+00
  0.00000000E+00  0.00000000E+00  0.00000000E+00
  0.00000000E+00  0.00000000E+00  0.00000000E+00
  0.00000000E+00  0.00000000E+00  0.00000000E+00
  0.00000000E+00  0.00000000E+00  0.00000000E+00
  0.00000000E+00  0.00000000E+00  0.00000000E+00
  0.00000000E+00  0.00000000E+00  0.00000000E+00
  0.00000000E+00  0.00000000E+00  0.00000000E+00
  0.00000000E+00  0.00000000E+00  0.00000000E+00
  0.00000000E+00  0.00000000E+00  0.00000000E+00
  0.00000000E+00  0.00000000E+00  0.00000000E+00
  0.00000000E+00  0.00000000E+00  0.00000000E+00
  0.00000000E+00  0.00000000E+00  0.00000000E+00
  0.00000000E+00  0.00000000E+00  0.00000000E+00
  0.00000000E+00  0.00000000E+00  0.00000000E+00
  0.00000000E+00  0.00000000E+00  0.00000000E+00
  0.00000000E+00  0.00000000E+00  0.00000000E+00
  0.00000000E+00  0.00000000E+00  0.00000000E+00
  0.00000000E+00  0.00000000E+00  0.00000000E+00
  0.00000000E+00  0.00000000E+00  0.00000000E+00
  0.00000000E+00  0.00000000E+00  0.00000000E+00
  0.00000000E+00  0.00000000E+00  0.00000000E+00
  0.00000000E+00  0.00000000E+00  0.00000000E+00
  0.00000000E+00  0.00000000E+00  0.00000000E+00
  0.00000000E+00  0.00000000E+00  0.00000000E+00
  0.00000000E+00  0.00000000E+00  0.00000000E+00
  0.00000000E+00  0.00000000E+00  0.00000000E+00
  0.00000000E+00  0.00000000E+00  0.00000000E+00
  0.00000000E+00  0.00000000E+00  0.00000000E+00
  0.00000000E+00  0.00000000E+00  0.00000000E+00
  0.00000000E+00  0.00000000E+00  0.00000000E+00
  0.00000000E+00  0.00000000E+00  0.00000000E+00
  0.00000000E+00  0.00000000E+00  0.00000000E+00
  0.00000000E+00  0.00000000E+00  0.00000000E+00
  0.00000000E+00  0.00000000E+00  0.00000000E+00
