Ca1 Fe4 S6 O24
1.0
7.648751 0.199769 4.632711
2.707115 7.156374 4.632714
0.281309 0.199829 8.937836
Ca Fe S O
1 4 6 24
direct
0.497456 0.497406 0.497416 Ca
0.648585 0.648549 0.648585 Fe
0.144957 0.144912 0.144933 Fe
0.849897 0.849881 0.849897 Fe
0.346255 0.346228 0.346232 Fe
0.950794 0.249946 0.535586 S
0.459433 0.044216 0.744554 S
0.535602 0.950753 0.249971 S
0.744588 0.459391 0.044229 S
0.249999 0.535571 0.950760 S
0.044231 0.744546 0.459424 S
0.389149 0.603022 0.754646 O
0.936762 0.313431 0.026300 O
0.754686 0.389097 0.603048 O
0.026311 0.936700 0.313461 O
0.603084 0.754628 0.389112 O
0.313495 0.026281 0.936722 O
0.681269 0.969060 0.057650 O
0.240283 0.605186 0.392229 O
0.057714 0.681258 0.969045 O
0.392221 0.240271 0.605208 O
0.969093 0.057643 0.681275 O
0.605215 0.392179 0.240303 O
0.967552 0.260749 0.355026 O
0.491383 0.899503 0.687092 O
0.355023 0.967513 0.260801 O
0.687111 0.491370 0.899496 O
0.260799 0.355022 0.967531 O
0.899519 0.687070 0.491384 O
0.095459 0.307389 0.503767 O
0.639976 0.027460 0.733848 O
0.503800 0.095413 0.307423 O
0.733894 0.639943 0.027485 O
0.307451 0.503775 0.095405 O
0.027456 0.733859 0.639965 O
