K48 Co32 F112
1.0
   8.1337900162000007    0.0000000000000000    0.0000000000000000
   0.0000000000000000    8.1337900162000007    0.0000000000000000
   0.0000000000000000    0.0000000000000000   41.6501617432000018
K Co F
47 32 112
direct
   0.7499999999999999    0.7499999999999999    0.5917117970000000 K
   0.2500000000000000    0.2500000000000000    0.0917117970000000 K
   0.2500000000000000    0.2500000000000000    0.5917117970000000 K
   0.2500000000000000    0.7499999999999999    0.0917117970000000 K
   0.2500000000000000    0.7499999999999999    0.5917117970000000 K
   0.7499999999999999    0.2500000000000000    0.0917117970000000 K
   0.7499999999999999    0.2500000000000000    0.5917117970000000 K
   0.7499999999999999    0.7499999999999999    0.0917117970000000 K
   0.2500000000000000    0.2500000000000000    0.0000000000000000 K
   0.2500000000000000    0.2500000000000000    0.5000000000000000 K
   0.2500000000000000    0.7499999999999999    0.0000000000000000 K
   0.2500000000000000    0.7499999999999999    0.5000000000000000 K
   0.7499999999999999    0.2500000000000000    0.0000000000000000 K
   0.7499999999999999    0.2500000000000000    0.5000000000000000 K
   0.7499999999999999    0.7499999999999999    0.0000000000000000 K
   0.0000000000000000    0.0000000000000000    0.1582882105000000 K
   0.0000000000000000    0.0000000000000000    0.6582882105000000 K
   0.0000000000000000    0.5000000000000000    0.1582882105000000 K
   0.0000000000000000    0.5000000000000000    0.6582882105000000 K
   0.5000000000000000    0.0000000000000000    0.1582882105000000 K
   0.5000000000000000    0.0000000000000000    0.6582882105000000 K
   0.5000000000000000    0.5000000000000000    0.1582882105000000 K
   0.5000000000000000    0.5000000000000000    0.6582882105000000 K
   0.0000000000000000    0.0000000000000000    0.3417117895000000 K
   0.0000000000000000    0.0000000000000000    0.8417117894999999 K
   0.0000000000000000    0.5000000000000000    0.3417117895000000 K
   0.0000000000000000    0.5000000000000000    0.8417117894999999 K
   0.5000000000000000    0.0000000000000000    0.3417117895000000 K
   0.5000000000000000    0.0000000000000000    0.8417117894999999 K
   0.5000000000000000    0.5000000000000000    0.3417117895000000 K
   0.5000000000000000    0.5000000000000000    0.8417117894999999 K
   0.0000000000000000    0.0000000000000000    0.2500000000000000 K
   0.0000000000000000    0.0000000000000000    0.7500000000000000 K
   0.0000000000000000    0.5000000000000000    0.2500000000000000 K
   0.0000000000000000    0.5000000000000000    0.7500000000000000 K
   0.5000000000000000    0.0000000000000000    0.2500000000000000 K
   0.5000000000000000    0.0000000000000000    0.7500000000000000 K
   0.5000000000000000    0.5000000000000000    0.2500000000000000 K
   0.5000000000000000    0.5000000000000000    0.7500000000000000 K
   0.2500000000000000    0.2500000000000000    0.4082882105000000 K
   0.2500000000000000    0.2500000000000000    0.9082882104999999 K
   0.2500000000000000    0.7499999999999999    0.4082882105000000 K
   0.2500000000000000    0.7499999999999999    0.9082882104999999 K
   0.7499999999999999    0.2500000000000000    0.4082882105000000 K
   0.7499999999999999    0.2500000000000000    0.9082882104999999 K
   0.7499999999999999    0.7499999999999999    0.4082882105000000 K
   0.7499999999999999    0.7499999999999999    0.9082882104999999 K
   0.0000000000000000    0.0000000000000000    0.0479887465000000 Co
   0.0000000000000000    0.0000000000000000    0.5479887465000000 Co
   0.0000000000000000    0.5000000000000000    0.0479887465000000 Co
   0.0000000000000000    0.5000000000000000    0.5479887465000000 Co
   0.5000000000000000    0.0000000000000000    0.0479887465000000 Co
   0.5000000000000000    0.0000000000000000    0.5479887465000000 Co
   0.5000000000000000    0.5000000000000000    0.0479887465000000 Co
   0.5000000000000000    0.5000000000000000    0.5479887465000000 Co
   0.2500000000000000    0.2500000000000000    0.2020112575000000 Co
   0.2500000000000000    0.2500000000000000    0.7020112574999999 Co
   0.2500000000000000    0.7499999999999999    0.2020112575000000 Co
   0.2500000000000000    0.7499999999999999    0.7020112574999999 Co
   0.7499999999999999    0.2500000000000000    0.2020112575000000 Co
   0.7499999999999999    0.2500000000000000    0.7020112574999999 Co
   0.7499999999999999    0.7499999999999999    0.2020112575000000 Co
   0.7499999999999999    0.7499999999999999    0.7020112574999999 Co
   0.2500000000000000    0.2500000000000000    0.2979887425000000 Co
   0.2500000000000000    0.2500000000000000    0.7979887425000001 Co
   0.2500000000000000    0.7499999999999999    0.2979887425000000 Co
   0.2500000000000000    0.7499999999999999    0.7979887425000001 Co
   0.7499999999999999    0.2500000000000000    0.2979887425000000 Co
   0.7499999999999999    0.2500000000000000    0.7979887425000001 Co
   0.7499999999999999    0.7499999999999999    0.2979887425000000 Co
   0.7499999999999999    0.7499999999999999    0.7979887425000001 Co
   0.0000000000000000    0.0000000000000000    0.4520112575000000 Co
   0.0000000000000000    0.0000000000000000    0.9520112574999999 Co
   0.0000000000000000    0.5000000000000000    0.4520112575000000 Co
   0.0000000000000000    0.5000000000000000    0.9520112574999999 Co
   0.5000000000000000    0.0000000000000000    0.4520112575000000 Co
   0.5000000000000000    0.0000000000000000    0.9520112574999999 Co
   0.5000000000000000    0.5000000000000000    0.4520112575000000 Co
   0.5000000000000000    0.5000000000000000    0.9520112574999999 Co
   0.2500000000000000    0.0000000000000000    0.0474201255000000 F
   0.2500000000000000    0.0000000000000000    0.5474201255000000 F
   0.2500000000000000    0.5000000000000000    0.0474201255000000 F
   0.2500000000000000    0.5000000000000000    0.5474201255000000 F
   0.7499999999999999    0.0000000000000000    0.0474201255000000 F
   0.7499999999999999    0.0000000000000000    0.5474201255000000 F
   0.7499999999999999    0.5000000000000000    0.0474201255000000 F
   0.7499999999999999    0.5000000000000000    0.5474201255000000 F
   0.2500000000000000    0.2500000000000000    0.1542209685000000 F
   0.2500000000000000    0.2500000000000000    0.6542209685000000 F
   0.2500000000000000    0.7499999999999999    0.1542209685000000 F
   0.2500000000000000    0.7499999999999999    0.6542209685000000 F
   0.7499999999999999    0.2500000000000000    0.1542209685000000 F
   0.7499999999999999    0.2500000000000000    0.6542209685000000 F
   0.7499999999999999    0.7499999999999999    0.1542209685000000 F
   0.7499999999999999    0.7499999999999999    0.6542209685000000 F
   0.2500000000000000    0.0000000000000000    0.2025798710000000 F
   0.2500000000000000    0.0000000000000000    0.7025798710000000 F
   0.2500000000000000    0.5000000000000000    0.2025798710000000 F
   0.2500000000000000    0.5000000000000000    0.7025798710000000 F
   0.7499999999999999    0.0000000000000000    0.2025798710000000 F
   0.7499999999999999    0.0000000000000000    0.7025798710000000 F
   0.7499999999999999    0.5000000000000000    0.2025798710000000 F
   0.7499999999999999    0.5000000000000000    0.7025798710000000 F
   0.0000000000000000    0.2500000000000000    0.2025798710000000 F
   0.0000000000000000    0.2500000000000000    0.7025798710000000 F
   0.0000000000000000    0.7499999999999999    0.2025798710000000 F
   0.0000000000000000    0.7499999999999999    0.7025798710000000 F
   0.5000000000000000    0.2500000000000000    0.2025798710000000 F
   0.5000000000000000    0.2500000000000000    0.7025798710000000 F
   0.5000000000000000    0.7499999999999999    0.2025798710000000 F
   0.5000000000000000    0.7499999999999999    0.7025798710000000 F
   0.0000000000000000    0.0000000000000000    0.0000000000000000 F
   0.0000000000000000    0.0000000000000000    0.5000000000000000 F
   0.0000000000000000    0.5000000000000000    0.0000000000000000 F
   0.0000000000000000    0.5000000000000000    0.5000000000000000 F
   0.5000000000000000    0.0000000000000000    0.0000000000000000 F
   0.5000000000000000    0.0000000000000000    0.5000000000000000 F
   0.5000000000000000    0.5000000000000000    0.0000000000000000 F
   0.5000000000000000    0.5000000000000000    0.5000000000000000 F
   0.0000000000000000    0.0000000000000000    0.0957790315000000 F
   0.0000000000000000    0.0000000000000000    0.5957790315000000 F
   0.0000000000000000    0.5000000000000000    0.0957790315000000 F
   0.0000000000000000    0.5000000000000000    0.5957790315000000 F
   0.5000000000000000    0.0000000000000000    0.0957790315000000 F
   0.5000000000000000    0.0000000000000000    0.5957790315000000 F
   0.5000000000000000    0.5000000000000000    0.0957790315000000 F
   0.5000000000000000    0.5000000000000000    0.5957790315000000 F
   0.0000000000000000    0.2500000000000000    0.0474201255000000 F
   0.0000000000000000    0.2500000000000000    0.5474201255000000 F
   0.0000000000000000    0.7499999999999999    0.0474201255000000 F
   0.0000000000000000    0.7499999999999999    0.5474201255000000 F
   0.5000000000000000    0.2500000000000000    0.0474201255000000 F
   0.5000000000000000    0.2500000000000000    0.5474201255000000 F
   0.5000000000000000    0.7499999999999999    0.0474201255000000 F
   0.5000000000000000    0.7499999999999999    0.5474201255000000 F
   0.0000000000000000    0.2500000000000000    0.2974201144999999 F
   0.0000000000000000    0.2500000000000000    0.7974201144999999 F
   0.0000000000000000    0.7499999999999999    0.2974201144999999 F
   0.0000000000000000    0.7499999999999999    0.7974201144999999 F
   0.5000000000000000    0.2500000000000000    0.2974201144999999 F
   0.5000000000000000    0.2500000000000000    0.7974201144999999 F
   0.5000000000000000    0.7499999999999999    0.2974201144999999 F
   0.5000000000000000    0.7499999999999999    0.7974201144999999 F
   0.0000000000000000    0.0000000000000000    0.4042209684999999 F
   0.0000000000000000    0.0000000000000000    0.9042209685000000 F
   0.0000000000000000    0.5000000000000000    0.4042209684999999 F
   0.0000000000000000    0.5000000000000000    0.9042209685000000 F
   0.5000000000000000    0.0000000000000000    0.4042209684999999 F
   0.5000000000000000    0.0000000000000000    0.9042209685000000 F
   0.5000000000000000    0.5000000000000000    0.4042209684999999 F
   0.5000000000000000    0.5000000000000000    0.9042209685000000 F
   0.0000000000000000    0.2500000000000000    0.4525798855000000 F
   0.0000000000000000    0.2500000000000000    0.9525798854999998 F
   0.0000000000000000    0.7499999999999999    0.4525798855000000 F
   0.0000000000000000    0.7499999999999999    0.9525798854999998 F
   0.5000000000000000    0.2500000000000000    0.4525798855000000 F
   0.5000000000000000    0.2500000000000000    0.9525798854999998 F
   0.5000000000000000    0.7499999999999999    0.4525798855000000 F
   0.5000000000000000    0.7499999999999999    0.9525798854999998 F
   0.2500000000000000    0.0000000000000000    0.4525798855000000 F
   0.2500000000000000    0.0000000000000000    0.9525798854999998 F
   0.2500000000000000    0.5000000000000000    0.4525798855000000 F
   0.2500000000000000    0.5000000000000000    0.9525798854999998 F
   0.7499999999999999    0.0000000000000000    0.4525798855000000 F
   0.7499999999999999    0.0000000000000000    0.9525798854999998 F
   0.7499999999999999    0.5000000000000000    0.4525798855000000 F
   0.7499999999999999    0.5000000000000000    0.9525798854999998 F
   0.2500000000000000    0.2500000000000000    0.2500000000000000 F
   0.2500000000000000    0.2500000000000000    0.7500000000000000 F
   0.2500000000000000    0.7499999999999999    0.2500000000000000 F
   0.2500000000000000    0.7499999999999999    0.7500000000000000 F
   0.7499999999999999    0.2500000000000000    0.2500000000000000 F
   0.7499999999999999    0.2500000000000000    0.7500000000000000 F
   0.7499999999999999    0.7499999999999999    0.2500000000000000 F
   0.7499999999999999    0.7499999999999999    0.7500000000000000 F
   0.2500000000000000    0.2500000000000000    0.3457790315000000 F
   0.2500000000000000    0.2500000000000000    0.8457790315000000 F
   0.2500000000000000    0.7499999999999999    0.3457790315000000 F
   0.2500000000000000    0.7499999999999999    0.8457790315000000 F
   0.7499999999999999    0.2500000000000000    0.3457790315000000 F
   0.7499999999999999    0.2500000000000000    0.8457790315000000 F
   0.7499999999999999    0.7499999999999999    0.3457790315000000 F
   0.7499999999999999    0.7499999999999999    0.8457790315000000 F
   0.2500000000000000    0.0000000000000000    0.2974201144999999 F
   0.2500000000000000    0.0000000000000000    0.7974201144999999 F
   0.2500000000000000    0.5000000000000000    0.2974201144999999 F
   0.2500000000000000    0.5000000000000000    0.7974201144999999 F
   0.7499999999999999    0.0000000000000000    0.2974201144999999 F
   0.7499999999999999    0.0000000000000000    0.7974201144999999 F
   0.7499999999999999    0.5000000000000000    0.2974201144999999 F
   0.7499999999999999    0.5000000000000000    0.7974201144999999 F
