Na2 Ca2 V4 Si2 P4 O24                   
   1.00000000000000     
     8.8850890000000007    0.1429230000000000    0.0774220000000000
     4.3195550000000003    7.7107159999999997    0.0908790000000000
     4.4344270000000003    2.5789270000000002    7.2014750000000003
   Ca   Na   V    Si   P    O 
     2     2     4     2     4    24
Direct
  0.7356217687391647  0.4098778047694441  0.1480123301623500
  0.0036211423067000  0.9847493517302872  0.0088689957955486
  0.2670334978792601  0.6827057366705785  0.4753683829439377
  0.8502488996691285  0.2527122212173761  0.5988090854660715
  0.3536897827987243  0.3556966249187297  0.3561762216222595
  0.6182044359711472  0.6491509177207868  0.6514223332238545
  0.1537439474418032  0.1493443885122224  0.1426297356564110
  0.8471036947942558  0.8526648168002229  0.8600006515978673
  0.4467101893137612  0.7607217993059882  0.0334973976697728
  0.5421858517568970  0.2541580480730882  0.9660869752387822
  0.0213865398530496  0.4622531874082076  0.7518649885014400
  0.9616818235435874  0.5458197476818160  0.2497936164616122
  0.7392208921175561  0.0371208779093342  0.4688249801733593
  0.2475002761803560  0.9677894123950802  0.5398776714794296
  0.1987681393103310  0.4256446900391997  0.5861552409144266
  0.7847509100777386  0.5714360283476950  0.4208355261468328
  0.5770234276260836  0.2255458597631269  0.4444796220549858
  0.4111385094727057  0.7846031156742235  0.5528497461101105
  0.4245967300643056  0.5814335205895497  0.2297804891869868
  0.5627867289478219  0.4276746501775643  0.7685938927276141
  0.9016551674397172  0.0758708189967681  0.2742866615399724
  0.0774123352283128  0.9514944141259748  0.7256362844165088
  0.0347327191070887  0.2856635724775686  0.9337059277765966
  0.9433677104035814  0.7234570557992885  0.0759229862271098
  0.2583339659324705  0.9365427404824068  0.0660717650914052
  0.7314305694610032  0.0749184400633090  0.9345106626187433
  0.5266795959532214  0.2946960334998537  0.1358800972316367
  0.4717334282411893  0.7246800640679120  0.8572805805858170
  0.1366218307732889  0.5056921420002152  0.2762626834206994
  0.8426857047501036  0.4902766567233802  0.7381962011085295
  0.2908897349549772  0.1330758450672388  0.5004876693766498
  0.7036063310588144  0.8703414564577944  0.5002937776452033
  0.3546864996937249  0.2161486834437561  0.0183969199690283
  0.6434185736960683  0.7653551052579618  1.0021317412844102
  0.1890704067750449  1.0000428271323305  0.3847698436280171
  0.7919828498364104  0.0078516348721069  0.6255917579345096
  0.9727385472562680  0.3774174294179166  0.2230475869108504
  0.0077926760741562  0.6305848578423690  0.7766377405449807
 
             NaN             NaN             NaN
             NaN             NaN             NaN
             NaN             NaN             NaN
             NaN             NaN             NaN
             NaN             NaN             NaN
             NaN             NaN             NaN
             NaN             NaN             NaN
             NaN             NaN             NaN
             NaN             NaN             NaN
             NaN             NaN             NaN
             NaN             NaN             NaN
             NaN             NaN             NaN
             NaN             NaN             NaN
             NaN             NaN             NaN
             NaN             NaN             NaN
             NaN             NaN             NaN
             NaN             NaN             NaN
             NaN             NaN             NaN
             NaN             NaN             NaN
             NaN             NaN             NaN
             NaN             NaN             NaN
             NaN             NaN             NaN
             NaN             NaN             NaN
             NaN             NaN             NaN
             NaN             NaN             NaN
             NaN             NaN             NaN
             NaN             NaN             NaN
             NaN             NaN             NaN
             NaN             NaN             NaN
             NaN             NaN             NaN
             NaN             NaN             NaN
             NaN             NaN             NaN
             NaN             NaN             NaN
             NaN             NaN             NaN
             NaN             NaN             NaN
             NaN             NaN             NaN
             NaN             NaN             NaN
             NaN             NaN             NaN
