Na2 Ca2 V4 Si2 P4 O24
1.0
8.885089 0.142923 0.077422
4.319555 7.710716 0.090879
4.434427 2.578927 7.201475
Ca Na V Si P O
2 2 4 2 4 24
direct
0.677053 0.432188 0.218386 Ca
1.004046 0.987270 0.001886 Ca
0.331762 0.582180 0.512776 Na
0.868344 0.252795 0.595440 Na
0.353677 0.358686 0.346261 V
0.622635 0.653921 0.650600 V
0.152658 0.148651 0.138164 V
0.847526 0.854845 0.853808 V
0.446973 0.759132 0.036970 Si
0.542319 0.254969 0.957596 Si
0.025051 0.465168 0.746440 P
0.961125 0.546035 0.243730 P
0.739375 0.045090 0.463064 P
0.249773 0.963748 0.529399 P
0.201413 0.432763 0.578201 O
0.785795 0.572463 0.417167 O
0.575698 0.232820 0.440674 O
0.415129 0.782624 0.549501 O
0.425567 0.581966 0.233691 O
0.563070 0.425057 0.756554 O
0.901441 0.076300 0.268085 O
0.080927 0.951209 0.717266 O
0.043259 0.285152 0.923756 O
0.941394 0.724543 0.070976 O
0.258287 0.936682 0.057264 O
0.733180 0.076898 0.929116 O
0.523174 0.301290 0.125117 O
0.478168 0.712631 0.862421 O
0.135648 0.509161 0.268540 O
0.848031 0.490699 0.731686 O
0.292329 0.133658 0.483963 O
0.700023 0.877737 0.501405 O
0.355247 0.214583 0.012527 O
0.639970 0.777138 0.994656 O
0.193277 0.991688 0.376032 O
0.793337 0.018293 0.617812 O
-0.025882 0.375952 0.220952 O
1.006678 0.632413 0.774743 O
