Ca8 Ni12 F42                            
   1.00000000000000     
     7.2713640000000002    0.0080360000000000   -0.0218540000000000
    -3.6528600000000000    6.3533720000000002    0.0083810000000000
    -0.0475350000000000   -0.0068090000000000   18.3126320000000007
   Ca   Ni   F 
     8    12    42
Direct
  0.1611933703584094  0.8002142590070290  0.6881226373228634
  0.1489887294485257  0.6435444695434303  0.9860929711725599
  0.3556769307759606  0.5062090584802775  0.3180255208755237
  0.8419656031671477  0.0206113276951192  0.3461550888056925
  0.1781539661210675  0.1679165986441442  0.0035251533982089
  0.9854119262303892  0.7950055079326762  0.1742677518685476
  0.7947395646933856  0.9702396355832111  0.8350797753609290
  0.2058477372735374  0.1734853928359618  0.5094289304707746
  0.3359762459228098  0.0006406725661156  0.3331429240120021
  0.9837022291655190  0.3142817608632606  0.6636074934378065
  0.6674079327337712  0.6701602525103596  0.0016420896599876
  0.3408550019658279  0.0341481960381698  0.8377871117975365
  0.9933868026936320  0.3111998461306349  0.1613050413020978
  0.6842754994480418  0.6721840623484429  0.4919490627658019
  0.4961314849107642  0.8193362067341301  0.1638519317807963
  0.1770485334669505  0.6621931690216952  0.4907065920955144
  0.3189371208100105  0.5042839576616015  0.8289448960622270
  0.8247967122705415  0.5063369928252057  0.8290464379064594
  0.6844699194414381  0.1727849732692259  0.4973991329959960
  0.4924025002728332  0.3106385648910084  0.1616226923619375
  0.7402496921348872  0.1955352764942029  0.6001063176162079
  0.8215570227333164  0.5766542753583660  0.9365600406462817
  0.4391732106054697  0.2550884874111857  0.2702259258181798
  0.2416665238801930  0.7236887171097419  0.3837136146668398
  0.4821324932750755  0.7521036969224393  0.0584560443810538
  0.2379900783210368  0.4999985568925009  0.7256426662364420
  0.8318549420551139  0.9573013300741605  0.9560409194457523
  0.0420755871722834  0.8825900997157216  0.2890312288078581
  0.1201055894355927  0.1678069766704487  0.6205425697208190
  0.9746711949730645  0.7979960849959212  0.0535941033634934
  0.8513010079145663  0.0816798509071311  0.7274767171002042
  0.2058443637070178  0.1759415994326732  0.3862965166567872
  0.5205167941400800  0.3876830851411795  0.0534529900133083
  0.6090951339446294  0.1256148136117712  0.3885420903360369
  0.8757998861156859  0.4851975292210693  0.7222338357690633
  0.3888436434894902  0.5326846055158468  0.9426474518128048
  0.1186411485825951  0.5830571800504469  0.5964913288896249
  0.5035319125181903  0.8717890912469975  0.2760969341185723
  0.7972858916352009  0.4242218208389401  0.1710434583923926
  0.5732037637477240  0.3647882983347547  0.4970336793742097
  0.6482572525997458  0.2092990825454257  0.8539793194538087
  0.4281422265480944  0.8158457173289748  0.8226244277435657
  0.3785676026059198  0.5592954872657234  0.4912855624389180
  0.1893615549209142  0.6214352701610283  0.1757122228894166
  0.0248945623489515  0.2991916479797154  0.2722129029866518
  0.7034173636929817  0.6980646357066650  0.5893334351226976
  0.2959482465096975  0.9722609526475183  0.9456027247837497
  0.3788564268821972  0.0994575148107016  0.7354037363454643
  0.6598615178905231  0.6700783585633017  0.3849064915016429
  0.0182242046637935  0.3466027806213190  0.0503482874863838
  0.1865991723801906  0.1977206076536706  0.1413073476685607
  0.8009201255958009  0.9823065203268154  0.4769925920433112
  0.0324821286802654  0.8194537026484295  0.8083954243031768
  0.1963148171610069  0.2020750963848729  0.8588936707236765
  0.9849953465706598  0.7758491211001772  0.4861013885894725
  0.8040928203071471 -0.0009299234404226  0.1642306906828924
  0.0531850301986654  0.4622824543521284  0.8714401723406350
  0.5733534132719953  0.6043856790002695  0.2002799727023179
  0.3737976198164190  0.9631839459899172  0.5233111348806125
  0.3873015234667713  0.0096167591840105  0.1386738628544436
  0.6184894533627320  0.6000766507209879  0.8083371710884957
  0.9798682320658391  0.3666222658669204  0.4620110886990050
 
             NaN             NaN             NaN
             NaN             NaN             NaN
             NaN             NaN             NaN
             NaN             NaN             NaN
             NaN             NaN             NaN
             NaN             NaN             NaN
             NaN             NaN             NaN
             NaN             NaN             NaN
             NaN             NaN             NaN
             NaN             NaN             NaN
             NaN             NaN             NaN
             NaN             NaN             NaN
             NaN             NaN             NaN
             NaN             NaN             NaN
             NaN             NaN             NaN
             NaN             NaN             NaN
             NaN             NaN             NaN
             NaN             NaN             NaN
             NaN             NaN             NaN
             NaN             NaN             NaN
             NaN             NaN             NaN
             NaN             NaN             NaN
             NaN             NaN             NaN
             NaN             NaN             NaN
             NaN             NaN             NaN
             NaN             NaN             NaN
             NaN             NaN             NaN
             NaN             NaN             NaN
             NaN             NaN             NaN
             NaN             NaN             NaN
             NaN             NaN             NaN
             NaN             NaN             NaN
             NaN             NaN             NaN
             NaN             NaN             NaN
             NaN             NaN             NaN
             NaN             NaN             NaN
             NaN             NaN             NaN
             NaN             NaN             NaN
             NaN             NaN             NaN
             NaN             NaN             NaN
             NaN             NaN             NaN
             NaN             NaN             NaN
             NaN             NaN             NaN
             NaN             NaN             NaN
             NaN             NaN             NaN
             NaN             NaN             NaN
             NaN             NaN             NaN
             NaN             NaN             NaN
             NaN             NaN             NaN
             NaN             NaN             NaN
             NaN             NaN             NaN
             NaN             NaN             NaN
             NaN             NaN             NaN
             NaN             NaN             NaN
             NaN             NaN             NaN
             NaN             NaN             NaN
             NaN             NaN             NaN
             NaN             NaN             NaN
             NaN             NaN             NaN
             NaN             NaN             NaN
             NaN             NaN             NaN
             NaN             NaN             NaN
