Ca8 Ni12 F42
1.0
7.271364 0.008036 -0.021854
-3.652860 6.353372 0.008381
-0.047535 -0.006809 18.312632
Ca Ni F
8 12 42
direct
0.185376 0.843227 0.667496 Ca
0.151554 0.645217 0.979834 Ca
0.350884 0.511578 0.320236 Ca
0.843345 0.016168 0.346852 Ca
0.169250 0.162245 0.009319 Ca
0.986448 0.792409 0.174540 Ca
0.792293 0.980313 0.835401 Ca
0.214959 0.182359 0.510257 Ca
0.343183 0.008109 0.334072 Ni
0.991533 0.339683 0.666568 Ni
0.660958 0.658585 0.001147 Ni
0.316593 0.006177 0.831940 Ni
0.994939 0.312629 0.162071 Ni
0.689831 0.681474 0.493974 Ni
0.497860 0.819411 0.162698 Ni
0.182701 0.673197 0.495729 Ni
0.311177 0.494324 0.829519 Ni
0.812002 0.498077 0.828391 Ni
0.693573 0.184948 0.497060 Ni
0.494866 0.310999 0.163066 Ni
0.748548 0.201779 0.600770 F
0.807626 0.554215 0.937489 F
0.440723 0.260700 0.270551 F
0.251180 0.735076 0.386751 F
0.476766 0.746264 0.056489 F
0.247205 0.497800 0.727624 F
0.827079 0.948696 0.955612 F
0.050784 0.886860 0.288615 F
0.126466 0.194169 0.618902 F
0.972422 0.790976 0.053166 F
0.849730 0.066057 0.723142 F
0.210180 0.181247 0.386997 F
0.521109 0.382172 0.055495 F
0.618468 0.137611 0.387902 F
0.860333 0.477842 0.723691 F
0.371188 0.497597 0.944186 F
0.121108 0.610908 0.602211 F
0.509688 0.878392 0.275248 F
0.799364 0.423684 0.172812 F
0.582443 0.376538 0.499742 F
0.624745 0.197923 0.843360 F
0.416390 0.797770 0.848562 F
0.379015 0.563790 0.495003 F
0.194677 0.620165 0.181500 F
0.022363 0.292729 0.271972 F
0.706259 0.721045 0.595377 F
0.281972 0.980433 0.943475 F
0.337039 0.007775 0.728744 F
0.656741 0.673600 0.381399 F
0.021843 0.357677 0.051622 F
0.188762 0.199698 0.142327 F
0.806842 0.992033 0.476409 F
0.006328 0.805498 0.819169 F
0.190667 0.192160 0.841362 F
0.996352 0.791419 0.486289 F
0.804908 0.000646 0.158053 F
0.030345 0.429607 0.869657 F
0.582860 0.609817 0.198017 F
0.388309 0.975314 0.523604 F
0.385030 0.007464 0.139189 F
0.612122 0.603568 0.806637 F
0.986770 0.381194 0.464557 F
