K10 V6 F28
1.0
        7.7849178314         0.0000000000         0.0000000000
        0.0000000000         7.7849178314         0.0000000000
        0.0000000000         0.0000000000        11.9308652878
    K    V    F
    9    6   28
Direct
   0.5000000000000000    0.5000000000000000    0.5000000000000000 K
     0.217343003         0.282656997         0.750000000
     0.717342973         0.217343003         0.750000000
     0.282656997         0.782657027         0.750000000
     0.782657027         0.717342973         0.750000000
     0.282656997         0.782657027         0.250000000
     0.717342973         0.217343003         0.250000000
     0.217343003         0.282656997         0.250000000
     0.000000000         0.000000000         0.000000000
     0.500000000         0.500000000         0.000000000
     0.000000000         0.000000000         0.500000000
     0.500000000         0.000000000         0.000000000
     0.000000000         0.500000000         0.000000000
     0.000000000         0.500000000         0.500000000
     0.500000000         0.000000000         0.500000000
     0.500000000         0.500000000         0.835675001
     0.000000000         0.000000000         0.664324999
     0.500000000         0.500000000         0.164324999
     0.000000000         0.000000000         0.335675001
     0.426923007         0.746987998         0.000000000
     0.573077023         0.253012002         0.000000000
     0.246987998         0.926922977         0.500000000
     0.746987998         0.573077023         0.000000000
     0.253012002         0.426923007         0.000000000
     0.073077001         0.246987998         0.500000000
     0.926922977         0.753012002         0.500000000
     0.753012002         0.073077001         0.500000000
     0.674606979         0.958467007         0.885788977
     0.325392991         0.041533001         0.885788977
     0.458467007         0.174606994         0.614211023
     0.958467007         0.325392991         0.885788977
     0.458467007         0.174606994         0.385789007
     0.825393021         0.458467007         0.385789007
     0.174606994         0.541532993         0.385789007
     0.958467007         0.325392991         0.114211001
     0.041533001         0.674606979         0.114211001
     0.541532993         0.825393021         0.385789007
     0.674606979         0.958467007         0.114211001
     0.325392991         0.041533001         0.114211001
     0.541532993         0.825393021         0.614211023
     0.174606994         0.541532993         0.614211023
     0.825393021         0.458467007         0.614211023
     0.041533001         0.674606979         0.885788977
