Na16 Ti32 O64
1.0
  11.7821365599999996    0.0000000000000000    0.0000000000000008
   0.0000000000000015    9.2444159599999995    0.0000000000000006
   0.0000000000000000    0.0000000000000000   10.7385036300000003
Na Ti O
15 32 64
direct
   0.3124999999999999    0.2433949399999990    0.6536992900000000 Na
   0.8125000000000000    0.2433949399999990    0.6536992899999999 Na
   0.0625000000000000    0.2433949399999990    0.6536992900000000 Na
   0.1875000000000001    0.7566050600000001    0.3463007099999990 Na
   0.6875000000000001    0.7566050600000001    0.3463007099999990 Na
   0.4374999999999999    0.7566050600000001    0.3463007099999990 Na
   0.9374999999999999    0.7566050600000001    0.3463007099999990 Na
   0.0625000000000000    0.7433949400000001    0.8463007100000001 Na
   0.5625000000000000    0.7433949400000001    0.8463007100000000 Na
   0.3125000000000000    0.7433949400000001    0.8463007100000001 Na
   0.8124999999999999    0.7433949400000001    0.8463007100000000 Na
   0.1875000000000001    0.2566050600000000    0.1536992900000000 Na
   0.6875000000000000    0.2566050600000000    0.1536992900000000 Na
   0.4374999999999999    0.2566050600000000    0.1536992900000000 Na
   0.9375000000000000    0.2566050600000000    0.1536992900000000 Na
   0.1875000000000000    0.4354953600000002    0.3887124999999990 Ti
   0.6875000000000000    0.4354953600000002    0.3887124999999990 Ti
   0.4375000000000000    0.4354953600000002    0.3887124999999990 Ti
   0.9375000000000000    0.4354953600000002    0.3887124999999990 Ti
   0.0625000000000000    0.5645046400000000    0.6112875000000000 Ti
   0.5625000000000000    0.5645046400000000    0.6112874999999999 Ti
   0.3125000000000000    0.5645046400000000    0.6112874999999999 Ti
   0.8124999999999999    0.5645046400000000    0.6112874999999999 Ti
   0.1875000000000000    0.9354953600000000    0.1112875000000000 Ti
   0.6874999999999999    0.9354953600000000    0.1112875000000000 Ti
   0.4374999999999999    0.9354953600000000    0.1112875000000000 Ti
   0.9374999999999999    0.9354953600000000    0.1112875000000000 Ti
   0.0625000000000000    0.0645046400000000    0.8887124999999989 Ti
   0.5625000000000000    0.0645046400000000    0.8887124999999989 Ti
   0.3125000000000000    0.0645046400000000    0.8887124999999989 Ti
   0.8125000000000000    0.0645046400000000    0.8887124999999989 Ti
   0.0625000000000000    0.0823989099999990    0.3965559299999991 Ti
   0.5625000000000000    0.0823989099999990    0.3965559299999990 Ti
   0.3125000000000000    0.0823989099999990    0.3965559299999991 Ti
   0.8125000000000000    0.0823989099999990    0.3965559299999991 Ti
   0.1875000000000000    0.9176010900000000    0.6034440700000000 Ti
   0.6874999999999999    0.9176010900000000    0.6034440699999999 Ti
   0.4374999999999999    0.9176010900000000    0.6034440700000000 Ti
   0.9374999999999999    0.9176010900000000    0.6034440699999999 Ti
   0.0625000000000000    0.5823989100000000    0.1034440700000000 Ti
   0.5625000000000000    0.5823989100000000    0.1034440700000000 Ti
   0.3125000000000000    0.5823989100000000    0.1034440700000000 Ti
   0.8124999999999999    0.5823989100000000    0.1034440700000000 Ti
   0.1875000000000000    0.4176010900000001    0.8965559299999991 Ti
   0.6875000000000000    0.4176010900000001    0.8965559299999990 Ti
   0.4375000000000000    0.4176010900000001    0.8965559299999989 Ti
   0.9375000000000000    0.4176010900000001    0.8965559299999989 Ti
   0.1875000000000000    0.4196740100000000    0.5700796700000000 O
   0.6875000000000000    0.4196740100000000    0.5700796699999999 O
   0.4375000000000000    0.4196740100000000    0.5700796699999999 O
   0.9375000000000000    0.4196740100000000    0.5700796699999998 O
   0.0625000000000000    0.5803259900000000    0.4299203299999990 O
   0.5625000000000000    0.5803259900000000    0.4299203299999989 O
   0.3125000000000000    0.5803259900000000    0.4299203299999990 O
   0.8124999999999999    0.5803259900000000    0.4299203299999990 O
   0.1875000000000000    0.9196740100000002    0.9299203300000001 O
   0.6874999999999999    0.9196740100000002    0.9299203300000000 O
   0.4374999999999999    0.9196740100000002    0.9299203300000001 O
   0.9374999999999999    0.9196740100000002    0.9299203300000000 O
   0.0625000000000000    0.0803259899999990    0.0700796700000000 O
   0.5625000000000000    0.0803259899999990    0.0700796700000000 O
   0.3125000000000000    0.0803259899999990    0.0700796700000000 O
   0.8125000000000000    0.0803259899999990    0.0700796700000000 O
   0.1875000000000000    0.0214028600000000    0.2810845999999990 O
   0.6875000000000000    0.0214028600000000    0.2810845999999990 O
   0.4375000000000000    0.0214028600000000    0.2810845999999990 O
   0.9375000000000000    0.0214028600000000    0.2810845999999990 O
   0.0625000000000000    0.9785971400000001    0.7189154000000000 O
   0.5625000000000000    0.9785971400000001    0.7189153999999999 O
   0.3125000000000000    0.9785971400000001    0.7189154000000000 O
   0.8124999999999999    0.9785971400000001    0.7189153999999999 O
   0.1875000000000001    0.5214028600000000    0.2189153999999990 O
   0.6874999999999999    0.5214028600000000    0.2189153999999990 O
   0.4375000000000000    0.5214028600000000    0.2189153999999990 O
   0.9374999999999999    0.5214028600000000    0.2189153999999990 O
   0.0625000000000000    0.4785971400000000    0.7810846000000000 O
   0.5625000000000000    0.4785971400000000    0.7810846000000000 O
   0.3125000000000000    0.4785971400000000    0.7810846000000000 O
   0.8124999999999999    0.4785971400000000    0.7810845999999999 O
   0.1874999999999999    0.1133019600000000    0.5225426899999999 O
   0.6874999999999999    0.1133019600000000    0.5225426899999998 O
   0.4375000000000000    0.1133019600000000    0.5225426899999998 O
   0.9375000000000000    0.1133019600000000    0.5225426899999998 O
   0.0625000000000000    0.8866980400000000    0.4774573100000000 O
   0.5625000000000000    0.8866980400000000    0.4774573099999999 O
   0.3125000000000000    0.8866980400000000    0.4774573099999999 O
   0.8124999999999999    0.8866980400000000    0.4774573099999998 O
   0.1875000000000000    0.6133019600000000    0.9774573100000000 O
   0.6874999999999999    0.6133019600000000    0.9774573100000000 O
   0.4375000000000000    0.6133019600000000    0.9774573100000000 O
   0.9374999999999999    0.6133019600000000    0.9774573099999999 O
   0.0625000000000000    0.3866980399999990    0.0225426899999990 O
   0.5625000000000001    0.3866980399999990    0.0225426899999990 O
   0.3124999999999999    0.3866980399999990    0.0225426899999990 O
   0.8125000000000000    0.3866980399999990    0.0225426899999990 O
   0.0625000000000000    0.2905970199999990    0.3478106999999990 O
   0.5625000000000001    0.2905970199999990    0.3478106999999990 O
   0.3124999999999999    0.2905970199999990    0.3478106999999989 O
   0.8125000000000000    0.2905970199999990    0.3478106999999989 O
   0.1875000000000000    0.7094029800000000    0.6521893000000010 O
   0.6874999999999999    0.7094029800000000    0.6521893000000009 O
   0.4374999999999999    0.7094029800000000    0.6521893000000010 O
   0.9374999999999999    0.7094029800000000    0.6521893000000009 O
   0.0625000000000000    0.7905970199999992    0.1521893000000000 O
   0.5625000000000000    0.7905970199999992    0.1521893000000000 O
   0.3125000000000000    0.7905970199999992    0.1521893000000000 O
   0.8124999999999999    0.7905970199999992    0.1521893000000000 O
   0.1875000000000001    0.2094029800000000    0.8478106999999988 O
   0.6875000000000000    0.2094029800000000    0.8478106999999988 O
   0.4375000000000001    0.2094029800000000    0.8478106999999988 O
   0.9375000000000000    0.2094029800000000    0.8478106999999987 O
