Ca1 Ti12 F42                            
   1.00000000000000     
     7.4982119999999997   -0.0042560000000000    0.0153030000000000
    -3.7424189999999999    6.5162950000000004   -0.0437800000000000
    -0.0864080000000000   -0.1147080000000000   17.7044649999999990
   Ca   Ti   F 
     1    12    42
Direct
  0.6843209990803794  0.1472750590260250  0.9814738577741676
  0.2657421977062008  0.9938858599420436  0.3331850087071875
  0.7171732569668403  0.6985819950461621  0.0025293971777809
  0.0052117411732601  0.2781623469873267  0.6616016999614890
  0.3522423605746433  0.0111621650865956  0.8251330689282211
  0.6471782244590982  0.6490431345975956  0.4978601903860689
  0.0057110583505655  0.3459684093376889  0.1743207608257314
  0.6436704019542346  0.1477905467717953  0.4962169131993235
  0.5002787806763660  0.3409236239550085  0.1660459166187217
  0.8579665778479982  0.5102313970755876  0.8238803599029948
  0.3547246193630557  0.5085441857768823  0.8311834406562858
  0.1460036410645035  0.6457644123455234  0.4991357822211155
  0.5001972096530938  0.8431018660107129  0.1712467590547540
  0.5788222035607598  0.8315087042458700  0.0622390324744167
  0.2487713150596867  0.4287019153035334  0.7268957802516653
  0.1708250849822752  0.7494169358761221  0.3947184705748117
  0.4177028804773341  0.2344781051969498  0.2690177379850638
  0.8164286034138157  0.5470619746425921  0.9350817627681672
  0.7553256306204144  0.1809490445329388  0.6004469853205605
  0.8854655961954692  0.0798215860475905  0.7294838235797937
  0.1754623841633170  0.1143209484652323  0.3966483898688397
  0.9262090438235038  0.7848039243560019  0.0676995954123040
  0.1205941130785409  0.1811962681662327  0.5988115184573809
  0.0601307822532052  0.8755063033874008  0.2667496703250666
  0.8082970033587694  0.9426734919690305  0.9431133965321755
  0.1187353080661062  0.5424776888639531  0.6011413665726529
  0.4212965804226130  0.8792968945256420  0.2704920650689249
  0.4599198258033945  0.5748206802902921  0.9368067165524838
  0.8979416066623637  0.4446968200732319  0.7237307691999342
  0.5351130994539665  0.1105088871596806  0.3940111554286305
  0.5687293772783307  0.4199769272876427  0.0574345405258440
  0.3545386741594915  0.5717627206652058  0.4764870333884704
  0.2161971433138535  0.6329396492376534  0.1472111553072800
  0.4238242731599969  0.7895356440607944  0.8117795020466970
  0.6613610900158675  0.2157450302548578  0.8499701761371787
  0.5699712487853617  0.3570967362946030  0.5181937333656349
  0.7837043952915691  0.4172036264733490  0.1887484794937850
  0.6856066223795998  0.6114184320776059  0.3990767250092372
  0.9202466598495492  0.3019709525559930  0.0684771608528071
  0.4017881683741935  0.0903410682541936  0.7290612513962514
  0.3663735021920649  0.9760135150467637  0.9334238598010842
  0.6127371046325211  0.6895077361148232  0.5968167796859262
  0.0830492309805976  0.3870844120504638  0.2712292960208765
  0.9396308727794265  0.7246287868614681  0.5195209705458486
  0.7863676073960255  0.0537467117417126  0.1901401004575319
  0.2784043364177771  0.2245429400385991  0.8512997826934409
  0.0616026868945387  0.8008221834056281  0.8171801968171639
  0.7221494435618225  0.9401733850270332  0.4771769286400969
  0.2132161367993088  0.2630754707093352  0.1462991971758933
  0.6277314002404395  0.5543927574252221  0.8026090822217049
  0.9194120082890964  0.3719418674702368  0.4680235702648588
  0.4576226719656772  0.0676359515084358  0.1293891933372970
  0.3713427901050155  0.9233622579268604  0.5273468042741632
  0.5516288407765307  0.6175902381894602  0.1915559145123057
  0.0764967856996036  0.4546009946492182  0.8629828473472829
 
             NaN             NaN             NaN
             NaN             NaN             NaN
             NaN             NaN             NaN
             NaN             NaN             NaN
             NaN             NaN             NaN
             NaN             NaN             NaN
             NaN             NaN             NaN
             NaN             NaN             NaN
             NaN             NaN             NaN
             NaN             NaN             NaN
             NaN             NaN             NaN
             NaN             NaN             NaN
             NaN             NaN             NaN
             NaN             NaN             NaN
             NaN             NaN             NaN
             NaN             NaN             NaN
             NaN             NaN             NaN
             NaN             NaN             NaN
             NaN             NaN             NaN
             NaN             NaN             NaN
             NaN             NaN             NaN
             NaN             NaN             NaN
             NaN             NaN             NaN
             NaN             NaN             NaN
             NaN             NaN             NaN
             NaN             NaN             NaN
             NaN             NaN             NaN
             NaN             NaN             NaN
             NaN             NaN             NaN
             NaN             NaN             NaN
             NaN             NaN             NaN
             NaN             NaN             NaN
             NaN             NaN             NaN
             NaN             NaN             NaN
             NaN             NaN             NaN
             NaN             NaN             NaN
             NaN             NaN             NaN
             NaN             NaN             NaN
             NaN             NaN             NaN
             NaN             NaN             NaN
             NaN             NaN             NaN
             NaN             NaN             NaN
             NaN             NaN             NaN
             NaN             NaN             NaN
             NaN             NaN             NaN
             NaN             NaN             NaN
             NaN             NaN             NaN
             NaN             NaN             NaN
             NaN             NaN             NaN
             NaN             NaN             NaN
             NaN             NaN             NaN
             NaN             NaN             NaN
             NaN             NaN             NaN
             NaN             NaN             NaN
             NaN             NaN             NaN
