Ca1 Ti12 F42
1.0
7.498212 -0.004256 0.015303
-3.742419 6.516295 -0.043780
-0.086408 -0.114708 17.704465
Ca Ti F
1 12 42
direct
0.664847 0.120506 0.976983 Ca
0.264987 0.999538 0.335062 Ti
0.718726 0.709900 0.003041 Ti
0.004796 0.278546 0.662828 Ti
0.355022 0.008417 0.826895 Ti
0.642968 0.646797 0.499015 Ti
0.005924 0.346919 0.172506 Ti
0.642172 0.146625 0.497762 Ti
0.503489 0.346216 0.166751 Ti
0.859608 0.511817 0.827026 Ti
0.355490 0.506896 0.832263 Ti
0.143022 0.646237 0.500522 Ti
0.498312 0.843679 0.174271 Ti
0.562774 0.817091 0.065421 F
0.248831 0.433129 0.728220 F
0.169424 0.754153 0.396561 F
0.416138 0.236558 0.269077 F
0.841671 0.596549 0.932109 F
0.754384 0.175589 0.601557 F
0.892091 0.073579 0.729650 F
0.175125 0.120874 0.398190 F
0.922195 0.800350 0.070687 F
0.124899 0.187849 0.599319 F
0.059028 0.878702 0.268727 F
0.788959 0.951206 0.947390 F
0.112211 0.543014 0.602759 F
0.422070 0.884630 0.272717 F
0.460223 0.565213 0.937649 F
0.887409 0.428343 0.727529 F
0.533376 0.113609 0.395796 F
0.580564 0.425067 0.056698 F
0.350292 0.570488 0.477894 F
0.211982 0.637223 0.149521 F
0.440173 0.794921 0.815375 F
0.654244 0.226823 0.862511 F
0.569035 0.356264 0.520679 F
0.785571 0.419474 0.189857 F
0.678082 0.604379 0.400335 F
0.915674 0.301991 0.068532 F
0.428056 0.095755 0.733044 F
0.336628 0.953574 0.933371 F
0.606899 0.687931 0.597702 F
0.083559 0.382656 0.269683 F
0.935915 0.725255 0.520438 F
0.786257 0.055296 0.189346 F
0.269598 0.216483 0.848922 F
0.067528 0.799493 0.806913 F
0.718361 0.937424 0.477276 F
0.218421 0.271132 0.143756 F
0.629808 0.555217 0.802555 F
0.917308 0.371996 0.469586 F
0.461194 0.071592 0.127841 F
0.369586 0.922687 0.529160 F
0.550507 0.619807 0.194860 F
0.077401 0.454253 0.863208 F
