Li32 Sc32 S64
1.0
  11.4370344041867220    0.0000010456382324    0.0000008764561014
   0.0000010290800624   11.4370318712565222   -0.0000009376506826
   0.0000016647433558   -0.0000017946632944   22.7413496251381346
Li Sc S
31 32 64
direct
   0.5000000092589831    0.2499999963598435    0.6249999905249528 Li
   0.0000000092589831    0.2499999963598435    0.1249999905249529 Li
   0.0000000092589831    0.2499999963598435    0.6249999905249528 Li
   0.0000000092589831    0.7499999963598436    0.1249999905249529 Li
   0.0000000092589831    0.7499999963598436    0.6249999905249528 Li
   0.5000000092589831    0.2499999963598435    0.1249999905249529 Li
   0.5000000092589831    0.7499999963598435    0.1249999905249529 Li
   0.5000000092589831    0.7499999963598436    0.6249999905249529 Li
   0.0000000126483390    0.0000000068571128    0.0000000035910534 Li
   0.0000000126483390    0.0000000068571128    0.5000000035910533 Li
   0.0000000126483390    0.5000000068571129    0.0000000035910535 Li
   0.0000000126483391    0.5000000068571129    0.5000000035910535 Li
   0.5000000126483390    0.0000000068571128    0.0000000035910535 Li
   0.5000000126483390    0.0000000068571128    0.5000000035910535 Li
   0.5000000126483390    0.5000000068571128    0.0000000035910535 Li
   0.2500000108271948    0.4999999828269493    0.3749999969334987 Li
   0.2500000108271948    0.4999999828269494    0.8749999969334986 Li
   0.2500000108271948    0.9999999828269494    0.3749999969334987 Li
   0.2500000108271949    0.9999999828269492    0.8749999969334986 Li
   0.7500000108271948    0.4999999828269493    0.3749999969334987 Li
   0.7500000108271947    0.4999999828269493    0.8749999969334987 Li
   0.7500000108271948    0.9999999828269492    0.3749999969334987 Li
   0.7500000108271948    0.9999999828269494    0.8749999969334987 Li
   0.2500000242092436    0.2500000033580922    0.2500000009365386 Li
   0.2500000242092436    0.2500000033580922    0.7500000009365386 Li
   0.2500000242092436    0.7500000033580924    0.2500000009365386 Li
   0.2500000242092436    0.7500000033580921    0.7500000009365386 Li
   0.7500000242092435    0.2500000033580922    0.2500000009365386 Li
   0.7500000242092436    0.2500000033580922    0.7500000009365385 Li
   0.7500000242092434    0.7500000033580921    0.2500000009365386 Li
   0.7500000242092436    0.7500000033580922    0.7500000009365385 Li
   0.0000000314210036    0.4999999799514940    0.2500000139783648 Sc
   0.0000000314210036    0.4999999799514939    0.7500000139783647 Sc
   0.0000000314210036    0.9999999799514940    0.2500000139783648 Sc
   0.0000000314210036    0.9999999799514938    0.7500000139783647 Sc
   0.5000000314210037    0.4999999799514939    0.2500000139783648 Sc
   0.5000000314210036    0.4999999799514939    0.7500000139783648 Sc
   0.5000000314210036    0.9999999799514938    0.2500000139783648 Sc
   0.5000000314210037    0.9999999799514940    0.7500000139783648 Sc
   0.4999999878516908    0.2500000220639587    0.3749999911267723 Sc
   0.4999999878516908    0.2500000220639587    0.8749999911267723 Sc
   0.4999999878516908    0.7500000220639587    0.3749999911267723 Sc
   0.4999999878516908    0.7500000220639587    0.8749999911267723 Sc
   0.9999999878516906    0.2500000220639587    0.3749999911267723 Sc
   0.9999999878516909    0.2500000220639586    0.8749999911267722 Sc
   0.9999999878516905    0.7500000220639587    0.3749999911267723 Sc
   0.9999999878516908    0.7500000220639588    0.8749999911267722 Sc
   0.2499999474508939    0.9999999832584929    0.1249999913604362 Sc
   0.2499999474508939    0.9999999832584929    0.6249999913604362 Sc
   0.2499999474508939    0.4999999832584929    0.1249999913604363 Sc
   0.2499999474508939    0.4999999832584929    0.6249999913604362 Sc
   0.7499999474508938    0.9999999832584929    0.1249999913604362 Sc
   0.7499999474508939    0.9999999832584929    0.6249999913604363 Sc
   0.7499999474508938    0.4999999832584929    0.1249999913604363 Sc
   0.7499999474508939    0.4999999832584929    0.6249999913604363 Sc
   0.2499999715701064    0.2499999878808190    0.0000000066735646 Sc
   0.2499999715701064    0.2499999878808190    0.5000000066735646 Sc
   0.2499999715701064    0.7499999878808189    0.0000000066735647 Sc
   0.2499999715701064    0.7499999878808190    0.5000000066735646 Sc
   0.7499999715701064    0.2499999878808190    0.0000000066735647 Sc
   0.7499999715701064    0.2499999878808190    0.5000000066735646 Sc
   0.7499999715701064    0.7499999878808190    0.0000000066735646 Sc
   0.7499999715701064    0.7499999878808190    0.5000000066735646 Sc
   0.1250001068475088    0.3776777055597095    0.1875020396649104 S
   0.1250001068475088    0.3776777055597095    0.6875020396649103 S
   0.1250001068475088    0.8776777055597094    0.1875020396649104 S
   0.1250001068475088    0.8776777055597096    0.6875020396649103 S
   0.6250001068475088    0.3776777055597095    0.1875020396649104 S
   0.6250001068475090    0.3776777055597095    0.6875020396649104 S
   0.6250001068475087    0.8776777055597096    0.1875020396649104 S
   0.6250001068475088    0.8776777055597095    0.6875020396649104 S
   0.1249998631103822    0.3723222243679927    0.4375020229001426 S
   0.1249998631103822    0.3723222243679927    0.9375020229001426 S
   0.1249998631103822    0.8723222243679928    0.4375020229001426 S
   0.1249998631103822    0.8723222243679927    0.9375020229001426 S
   0.6249998631103824    0.3723222243679927    0.4375020229001426 S
   0.6249998631103822    0.3723222243679927    0.9375020229001425 S
   0.6249998631103822    0.8723222243679927    0.4375020229001426 S
   0.6249998631103824    0.8723222243679927    0.9375020229001425 S
   0.1276777423653294    0.1249998824272242    0.0624979683363571 S
   0.1276777423653294    0.1249998824272242    0.5624979683363570 S
   0.1276777423653294    0.6249998824272243    0.0624979683363571 S
   0.1276777423653294    0.6249998824272243    0.5624979683363570 S
   0.6276777423653294    0.1249998824272242    0.0624979683363571 S
   0.6276777423653294    0.1249998824272242    0.5624979683363571 S
   0.6276777423653294    0.6249998824272243    0.0624979683363571 S
   0.6276777423653294    0.6249998824272242    0.5624979683363571 S
   0.1223223063471478    0.1250001750929891    0.3124979827288281 S
   0.1223223063471478    0.1250001750929891    0.8124979827288281 S
   0.1223223063471478    0.6250001750929891    0.3124979827288281 S
   0.1223223063471478    0.6250001750929892    0.8124979827288281 S
   0.6223223063471478    0.1250001750929891    0.3124979827288281 S
   0.6223223063471477    0.1250001750929891    0.8124979827288280 S
   0.6223223063471477    0.6250001750929892    0.3124979827288281 S
   0.6223223063471478    0.6250001750929891    0.8124979827288280 S
   0.3723222200974801    0.3750001179798212    0.0624979868014159 S
   0.3723222200974802    0.3750001179798212    0.5624979868014158 S
   0.3723222200974801    0.8750001179798212    0.0624979868014159 S
   0.3723222200974802    0.8750001179798214    0.5624979868014158 S
   0.8723222200974802    0.3750001179798212    0.0624979868014159 S
   0.8723222200974803    0.3750001179798212    0.5624979868014158 S
   0.8723222200974801    0.8750001179798214    0.0624979868014159 S
   0.8723222200974802    0.8750001179798211    0.5624979868014158 S
   0.3776777930908077    0.3749998497843511    0.3124979728767666 S
   0.3776777930908077    0.3749998497843511    0.8124979728767665 S
   0.3776777930908077    0.8749998497843512    0.3124979728767666 S
   0.3776777930908077    0.8749998497843511    0.8124979728767665 S
   0.8776777930908078    0.3749998497843511    0.3124979728767666 S
   0.8776777930908077    0.3749998497843511    0.8124979728767666 S
   0.8776777930908076    0.8749998497843510    0.3124979728767666 S
   0.8776777930908078    0.8749998497843512    0.8124979728767666 S
   0.3749998472125989    0.1223222961919922    0.1875020089655756 S
   0.3749998472125989    0.1223222961919922    0.6875020089655755 S
   0.3749998472125989    0.6223222961919923    0.1875020089655756 S
   0.3749998472125989    0.6223222961919922    0.6875020089655755 S
   0.8749998472125989    0.1223222961919922    0.1875020089655755 S
   0.8749998472125988    0.1223222961919922    0.6875020089655756 S
   0.8749998472125989    0.6223222961919922    0.1875020089655755 S
   0.8749998472125989    0.6223222961919922    0.6875020089655756 S
   0.3750001256912930    0.1276777860391540    0.4375020226008217 S
   0.3750001256912931    0.1276777860391541    0.9375020226008217 S
   0.3750001256912931    0.6276777860391540    0.4375020226008217 S
   0.3750001256912931    0.6276777860391540    0.9375020226008217 S
   0.8750001256912932    0.1276777860391541    0.4375020226008217 S
   0.8750001256912930    0.1276777860391540    0.9375020226008216 S
   0.8750001256912930    0.6276777860391540    0.4375020226008217 S
   0.8750001256912932    0.6276777860391540    0.9375020226008216 S
