Na2 Ca2 V4 P4 S2 O24                    
   1.00000000000000     
     8.8911999999999995    0.2302230000000000    0.1189550000000000
     4.3498880000000000    7.7924329999999999    0.1523720000000000
     4.2965359999999997    2.6363249999999998    7.3182900000000002
   Ca   Na   V    P    S    O 
     2     2     4     4     2    24
Direct
  0.5073268560976602  0.4350883016034243  0.5565521996727878
  0.0142559856118091  0.9689384927567306  0.0129594864309641
  0.7458936899289071  0.3976345456719237  0.1220108611267015
  0.5987010810625670  0.8745063921521928  0.2508241875167639
  0.3472870500625519  0.3559964769778597  0.3549380464896796
  0.6439622350892567  0.6470731197408969  0.6449527017547070
  0.1486884182566301  0.1465123485393581  0.1402278150293187
  0.8457902133115627  0.8540401908381920  0.8566511735513499
  0.9495666703641155  0.5337779473108877  0.2551672898787636
  0.7495183481465361  0.0349325800829684  0.4527375701852230
  0.4560018497567618  0.7493023828027159  0.0466243751800389
  0.5457876458622720  0.2482475975138825  0.9637773048743252
  0.0409760733088544  0.4542386094763882  0.7468459460323169
  0.2435682304920638  0.9552018097224698  0.5497023507264918
  0.2272235288010456  0.4235514850259446  0.6010147927655335
  0.7566127630017305  0.5617621823001537  0.4140845696015087
  0.5854742199694462  0.2262437818067910  0.4288655102689897
  0.4019096493567100  0.7718144973851858  0.5675906459855923
  0.4321409711767664  0.5826816820425268  0.2324805558100969
  0.5790736864413152  0.4107257637154437  0.7795196126798722
  0.9128310511879290  0.0655311978532387  0.2656185571591965
  0.0850352266365176  0.9334374512073447  0.7264615177678075
  0.0460348181450298  0.2759549158646178  0.9115603548745524
  0.9295726779524855  0.7242173977877793  0.0909557702264878
  0.2730195260692727  0.9180209792087937  0.0596063830367240
  0.7280925767229006  0.0753642643362469  0.9528742169721370
  0.5121125828109039  0.2882069755273992  0.1288351201573377
  0.5036377942432855  0.7020216141958439  0.8810295064857904
  0.1075833239164486  0.4953333510983303  0.3082325230736337
  0.8987762177882530  0.4907611870052688  0.6832681672364044
  0.2960270965344785  0.1005100295465870  0.5241988733859917
  0.7015550398030677  0.8822544168065228  0.4701205641042795
  0.3849948253046684  0.2119902899098995 -0.0189437073941171
  0.6158638300543396  0.7885435542879544  0.0291330682602343
  0.2005632609995817 -0.0070146527294728  0.3915120108236562
  0.7882076353233307  1.0001177156473189  0.6192219874149077
  0.9770079912164681  0.3810760162204143  0.2003804902343498
  0.0061753866287615  0.6022404431920277  0.8010133032190815
 
             NaN             NaN             NaN
             NaN             NaN             NaN
             NaN             NaN             NaN
             NaN             NaN             NaN
             NaN             NaN             NaN
             NaN             NaN             NaN
             NaN             NaN             NaN
             NaN             NaN             NaN
             NaN             NaN             NaN
             NaN             NaN             NaN
             NaN             NaN             NaN
             NaN             NaN             NaN
             NaN             NaN             NaN
             NaN             NaN             NaN
             NaN             NaN             NaN
             NaN             NaN             NaN
             NaN             NaN             NaN
             NaN             NaN             NaN
             NaN             NaN             NaN
             NaN             NaN             NaN
             NaN             NaN             NaN
             NaN             NaN             NaN
             NaN             NaN             NaN
             NaN             NaN             NaN
             NaN             NaN             NaN
             NaN             NaN             NaN
             NaN             NaN             NaN
             NaN             NaN             NaN
             NaN             NaN             NaN
             NaN             NaN             NaN
             NaN             NaN             NaN
             NaN             NaN             NaN
             NaN             NaN             NaN
             NaN             NaN             NaN
             NaN             NaN             NaN
             NaN             NaN             NaN
             NaN             NaN             NaN
             NaN             NaN             NaN
