Na2 Ca2 V4 P4 S2 O24
1.0
8.891200 0.230223 0.118955
4.349888 7.792433 0.152372
4.296536 2.636325 7.318290
Ca Na V P S O
2 2 4 4 2 24
direct
0.493948 0.431160 0.547967 Ca
0.016884 0.977783 0.006132 Ca
0.735733 0.403266 0.131501 Na
0.605961 0.894821 0.245099 Na
0.354303 0.357671 0.348608 V
0.643709 0.650775 0.642439 V
0.144297 0.152274 0.142241 V
0.849935 0.857206 0.854585 V
0.952845 0.539526 0.249951 P
0.751582 0.037365 0.450511 P
0.460243 0.755077 0.044398 P
0.546194 0.255386 0.958402 P
0.044713 0.459039 0.742696 S
0.243441 0.960221 0.545777 S
0.227442 0.432803 0.592052 O
0.761976 0.570895 0.409764 O
0.586428 0.227784 0.433456 O
0.406005 0.780545 0.553890 O
0.439661 0.585195 0.226436 O
0.561694 0.422621 0.777465 O
0.911514 0.071795 0.261151 O
0.093000 0.931782 0.727827 O
0.057509 0.276830 0.903617 O
0.933671 0.731306 0.086991 O
0.274383 0.920596 0.060976 O
0.733362 0.087826 0.936393 O
0.524275 0.292316 0.120454 O
0.509635 0.712024 0.876484 O
0.115255 0.493156 0.300714 O
0.897149 0.494774 0.686445 O
0.297691 0.105556 0.517439 O
0.701384 0.887559 0.465271 O
0.384740 0.205130 0.001206 O
0.615771 0.797923 0.030299 O
0.186983 1.000514 0.396462 O
0.797760 0.990619 0.616141 O
0.971428 0.390581 0.195525 O
0.011454 0.604000 0.800024 O
