Ca1 Ni12 F42                            
   1.00000000000000     
     7.0053229999999997   -0.0263380000000000    0.0040720000000000
    -3.5216729999999998    6.1192000000000002   -0.0228910000000000
    -0.1063510000000000   -0.0254290000000000   16.8962259999999986
   Ca   Ni   F 
     1    12    42
Direct
  0.7119005795107970  0.7754937750177497  0.7055831027491658
  0.2956873374811288  0.9970351927249254  0.3274574394724259
  0.6942041238339458  0.6876993381811715  0.0048043166334026
  0.0008366178089290  0.3271072137399809  0.6659182122176063
  0.3451784895792353 -0.0076777732386373  0.8379570639778248
  0.6474480906034306  0.6494904231724695  0.4871436318177171
  0.9991421417373545  0.3443292921449498  0.1671125214052954
  0.6494337491147167  0.1515391050390268  0.4931247906067849
  0.4991061232003391  0.3445050443838563  0.1681851791147109
  0.8465539134256485  0.4883684849254934  0.8403452969382577
  0.3341252167806997  0.4849388657880000  0.8425320931446028
  0.1499181603183103  0.6520696775218858  0.4906777692264022
  0.4989449362380473  0.8445192891529327  0.1661176272207924
  0.5594535275457428  0.8194053487316406  0.0605569469019166
  0.2621567694337391  0.4560192828543868  0.7319417139076321
  0.1638423933442244  0.7406383617064152  0.3831666022727535
  0.4346692280737807  0.2637879929543613  0.2732707906188704
  0.8201972390902432  0.5566165817746278  0.9486871342876111
  0.7402854146132184  0.1835401368521048  0.6014778206864593
  0.8778498148137617  0.1126065590035102  0.7398560508398376
  0.1812294296246122  0.1087305968620452  0.3905061302935029
  0.9259076622937736  0.8135293256735402  0.0666040978017849
  0.1007727409708904  0.1764084183260111  0.6148601529942452
  0.0721067750623496  0.8902264168751001  0.2619012089230258
  0.7985491101275057  0.9061489544565533  0.9382921521741003
  0.1374679181890856  0.5665158951324838  0.6007098584956030
  0.4372559622528885  0.8704290309717543  0.2706233155792914
  0.4235657508834617  0.5374491636485028  0.9488726070175844
  0.8748702265920186  0.4665759968784790  0.7222328296529363
  0.5604963368724414  0.1198961645500323  0.3868602671377825
  0.5656934961662466  0.4264233572321445  0.0640912643229305
  0.3602020727595230  0.5656758032863789  0.4598004261888712
  0.2064831656749104  0.6438661640160968  0.1431309553689491
  0.4438887926313054  0.7926527438415156  0.8149308244048731
  0.6344965741612945  0.1928585323224470  0.8644171034908169
  0.5579459162336816  0.3599943077170683  0.5125009569708709
  0.7906855005504515  0.4346029034530132  0.1928486358616674
  0.7028622921356477  0.6173790532723115  0.3888872018201163
  0.9188139880479271  0.3055743799090126  0.0673003504386663
  0.3921987472971861  0.0745392794661744  0.7369428846426931
  0.2976699444475720  0.9023147306682040  0.9372078052334005
  0.5838740712992158  0.6818344243117094  0.5898040250303810
  0.0796727182005848  0.3828964294393131  0.2668573092096275
  0.9329588581922832  0.7327391131817874  0.5197172390539389
  0.7912854479182301  0.0446929449884554  0.1897406782799676
  0.2448491918006021  0.1835832927900623  0.8598379457087517
  0.0490291860483324  0.7891459967660874  0.8119118484202732
  0.7418152292848200  0.9436449204996428  0.4702498010652044
  0.2081618722652425  0.2547665532103370  0.1424333715446989
  0.6174775685567246  0.5459729237015966  0.8077751718046607
  0.9273047470407797  0.3622855122670038  0.4604838557972553
  0.4393641094820546  0.0618829412620558  0.1344040981412086
  0.3731071808332871  0.9377933800725077  0.5261857535693406
  0.5591537305490299  0.6283753482536728  0.1995766425666835
  0.0575138238183940  0.4205091834947793  0.8755999938113979
 
             NaN             NaN             NaN
             NaN             NaN             NaN
             NaN             NaN             NaN
             NaN             NaN             NaN
             NaN             NaN             NaN
             NaN             NaN             NaN
             NaN             NaN             NaN
             NaN             NaN             NaN
             NaN             NaN             NaN
             NaN             NaN             NaN
             NaN             NaN             NaN
             NaN             NaN             NaN
             NaN             NaN             NaN
             NaN             NaN             NaN
             NaN             NaN             NaN
             NaN             NaN             NaN
             NaN             NaN             NaN
             NaN             NaN             NaN
             NaN             NaN             NaN
             NaN             NaN             NaN
             NaN             NaN             NaN
             NaN             NaN             NaN
             NaN             NaN             NaN
             NaN             NaN             NaN
             NaN             NaN             NaN
             NaN             NaN             NaN
             NaN             NaN             NaN
             NaN             NaN             NaN
             NaN             NaN             NaN
             NaN             NaN             NaN
             NaN             NaN             NaN
             NaN             NaN             NaN
             NaN             NaN             NaN
             NaN             NaN             NaN
             NaN             NaN             NaN
             NaN             NaN             NaN
             NaN             NaN             NaN
             NaN             NaN             NaN
             NaN             NaN             NaN
             NaN             NaN             NaN
             NaN             NaN             NaN
             NaN             NaN             NaN
             NaN             NaN             NaN
             NaN             NaN             NaN
             NaN             NaN             NaN
             NaN             NaN             NaN
             NaN             NaN             NaN
             NaN             NaN             NaN
             NaN             NaN             NaN
             NaN             NaN             NaN
             NaN             NaN             NaN
             NaN             NaN             NaN
             NaN             NaN             NaN
             NaN             NaN             NaN
             NaN             NaN             NaN
