Ca1 Ni12 F42
1.0
7.005323 -0.026338 0.004072
-3.521673 6.119200 -0.022891
-0.106351 -0.025429 16.896226
Ca Ni F
1 12 42
direct
0.499435 0.734282 0.670693 Ca
0.298435 0.998005 0.328944 Ni
0.700433 0.696326 0.005402 Ni
0.002957 0.312251 0.666915 Ni
0.343504 1.001026 0.840412 Ni
0.657600 0.655070 0.492494 Ni
0.998628 0.344708 0.167213 Ni
0.657001 0.155081 0.491884 Ni
0.498867 0.345576 0.167678 Ni
0.846584 0.500026 0.838672 Ni
0.345073 0.497040 0.841761 Ni
0.155219 0.654030 0.494044 Ni
0.498473 0.845387 0.166593 Ni
0.563634 0.824907 0.061570 F
0.261835 0.452255 0.731691 F
0.174810 0.743365 0.386609 F
0.432424 0.262175 0.273031 F
0.826432 0.568307 0.946525 F
0.745822 0.189052 0.600955 F
0.863739 0.066634 0.724212 F
0.189189 0.111295 0.393886 F
0.929535 0.815048 0.068576 F
0.129885 0.202079 0.607211 F
0.068695 0.887641 0.266048 F
0.809317 0.920095 0.941262 F
0.142217 0.574167 0.608073 F
0.432662 0.866761 0.270997 F
0.433198 0.553816 0.947846 F
0.867136 0.434789 0.726820 F
0.566517 0.121334 0.386091 F
0.566403 0.431211 0.063107 F
0.365212 0.567927 0.468880 F
0.206228 0.643448 0.142398 F
0.438882 0.801607 0.816472 F
0.636047 0.205655 0.863381 F
0.564853 0.361677 0.515272 F
0.790477 0.435467 0.192542 F
0.701086 0.619961 0.392795 F
0.916803 0.303587 0.067666 F
0.387925 0.075065 0.735143 F
0.302588 0.922441 0.940155 F
0.613246 0.687485 0.597327 F
0.080272 0.385488 0.266789 F
0.946545 0.738437 0.520431 F
0.790549 0.046463 0.191404 F
0.245104 0.193992 0.859446 F
0.056078 0.792299 0.812525 F
0.751560 0.948607 0.473554 F
0.207210 0.254833 0.142472 F
0.624888 0.558861 0.803337 F
0.938279 0.372411 0.460472 F
0.438874 0.065000 0.134644 F
0.382450 0.932632 0.532907 F
0.558296 0.626365 0.199688 F
0.061587 0.433659 0.872178 F
