Ca1 Co16 F48                            
   1.00000000000000     
    10.6613260000000007   -0.0029480000000000   -0.0353960000000000
    -0.0018200000000000    7.4486720000000002   -0.0061060000000000
    -0.0327850000000000   -0.0090070000000000   10.3609050000000007
   Ca   Co   F 
     1    16    48
Direct
  0.4775344661918268  0.8467418113031182  0.4980915722785328
  0.0007780533740932  0.5048959141576360  0.2478953354771805
  0.0011746809382955  0.5008131320160745  0.7513019781485594
  0.5022235175628349  0.5018358268989559  0.2427178439861956
  0.5031274525403017  0.4923893123349163  0.7597162043918997
  0.2114269677639094  0.0176974503755024  0.4777336032833313
  0.2406779410451572  0.9977058380110322  0.9974647098499870
  0.7634498645022425  0.0112465928758313  0.4993199803767995
  0.7587508611920778  0.0019264254541563  0.0046357763277426
  0.4881014983008489  0.0117560885050122  0.2257925720365907
  0.5057483386632442 -0.0026591610963072  0.7787853614025088
 -0.0060011976740977  0.0066940901043540  0.2379051070194655
  1.0010978166459443  1.0015052998564729  0.7531926037872670
  0.2487944662509357  0.4958327641007697 -0.0005469610638518
  0.2504468971068131  0.4983862744090529  0.5014497008384444
  0.7543225414864865  0.5019624771059098  1.0011323306716637
  0.7532236088818497  0.5061637480968179  0.4993006334086916
  0.4992253202531908  0.2568195801944094  0.1854216941448304
  0.4920803247426943  0.2434176807232032  0.7077806529427874
  0.9783071509676823  0.2480823444955618  0.1897556763568582
  0.9939614898747424  0.2505465114783995  0.7003714084005812
  0.2372426096582813  0.2548593749784447  0.0511747968311837
  0.2447110940738801  0.2411655719041257  0.5505844484049207
  0.7466659380708692  0.2507528930289873  0.0561446479445422
  0.7467743145537011  0.2655232202774185  0.5481792877898792
  0.0172697761526630  0.7695850160089435  0.2934843237191153
  0.0088450917043117  0.7507878825978795  0.7992022322949753
  0.5026209464566084  0.7609640143262535  0.2948113699338436
  0.5186765372626231  0.7391316771643200  0.8218598137882566
  0.2708726588475502  0.7733550827593173  0.4588244173117326
  0.2548318600930451  0.7359500013523644  0.9470597024536676
  0.7571540806001071  0.7484113444505964  0.4497903619686517
  0.7663528032956674  0.7546804126104966  0.9500891001893000
  0.3481184665856757  0.5492543578095366  0.1428595616728967
  0.3647391709178733  0.5503777200616503  0.6445417901857353
  0.8547991934505853  0.5591678720000620  0.1519801586322133
  0.8519076529882051  0.5570676355928331  0.6433924894826751
  0.0820224552751545  0.9538122669278228  0.0866789718559384
  0.0841494913484857  0.9440554952078329  0.5896091812516807
  0.6063542783072612  0.9477397184436951  0.0997161282522477
  0.6194262448805996  0.9431680192029648  0.6293237959063103
  0.1428664582072260  0.0722740962335427  0.3144262448868322
  0.1580869130087762  0.0470684940407095  0.8384884570239457
  0.6267500408624925  0.0417512112851210  0.3802787241199563
  0.6553125916300981  0.0639107764025662  0.8584074696195043
  0.3989507826765826  0.4687967921163779  0.3950008211724455
  0.3926773120336066  0.4409102941150836  0.9060621883347577
  0.8964473747278870  0.4595587820032405  0.4025316819018731
  0.9010383254833800  0.4486804569711442  0.8982109577701215
  0.1450841187251569  0.4618653774556656  0.3526704435920680
  0.1523827182363114  0.4425596511659564  0.8550306883655818
  0.6508623395694074  0.4564142474586053  0.3557731841046627
  0.6531302283117454  0.4422056477956390  0.8529533907012045
  0.3805171687547788  0.0688590233984530  0.3775204062984868
  0.4015928872437303  0.0510054899752427  0.9204487536760433
  0.9061214813057268  0.0610291804431790  0.3893177304783120
  0.9055259098011699  0.0538470925168419  0.9051396977156034
  0.3362771866158958  0.9315945527619501  0.1468878964831227
  0.3682020346161885  0.9343636007807017  0.6713171724475699
  0.8456908946373928  0.9426226050388824  0.1626781216957550
  0.8529577043645673  0.9551094473674638  0.6488538966603842
  0.1062231571129074  0.5484833843075947  0.0957510732363448
  0.1087535770307780  0.5481760456482503  0.6060225682188253
  0.6059024951758483  0.5617008411969738  0.1012260971784850
  0.6068613024161889  0.5557586303635542  0.5964113071176816
 
             NaN             NaN             NaN
             NaN             NaN             NaN
             NaN             NaN             NaN
             NaN             NaN             NaN
             NaN             NaN             NaN
             NaN             NaN             NaN
             NaN             NaN             NaN
             NaN             NaN             NaN
             NaN             NaN             NaN
             NaN             NaN             NaN
             NaN             NaN             NaN
             NaN             NaN             NaN
             NaN             NaN             NaN
             NaN             NaN             NaN
             NaN             NaN             NaN
             NaN             NaN             NaN
             NaN             NaN             NaN
             NaN             NaN             NaN
             NaN             NaN             NaN
             NaN             NaN             NaN
             NaN             NaN             NaN
             NaN             NaN             NaN
             NaN             NaN             NaN
             NaN             NaN             NaN
             NaN             NaN             NaN
             NaN             NaN             NaN
             NaN             NaN             NaN
             NaN             NaN             NaN
             NaN             NaN             NaN
             NaN             NaN             NaN
             NaN             NaN             NaN
             NaN             NaN             NaN
             NaN             NaN             NaN
             NaN             NaN             NaN
             NaN             NaN             NaN
             NaN             NaN             NaN
             NaN             NaN             NaN
             NaN             NaN             NaN
             NaN             NaN             NaN
             NaN             NaN             NaN
             NaN             NaN             NaN
             NaN             NaN             NaN
             NaN             NaN             NaN
             NaN             NaN             NaN
             NaN             NaN             NaN
             NaN             NaN             NaN
             NaN             NaN             NaN
             NaN             NaN             NaN
             NaN             NaN             NaN
             NaN             NaN             NaN
             NaN             NaN             NaN
             NaN             NaN             NaN
             NaN             NaN             NaN
             NaN             NaN             NaN
             NaN             NaN             NaN
             NaN             NaN             NaN
             NaN             NaN             NaN
             NaN             NaN             NaN
             NaN             NaN             NaN
             NaN             NaN             NaN
             NaN             NaN             NaN
             NaN             NaN             NaN
             NaN             NaN             NaN
             NaN             NaN             NaN
             NaN             NaN             NaN
