Ca1 Co16 F48
1.0
10.661326 -0.002948 -0.035396
-0.001820 7.448672 -0.006106
-0.032785 -0.009007 10.360905
Ca Co F
1 16 48
direct
0.488777 0.876234 0.506596 Ca
0.001064 0.502081 0.250497 Co
0.001267 0.498034 0.749587 Co
0.498466 0.498376 0.238102 Co
0.497108 0.492938 0.763130 Co
0.239185 0.009467 0.497208 Co
0.246610 0.998638 -0.000159 Co
0.759481 0.002396 0.496745 Co
0.753213 0.000963 0.000126 Co
0.500192 0.001027 0.239171 Co
0.499273 0.001172 0.758787 Co
0.000915 0.001440 0.246287 Co
0.999388 -0.000129 0.751931 Co
0.245996 0.498909 0.001409 Co
0.244730 0.499589 0.500220 Co
0.754700 0.500526 -0.000335 Co
0.753250 0.499191 0.498771 Co
0.486986 0.250228 0.201921 F
0.482401 0.244212 0.708176 F
0.987072 0.247324 0.201705 F
0.993593 0.250076 0.697995 F
0.238442 0.257830 0.049915 F
0.246545 0.257666 0.550394 F
0.740774 0.249132 0.052663 F
0.746851 0.258801 0.546972 F
0.015865 0.757138 0.296322 F
0.008474 0.747841 0.795876 F
0.511258 0.747459 0.296883 F
0.513467 0.752726 0.796065 F
0.259166 0.745409 0.452625 F
0.255467 0.739580 0.952145 F
0.746264 0.741607 0.452041 F
0.763224 0.752413 0.948781 F
0.342167 0.550751 0.147956 F
0.354598 0.554099 0.644413 F
0.852140 0.553267 0.153267 F
0.849120 0.552209 0.643866 F
0.094826 0.954362 0.097520 F
0.099776 0.953481 0.597531 F
0.602204 0.946403 0.094754 F
0.599754 0.965628 0.605150 F
0.147723 0.056727 0.339899 F
0.153608 0.047625 0.846708 F
0.645461 0.046864 0.354966 F
0.646157 0.053783 0.847999 F
0.398665 0.464494 0.404649 F
0.392944 0.450281 0.910713 F
0.897324 0.458497 0.404240 F
0.901209 0.447169 0.899172 F
0.149872 0.447027 0.352876 F
0.153896 0.448941 0.852743 F
0.649061 0.446768 0.355491 F
0.649873 0.446924 0.849565 F
0.399952 0.029414 0.405940 F
0.401381 0.043221 0.904340 F
0.907690 0.046648 0.397366 F
0.901527 0.053469 0.902488 F
0.345670 0.949245 0.151036 F
0.359184 0.946285 0.651092 F
0.852670 0.950154 0.156391 F
0.850036 0.949268 0.648699 F
0.101589 0.546658 0.095309 F
0.102520 0.548469 0.597351 F
0.601855 0.551572 0.094966 F
0.604061 0.534998 0.597216 F
