Ca16 V32 O64
1.0
   9.8567787592090816    0.0000573452199154   -2.8380421548558958
   0.0000092492946726   11.7261894770562005   -0.0002082176183694
   0.1558970600452342   -0.0002059747627710   11.6652489634832897
Ca V O
15 32 64
direct
   0.6541537297703703    0.6250101674034965    0.4990202428270414 Ca
   0.1541537297703703    0.1250101674034964    0.4990202428270414 Ca
   0.1541537297703703    0.1250101674034964    0.9990202428270414 Ca
   0.1541537297703703    0.6250101674034965    0.4990202428270414 Ca
   0.1541537297703703    0.6250101674034966    0.9990202428270414 Ca
   0.6541537297703703    0.1250101674034964    0.4990202428270415 Ca
   0.6541537297703703    0.1250101674034964    0.9990202428270414 Ca
   0.6541537297703702    0.6250101674034965    0.9990202428270413 Ca
   0.3457949665323057    0.3749890629356541    0.0009834992826769 Ca
   0.3457949665323057    0.3749890629356541    0.5009834992826769 Ca
   0.3457949665323057    0.8749890629356543    0.0009834992826769 Ca
   0.8457949665323058    0.3749890629356541    0.0009834992826770 Ca
   0.8457949665323058    0.3749890629356540    0.5009834992826769 Ca
   0.8457949665323058    0.8749890629356541    0.0009834992826770 Ca
   0.8457949665323059    0.8749890629356541    0.5009834992826768 Ca
   0.0000036568615059    0.2501013493772568    0.2500049323718952 V
   0.0000036568615059    0.2501013493772568    0.7500049323718951 V
   0.0000036568615059    0.7501013493772568    0.2500049323718952 V
   0.0000036568615059    0.7501013493772568    0.7500049323718950 V
   0.5000036568615058    0.2501013493772568    0.2500049323718952 V
   0.5000036568615059    0.2501013493772568    0.7500049323718951 V
   0.5000036568615058    0.7501013493772568    0.2500049323718952 V
   0.5000036568615058    0.7501013493772568    0.7500049323718951 V
   0.0000035338254365    0.4998985806958817    0.2500048350472220 V
   0.0000035338254365    0.4998985806958818    0.7500048350472219 V
   0.0000035338254365    0.9998985806958818    0.2500048350472220 V
   0.0000035338254365    0.9998985806958818    0.7500048350472218 V
   0.5000035338254365    0.4998985806958817    0.2500048350472220 V
   0.5000035338254364    0.4998985806958817    0.7500048350472220 V
   0.5000035338254366    0.9998985806958817    0.2500048350472220 V
   0.5000035338254365    0.9998985806958817    0.7500048350472219 V
   0.2611857328028169    0.1250199966699066    0.2590060838206950 V
   0.2611857328028169    0.1250199966699066    0.7590060838206949 V
   0.2611857328028169    0.6250199966699067    0.2590060838206951 V
   0.2611857328028169    0.6250199966699066    0.7590060838206950 V
   0.7611857328028169    0.1250199966699066    0.2590060838206950 V
   0.7611857328028170    0.1250199966699066    0.7590060838206950 V
   0.7611857328028169    0.6250199966699067    0.2590060838206951 V
   0.7611857328028169    0.6250199966699067    0.7590060838206950 V
   0.2388242102444503    0.3749809063991902    0.2409898411272826 V
   0.2388242102444503    0.3749809063991903    0.7409898411272825 V
   0.2388242102444503    0.8749809063991902    0.2409898411272826 V
   0.2388242102444503    0.8749809063991902    0.7409898411272825 V
   0.7388242102444503    0.3749809063991903    0.2409898411272826 V
   0.7388242102444503    0.3749809063991902    0.7409898411272826 V
   0.7388242102444503    0.8749809063991904    0.2409898411272826 V
   0.7388242102444503    0.8749809063991904    0.7409898411272825 V
   0.0661608397319963    0.1250148971502406    0.1614077640649100 O
   0.0661608397319963    0.1250148971502407    0.6614077640649100 O
   0.0661608397319963    0.6250148971502407    0.1614077640649100 O
   0.0661608397319963    0.6250148971502407    0.6614077640649100 O
   0.5661608397319963    0.1250148971502407    0.1614077640649100 O
   0.5661608397319963    0.1250148971502407    0.6614077640649100 O
   0.5661608397319963    0.6250148971502407    0.1614077640649100 O
   0.5661608397319963    0.6250148971502407    0.6614077640649100 O
   0.4338190049402807    0.3749845237592857    0.3387089608092235 O
   0.4338190049402806    0.3749845237592856    0.8387089608092235 O
   0.4338190049402806    0.8749845237592856    0.3387089608092235 O
   0.4338190049402806    0.8749845237592857    0.8387089608092234 O
   0.9338190049402807    0.3749845237592856    0.3387089608092235 O
   0.9338190049402807    0.3749845237592856    0.8387089608092234 O
   0.9338190049402806    0.8749845237592857    0.3387089608092235 O
   0.9338190049402806    0.8749845237592856    0.8387089608092234 O
   0.4545701936428917    0.1250263152244737    0.3521324514711849 O
   0.4545701936428916    0.1250263152244737    0.8521324514711848 O
   0.4545701936428916    0.6250263152244737    0.3521324514711849 O
   0.4545701936428916    0.6250263152244738    0.8521324514711849 O
   0.9545701936428918    0.1250263152244737    0.3521324514711849 O
   0.9545701936428918    0.1250263152244737    0.8521324514711849 O
   0.9545701936428918    0.6250263152244737    0.3521324514711849 O
   0.9545701936428916    0.6250263152244737    0.8521324514711849 O
   0.0455109979553669    0.3749762961985922    0.1477391001739064 O
   0.0455109979553669    0.3749762961985922    0.6477391001739063 O
   0.0455109979553669    0.8749762961985923    0.1477391001739064 O
   0.0455109979553669    0.8749762961985924    0.6477391001739063 O
   0.5455109979553669    0.3749762961985922    0.1477391001739064 O
   0.5455109979553668    0.3749762961985922    0.6477391001739063 O
   0.5455109979553668    0.8749762961985923    0.1477391001739065 O
   0.5455109979553669    0.8749762961985923    0.6477391001739063 O
   0.1983979102357422    0.2513294610924123    0.3532089307475428 O
   0.1983979102357422    0.2513294610924123    0.8532089307475427 O
   0.1983979102357422    0.7513294610924124    0.3532089307475428 O
   0.1983979102357422    0.7513294610924124    0.8532089307475428 O
   0.6983979102357422    0.2513294610924124    0.3532089307475428 O
   0.6983979102357423    0.2513294610924124    0.8532089307475428 O
   0.6983979102357422    0.7513294610924123    0.3532089307475428 O
   0.6983979102357423    0.7513294610924123    0.8532089307475428 O
   0.3015696253413159    0.0012729057163891    0.1467924123354775 O
   0.3015696253413159    0.0012729057163891    0.6467924123354774 O
   0.3015696253413159    0.5012729057163891    0.1467924123354775 O
   0.3015696253413160    0.5012729057163891    0.6467924123354774 O
   0.8015696253413159    0.0012729057163891    0.1467924123354774 O
   0.8015696253413159    0.0012729057163891    0.6467924123354774 O
   0.8015696253413159    0.5012729057163891    0.1467924123354775 O
   0.8015696253413160    0.5012729057163891    0.6467924123354774 O
   0.3015891176017809    0.2487195487365197    0.1467924317529654 O
   0.3015891176017809    0.2487195487365196    0.6467924317529654 O
   0.3015891176017809    0.7487195487365198    0.1467924317529654 O
   0.3015891176017809    0.7487195487365197    0.6467924317529653 O
   0.8015891176017810    0.2487195487365197    0.1467924317529654 O
   0.8015891176017811    0.2487195487365197    0.6467924317529654 O
   0.8015891176017809    0.7487195487365197    0.1467924317529654 O
   0.8015891176017809    0.7487195487365197    0.6467924317529653 O
   0.1984164805137366    0.4986759886407046    0.3532085141679792 O
   0.1984164805137366    0.4986759886407046    0.8532085141679792 O
   0.1984164805137366    0.9986759886407047    0.3532085141679792 O
   0.1984164805137366    0.9986759886407047    0.8532085141679790 O
   0.6984164805137367    0.4986759886407046    0.3532085141679793 O
   0.6984164805137366    0.4986759886407046    0.8532085141679793 O
   0.6984164805137366    0.9986759886407046    0.3532085141679792 O
   0.6984164805137366    0.9986759886407046    0.8532085141679792 O
