Y16 Mg8 Se32
1.0
       11.6355409622         0.0000000000         0.0000000000
        0.0000000000        11.6355409622         0.0000000000
        0.0000000000         0.0000000000        11.6355409622
Mg    Y   Mg   Se
1    16    6   32
Direct
     0.750000000         0.750000000         0.250000000
     0.375000000         0.125000000         0.875000000
     0.125000000         0.125000000         0.625000000
     0.625000000         0.875000000         0.875000000
     0.875000000         0.875000000         0.625000000
     0.375000000         0.625000000         0.375000000
     0.125000000         0.625000000         0.125000000
     0.625000000         0.375000000         0.375000000
     0.875000000         0.375000000         0.125000000
     0.875000000         0.125000000         0.375000000
     0.625000000         0.125000000         0.125000000
     0.125000000         0.875000000         0.375000000
     0.375000000         0.875000000         0.125000000
     0.875000000         0.625000000         0.875000000
     0.625000000         0.625000000         0.625000000
     0.125000000         0.375000000         0.875000000
     0.375000000         0.375000000         0.625000000
     0.750000000         0.250000000         0.750000000
     0.500000000         0.000000000         0.500000000
     0.250000000         0.250000000         0.250000000
     0.000000000         0.000000000         0.000000000
     0.250000000         0.750000000         0.750000000
     0.000000000         0.500000000         0.500000000
     0.629477382         0.629477382         0.870522618
     0.120522588         0.879477382         0.620522618
     0.620522618         0.120522588         0.879477382
     0.870522618         0.870522618         0.870522618
     0.629477382         0.870522618         0.629477382
     0.879477382         0.120522588         0.620522618
     0.379477412         0.879477382         0.879477382
     0.870522618         0.629477382         0.629477382
     0.629477382         0.129477412         0.370522588
     0.120522588         0.379477412         0.120522588
     0.620522618         0.620522618         0.379477412
     0.870522618         0.370522588         0.370522588
     0.629477382         0.370522588         0.129477412
     0.879477382         0.620522618         0.120522588
     0.379477412         0.379477412         0.379477412
     0.870522618         0.129477412         0.129477412
     0.129477412         0.629477382         0.370522588
     0.620522618         0.879477382         0.120522588
     0.120522588         0.120522588         0.379477412
     0.370522588         0.870522618         0.370522588
     0.129477412         0.870522618         0.129477412
     0.379477412         0.120522588         0.120522588
     0.879477382         0.879477382         0.379477412
     0.370522588         0.629477382         0.129477412
     0.129477412         0.129477412         0.870522618
     0.620522618         0.379477412         0.620522618
     0.120522588         0.620522618         0.879477382
     0.370522588         0.370522588         0.870522618
     0.129477412         0.370522588         0.629477382
     0.379477412         0.620522618         0.620522618
     0.879477382         0.379477412         0.879477382
     0.370522588         0.129477412         0.629477382
