Ca1 Ni12 F42                            
   1.00000000000000     
     7.0486870000000001    0.0018680000000000    0.0218820000000000
    -3.5193550000000000    6.0618210000000001   -0.0044620000000000
    -0.0648540000000000    0.0499890000000000   16.9017389999999992
   Ca   Ni   F 
     1    12    42
Direct
  0.8295430440831402  0.7144240081911091  0.3036539319598686
  0.3259190002000097  0.9884153593059836  0.3280057670485489
  0.6991551927881270  0.6983186426927167  0.9951918396772619
 -0.0199249793690073  0.2932966965346671  0.6722756745182152
  0.3340892839474806 -0.0021325054795411  0.8338795116865967
  0.6219857875639286  0.6401070626579821  0.5116861653776101
  1.0258502823454274  0.3563875683809939  0.1631880696463091
  0.6250117624349122  0.1416593435484921  0.5109564211041067
  0.5168031819767251  0.3466115527874950  0.1607450710096497
  0.8351034540327099  0.4955211625110188  0.8340656407328280
  0.3374522155738056  0.5000606427907143  0.8332883223858158
  0.1245841125369953  0.6396901829022232  0.5056161800828732
  0.5245827832440597  0.8569359842518832  0.1649293269290746
  0.5929342079104194  0.8402778412911688  0.0533747846221432
  0.2466091434798892  0.4354837351834133  0.7273310068563421
  0.1564494138389875  0.7229733208743018  0.3956607799808718
  0.4868284171185709  0.2660386450390054  0.2674059758062174
  0.8117627323716445  0.5477974405859852  0.9401223746564216
  0.7196376548239283  0.1556967568395484  0.6171132813514011
  0.8781495895713388  0.0711612799436756  0.7380126142529583
  0.1191389685607436  0.0516255235374966  0.3605939219632279
  0.9275250047295173  0.8012370333810580  0.0575606395133162
  0.0926324299302183  0.1805574996989019  0.6088373694519865
  0.1473727548706866  0.8552532715330206  0.2446043632687342
  0.8229885634836167  0.9228558599693877  0.9306172306307376
  0.0904054429607448  0.5567461030020484  0.6120858141561342
  0.5033880617698867  0.8910165209939054  0.2855461000474273
  0.4316611490224238  0.5731091734422665  0.9381668334500087
  0.8538006603965614  0.4336759138237052  0.7295106646926935
  0.5285325304528056  0.1435028061089950  0.4051308532789614
  0.5450564617173713  0.4338349486898561  0.0553001566450768
  0.3280227729070812  0.5425713601684575  0.4908145984586871
  0.2408631732304942  0.6468008893200405  0.1349151719393311
  0.4246856711722713  0.7902080693371125  0.8081071993295305
  0.6357051935494297  0.2023972803403108  0.8561992884584231
  0.5458205154114786  0.3564675167604950  0.5421093489796649
  0.8183226288969268  0.4609652029116207  0.1783580153295441
  0.6385325309503509  0.5739213051847319  0.4080726905877253
  0.9570781475959987  0.3047023707020552  0.0629070067046224
  0.3689623069724097  0.0775063642128890  0.7341280532841785
  0.2986371392457495  0.9189537824298113  0.9336503390911413
  0.6023216177111720  0.7012288925046857  0.6104807483148945
  0.0879941484816202  0.4118276660528517  0.2649832525272454
  0.9207491751574985  0.7398289288533630  0.5222766340016903
  0.8168604538822829  0.0569772371042239  0.1908913273545545
  0.2494622621534592  0.2099124823457271  0.8593903194908482
  0.0341305851565108  0.7891121897689924  0.8114045600832893
  0.6989538919858564  0.9236330872763368  0.4785834881979693
  0.2191540040124653  0.2417566635419797  0.1523639621121954
  0.6118782722510542  0.5572294083922754  0.8007138994652020
  0.9084334924760699  0.3624354096565347  0.4733680676713167
  0.4703879282694129  0.0708654226686044  0.1259257630138983
  0.3353599035592769  0.9186843697658111  0.5392766424623748
  0.5798808897518993  0.6343440574499561  0.2012586387211999
  0.0619807625302649  0.4393804935362272  0.8666600642797720
 
             NaN             NaN             NaN
             NaN             NaN             NaN
             NaN             NaN             NaN
             NaN             NaN             NaN
             NaN             NaN             NaN
             NaN             NaN             NaN
             NaN             NaN             NaN
             NaN             NaN             NaN
             NaN             NaN             NaN
             NaN             NaN             NaN
             NaN             NaN             NaN
             NaN             NaN             NaN
             NaN             NaN             NaN
             NaN             NaN             NaN
             NaN             NaN             NaN
             NaN             NaN             NaN
             NaN             NaN             NaN
             NaN             NaN             NaN
             NaN             NaN             NaN
             NaN             NaN             NaN
             NaN             NaN             NaN
             NaN             NaN             NaN
             NaN             NaN             NaN
             NaN             NaN             NaN
             NaN             NaN             NaN
             NaN             NaN             NaN
             NaN             NaN             NaN
             NaN             NaN             NaN
             NaN             NaN             NaN
             NaN             NaN             NaN
             NaN             NaN             NaN
             NaN             NaN             NaN
             NaN             NaN             NaN
             NaN             NaN             NaN
             NaN             NaN             NaN
             NaN             NaN             NaN
             NaN             NaN             NaN
             NaN             NaN             NaN
             NaN             NaN             NaN
             NaN             NaN             NaN
             NaN             NaN             NaN
             NaN             NaN             NaN
             NaN             NaN             NaN
             NaN             NaN             NaN
             NaN             NaN             NaN
             NaN             NaN             NaN
             NaN             NaN             NaN
             NaN             NaN             NaN
             NaN             NaN             NaN
             NaN             NaN             NaN
             NaN             NaN             NaN
             NaN             NaN             NaN
             NaN             NaN             NaN
             NaN             NaN             NaN
             NaN             NaN             NaN
