Ca1 Ni12 F42
1.0
7.048687 0.001868 0.021882
-3.519355 6.061821 -0.004462
-0.064854 0.049989 16.901739
Ca Ni F
1 12 42
direct
0.730325 0.496156 0.329249 Ca
0.308626 -0.000239 0.332549 Ni
0.697282 0.697978 0.996594 Ni
0.000234 0.301746 0.670666 Ni
0.347630 0.000232 0.833558 Ni
0.654705 0.658950 0.506965 Ni
0.997856 0.340025 0.159569 Ni
0.653788 0.156425 0.505471 Ni
0.493670 0.342028 0.158639 Ni
0.848330 0.500042 0.834423 Ni
0.348240 0.500243 0.832664 Ni
0.154643 0.657986 0.507972 Ni
0.497002 0.843303 0.161543 Ni
0.565181 0.822986 0.054094 F
0.264421 0.435011 0.727051 F
0.186639 0.743514 0.398252 F
0.448114 0.258530 0.267931 F
0.827749 0.564553 0.940429 F
0.744954 0.178466 0.612897 F
0.890043 0.071140 0.732865 F
0.197227 0.126647 0.391844 F
0.917209 0.804312 0.062733 F
0.114321 0.193676 0.605382 F
0.063276 0.859513 0.274732 F
0.819623 0.928704 0.934617 F
0.122958 0.569424 0.613959 F
0.432855 0.864306 0.273069 F
0.434325 0.566615 0.937248 F
0.869893 0.434310 0.729294 F
0.571267 0.140900 0.391696 F
0.549858 0.428589 0.052718 F
0.361197 0.565517 0.483989 F
0.202132 0.632541 0.136409 F
0.436942 0.792287 0.808411 F
0.644585 0.205527 0.858454 F
0.568214 0.367089 0.530295 F
0.797000 0.434693 0.183620 F
0.686821 0.614324 0.402130 F
0.918000 0.297045 0.059904 F
0.389245 0.082322 0.733900 F
0.305894 0.918394 0.933188 F
0.619633 0.702852 0.606627 F
0.072900 0.386213 0.264784 F
0.948497 0.753512 0.526126 F
0.790017 0.052779 0.187818 F
0.258710 0.208410 0.857655 F
0.050818 0.794444 0.809690 F
0.737822 0.947466 0.479232 F
0.192012 0.241951 0.140467 F
0.628038 0.561441 0.800937 F
0.930266 0.381372 0.466464 F
0.431408 0.059893 0.128305 F
0.373543 0.942115 0.538946 F
0.555510 0.620235 0.196701 F
0.069313 0.438788 0.866193 F
