Ca1 Mn4 P6 O24                          
   1.00000000000000     
     2.6708289999999999    7.0348660000000001    4.4841199999999999
     0.3452810000000000    0.2065320000000000    8.7362079999999995
     7.4864839999999999    0.2074470000000000    4.4267349999999999
   Ca   Mn   P    O 
     1     4     6    24
Direct
  0.2533863138110751  0.8500723561470053  0.5992516677318711
  0.6504217144165367  0.6419502350431906  0.6410563251804051
  0.1400160976792545  0.1521837724403795  0.1384237953842746
  0.8410711536734581  0.8408721153861122  0.8559100224866841
  0.3613816802966746  0.3439332571558366  0.3592172094227254
  0.2549419607702940  0.5163907833707700  0.9652914832868628
  0.0314078787152927  0.7458921825952478  0.4658159936676702
  0.9644193531339971  0.2575678491704572  0.5144884758878611
  0.4519917144246487  0.0246169475709544  0.7538309670815724
  0.5460498355115740  0.9710505166351625  0.2351256299023185
  0.7465144590189844  0.4614003651545475  0.0433094058316352
  0.5856636183554589  0.7692800906336709  0.4034395036769922
  0.2996247294447076  0.0149072122722335  0.9599197621506945
  0.4264026204625679  0.5631012767075444  0.7708087630272631
  0.9445525300354463  0.2923252295634846  0.0281450923325935
  0.7844263595238138  0.4163924387791856  0.5855127551779689
  0.0334010786522787  0.9508756746540517  0.3243681620751821
  0.9465774413564915  0.0564375183801651  0.6644110572440814
  0.5859688093916543  0.4071653057849710  0.2389817562437763
  0.7006176958450661  0.9729101602128928  0.0334795210941870
  0.2198649849857014  0.5871148974652949  0.3997844828301343
  0.0735039613585373  0.7052107227857208  0.9370971860073701
  0.3981481062403343  0.2285683406425107  0.5995979808487690
  0.2524921406804631  0.3413571958084390  0.9644251209346186
  0.8519207258138630  0.7335698965080762  0.4857703948473535
  0.9809847907916448  0.2925840243726782  0.3120738861896986
  0.4594368776380541  0.8728301084286262  0.7037767796601907
  0.3415338542420835  0.0047988242837549  0.2559207541081491
  0.6984765801769024  0.5153303168081962  0.8701629879974824
  0.2873689573196169  0.4796429977779236  0.1389893405608137
  0.0209611848281237  0.7146825678299865  0.6672727078856291
  0.1546135515378986  0.2400116699294290  0.5082296822412905
  0.6561910918351727  0.9768554767311108  0.7406489063201559
  0.5347405866103080  0.1232527386290110  0.2833592075125809
  0.7500272330402171  0.6414354555964661  0.0383402257430780
 
             NaN             NaN             NaN
             NaN             NaN             NaN
             NaN             NaN             NaN
             NaN             NaN             NaN
             NaN             NaN             NaN
             NaN             NaN             NaN
             NaN             NaN             NaN
             NaN             NaN             NaN
             NaN             NaN             NaN
             NaN             NaN             NaN
             NaN             NaN             NaN
             NaN             NaN             NaN
             NaN             NaN             NaN
             NaN             NaN             NaN
             NaN             NaN             NaN
             NaN             NaN             NaN
             NaN             NaN             NaN
             NaN             NaN             NaN
             NaN             NaN             NaN
             NaN             NaN             NaN
             NaN             NaN             NaN
             NaN             NaN             NaN
             NaN             NaN             NaN
             NaN             NaN             NaN
             NaN             NaN             NaN
             NaN             NaN             NaN
             NaN             NaN             NaN
             NaN             NaN             NaN
             NaN             NaN             NaN
             NaN             NaN             NaN
             NaN             NaN             NaN
             NaN             NaN             NaN
             NaN             NaN             NaN
             NaN             NaN             NaN
             NaN             NaN             NaN
