Li1 Cr16 O32                            
   1.00000000000000     
     8.2094876509914450   -0.0004892004522977    0.0005293001145898
    -0.0000191958581637    8.2095066454356580   -0.0000304983366586
    -0.0003121162180204   -0.0001657028332644    8.2096368745905721
   Li   Cr   O 
     1    16    32
Direct
  0.4999986866661601  0.4999994103895204  0.9999963727793926
  0.3734208988918226  0.8787402981470578  0.1265776773924401
  0.3734204468530962  0.1212555976895473  0.8734209918293274
  0.1212585770592156  0.3734211685594815  0.8734196685704276
  0.1243482263383413  0.1243487548172695  0.6243459075960658
  0.3734228439510048  0.3734204680682964  0.6212625541803050
  0.3734209630972316  0.6265803994938821  0.3787418713875539
  0.1243464364060358  0.8756525201169936  0.3756537484820441
  0.1212586436433085  0.6265801196400673  0.1265776943918908
  0.8756527411166957  0.8756535542295154  0.6243457560184140
  0.8756535187735395  0.1243459916747724  0.3756553634025934
  0.6265782068758767  0.3734211254142892  0.3787408081076720
  0.6265808580816596  0.1212577715474126  0.1265781269323725
  0.8787443395780272  0.3734191117424217  0.1265788495270073
  0.8787436554151640  0.6265822761075412  0.8734186677981413
  0.6265770193752402  0.8787406458242941  0.8734203382281720
  0.6265776469722013  0.6265792627564366  0.6212618362121916
  0.3584250175501751  0.8586405262163339  0.3586409945681055
  0.8907354050113483  0.1092658555626755  0.6092579357269301
  0.1092593607766972  0.1092622054380854  0.3907359837754285
  0.1092648398054763  0.8907365237815483  0.6092597818749610
  0.1413602217545389  0.1413632231956683  0.8584289742876265
  0.1413606605213076  0.3584306239448054  0.6413640426498048
  0.8908737083735403  0.3914330349292641  0.8914300288615706
  0.3584299555830768  0.1413590020405238  0.6413650169222294
  0.3615176887919418  0.3615183877297525  0.8615176307146797
  0.8908721701680093  0.6085703917682537  0.1085668868140104
  0.1091270501904376  0.6085690613524335  0.8914300116453902
  0.1091288698201325  0.3914296041044878  0.1085683381369051
  0.1413593646181610  0.6415749444435619  0.3586388388907551
  0.1413582696037921  0.8586393298934780  0.1415732114072910
  0.8907377791868498  0.8907405210821366  0.3907351401738453
  0.3615189214853487  0.6384803316368846  0.1384808930863173
  0.8586368174667882  0.8586388661636306  0.8584287993457522
  0.3914275219567571  0.1091301988039675  0.1085686074329146
  0.6085658495901285  0.1091272630921694  0.8914292908847230
  0.6085718459453417  0.8908682515002084  0.1085683297300477
  0.6415770641636698  0.1413578616684461  0.3586417055248390
  0.6384816564435809  0.3615196259615487  0.1384804546204634
  0.3914300076599773  0.3914312791167731  0.3908737467493282
  0.8586425506272377  0.1413591887964429  0.1415764723437150
  0.8586416250930640  0.3584231503111113  0.3586392344980567
  0.3914319916010456  0.6085698606072327  0.6091264440786901
  0.6085678996256902  0.6085692505829599  0.3908743115824862
  0.6085712663042244  0.3914307986519887  0.6091288598971047
  0.6384817182990119  0.6384823290600394  0.8615162275367325
  0.6415683782326340  0.8586394836958604  0.6413642189031066
  0.3914313952655775  0.8908726148636177  0.8914296175805703
  0.8586414193898406  0.6415699337852772  0.6413627369196391
 
  0.00000000E+00  0.00000000E+00  0.00000000E+00
  0.00000000E+00  0.00000000E+00  0.00000000E+00
  0.00000000E+00  0.00000000E+00  0.00000000E+00
  0.00000000E+00  0.00000000E+00  0.00000000E+00
  0.00000000E+00  0.00000000E+00  0.00000000E+00
  0.00000000E+00  0.00000000E+00  0.00000000E+00
  0.00000000E+00  0.00000000E+00  0.00000000E+00
  0.00000000E+00  0.00000000E+00  0.00000000E+00
  0.00000000E+00  0.00000000E+00  0.00000000E+00
  0.00000000E+00  0.00000000E+00  0.00000000E+00
  0.00000000E+00  0.00000000E+00  0.00000000E+00
  0.00000000E+00  0.00000000E+00  0.00000000E+00
  0.00000000E+00  0.00000000E+00  0.00000000E+00
  0.00000000E+00  0.00000000E+00  0.00000000E+00
  0.00000000E+00  0.00000000E+00  0.00000000E+00
  0.00000000E+00  0.00000000E+00  0.00000000E+00
  0.00000000E+00  0.00000000E+00  0.00000000E+00
  0.00000000E+00  0.00000000E+00  0.00000000E+00
  0.00000000E+00  0.00000000E+00  0.00000000E+00
  0.00000000E+00  0.00000000E+00  0.00000000E+00
  0.00000000E+00  0.00000000E+00  0.00000000E+00
  0.00000000E+00  0.00000000E+00  0.00000000E+00
  0.00000000E+00  0.00000000E+00  0.00000000E+00
  0.00000000E+00  0.00000000E+00  0.00000000E+00
  0.00000000E+00  0.00000000E+00  0.00000000E+00
  0.00000000E+00  0.00000000E+00  0.00000000E+00
  0.00000000E+00  0.00000000E+00  0.00000000E+00
  0.00000000E+00  0.00000000E+00  0.00000000E+00
  0.00000000E+00  0.00000000E+00  0.00000000E+00
  0.00000000E+00  0.00000000E+00  0.00000000E+00
  0.00000000E+00  0.00000000E+00  0.00000000E+00
  0.00000000E+00  0.00000000E+00  0.00000000E+00
  0.00000000E+00  0.00000000E+00  0.00000000E+00
  0.00000000E+00  0.00000000E+00  0.00000000E+00
  0.00000000E+00  0.00000000E+00  0.00000000E+00
  0.00000000E+00  0.00000000E+00  0.00000000E+00
  0.00000000E+00  0.00000000E+00  0.00000000E+00
  0.00000000E+00  0.00000000E+00  0.00000000E+00
  0.00000000E+00  0.00000000E+00  0.00000000E+00
  0.00000000E+00  0.00000000E+00  0.00000000E+00
  0.00000000E+00  0.00000000E+00  0.00000000E+00
  0.00000000E+00  0.00000000E+00  0.00000000E+00
  0.00000000E+00  0.00000000E+00  0.00000000E+00
  0.00000000E+00  0.00000000E+00  0.00000000E+00
  0.00000000E+00  0.00000000E+00  0.00000000E+00
  0.00000000E+00  0.00000000E+00  0.00000000E+00
  0.00000000E+00  0.00000000E+00  0.00000000E+00
  0.00000000E+00  0.00000000E+00  0.00000000E+00
  0.00000000E+00  0.00000000E+00  0.00000000E+00
