Li16 In16 Si16 O64
1.0
   9.8251380919999995    0.0000000000000000    0.0000000000000000
   0.0000000000000000   12.3050384521999998    0.0000000000000000
   0.0000000000000000    0.0000000000000000   10.6409711837999996
Li In Si O
15 16 16 64
direct
   0.7500000000000000    0.7500000000000000    0.5000000000000000 Li
   0.0000000000000000    0.0000000000000000    0.0000000000000000 Li
   0.0000000000000000    0.5000000000000000    0.0000000000000000 Li
   0.5000000000000000    0.0000000000000000    0.0000000000000000 Li
   0.5000000000000000    0.5000000000000000    0.0000000000000000 Li
   0.0000000000000000    0.2500000000000000    0.0000000000000000 Li
   0.0000000000000000    0.7500000000000000    0.0000000000000000 Li
   0.5000000000000000    0.2500000000000000    0.0000000000000000 Li
   0.5000000000000000    0.7500000000000000    0.0000000000000000 Li
   0.2500000000000000    0.0000000000000000    0.5000000000000000 Li
   0.2500000000000000    0.5000000000000000    0.5000000000000000 Li
   0.7500000000000000    0.0000000000000000    0.5000000000000000 Li
   0.2500000000000000    0.2500000000000000    0.5000000000000000 Li
   0.2500000000000000    0.7500000000000000    0.5000000000000000 Li
   0.7500000000000000    0.2500000000000000    0.5000000000000000 Li
   0.0106175000000000    0.3750000000000000    0.7242860200000000 In
   0.0106175000000000    0.8749999999999999    0.7242860200000000 In
   0.5106174999999999    0.3750000000000000    0.7242860200000000 In
   0.5106174999999999    0.8749999999999999    0.7242860200000000 In
   0.2393825055000000    0.3750000000000000    0.2242860050000000 In
   0.2393825055000000    0.8749999999999999    0.2242860050000000 In
   0.7393825055000000    0.3750000000000000    0.2242860050000000 In
   0.7393825055000000    0.8749999999999999    0.2242860050000000 In
   0.4893825055000000    0.1250000000000000    0.2757140100000000 In
   0.4893825055000000    0.6250000000000000    0.2757140100000000 In
   0.9893825055000001    0.1250000000000000    0.2757140100000000 In
   0.9893825055000001    0.6250000000000000    0.2757140100000000 In
   0.2606174945000000    0.1250000000000000    0.7757139800000000 In
   0.2606174945000000    0.6250000000000000    0.7757139800000000 In
   0.7606174945000000    0.1250000000000000    0.7757139800000000 In
   0.7606174945000000    0.6250000000000000    0.7757139800000000 In
   0.2878749965000000    0.3750000000000000    0.9112150070000000 Si
   0.2878749965000000    0.8749999999999999    0.9112150070000000 Si
   0.7878749964999999    0.3750000000000000    0.9112150070000000 Si
   0.7878749964999999    0.8749999999999999    0.9112150070000000 Si
   0.4621250035000001    0.3750000000000000    0.4112150070000000 Si
   0.4621250035000001    0.8749999999999999    0.4112150070000000 Si
   0.9621250035000000    0.3750000000000000    0.4112150070000000 Si
   0.9621250035000000    0.8749999999999999    0.4112150070000000 Si
   0.2121250035000000    0.1250000000000000    0.0887850000000000 Si
   0.2121250035000000    0.6250000000000000    0.0887850000000000 Si
   0.7121250035000001    0.1250000000000000    0.0887850000000000 Si
   0.7121250035000001    0.6250000000000000    0.0887850000000000 Si
   0.0378750005000000    0.1250000000000000    0.5887849930000000 Si
   0.0378750005000000    0.6250000000000000    0.5887849930000000 Si
   0.5378750005000000    0.1250000000000000    0.5887849930000000 Si
   0.5378750005000000    0.6250000000000000    0.5887849930000000 Si
   0.3858605025000000    0.2710410060000000    0.3371649980000000 O
   0.3858605025000000    0.7710410059999999    0.3371649980000000 O
   0.8858605024999999    0.2710410060000000    0.3371649980000000 O
   0.8858605024999999    0.7710410059999999    0.3371649980000000 O
   0.1141394975000000    0.2289589940000000    0.6628350020000000 O
   0.1141394975000000    0.7289589940000000    0.6628350020000000 O
   0.6141394975000000    0.2289589940000000    0.6628350020000000 O
   0.6141394975000000    0.7289589940000000    0.6628350020000000 O
   0.3641394975000001    0.2710410060000000    0.8371649980000000 O
   0.3641394975000001    0.7710410059999999    0.8371649980000000 O
   0.8641394975000000    0.2710410060000000    0.8371649980000000 O
   0.8641394975000000    0.7710410059999999    0.8371649980000000 O
   0.3858605025000000    0.4789589940000000    0.3371649980000000 O
   0.3858605025000000    0.9789589940000001    0.3371649980000000 O
   0.8858605024999999    0.4789589940000000    0.3371649980000000 O
   0.8858605024999999    0.9789589940000001    0.3371649980000000 O
   0.1358605025000000    0.0210410005000000    0.1628350020000000 O
   0.1358605025000000    0.5210410005000000    0.1628350020000000 O
   0.6358605025000000    0.0210410005000000    0.1628350020000000 O
   0.6358605025000000    0.5210410005000000    0.1628350020000000 O
   0.3771939875000000    0.1250000000000000    0.0976430030000000 O
   0.3771939875000000    0.6250000000000000    0.0976430030000000 O
   0.8771939875000000    0.1250000000000000    0.0976430030000000 O
   0.8771939875000000    0.6250000000000000    0.0976430030000000 O
   0.1358605025000000    0.2289589940000000    0.1628350020000000 O
   0.1358605025000000    0.7289589940000000    0.1628350020000000 O
   0.6358605025000000    0.2289589940000000    0.1628350020000000 O
   0.6358605025000000    0.7289589940000000    0.1628350020000000 O
   0.1141394975000000    0.0210410005000000    0.6628350020000000 O
   0.1141394975000000    0.5210410005000000    0.6628350020000000 O
   0.6141394975000000    0.0210410005000000    0.6628350020000000 O
   0.6141394975000000    0.5210410005000000    0.6628350020000000 O
   0.1228059975000000    0.3750000000000000    0.9023569819999999 O
   0.1228059975000000    0.8749999999999999    0.9023569819999999 O
   0.6228059975000000    0.3750000000000000    0.9023569819999999 O
   0.6228059975000000    0.8749999999999999    0.9023569819999999 O
   0.3728060125000000    0.1250000000000000    0.5976430180000000 O
   0.3728060125000000    0.6250000000000000    0.5976430180000000 O
   0.8728060125000000    0.1250000000000000    0.5976430180000000 O
   0.8728060125000000    0.6250000000000000    0.5976430180000000 O
   0.3526349960000000    0.3750000000000000    0.0531979990000000 O
   0.3526349960000000    0.8749999999999999    0.0531979990000000 O
   0.8526349959999999    0.3750000000000000    0.0531979990000000 O
   0.8526349959999999    0.8749999999999999    0.0531979990000000 O
   0.1271940025000000    0.3750000000000000    0.4023570120000000 O
   0.1271940025000000    0.8749999999999999    0.4023570120000000 O
   0.6271940025000000    0.3750000000000000    0.4023570120000000 O
   0.6271940025000000    0.8749999999999999    0.4023570120000000 O
   0.3973650040000001    0.3750000000000000    0.5531979800000000 O
   0.3973650040000001    0.8749999999999999    0.5531979800000000 O
   0.8973650040000000    0.3750000000000000    0.5531979800000000 O
   0.8973650040000000    0.8749999999999999    0.5531979800000000 O
   0.1026350035000000    0.1250000000000000    0.4468019899999999 O
   0.1026350035000000    0.6250000000000000    0.4468019899999999 O
   0.6026350035000000    0.1250000000000000    0.4468019899999999 O
   0.6026350035000000    0.6250000000000000    0.4468019899999999 O
   0.1473650040000000    0.1250000000000000    0.9468020200000000 O
   0.1473650040000000    0.6250000000000000    0.9468020200000000 O
   0.6473650040000001    0.1250000000000000    0.9468020200000000 O
   0.6473650040000001    0.6250000000000000    0.9468020200000000 O
   0.3641394975000001    0.4789589940000000    0.8371649980000000 O
   0.3641394975000001    0.9789589940000001    0.8371649980000000 O
   0.8641394975000000    0.4789589940000000    0.8371649980000000 O
   0.8641394975000000    0.9789589940000001    0.8371649980000000 O
