Li24 Mn24 B24 O72                       
    1.000000000000000     
    16.4835152015978501    0.0088655479418851    0.0012239924970232
    -8.2341322343866246   14.3323104414248679    0.0004146888592369
     0.0004472906784662    0.0004320086627551    6.0378676708717895
   Li   Mn   B    O 
     1    24    24    72
Direct
  0.6879778293949985  0.6566619506066028  0.0000209826109024
  0.1491543680132812  0.4806751321082666  0.2503110746724302
  0.1504851077880109  0.4821576958929709  0.7498525480611015
  0.1526295679997280  0.9824208793914919  0.2495585619242641
  0.1521192597753513  0.9818898061894759  0.7503393916641680
  0.6520783029743420  0.4772636446884770  0.2496539620346049
  0.6510450054742120  0.4762603445165037  0.7504595481169777
  0.6538918663347905  0.9804497607426114  0.2516679819446091
  0.6540012136699639  0.9806051415594208  0.7482363271198426
  0.3320073044630488  0.3501316000538598  0.2484790674454611
  0.3319121114498771  0.3506861505148116  0.7514777476452456
  0.3293747714025503  0.8477088504499538  0.2516719148310068
  0.3293906262778377  0.8475955289611604  0.7483295471658847
  0.8286993745132338  0.3467832134224367  0.2497373163964106
  0.8287487197050070  0.3457698242710986  0.7503801466619807
  0.8325752282609258  0.8522983644740685  0.2529699063768927
  0.8326042354169434  0.8522240035864704  0.7469134350907435
  0.0212619399465060  0.1732041226205442  0.2511034138424890
  0.0216787977713299  0.1732559742424019  0.7488988060783487
  0.0168887018800783  0.6709447867592392  0.2499149598344162
  0.0156331092039275  0.6708689806383190  0.7502277301097156
  0.5187349680313070  0.1682276159076862  0.2513115878799025
  0.5183676484896169  0.1682138659341004  0.7486841131538670
  0.5144881471853229  0.6701893465348399  0.2504199704273729
  0.5147369394598224  0.6702145636911566  0.7496313767317027
 -0.0027204588148865 -0.0003469421062552 -0.0005343924743928
  0.0054625573690926  0.0063490821885328  0.5003142610617309
 -0.0012943323770282  0.5016909672766369  0.0018897219855183
 -0.0038699557571757  0.4979688979246829  0.4979205026353329
  0.5018792466707933 -0.0012767852674026  0.0004127801847352
  0.4998229730794055 -0.0027510824294281  0.4996693879240328
  0.5064933999392333  0.5025855053896424 -0.0009933286423802
  0.4997140660250131  0.5011527074166909  0.5008436384399637
  0.3337522574994908  0.1674328335606358  0.2488111750570739
  0.3334432030372324  0.1674105109221643  0.7511335626407362
  0.3304901889461647  0.6647799186191726  0.2490059062835745
  0.3310607908728715  0.6653058661018229  0.7509594973360013
  0.8348073163158757  0.1663213864236755  0.2506674878773216
  0.8350168980671869  0.1661255787952855  0.7493564395695647
  0.8307704572342380  0.6688609611502614  0.2483897041059772
  0.8300667632531697  0.6683090818313211  0.7514988635383458
  0.1704672739415244  0.3356203731977939  0.0005874757579243
  0.1649719576619622  0.3356303052358145  0.5001329376278177
  0.1664682534025578  0.8357613213013976  0.0004666203502283
  0.1657839699672494  0.8308587486167980  0.4998406304626152
  0.6684794618855284  0.3303846723392544 -0.0001426746326126
  0.6641678685741896  0.3296171704407505  0.4995210016539091
  0.6587634635310846  0.8244332709601591  0.0001770084085421
  0.6724176344108284  0.8372202356956340  0.4999618019484998
  0.4118847685805020  0.4420601159835083 -0.0014572295249483
  0.4073298950604995  0.4299626667584647  0.5004024626227859
  0.4097957666966398  0.9277961310256763  0.0005362088510306
  0.4051048851801886  0.9328581098341280  0.4996388669181832
  0.9060945383262590  0.4332108315573608  0.0020931945069784
  0.9023330741456246  0.4290338439331113  0.4989237017102354
  0.9027897802655614  0.9316411430071464 -0.0001251004440787
  0.9117932476250944  0.9416910502898458  0.4999852702598461
  0.0681022776890249  0.4772002099200828  0.0014832693228135
  0.0634505256794386  0.4716940677490329  0.4977608666682280
  0.0641634646544678  0.9734452817720867 -0.0009806995870406
  0.0713624844881444  0.9771892829863436  0.5005279014758292
  0.5679287623390733  0.4674665673666243 -0.0007973432233825
  0.5712201935528768  0.4810160601847849  0.5014889056415563
  0.5739119039486981  0.9782297244636915  0.0002228099614030
  0.5645132930470316  0.9677689714892443  0.4996535054156883
  0.0223298858936014  0.0931585578405899 -0.0002796763452883
  0.0357222530351667  0.1006048552224829  0.5002038973863038
  0.0232250651860335  0.5947698153952862  0.0010799811817371
  0.0203325832339221  0.5904211624778819  0.4982562640631293
  0.5228397289011802  0.0908506098917851  0.0002321684101354
  0.5283766458939602  0.0913372314769032  0.4998800858283119
  0.5452829905906287  0.5983231723064405 -0.0001210450906238
  0.5181431511200479  0.5929079602585217  0.5000921219624099
  0.3695248779381363  0.2623324529748506  0.2481589869421921
  0.3690571369408718  0.2623002865250219  0.7518702935010024
  0.3674428397416231  0.7594499778607124  0.2511666588802675
  0.3682281713275352  0.7599605971570346  0.7488337407569134
  0.8696474013575469  0.2608706494324703  0.2494342254145489
  0.8702167343643352  0.2607429662712865  0.7507394132701343
  0.8697577651330991  0.7649850847179084  0.2487382976792490
  0.8693564218947990  0.7644687160348241  0.7513731583495744
  0.2387372257577925  0.1083353014375028  0.2482293332512876
  0.2384725308896911  0.1079802596138454  0.7517022773826424
  0.2353071793441978  0.6065726572822688  0.2503990694037598
  0.2357886739326105  0.6077334501066528  0.7495227833015250
  0.7400342709804194  0.1063754735020279  0.2515207190853868
  0.7401970927763712  0.1065515103406537  0.7484762077866417
  0.7354176001293541  0.6120775795906842  0.2363431857777196
  0.7347535380584652  0.6114970633909060  0.7635956923001098
  0.3930048177842875  0.1315063985251654  0.2505531296919522
  0.3927752002261540  0.1315626952841801  0.7494778761980949
  0.3885898153117640  0.6269635301974140  0.2461681343899335
  0.3886581138362882  0.6269757184191320  0.7539196983356802
  0.8947029263401616  0.1309365480559803  0.2508841321385343
  0.8949275754680516  0.1308003789573562  0.7489905015398209
  0.8895077342838169  0.6327005091458514  0.2531791554805891
  0.8885605737955601  0.6318550271780993  0.7466010186838020
  0.1942061803861223  0.4285518607194018  0.0024794720782154
  0.1915078722231164  0.4304805984415955  0.4982847483554892
  0.1937722479083125  0.9309778170361123 -0.0008325674360833
  0.1915928177918727  0.9243179946019427  0.5012383071056270
  0.6966778916642338  0.4248849368158102 -0.0017693151889385
  0.6911401191392543  0.4241767553921042  0.5011204296533341
  0.6892815405032692  0.9188246110507398  0.0004157195196673
  0.7010072368698900  0.9329071654587581  0.4997140210581789
  0.0768242124507830  0.2666011903244390 -0.0002346044567692
  0.0696815312211577  0.2682663614479921  0.5001576321891269
  0.0726035941389054  0.7681386135117929  0.0018016079919120
  0.0709920282016752  0.7633198161724016  0.4988604624539976
  0.5744628509887622  0.2636607568539772  0.0000070237809956
  0.5691089097567602  0.2627491726460596  0.4998637083956012
  0.5614344073458533  0.7610683281982160  0.0000136892937351
  0.5798855027165607  0.7704448155737410  0.5001548659279788
  0.2393692673888607  0.3095761359086021 -0.0006108387819044
  0.2329061597844118  0.3105027916335055  0.5018128984373986
  0.2352896554511010  0.8107452726874386  0.0003183924361436
  0.2337477073098606  0.8039752223678461  0.4994007491718380
  0.7357690546063688  0.3020917405448165  0.0013751647683589
  0.7315919223592371  0.3031482136083941  0.4976922411074547
  0.7229089301188258  0.7932638218026855  0.0000582781817462
  0.7407045773106060  0.8098490186657306  0.4999584095238915
 
  0.00000000E+00  0.00000000E+00  0.00000000E+00
  0.00000000E+00  0.00000000E+00  0.00000000E+00
  0.00000000E+00  0.00000000E+00  0.00000000E+00
  0.00000000E+00  0.00000000E+00  0.00000000E+00
  0.00000000E+00  0.00000000E+00  0.00000000E+00
  0.00000000E+00  0.00000000E+00  0.00000000E+00
  0.00000000E+00  0.00000000E+00  0.00000000E+00
  0.00000000E+00  0.00000000E+00  0.00000000E+00
  0.00000000E+00  0.00000000E+00  0.00000000E+00
  0.00000000E+00  0.00000000E+00  0.00000000E+00
  0.00000000E+00  0.00000000E+00  0.00000000E+00
  0.00000000E+00  0.00000000E+00  0.00000000E+00
  0.00000000E+00  0.00000000E+00  0.00000000E+00
  0.00000000E+00  0.00000000E+00  0.00000000E+00
  0.00000000E+00  0.00000000E+00  0.00000000E+00
  0.00000000E+00  0.00000000E+00  0.00000000E+00
  0.00000000E+00  0.00000000E+00  0.00000000E+00
  0.00000000E+00  0.00000000E+00  0.00000000E+00
  0.00000000E+00  0.00000000E+00  0.00000000E+00
  0.00000000E+00  0.00000000E+00  0.00000000E+00
  0.00000000E+00  0.00000000E+00  0.00000000E+00
  0.00000000E+00  0.00000000E+00  0.00000000E+00
  0.00000000E+00  0.00000000E+00  0.00000000E+00
  0.00000000E+00  0.00000000E+00  0.00000000E+00
  0.00000000E+00  0.00000000E+00  0.00000000E+00
  0.00000000E+00  0.00000000E+00  0.00000000E+00
  0.00000000E+00  0.00000000E+00  0.00000000E+00
  0.00000000E+00  0.00000000E+00  0.00000000E+00
  0.00000000E+00  0.00000000E+00  0.00000000E+00
  0.00000000E+00  0.00000000E+00  0.00000000E+00
  0.00000000E+00  0.00000000E+00  0.00000000E+00
  0.00000000E+00  0.00000000E+00  0.00000000E+00
  0.00000000E+00  0.00000000E+00  0.00000000E+00
  0.00000000E+00  0.00000000E+00  0.00000000E+00
  0.00000000E+00  0.00000000E+00  0.00000000E+00
  0.00000000E+00  0.00000000E+00  0.00000000E+00
  0.00000000E+00  0.00000000E+00  0.00000000E+00
  0.00000000E+00  0.00000000E+00  0.00000000E+00
  0.00000000E+00  0.00000000E+00  0.00000000E+00
  0.00000000E+00  0.00000000E+00  0.00000000E+00
  0.00000000E+00  0.00000000E+00  0.00000000E+00
  0.00000000E+00  0.00000000E+00  0.00000000E+00
  0.00000000E+00  0.00000000E+00  0.00000000E+00
  0.00000000E+00  0.00000000E+00  0.00000000E+00
  0.00000000E+00  0.00000000E+00  0.00000000E+00
  0.00000000E+00  0.00000000E+00  0.00000000E+00
  0.00000000E+00  0.00000000E+00  0.00000000E+00
  0.00000000E+00  0.00000000E+00  0.00000000E+00
  0.00000000E+00  0.00000000E+00  0.00000000E+00
  0.00000000E+00  0.00000000E+00  0.00000000E+00
  0.00000000E+00  0.00000000E+00  0.00000000E+00
  0.00000000E+00  0.00000000E+00  0.00000000E+00
  0.00000000E+00  0.00000000E+00  0.00000000E+00
  0.00000000E+00  0.00000000E+00  0.00000000E+00
  0.00000000E+00  0.00000000E+00  0.00000000E+00
  0.00000000E+00  0.00000000E+00  0.00000000E+00
  0.00000000E+00  0.00000000E+00  0.00000000E+00
  0.00000000E+00  0.00000000E+00  0.00000000E+00
  0.00000000E+00  0.00000000E+00  0.00000000E+00
  0.00000000E+00  0.00000000E+00  0.00000000E+00
  0.00000000E+00  0.00000000E+00  0.00000000E+00
  0.00000000E+00  0.00000000E+00  0.00000000E+00
  0.00000000E+00  0.00000000E+00  0.00000000E+00
  0.00000000E+00  0.00000000E+00  0.00000000E+00
  0.00000000E+00  0.00000000E+00  0.00000000E+00
  0.00000000E+00  0.00000000E+00  0.00000000E+00
  0.00000000E+00  0.00000000E+00  0.00000000E+00
  0.00000000E+00  0.00000000E+00  0.00000000E+00
  0.00000000E+00  0.00000000E+00  0.00000000E+00
  0.00000000E+00  0.00000000E+00  0.00000000E+00
  0.00000000E+00  0.00000000E+00  0.00000000E+00
  0.00000000E+00  0.00000000E+00  0.00000000E+00
  0.00000000E+00  0.00000000E+00  0.00000000E+00
  0.00000000E+00  0.00000000E+00  0.00000000E+00
  0.00000000E+00  0.00000000E+00  0.00000000E+00
  0.00000000E+00  0.00000000E+00  0.00000000E+00
  0.00000000E+00  0.00000000E+00  0.00000000E+00
  0.00000000E+00  0.00000000E+00  0.00000000E+00
  0.00000000E+00  0.00000000E+00  0.00000000E+00
  0.00000000E+00  0.00000000E+00  0.00000000E+00
  0.00000000E+00  0.00000000E+00  0.00000000E+00
  0.00000000E+00  0.00000000E+00  0.00000000E+00
  0.00000000E+00  0.00000000E+00  0.00000000E+00
  0.00000000E+00  0.00000000E+00  0.00000000E+00
  0.00000000E+00  0.00000000E+00  0.00000000E+00
  0.00000000E+00  0.00000000E+00  0.00000000E+00
  0.00000000E+00  0.00000000E+00  0.00000000E+00
  0.00000000E+00  0.00000000E+00  0.00000000E+00
  0.00000000E+00  0.00000000E+00  0.00000000E+00
  0.00000000E+00  0.00000000E+00  0.00000000E+00
  0.00000000E+00  0.00000000E+00  0.00000000E+00
  0.00000000E+00  0.00000000E+00  0.00000000E+00
  0.00000000E+00  0.00000000E+00  0.00000000E+00
  0.00000000E+00  0.00000000E+00  0.00000000E+00
  0.00000000E+00  0.00000000E+00  0.00000000E+00
  0.00000000E+00  0.00000000E+00  0.00000000E+00
  0.00000000E+00  0.00000000E+00  0.00000000E+00
  0.00000000E+00  0.00000000E+00  0.00000000E+00
  0.00000000E+00  0.00000000E+00  0.00000000E+00
  0.00000000E+00  0.00000000E+00  0.00000000E+00
  0.00000000E+00  0.00000000E+00  0.00000000E+00
  0.00000000E+00  0.00000000E+00  0.00000000E+00
  0.00000000E+00  0.00000000E+00  0.00000000E+00
  0.00000000E+00  0.00000000E+00  0.00000000E+00
  0.00000000E+00  0.00000000E+00  0.00000000E+00
  0.00000000E+00  0.00000000E+00  0.00000000E+00
  0.00000000E+00  0.00000000E+00  0.00000000E+00
  0.00000000E+00  0.00000000E+00  0.00000000E+00
  0.00000000E+00  0.00000000E+00  0.00000000E+00
  0.00000000E+00  0.00000000E+00  0.00000000E+00
  0.00000000E+00  0.00000000E+00  0.00000000E+00
  0.00000000E+00  0.00000000E+00  0.00000000E+00
  0.00000000E+00  0.00000000E+00  0.00000000E+00
  0.00000000E+00  0.00000000E+00  0.00000000E+00
  0.00000000E+00  0.00000000E+00  0.00000000E+00
  0.00000000E+00  0.00000000E+00  0.00000000E+00
  0.00000000E+00  0.00000000E+00  0.00000000E+00
  0.00000000E+00  0.00000000E+00  0.00000000E+00
  0.00000000E+00  0.00000000E+00  0.00000000E+00
  0.00000000E+00  0.00000000E+00  0.00000000E+00
  0.00000000E+00  0.00000000E+00  0.00000000E+00
