K48 Ni32 F112
1.0
   8.0060214995999992    0.0000000000000000    0.0000000000000000
   0.0000000000000000    8.0060214995999992    0.0000000000000000
   0.0000000000000000    0.0000000000000000   42.0281715393999988
K Ni F
47 32 112
direct
   0.2500000000000000    0.7500000000000000    0.5000000000000000 K
   0.0000000000000000    0.0000000000000000    0.1576956660000000 K
   0.0000000000000000    0.0000000000000000    0.6576956660000000 K
   0.0000000000000000    0.5000000000000000    0.1576956660000000 K
   0.0000000000000000    0.5000000000000000    0.6576956660000000 K
   0.5000000000000000    0.0000000000000000    0.1576956660000000 K
   0.5000000000000000    0.0000000000000000    0.6576956660000000 K
   0.5000000000000000    0.5000000000000000    0.1576956660000000 K
   0.5000000000000000    0.5000000000000000    0.6576956660000000 K
   0.2500000000000000    0.2500000000000000    0.0923043265000000 K
   0.2500000000000000    0.2500000000000000    0.5923043265000000 K
   0.2500000000000000    0.7500000000000000    0.0923043265000000 K
   0.2500000000000000    0.7500000000000000    0.5923043265000000 K
   0.7500000000000000    0.2500000000000000    0.0923043265000000 K
   0.7500000000000000    0.2500000000000000    0.5923043265000000 K
   0.7500000000000000    0.7500000000000000    0.0923043265000000 K
   0.7500000000000000    0.7500000000000000    0.5923043265000000 K
   0.2500000000000000    0.2500000000000000    0.0000000000000000 K
   0.2500000000000000    0.2500000000000000    0.5000000000000000 K
   0.2500000000000000    0.7500000000000000    0.0000000000000000 K
   0.7500000000000000    0.2500000000000000    0.0000000000000000 K
   0.7500000000000000    0.2500000000000000    0.5000000000000000 K
   0.7500000000000000    0.7500000000000000    0.0000000000000000 K
   0.7500000000000000    0.7500000000000000    0.5000000000000000 K
   0.2500000000000000    0.2500000000000000    0.4076956810000000 K
   0.2500000000000000    0.2500000000000000    0.9076956810000000 K
   0.2500000000000000    0.7500000000000000    0.9076956810000000 K
   0.7500000000000000    0.2500000000000000    0.4076956810000000 K
   0.7500000000000000    0.2500000000000000    0.9076956810000000 K
   0.7500000000000000    0.7500000000000000    0.4076956810000000 K
   0.7500000000000000    0.7500000000000000    0.9076956810000000 K
   0.0000000000000000    0.0000000000000000    0.3423043190000000 K
   0.0000000000000000    0.0000000000000000    0.8423043189999999 K
   0.0000000000000000    0.5000000000000000    0.3423043190000000 K
   0.0000000000000000    0.5000000000000000    0.8423043189999999 K
   0.5000000000000000    0.0000000000000000    0.3423043190000000 K
   0.5000000000000000    0.0000000000000000    0.8423043189999999 K
   0.5000000000000000    0.5000000000000000    0.3423043190000000 K
   0.5000000000000000    0.5000000000000000    0.8423043189999999 K
   0.0000000000000000    0.0000000000000000    0.2500000000000000 K
   0.0000000000000000    0.0000000000000000    0.7499999999999999 K
   0.0000000000000000    0.5000000000000000    0.2500000000000000 K
   0.0000000000000000    0.5000000000000000    0.7499999999999999 K
   0.5000000000000000    0.0000000000000000    0.2500000000000000 K
   0.5000000000000000    0.0000000000000000    0.7499999999999999 K
   0.5000000000000000    0.5000000000000000    0.2500000000000000 K
   0.5000000000000000    0.5000000000000000    0.7499999999999999 K
   0.0000000000000000    0.0000000000000000    0.0477654935000000 Ni
   0.0000000000000000    0.0000000000000000    0.5477654935000000 Ni
   0.0000000000000000    0.5000000000000000    0.0477654935000000 Ni
   0.0000000000000000    0.5000000000000000    0.5477654935000000 Ni
   0.5000000000000000    0.0000000000000000    0.0477654935000000 Ni
   0.5000000000000000    0.0000000000000000    0.5477654935000000 Ni
   0.5000000000000000    0.5000000000000000    0.0477654935000000 Ni
   0.5000000000000000    0.5000000000000000    0.5477654935000000 Ni
   0.2500000000000000    0.2500000000000000    0.2022345065000000 Ni
   0.2500000000000000    0.2500000000000000    0.7022345065000000 Ni
   0.2500000000000000    0.7500000000000000    0.2022345065000000 Ni
   0.2500000000000000    0.7500000000000000    0.7022345065000000 Ni
   0.7500000000000000    0.2500000000000000    0.2022345065000000 Ni
   0.7500000000000000    0.2500000000000000    0.7022345065000000 Ni
   0.7500000000000000    0.7500000000000000    0.2022345065000000 Ni
   0.7500000000000000    0.7500000000000000    0.7022345065000000 Ni
   0.2500000000000000    0.2500000000000000    0.2977654935000000 Ni
   0.2500000000000000    0.2500000000000000    0.7977654935000000 Ni
   0.2500000000000000    0.7500000000000000    0.2977654935000000 Ni
   0.2500000000000000    0.7500000000000000    0.7977654935000000 Ni
   0.7500000000000000    0.2500000000000000    0.2977654935000000 Ni
   0.7500000000000000    0.2500000000000000    0.7977654935000000 Ni
   0.7500000000000000    0.7500000000000000    0.2977654935000000 Ni
   0.7500000000000000    0.7500000000000000    0.7977654935000000 Ni
   0.0000000000000000    0.0000000000000000    0.4522345065000000 Ni
   0.0000000000000000    0.0000000000000000    0.9522345065000000 Ni
   0.0000000000000000    0.5000000000000000    0.4522345065000000 Ni
   0.0000000000000000    0.5000000000000000    0.9522345065000000 Ni
   0.5000000000000000    0.0000000000000000    0.4522345065000000 Ni
   0.5000000000000000    0.0000000000000000    0.9522345065000000 Ni
   0.5000000000000000    0.5000000000000000    0.4522345065000000 Ni
   0.5000000000000000    0.5000000000000000    0.9522345065000000 Ni
   0.0000000000000000    0.0000000000000000    0.0000000000000000 F
   0.0000000000000000    0.0000000000000000    0.5000000000000000 F
   0.0000000000000000    0.5000000000000000    0.0000000000000000 F
   0.0000000000000000    0.5000000000000000    0.5000000000000000 F
   0.5000000000000000    0.0000000000000000    0.0000000000000000 F
   0.5000000000000000    0.0000000000000000    0.5000000000000000 F
   0.5000000000000000    0.5000000000000000    0.0000000000000000 F
   0.5000000000000000    0.5000000000000000    0.5000000000000000 F
   0.0000000000000000    0.2500000000000000    0.2027439475000000 F
   0.0000000000000000    0.2500000000000000    0.7027439475000000 F
   0.0000000000000000    0.7500000000000000    0.2027439475000000 F
   0.0000000000000000    0.7500000000000000    0.7027439475000000 F
   0.5000000000000000    0.2500000000000000    0.2027439475000000 F
   0.5000000000000000    0.2500000000000000    0.7027439475000000 F
   0.5000000000000000    0.7500000000000000    0.2027439475000000 F
   0.5000000000000000    0.7500000000000000    0.7027439475000000 F
   0.2500000000000000    0.0000000000000000    0.2027439475000000 F
   0.2500000000000000    0.0000000000000000    0.7027439475000000 F
   0.2500000000000000    0.5000000000000000    0.2027439475000000 F
   0.2500000000000000    0.5000000000000000    0.7027439475000000 F
   0.7500000000000000    0.0000000000000000    0.2027439475000000 F
   0.7500000000000000    0.0000000000000000    0.7027439475000000 F
   0.7500000000000000    0.5000000000000000    0.2027439475000000 F
   0.7500000000000000    0.5000000000000000    0.7027439475000000 F
   0.2500000000000000    0.0000000000000000    0.0472560490000000 F
   0.2500000000000000    0.0000000000000000    0.5472560489999999 F
   0.2500000000000000    0.5000000000000000    0.0472560490000000 F
   0.2500000000000000    0.5000000000000000    0.5472560489999999 F
   0.7500000000000000    0.0000000000000000    0.0472560490000000 F
   0.7500000000000000    0.0000000000000000    0.5472560489999999 F
   0.7500000000000000    0.5000000000000000    0.0472560490000000 F
   0.7500000000000000    0.5000000000000000    0.5472560489999999 F
   0.0000000000000000    0.2500000000000000    0.0472560490000000 F
   0.0000000000000000    0.2500000000000000    0.5472560489999999 F
   0.0000000000000000    0.7500000000000000    0.0472560490000000 F
   0.0000000000000000    0.7500000000000000    0.5472560489999999 F
   0.5000000000000000    0.2500000000000000    0.0472560490000000 F
   0.5000000000000000    0.2500000000000000    0.5472560489999999 F
   0.5000000000000000    0.7500000000000000    0.0472560490000000 F
   0.5000000000000000    0.7500000000000000    0.5472560489999999 F
   0.0000000000000000    0.0000000000000000    0.0952419640000000 F
   0.0000000000000000    0.0000000000000000    0.5952419640000000 F
   0.0000000000000000    0.5000000000000000    0.0952419640000000 F
   0.0000000000000000    0.5000000000000000    0.5952419640000000 F
   0.5000000000000000    0.0000000000000000    0.0952419640000000 F
   0.5000000000000000    0.0000000000000000    0.5952419640000000 F
   0.5000000000000000    0.5000000000000000    0.0952419640000000 F
   0.5000000000000000    0.5000000000000000    0.5952419640000000 F
   0.2500000000000000    0.2500000000000000    0.1547580360000000 F
   0.2500000000000000    0.2500000000000000    0.6547580359999999 F
   0.2500000000000000    0.7500000000000000    0.1547580360000000 F
   0.2500000000000000    0.7500000000000000    0.6547580359999999 F
   0.7500000000000000    0.2500000000000000    0.1547580360000000 F
   0.7500000000000000    0.2500000000000000    0.6547580359999999 F
   0.7500000000000000    0.7500000000000000    0.1547580360000000 F
   0.7500000000000000    0.7500000000000000    0.6547580359999999 F
   0.2500000000000000    0.2500000000000000    0.2500000000000000 F
   0.2500000000000000    0.2500000000000000    0.7499999999999999 F
   0.2500000000000000    0.7500000000000000    0.2500000000000000 F
   0.2500000000000000    0.7500000000000000    0.7499999999999999 F
   0.7500000000000000    0.2500000000000000    0.2500000000000000 F
   0.7500000000000000    0.2500000000000000    0.7499999999999999 F
   0.7500000000000000    0.7500000000000000    0.2500000000000000 F
   0.7500000000000000    0.7500000000000000    0.7499999999999999 F
   0.2500000000000000    0.0000000000000000    0.4527439475000000 F
   0.2500000000000000    0.0000000000000000    0.9527439475000000 F
   0.2500000000000000    0.5000000000000000    0.4527439475000000 F
   0.2500000000000000    0.5000000000000000    0.9527439475000000 F
   0.7500000000000000    0.0000000000000000    0.4527439475000000 F
   0.7500000000000000    0.0000000000000000    0.9527439475000000 F
   0.7500000000000000    0.5000000000000000    0.4527439475000000 F
   0.7500000000000000    0.5000000000000000    0.9527439475000000 F
   0.0000000000000000    0.2500000000000000    0.4527439475000000 F
   0.0000000000000000    0.2500000000000000    0.9527439475000000 F
   0.0000000000000000    0.7500000000000000    0.4527439475000000 F
   0.0000000000000000    0.7500000000000000    0.9527439475000000 F
   0.5000000000000000    0.2500000000000000    0.4527439475000000 F
   0.5000000000000000    0.2500000000000000    0.9527439475000000 F
   0.5000000000000000    0.7500000000000000    0.4527439475000000 F
   0.5000000000000000    0.7500000000000000    0.9527439475000000 F
   0.0000000000000000    0.2500000000000000    0.2972560525000000 F
   0.0000000000000000    0.2500000000000000    0.7972560524999999 F
   0.0000000000000000    0.7500000000000000    0.2972560525000000 F
   0.0000000000000000    0.7500000000000000    0.7972560524999999 F
   0.5000000000000000    0.2500000000000000    0.2972560525000000 F
   0.5000000000000000    0.2500000000000000    0.7972560524999999 F
   0.5000000000000000    0.7500000000000000    0.2972560525000000 F
   0.5000000000000000    0.7500000000000000    0.7972560524999999 F
   0.2500000000000000    0.0000000000000000    0.2972560525000000 F
   0.2500000000000000    0.0000000000000000    0.7972560524999999 F
   0.2500000000000000    0.5000000000000000    0.2972560525000000 F
   0.2500000000000000    0.5000000000000000    0.7972560524999999 F
   0.7500000000000000    0.0000000000000000    0.2972560525000000 F
   0.7500000000000000    0.0000000000000000    0.7972560524999999 F
   0.7500000000000000    0.5000000000000000    0.2972560525000000 F
   0.7500000000000000    0.5000000000000000    0.7972560524999999 F
   0.2500000000000000    0.2500000000000000    0.3452419640000000 F
   0.2500000000000000    0.2500000000000000    0.8452419640000000 F
   0.2500000000000000    0.7500000000000000    0.3452419640000000 F
   0.2500000000000000    0.7500000000000000    0.8452419640000000 F
   0.7500000000000000    0.2500000000000000    0.3452419640000000 F
   0.7500000000000000    0.2500000000000000    0.8452419640000000 F
   0.7500000000000000    0.7500000000000000    0.3452419640000000 F
   0.7500000000000000    0.7500000000000000    0.8452419640000000 F
   0.0000000000000000    0.0000000000000000    0.4047580360000000 F
   0.0000000000000000    0.0000000000000000    0.9047580359999999 F
   0.0000000000000000    0.5000000000000000    0.4047580360000000 F
   0.0000000000000000    0.5000000000000000    0.9047580359999999 F
   0.5000000000000000    0.0000000000000000    0.4047580360000000 F
   0.5000000000000000    0.0000000000000000    0.9047580359999999 F
   0.5000000000000000    0.5000000000000000    0.4047580360000000 F
   0.5000000000000000    0.5000000000000000    0.9047580359999999 F
