Na24 Cl8 O8
1.0
   8.9174327850000008    0.0000000000000000    0.0000000000000000
   0.0000000000000000    8.9174327850000008    0.0000000000000000
   0.0000000000000000    0.0000000000000000    8.9174327850000008
Na Cl O
23 8 8
direct
   0.5000000000000000    0.5000000000000000    0.7500000000000000 Na
   0.2500000000000000    0.0000000000000000    0.0000000000000000 Na
   0.2500000000000000    0.0000000000000000    0.5000000000000000 Na
   0.2500000000000000    0.5000000000000000    0.0000000000000000 Na
   0.2500000000000000    0.5000000000000000    0.5000000000000000 Na
   0.7500000000000000    0.0000000000000000    0.0000000000000000 Na
   0.7500000000000000    0.0000000000000000    0.5000000000000000 Na
   0.7500000000000000    0.5000000000000000    0.0000000000000000 Na
   0.7500000000000000    0.5000000000000000    0.5000000000000000 Na
   0.0000000000000000    0.0000000000000000    0.2500000000000000 Na
   0.0000000000000000    0.0000000000000000    0.7500000000000000 Na
   0.0000000000000000    0.5000000000000000    0.2500000000000000 Na
   0.0000000000000000    0.5000000000000000    0.7500000000000000 Na
   0.5000000000000000    0.0000000000000000    0.2500000000000000 Na
   0.5000000000000000    0.0000000000000000    0.7500000000000000 Na
   0.5000000000000000    0.5000000000000000    0.2500000000000000 Na
   0.0000000000000000    0.2500000000000000    0.0000000000000000 Na
   0.0000000000000000    0.2500000000000000    0.5000000000000000 Na
   0.0000000000000000    0.7500000000000000    0.0000000000000000 Na
   0.0000000000000000    0.7500000000000000    0.5000000000000000 Na
   0.5000000000000000    0.2500000000000000    0.0000000000000000 Na
   0.5000000000000000    0.7500000000000000    0.0000000000000000 Na
   0.5000000000000000    0.7500000000000000    0.5000000000000000 Na
   0.2500000000000000    0.2500000000000000    0.2500000000000000 Cl
   0.2500000000000000    0.2500000000000000    0.7500000000000000 Cl
   0.2500000000000000    0.7500000000000000    0.2500000000000000 Cl
   0.2500000000000000    0.7500000000000000    0.7500000000000000 Cl
   0.7500000000000000    0.2500000000000000    0.2500000000000000 Cl
   0.7500000000000000    0.2500000000000000    0.7500000000000000 Cl
   0.7500000000000000    0.7500000000000000    0.2500000000000000 Cl
   0.7500000000000000    0.7500000000000000    0.7500000000000000 Cl
   0.0000000000000000    0.0000000000000000    0.0000000000000000 O
   0.0000000000000000    0.0000000000000000    0.5000000000000000 O
   0.0000000000000000    0.5000000000000000    0.0000000000000000 O
   0.0000000000000000    0.5000000000000000    0.5000000000000000 O
   0.5000000000000000    0.0000000000000000    0.0000000000000000 O
   0.5000000000000000    0.0000000000000000    0.5000000000000000 O
   0.5000000000000000    0.5000000000000000    0.0000000000000000 O
   0.5000000000000000    0.5000000000000000    0.5000000000000000 O
