Ca8 Ti12 F42                            
   1.00000000000000     
     7.3454230000000003   -0.0472660000000000   -0.1181890000000000
    -3.6718280000000001    6.4909819999999998    0.0573390000000000
     0.1639810000000000    0.0201600000000000   18.8311409999999988
   Ca   Ti   F 
     8    12    42
Direct
  0.7935284456072836  0.9884159038212635  0.8292638976842193
  0.8563404574004231  0.4919289430998289  0.3565992944604701
  0.5101880618883151  0.3636949654559565  0.6716040446394966
  0.1521359937360599  0.1687650184208207  0.9968953062796664
  0.0213660648259677  0.8578527410593874  0.6759858830445556
  0.8225657744276507  0.9870701531854893  0.3481941544911877
  0.0117595374738755  0.8140554909162616  0.1695856678376300
  0.1795743507916037  0.2065013364672420  0.5004912554346093
  0.3385509741742161  0.9987441711089803  0.3370020841233318
  0.0040765855142525  0.3512810682835871  0.6506715106983905
  0.6532114548298961  0.6699870894768005  1.0047806110526523
  0.3451104423784919  1.0659134552506080  0.8367760087421862
  0.9613403688148612  0.2892115939337606  0.1770163246846964
  0.7163491858191907  0.6549774095319074  0.5090680455519725
  0.5131747242340524  0.8450756190300603  0.1758045124918001
  0.1484285822320132  0.6481945396994572  0.5142104599270507
  0.3339923550592267  0.4989227493530596  0.8307027942788890
  0.7892817832425919  0.5026707670412087  0.8299972430582347
  0.7289118884819369  0.2232724557031718  0.5132499946301582
  0.5093620852474932  0.2966747454718915  0.1703069527597026
  0.6929044653671241  0.2019595845311879  0.6230770551200028
  0.7672246910009987  0.5638007447188681  0.9326816460345401
  0.5259132026273652  0.2750524885093399  0.2821905251613597
  0.1846488777435241  0.7474775538232997  0.4043550274824345
  0.5454143908517655  0.7909796960794193  0.0730706283487073
  0.2684057150295220  0.4545573859489881  0.7222505150702121
  0.8095992339808870  0.9462703997078603  0.9465356961654968
  0.0157810922157235  0.8107326657124946  0.2905363678675387
  0.1758308340285319  0.1930329981561159  0.6200022213165495
  0.9444735816571833  0.8392746425486706  0.0565376932000450
  0.8979680797915131  0.0817739872423091  0.7161510668998023
  0.1700490464054109  0.1171457683556172  0.3855240969515680
  0.4865668085855683  0.3781937999053029  0.0632437174478076
  0.6317529408509260  0.1508259637266512  0.3976524224769047
  0.8525581951790939  0.4897374325907140  0.7192925655138983
  0.3778113797268700  0.5120479851947536  0.9428884708804571
  0.1636831847864195  0.6651673018196054  0.6249170310067282
  0.5020305058523944  0.8702549286175661  0.2889939827574902
  0.8245580138941506  0.4656881225783451  0.1634901571351530
  0.5274967740719377  0.3417694399473862  0.5379736572300847
  0.6599464253554957  0.1956927281805345  0.8489053868203166
  0.4211213157394245  0.8150748192221302  0.8279860681952256
  0.3896336395177480  0.5739714135578062  0.5012338248575509
  0.2007243739359047  0.6121728891454657  0.1803710775373952
  0.9498492852551638  0.3027193936014056  0.2865808957668058
  0.7030067570034978  0.6780759214971491  0.6198972450083277
  0.3109705562632891  0.0253123020397913  0.9391354283770956
  0.3447818925075367  0.0532562924823930  0.7266563186820106
  0.7049683305332110  0.6685642306210763  0.3971644235783912
  0.9971790021750392  0.2744251660795500  0.0752326519244540
  0.1984970323644343  0.2099236721791977  0.1839723764055430
  0.8084067454334759  0.9845801558550681  0.4809557858115477
  0.0265578847224026  0.8293597130236918  0.8097774908142457
  0.1490097432587922  0.1897976652685620  0.8594873987257705
  0.0309328645117735  0.8459941393519810  0.5361841370318672
  0.8252904974842198  0.9791255879533100  0.2025569701286738
  0.0437186814501519  0.4671080354591761  0.8462637759205055
  0.5765220584648876  0.5979365674401268  0.1929355307997546
  0.4214936664511631  0.9548827575533754  0.5211169236487667
  0.3536323273275613  0.9925643226689680  0.1355122410428950
  0.6408503933759160  0.6541381394101264  0.7863397643125533
  0.0062894821690922  0.3693087510342208  0.4464694637291940
 
             NaN             NaN             NaN
             NaN             NaN             NaN
             NaN             NaN             NaN
             NaN             NaN             NaN
             NaN             NaN             NaN
             NaN             NaN             NaN
             NaN             NaN             NaN
             NaN             NaN             NaN
             NaN             NaN             NaN
             NaN             NaN             NaN
             NaN             NaN             NaN
             NaN             NaN             NaN
             NaN             NaN             NaN
             NaN             NaN             NaN
             NaN             NaN             NaN
             NaN             NaN             NaN
             NaN             NaN             NaN
             NaN             NaN             NaN
             NaN             NaN             NaN
             NaN             NaN             NaN
             NaN             NaN             NaN
             NaN             NaN             NaN
             NaN             NaN             NaN
             NaN             NaN             NaN
             NaN             NaN             NaN
             NaN             NaN             NaN
             NaN             NaN             NaN
             NaN             NaN             NaN
             NaN             NaN             NaN
             NaN             NaN             NaN
             NaN             NaN             NaN
             NaN             NaN             NaN
             NaN             NaN             NaN
             NaN             NaN             NaN
             NaN             NaN             NaN
             NaN             NaN             NaN
             NaN             NaN             NaN
             NaN             NaN             NaN
             NaN             NaN             NaN
             NaN             NaN             NaN
             NaN             NaN             NaN
             NaN             NaN             NaN
             NaN             NaN             NaN
             NaN             NaN             NaN
             NaN             NaN             NaN
             NaN             NaN             NaN
             NaN             NaN             NaN
             NaN             NaN             NaN
             NaN             NaN             NaN
             NaN             NaN             NaN
             NaN             NaN             NaN
             NaN             NaN             NaN
             NaN             NaN             NaN
             NaN             NaN             NaN
             NaN             NaN             NaN
             NaN             NaN             NaN
             NaN             NaN             NaN
             NaN             NaN             NaN
             NaN             NaN             NaN
             NaN             NaN             NaN
             NaN             NaN             NaN
             NaN             NaN             NaN
