Ca8 Ti12 F42                            
   1.00000000000000     
     7.3454230000000003   -0.0472660000000000   -0.1181890000000000
    -3.6718280000000001    6.4909819999999998    0.0573390000000000
     0.1639810000000000    0.0201600000000000   18.8311409999999988
   Ca   Ti   F 
     8    12    42
Direct
  0.8287488192417565 -0.0007216056172245  0.8116561492127308
  0.8796827835097264  0.4676143863126161  0.3214652591895294
  0.5385197327105944  0.3406376543369021  0.6443933002858687
  0.1855504694578475  0.1601114631130731 -0.0042019703333802
  0.0511522239165957  0.8430120313475624  0.6513185690252465
  0.8463152398653088  0.9530597208248570  0.3216301044531987
  0.0516783576715070  0.7979322908533586  0.1473787114135752
  0.2087137832005382  0.1879112296476858  0.4749531460303329
  0.3638411737911368  0.9764341062563537  0.3090298798695574
  0.0342849790268818  0.3332326417927327  0.6339716076897904
  0.6815687369639898  0.6546151930157660 -0.0166382319460987
  0.3409164320589886 -0.0000841615347391  0.8222035069737665
  0.9535100846748125  0.2557330426157708  0.1537004537634294
  0.7429849181823016  0.6384808794283180  0.4865645171262756
  0.5354277762349731  0.8289603212429744  0.1535238765963393
  0.1771192672395587  0.6427980952553821  0.4866190845029133
  0.3574397764314529  0.4861326338361632  0.8133131395555719
  0.8301453022438285  0.4956376488894502  0.8099801744756262
  0.7394680507193703  0.1942502977858074  0.4849801227769516
  0.5336391915588294  0.2735544403551624  0.1517308089603410
  0.7262464042660686  0.1773614835209655  0.5969406311899534
  0.7971267619555756  0.5484567414562104  0.9115927520756375
  0.5283012964972476  0.2668242936076489  0.2643233839891079
  0.2083261814970296  0.7218598890038591  0.3774074823358620
  0.5752859883747209  0.7768502674739240  0.0501250561288576
  0.3054896876719737  0.4405215511976846  0.7021838185204649
  0.8467296887479997  0.9370060138831807  0.9259779621683312
  0.0422457886782686  0.8002326870194373  0.2678970585424227
  0.2009187817631415  0.1749569608594437  0.5959118582410701
  0.9664744919006931  0.8157920298780198  0.0365834886924476
  0.9231261423165847  0.0568859395845260  0.6967450241908818
  0.1938766022100495  0.0889902586440428  0.3637882211305145
  0.5363956430115547  0.3727581168965089  0.0427604523679514
  0.6610588735531027  0.1308740293451747  0.3703429376827779
  0.8722747835713902  0.4729613111284314  0.6969786168197888
  0.3958044546694315  0.4792426834284083  0.9251458582030474
  0.1906485300918501  0.6467711621154756  0.6001631013968567
  0.5191472311729901  0.8289878975950494  0.2675957452025408
  0.8460900117629286  0.4542029624055208  0.1802065934190245
  0.5525387302103787  0.3251828589420222  0.5147579307153815
  0.6537619796327044  0.1792342028347660  0.8228394211352504
  0.4423221855910544  0.7903716647740620  0.8158929400055113
  0.4134613742870472  0.5565058922566171  0.4779560189297474
  0.2186665359408381  0.6004731310692243  0.1508797603033592
  0.9889526934334789  0.2702723227331678  0.2654129539058069
  0.7286904738006275  0.6620139841319301  0.5981229263632687
  0.3106036006614439  0.0014365139689692  0.9241745151020261
  0.3710552702716849  0.0483026344138976  0.7103968647182869
  0.7345938000519805  0.6381035491183004  0.3743332488645229
  0.9874383583432930  0.2714171820387209  0.0505074093531074
  0.2072630347134034  0.1769445640016906  0.1356451608314171
  0.8288082446600742  0.9625342483482786  0.4573488548357759
  0.0525971406592446  0.7967001239899958  0.7826753046698131
  0.1932214050589798  0.1695113916348033  0.8255618793809468
  0.0570353073562017  0.8355589847926641  0.5140754535665848
  0.8474631899625944  0.9511801152320734  0.1833136274857420
  0.0515452247249780  0.4118462546607158  0.8235582597857459
  0.5756740382703288  0.5696808616421203  0.1696059822133880
  0.4402061865370986  0.9435574610692826  0.4934048750990651
  0.3927138030545887  0.9824511252932318  0.1045034676553356
  0.6670494589256684  0.6439418535011587  0.7790244427377606
  0.0281037270134820  0.3509449874790430  0.4305774469148587
 
             NaN             NaN             NaN
             NaN             NaN             NaN
             NaN             NaN             NaN
             NaN             NaN             NaN
             NaN             NaN             NaN
             NaN             NaN             NaN
             NaN             NaN             NaN
             NaN             NaN             NaN
             NaN             NaN             NaN
             NaN             NaN             NaN
             NaN             NaN             NaN
             NaN             NaN             NaN
             NaN             NaN             NaN
             NaN             NaN             NaN
             NaN             NaN             NaN
             NaN             NaN             NaN
             NaN             NaN             NaN
             NaN             NaN             NaN
             NaN             NaN             NaN
             NaN             NaN             NaN
             NaN             NaN             NaN
             NaN             NaN             NaN
             NaN             NaN             NaN
             NaN             NaN             NaN
             NaN             NaN             NaN
             NaN             NaN             NaN
             NaN             NaN             NaN
             NaN             NaN             NaN
             NaN             NaN             NaN
             NaN             NaN             NaN
             NaN             NaN             NaN
             NaN             NaN             NaN
             NaN             NaN             NaN
             NaN             NaN             NaN
             NaN             NaN             NaN
             NaN             NaN             NaN
             NaN             NaN             NaN
             NaN             NaN             NaN
             NaN             NaN             NaN
             NaN             NaN             NaN
             NaN             NaN             NaN
             NaN             NaN             NaN
             NaN             NaN             NaN
             NaN             NaN             NaN
             NaN             NaN             NaN
             NaN             NaN             NaN
             NaN             NaN             NaN
             NaN             NaN             NaN
             NaN             NaN             NaN
             NaN             NaN             NaN
             NaN             NaN             NaN
             NaN             NaN             NaN
             NaN             NaN             NaN
             NaN             NaN             NaN
             NaN             NaN             NaN
             NaN             NaN             NaN
             NaN             NaN             NaN
             NaN             NaN             NaN
             NaN             NaN             NaN
             NaN             NaN             NaN
             NaN             NaN             NaN
             NaN             NaN             NaN
