Ca8 Mn12 F42                            
   1.00000000000000     
     7.5999049999999997   -0.0476410000000000    0.0730800000000000
    -3.8455089999999998    6.6589090000000004    0.0258360000000000
     0.1977880000000000    0.1928770000000000   18.6496409999999990
   Ca   Mn   F 
     8    12    42
Direct
  0.4596419703212015  0.8127813322247537  0.6844708279927860
  0.1242375193860725  0.6245707890862667  0.9879712990192311
  0.3437579851466396  0.5027608054583856  0.3511830792160913
  0.5307258465874619  0.3706604878311325  0.6762286393136748
  0.8513508779381279  0.0170310927992468  0.3275092820789841
  0.1975603199320792  0.1760566318360670  0.9964012489492521
  0.9863807549843239  0.7684934054446561  0.1769966525884466
  0.1679383283808775  0.1324988086500704  0.5105294509075528
  0.3586350637462198  0.0032140571060558  0.3194337474413161
  0.9893027026189299  0.3199851972707960  0.6633970451764862
  0.6813795195394624  0.6880991762731739  0.0042841201295862
  0.3373803327471150  0.0078268352188477  0.8371083230149535
  0.0191267874861162  0.3103477375048689  0.1627994748751585
  0.6593344568261468  0.6747919505295548  0.5023719345380875
  0.5115946504640995  0.8159910364382098  0.1715375205186750
  0.1658369420781837  0.6720813005022138  0.5001991699774465
  0.3336015056667023  0.5037310204244085  0.8379117695467756
  0.8338665338135649  0.5092242507017158  0.8317269014047451
  0.6710793219671654  0.1840779918647970  0.4931841643369702
  0.4924533268113528  0.3125400006760314  0.1670209654527293
  0.7244043848672863  0.2883739661337047  0.6006234708068627
  0.8017364412772676  0.5697296212176861  0.9354857096121092
  0.4401397406759472  0.2985051114263246  0.2849481259016099
  0.2382247855424312  0.7581880523291237  0.3919610926478230
  0.5395215596237468  0.7989106553900652  0.0648035859512238
  0.2595217995509542  0.4730483829916380  0.7283543850947495
  0.8749207019240195  0.9595879521535972  0.9692585245212718
  0.0546748478511914  0.8883795971116152  0.2870094485333082
  0.2044219648262778  0.2389236023172761  0.6198955922947772
  0.9658166045326287  0.7449449951981086  0.0599320866464519
  0.7864448784086514  0.0382614753944699  0.6913749629780538
  0.1423159181868870  0.1690744524555392  0.3948523712835985
  0.5178916838097780  0.4011085351680805  0.0547592948348166
  0.6294814343991355  0.1129561659967487  0.3797208157836122
  0.8551329045775440  0.4461396442789001  0.7287056630527595
  0.3883376534887814  0.5500284821249013  0.9501217457632246
  0.1680480937900416  0.6073119323579098  0.6093541399198730
  0.4868025748114163  0.8006226967585036  0.2840052149164132
  0.7994938073398236  0.3983837276329446  0.1726256128661697
  0.5269319801084715  0.3487666837151789  0.4896666359672223
  0.6211543879756090  0.2264550725712107  0.8489249870044804
  0.4262842701403417  0.8012642450709897  0.8128277843742429
  0.3389634875219112  0.5359793740696287  0.4788999509160153
  0.1979981534278745  0.6308723299181817  0.1582191359601572
  0.0762592430427047  0.3395054671186045  0.2749115292786368
  0.5885297646238531  0.6491534319371454  0.6127145855794066
  0.2897812010053010  0.9487227899235000  0.9518747192211351
  0.3870308182373280  0.0554530273417566  0.7208873935903979
  0.6758019023362949  0.7164762708592712  0.3905713512245400
  0.0476892549080327  0.3440838262243690  0.0499155414200636
  0.1804272851108712  0.1433239344078480  0.1312037752415683
  0.8008266240423659  0.0064172871314617  0.5069637706632586
  0.0530809760459016  0.7923391874284508  0.8196639640514956
  0.2511437550737624  0.2134985230845990  0.8668775149777205
  0.9725547014782054  0.7855016504937259  0.5127390605418853
  0.8202464444640258  0.0125674505114735  0.1995272384652227
  0.0594494421996312  0.4649746208085367  0.8788156431579917
  0.6280916172925755  0.6213820024444987  0.1843580218887000
  0.3837578034098786  0.9621985410774279  0.5263987671132472
  0.4018796499816348  0.0127274905100980  0.1953219776266384
  0.5966964768461942  0.5427429265743562  0.7864867042834364
  0.9452765689938534  0.4072892239012915  0.4664609610857467
 
             NaN             NaN             NaN
             NaN             NaN             NaN
             NaN             NaN             NaN
             NaN             NaN             NaN
             NaN             NaN             NaN
             NaN             NaN             NaN
             NaN             NaN             NaN
             NaN             NaN             NaN
             NaN             NaN             NaN
             NaN             NaN             NaN
             NaN             NaN             NaN
             NaN             NaN             NaN
             NaN             NaN             NaN
             NaN             NaN             NaN
             NaN             NaN             NaN
             NaN             NaN             NaN
             NaN             NaN             NaN
             NaN             NaN             NaN
             NaN             NaN             NaN
             NaN             NaN             NaN
             NaN             NaN             NaN
             NaN             NaN             NaN
             NaN             NaN             NaN
             NaN             NaN             NaN
             NaN             NaN             NaN
             NaN             NaN             NaN
             NaN             NaN             NaN
             NaN             NaN             NaN
             NaN             NaN             NaN
             NaN             NaN             NaN
             NaN             NaN             NaN
             NaN             NaN             NaN
             NaN             NaN             NaN
             NaN             NaN             NaN
             NaN             NaN             NaN
             NaN             NaN             NaN
             NaN             NaN             NaN
             NaN             NaN             NaN
             NaN             NaN             NaN
             NaN             NaN             NaN
             NaN             NaN             NaN
             NaN             NaN             NaN
             NaN             NaN             NaN
             NaN             NaN             NaN
             NaN             NaN             NaN
             NaN             NaN             NaN
             NaN             NaN             NaN
             NaN             NaN             NaN
             NaN             NaN             NaN
             NaN             NaN             NaN
             NaN             NaN             NaN
             NaN             NaN             NaN
             NaN             NaN             NaN
             NaN             NaN             NaN
             NaN             NaN             NaN
             NaN             NaN             NaN
             NaN             NaN             NaN
             NaN             NaN             NaN
             NaN             NaN             NaN
             NaN             NaN             NaN
             NaN             NaN             NaN
             NaN             NaN             NaN
