Ca8 Mn12 F42                            
   1.00000000000000     
     7.5999049999999997   -0.0476410000000000    0.0730800000000000
    -3.8455089999999998    6.6589090000000004    0.0258360000000000
     0.1977880000000000    0.1928770000000000   18.6496409999999990
   Ca   Mn   F 
     8    12    42
Direct
  0.4662990110007286  0.8183849825591361  0.6854539795366889
  0.1236868130143918  0.6221204423211124  0.9891537142690427
  0.3470621324858030  0.5034290292271696  0.3522663969345555
  0.5288500216324975  0.3715695828527894  0.6784079416837561
  0.8531031862069426  0.0184988673293944  0.3278012648140998
  0.1970190077421674  0.1702676767760487  0.9980231770533766
  0.9897812692695657  0.7696542623190310  0.1776833342503147
  0.1661382151960372  0.1324752458148047  0.5110696785227661
  0.3608953426882019  0.0015970216232970  0.3204296766523734
  0.9915616234696633  0.3222814531906083  0.6640110920051391
  0.6854829318624620  0.6872738391581981  0.0042237122813168
  0.3417364412664448  0.0075191358084553  0.8383562145686949
  0.0214782184045853  0.3115990191438687  0.1636328342102661
  0.6581696870705157  0.6730623522034566  0.5032837511154580
  0.5134459639465145  0.8167303361100522  0.1729741997538974
  0.1682349694292613  0.6731511254919429  0.5010889179719080
  0.3387049516577700  0.5054192567743584  0.8387812238475186
  0.8375560099285851  0.5084566229497942  0.8323881143773099
  0.6685354364754577  0.1843936696377953  0.4944669033121533
  0.4956384302156880  0.3132596082875901  0.1688947351376312
  0.7131359590404320  0.2816401607585368  0.6021539002288216
  0.8033605215712399  0.5652247373920471  0.9378394452723013
  0.4416879892543404  0.2968577649431183  0.2865714908972701
  0.2352548451056353  0.7521736856191916  0.3917659769931650
  0.5507089444513473  0.8038030547864203  0.0663459102244525
  0.2663884834584436  0.4726352337336678  0.7292983509392883
  0.8769493577329904  0.9570307043087372  0.9676920486683180
  0.0572557447865463  0.8901476301053166  0.2879964362689012
  0.2074587211034120  0.2435659368916906  0.6192546421920004
  0.9717352890725947  0.7516255983686031  0.0607534292672786
  0.7940525469521875  0.0433133249648984  0.6901416114097252
  0.1390858443894910  0.1721102950985904  0.3960090712152394
  0.5189431985216532  0.4019525019276392  0.0562474068344055
  0.6324116251354401  0.1134372164645970  0.3805386597972898
  0.8581452335121712  0.4482355966201994  0.7291095976042372
  0.3913516597145895  0.5543554609211298  0.9518417499320775
  0.1745149904557516  0.6159276392983324  0.6113791383806616
  0.4880585656081727  0.8010276416764215  0.2845413018221901
  0.8030059614525903  0.4008617280280469  0.1730079503048977
  0.5294076862235297  0.3508875895638313  0.4867409902284659
  0.6249371161321030  0.2234320434699233  0.8495179567036723
  0.4295507096400407  0.8009535094326654  0.8129561474212549
  0.3424342429095016  0.5421578761674187  0.4802241904222260
  0.2018950547887268  0.6329108879362197  0.1562779473471806
  0.0807750740991271  0.3424810643476563  0.2747149573143008
  0.5911760480977657  0.6500792696303379  0.6137305070645219
  0.2936377148758649  0.9466916073463861  0.9533270285578822
  0.3866916971109421  0.0560987541056380  0.7230478779558305
  0.6787127657667982  0.7186306639733506  0.3908044026151101
  0.0476072823189441  0.3400152626034783  0.0501978508406443
  0.1828346315612455  0.1440652716675765  0.1328709282988508
  0.7951758615892196  0.0015052336881673  0.5085219090588262
  0.0553420764142752  0.7908604982430976  0.8221778549583242
  0.2571681950389219  0.2147847668487869  0.8697763956859250
  0.9709093613154393  0.7838864387540865  0.5131406430344170
  0.8224722574020108  0.0145190320747838  0.2003256955750151
  0.0628066405734170  0.4636609200301828  0.8795309276144149
  0.6309525815186099  0.6216360106799212  0.1866756015993976
  0.3774498409442242  0.9656254017196287  0.5240267747028574
  0.4045009708304326  0.0129538646360999  0.1960358590822031
  0.6013488281258866  0.5428090581181235  0.7894214527507909
  0.9482009494838848  0.4013352183198189  0.4728147608818907
 
             NaN             NaN             NaN
             NaN             NaN             NaN
             NaN             NaN             NaN
             NaN             NaN             NaN
             NaN             NaN             NaN
             NaN             NaN             NaN
             NaN             NaN             NaN
             NaN             NaN             NaN
             NaN             NaN             NaN
             NaN             NaN             NaN
             NaN             NaN             NaN
             NaN             NaN             NaN
             NaN             NaN             NaN
             NaN             NaN             NaN
             NaN             NaN             NaN
             NaN             NaN             NaN
             NaN             NaN             NaN
             NaN             NaN             NaN
             NaN             NaN             NaN
             NaN             NaN             NaN
             NaN             NaN             NaN
             NaN             NaN             NaN
             NaN             NaN             NaN
             NaN             NaN             NaN
             NaN             NaN             NaN
             NaN             NaN             NaN
             NaN             NaN             NaN
             NaN             NaN             NaN
             NaN             NaN             NaN
             NaN             NaN             NaN
             NaN             NaN             NaN
             NaN             NaN             NaN
             NaN             NaN             NaN
             NaN             NaN             NaN
             NaN             NaN             NaN
             NaN             NaN             NaN
             NaN             NaN             NaN
             NaN             NaN             NaN
             NaN             NaN             NaN
             NaN             NaN             NaN
             NaN             NaN             NaN
             NaN             NaN             NaN
             NaN             NaN             NaN
             NaN             NaN             NaN
             NaN             NaN             NaN
             NaN             NaN             NaN
             NaN             NaN             NaN
             NaN             NaN             NaN
             NaN             NaN             NaN
             NaN             NaN             NaN
             NaN             NaN             NaN
             NaN             NaN             NaN
             NaN             NaN             NaN
             NaN             NaN             NaN
             NaN             NaN             NaN
             NaN             NaN             NaN
             NaN             NaN             NaN
             NaN             NaN             NaN
             NaN             NaN             NaN
             NaN             NaN             NaN
             NaN             NaN             NaN
             NaN             NaN             NaN
