K2 V8 P8 O32 F8
1.0
   6.2596142883565609    0.0065784613467957   -0.0163829169336945
   0.0105632631298851   10.6018614218075271   -0.0242258894030154
  -0.0329104486690792   -0.0288972247555396   12.7999018451593560
K V P O F
1  8 8 32 8
direct
   0.2985300000000000    0.5600100000000000    0.8967500000000000 K
   0.4974634271477666   -0.0001420817425401    0.3947201372488522 V
   0.4965553240317756    0.5074940946214854    0.6076199696458406 V
   0.0004312737091968    0.0026442812376222    0.8954205179375507 V
   0.0004352737848701    0.5039442094988001    0.1037044022221112 V
   0.2539708418653158    0.2512807577613873    0.2458048661977814 V
   0.7504545330838260    0.7546392314841517    0.7510960156385513 V
   0.2510206710584116    0.2534637050477773    0.7499199156169123 V
   0.7495127282794954    0.7538486453948693    0.2497759856335976 V
   0.3305986403378579    0.2542714243764203    0.5008560619342288 P
   0.6681043417696843    0.7538435580490824    0.5012651270828694 P
   0.1682788614815998    0.2544391952881335    0.9980451285188879 P
   0.8316927070407957    0.7540978798806371   -0.0000771645851027 P
   0.4999622909843931    0.5046380249402246    0.1839046743636553 P
   0.4999941006720212    0.0048883014605740    0.8166077058637391 P
  -0.0022108212102683    0.5034253464738435    0.6844102412676268 P
  -0.0015687540091924    0.0047492026438382    0.3150857119692055 P
   0.4865696470366030    0.1408051316435644    0.4858681346005693 O
   0.5159373831053398    0.6376370042223909    0.5144514179452624 O
   0.0146415135800407    0.1403397729297546    0.9853561042084532 O
   0.9863006721521578    0.6396799091493234    0.0133737245015540 O
   0.4797647390452131    0.3718265957358080    0.5122981094151151 O
   0.5171117586519612    0.8718663864421946    0.4877885490672337 O
   0.0182737893172056    0.3729762650737631    0.0125606061238864 O
   0.9804557057519846    0.8733867923120915    0.9857776811946888 O
   0.1964027040736207    0.2729653658319543    0.4007750476363700 O
   0.8042148701725137    0.7724816740925136    0.5995421863483612 O
   0.3048354297447157    0.2748497132421560    0.9006371764207322 O
   0.6976711985666004    0.7742243899470049    0.0979218609659263 O
   0.1933363621569649    0.2356596202056083    0.5984014421797653 O
   0.8004019636737654    0.7346463495169305    0.4019575108283281 O
   0.3031908558487072    0.2361018053474564    0.0978002373998554 O
   0.6970313904029938    0.7368710941078468    0.9002083099079100 O
   0.3018830815536103    0.5295100712577299    0.1149793469587991 O
   0.6975233097377498    0.0323950580032341    0.8854973493783922 O
   0.1926210309698802    0.5291435988171104    0.6147825093126918 O
   0.8026828747368198    0.0331454857779000    0.3850637310914456 O
   0.6972707821274342    0.4824850006341712    0.1141152530541893 O
   0.3044014406288426    0.9816030025558004    0.8857537119430035 O
   0.8007315924020275    0.4747505676260249    0.6148793432119397 O
   0.1952463174646210    0.9816141426332909    0.3849845729574640 O
   0.5449377511731005    0.6216029319883110    0.2544937300437105 O
   0.4529278033455131    0.1204167677335124    0.7447897693687314 O
   0.9498962692602698    0.6202427189476928    0.7542702532050860 O
   0.0397378681740000    0.1207683735858070    0.2442569382741082 O
   0.4623361747362914    0.3879475658282564    0.2543388145993640 O
   0.5487683339367828    0.8876673600100240    0.7467353193908113 O
   0.0484573193980378    0.3878058604986606    0.7547276365789245 O
   0.9516304230824979    0.8864879176318826    0.2467183875978518 O
   0.5297783328436985    0.8792636178280128    0.2777349765103454 F
   0.4681796293218492    0.3817827493311317    0.7202201926308530 F
   0.9693752173025235    0.8805462791859976    0.7783054586113309 F
   0.0315092168513090    0.3805570233673317    0.2222008991297071 F
   0.4731380418611680    0.1262698512211445    0.2779362597795932 F
   0.5332775922517909    0.6270031142767767    0.7240891574293340 F
   0.0348450162342772    0.1246026604656396    0.7785750490026734 F
   0.9651474504723838    0.6248204169546784    0.2228848905675412 F
