K4 Ti16 P16 O64 F16
1.0
  12.5147769005274867   -0.0056876919273518    0.0210068992536854
  -0.0048367482385126   10.8066363544610873   -0.0023005907123443
   0.0206271015661818   -0.0031404825474856   12.8928723946704835
K Ti P O F
1 16 16 64 16
direct
   0.3248152992500637    0.4381260892954402    0.9011085157237836 K
   0.2555803002372714    0.0052144004980395    0.3967981510292328 Ti
   0.7555803002372713    0.0052144004980395    0.3967981510292328 Ti
   0.2454343430038455    0.5060946445971815    0.5990854259680074 Ti
   0.7454343430038455    0.5060946445971815    0.5990854259680073 Ti
   0.4946129223377057    0.0046455469586343    0.8985552425367963 Ti
   0.9946129223377057    0.0046455469586343    0.8985552425367963 Ti
   0.0110966037230904    0.5075183940201402    0.1077249618045956 Ti
   0.5110966037230903    0.5075183940201402    0.1077249618045956 Ti
   0.1301000131506511    0.2478580570240505    0.2442983448684702 Ti
   0.6301000131506510    0.2478580570240505    0.2442983448684702 Ti
   0.3718227653000363    0.7508694508078437    0.7531507683609393 Ti
   0.8718227653000362    0.7508694508078436    0.7531507683609392 Ti
   0.1191527433124198    0.2460521475437383    0.7405856780771646 Ti
   0.6191527433124199    0.2460521475437383    0.7405856780771646 Ti
   0.3799018574915423    0.7503297209482962    0.2552910665543463 Ti
   0.8799018574915423    0.7503297209482961    0.2552910665543463 Ti
   0.1657667753969139    0.2545870244341724    0.4935208185495619 P
   0.6657667753969140    0.2545870244341725    0.4935208185495619 P
   0.3352565252602335    0.7560008852694708    0.5036763169078013 P
   0.8352565252602334    0.7560008852694707    0.5036763169078012 P
   0.0847307139040266    0.2566086423761366    0.9948934971018312 P
   0.5847307139040265    0.2566086423761366    0.9948934971018311 P
   0.4162284400936249    0.7523860345034616    0.0047132663817888 P
   0.9162284400936248    0.7523860345034615    0.0047132663817888 P
   0.2593993798688906    0.4991603666688468    0.1913158518275587 P
   0.7593993798688904    0.4991603666688469    0.1913158518275587 P
   0.2446025695681653    0.0009052291692426    0.8113142710792328 P
   0.7446025695681653    0.0009052291692426    0.8113142710792328 P
   0.4948963445764527    0.5003542605971825    0.6872204471569089 P
   0.9948963445764527    0.5003542605971826    0.6872204471569088 P
   0.0058652091314009    0.0009602040806891    0.3089945844682597 P
   0.5058652091314009    0.0009602040806891    0.3089945844682597 P
   0.2433916130710014    0.1424657390892269    0.4854488215146676 O
   0.7433916130710014    0.1424657390892269    0.4854488215146675 O
   0.2572965167791905    0.6434002361556627    0.5122856239984609 O
   0.7572965167791905    0.6434002361556627    0.5122856239984609 O
   0.0071472419013414    0.1442692478582708    0.9852887708072313 O
   0.5071472419013413    0.1442692478582708    0.9852887708072313 O
   0.4952961874268482    0.6410944713876647    0.0136323810262159 O
   0.9952961874268482    0.6410944713876647    0.0136323810262159 O
   0.2331235079844768    0.3750817400622620    0.5051538816768525 O
   0.7331235079844768    0.3750817400622620    0.5051538816768524 O
   0.2674734217230819    0.8759231358375040    0.4931853333185559 O
   0.7674734217230819    0.8759231358375039    0.4931853333185559 O
   0.0160337938148770    0.3765791925053198    0.0060206792968086 O
   0.5160337938148769    0.3765791925053200    0.0060206792968086 O
   0.4817026210555608    0.8743496191113002    0.9930702160386430 O
   0.9817026210555608    0.8743496191113002    0.9930702160386430 O
   0.0999000010201177    0.2631385862070987    0.3935876777553222 O
   0.5999000010201178    0.2631385862070987    0.3935876777553222 O
   0.4012993168470875    0.7638067241884323    0.6036532396848387 O
   0.9012993168470875    0.7638067241884322    0.6036532396848386 O
   0.1531159374538721    0.2682880762844957    0.8959527242567483 O
   0.6531159374538720    0.2682880762844957    0.8959527242567483 O
   0.3504203927221000    0.7604779327655740    0.1054074590505260 O
   0.8504203927221000    0.7604779327655738    0.1054074590505260 O
   0.0959261599647822    0.2383367156001948    0.5913011821319138 O
   0.5959261599647822    0.2383367156001948    0.5913011821319138 O
   0.4040274580325360    0.7398594217200447    0.4054200863411510 O
   0.9040274580325359    0.7398594217200447    0.4054200863411510 O
   0.1537208140391438    0.2410646612915522    0.0927374325698202 O
   0.6537208140391437    0.2410646612915522    0.0927374325698202 O
   0.3472386359654968    0.7314821961050014    0.9075747273100665 O
   0.8472386359654968    0.7314821961050014    0.9075747273100665 O
   0.1614052495671775    0.5263302291371155    0.1201617264173757 O
   0.6614052495671775    0.5263302291371155    0.1201617264173757 O
   0.3431782135185292    0.0285852493720618    0.8800052106516070 O
   0.8431782135185292    0.0285852493720618    0.8800052106516070 O
   0.0942614595820472    0.5266130209924877    0.6194740356955992 O
   0.5942614595820472    0.5266130209924879    0.6194740356955991 O
   0.4065104292503934    0.0272882370553947    0.3776916288376659 O
   0.9065104292503934    0.0272882370553947    0.3776916288376658 O
   0.3563488728472214    0.4797129516313017    0.1176821383050938 O
   0.8563488728472215    0.4797129516313018    0.1176821383050938 O
   0.1458292457395539    0.9814521385221893    0.8822212255136341 O
   0.6458292457395538    0.9814521385221893    0.8822212255136341 O
   0.3966086630957268    0.4811872797042999    0.6160872738867016 O
   0.8966086630957266    0.4811872797042999    0.6160872738867016 O
   0.1042385887110883    0.9813459193927113    0.3798256079102254 O
   0.6042385887110883    0.9813459193927113    0.3798256079102253 O
   0.2806793094181219    0.6101182159838000    0.2633085321936693 O
   0.7806793094181219    0.6101182159838000    0.2633085321936693 O
   0.2219249381588930    0.1119923579857636    0.7386535805737160 O
   0.7219249381588930    0.1119923579857636    0.7386535805737160 O
   0.4714676055010444    0.6097535042336096    0.7615731175157997 O
   0.9714676055010442    0.6097535042336097    0.7615731175157997 O
   0.0282363762186260    0.1126348996907156    0.2367874660503907 O
   0.5282363762186258    0.1126348996907156    0.2367874660503907 O
   0.2361739548796394    0.3806785950088091    0.2537556458706238 O
   0.7361739548796395    0.3806785950088092    0.2537556458706238 O
   0.2669421807813415    0.8823998415211657    0.7476425846662899 O
   0.7669421807813415    0.8823998415211657    0.7476425846662897 O
   0.0134815084137437    0.3821769944946812    0.7531059612956861 O
   0.5134815084137437    0.3821769944946813    0.7531059612956861 O
   0.4841821769024472    0.8829049383347275    0.2444882964035995 O
   0.9841821769024472    0.8829049383347275    0.2444882964035995 O
   0.2702406851516124    0.8717958675597660    0.2820321637758799 F
   0.7702406851516125    0.8717958675597660    0.2820321637758799 F
   0.2303462840617184    0.3742493888291630    0.7185339613088437 F
   0.7303462840617184    0.3742493888291630    0.7185339613088437 F
   0.4803834211729555    0.8739392048202524    0.7833991378313930 F
   0.9803834211729554    0.8739392048202523    0.7833991378313930 F
   0.0221484503685863    0.3738186257412304    0.2184061180741665 F
   0.5221484503685863    0.3738186257412304    0.2184061180741665 F
   0.2396483447785717    0.1267639146134054    0.2737355627905483 F
   0.7396483447785718    0.1267639146134054    0.2737355627905483 F
   0.2615664213582114    0.6230292986270973    0.7266348356484383 F
   0.7615664213582114    0.6230292986270973    0.7266348356484383 F
   0.0097983276737801    0.1260635032805488    0.7756870413007892 F
   0.5097983276737801    0.1260635032805488    0.7756870413007892 F
   0.4922759545715328    0.6287967507517302    0.2255129064691541 F
   0.9922759545715328    0.6287967507517302    0.2255129064691541 F
