Li6 Zr12 P18 O72
1.0
        8.8259763718         0.0000000000         0.0000000000
       -4.4129881859         7.6435197511         0.0000000000
        0.0000000000         0.0000000000        21.8195438385
   Li   Zr    P    O
    5   12   18   72
Direct
   0.3333333430000000   -0.3333333130000000    0.6666666870000000 Li
     0.000000000         0.000000000         0.000000000
     0.333333343         0.666666687         0.166666672
     0.666666687         0.333333343         0.333333343
     0.666666687         0.333333343         0.833333313
     0.000000000         0.000000000         0.142281339
     0.333333343         0.666666687         0.024385329
     0.666666687         0.333333343         0.191051990
     0.333333343         0.666666687         0.308948010
     0.666666687         0.333333343         0.475614667
     0.000000000         0.000000000         0.357718647
     0.333333343         0.666666687         0.524385333
     0.000000000         0.000000000         0.642281353
     0.333333343         0.666666687         0.808947980
     0.666666687         0.333333343         0.691052020
     0.000000000         0.000000000         0.857718647
     0.666666687         0.333333343         0.975614667
     0.294143438         0.000000000         0.250000000
     0.000000000         0.294143438         0.250000000
     0.705856562         0.705856562         0.250000000
     0.372523218         0.333333343         0.083333328
     0.666666687         0.039189879         0.083333328
     0.960810125         0.627476752         0.083333328
     0.960810125         0.333333343         0.583333313
     0.666666687         0.627476752         0.583333313
     0.372523218         0.039189879         0.583333313
     0.039189879         0.666666687         0.416666657
     0.333333343         0.372523218         0.416666657
     0.627476752         0.960810125         0.416666657
     0.627476752         0.666666687         0.916666687
     0.333333343         0.960810125         0.916666687
     0.039189879         0.372523218         0.916666687
     0.705856562         0.000000000         0.750000000
     0.000000000         0.705856562         0.750000000
     0.294143438         0.294143438         0.750000000
     0.195106894         0.001872540         0.193023354
     0.998127460         0.193234354         0.193023354
     0.806765676         0.804893136         0.193023354
     0.193234354         0.998127460         0.306976646
     0.001872540         0.195106894         0.306976646
     0.804893136         0.806765676         0.306976646
     0.471559793         0.331460804         0.140309975
     0.668539226         0.140098974         0.140309975
     0.859901011         0.528440237         0.140309975
     0.473432332         0.335205883         0.026356680
     0.664794147         0.138226435         0.026356680
     0.861773551         0.526567698         0.026356680
     0.190790594         0.170274004         0.079907127
     0.829725981         0.020516589         0.079907127
     0.979483426         0.809209406         0.079907127
     0.353849918         0.496392667         0.086759537
     0.503607333         0.857457280         0.086759537
     0.142542735         0.646150053         0.086759537
     0.475876063         0.163059324         0.253426194
     0.836940706         0.312816739         0.253426194
     0.687183261         0.524123907         0.253426194
     0.312816739         0.836940706         0.246573806
     0.163059324         0.475876063         0.246573806
     0.524123907         0.687183261         0.246573806
     0.861773551         0.335205883         0.526356697
     0.664794147         0.526567698         0.526356697
     0.473432332         0.138226435         0.526356697
     0.859901011         0.331460804         0.640309989
     0.668539226         0.528440237         0.640309989
     0.471559793         0.140098974         0.640309989
     0.138226435         0.664794147         0.473643333
     0.335205883         0.473432332         0.473643333
     0.526567698         0.861773551         0.473643333
     0.140098974         0.668539226         0.359690011
     0.331460804         0.471559793         0.359690011
     0.528440237         0.859901011         0.359690011
     0.857457280         0.503607333         0.413240463
     0.496392667         0.353849918         0.413240463
     0.646150053         0.142542735         0.413240463
     0.020516589         0.829725981         0.420092881
     0.170274004         0.190790594         0.420092881
     0.809209406         0.979483426         0.420092881
     0.142542735         0.496392667         0.586759567
     0.503607333         0.646150053         0.586759567
     0.353849918         0.857457280         0.586759567
     0.979483426         0.170274004         0.579907119
     0.829725981         0.809209406         0.579907119
     0.190790594         0.020516589         0.579907119
     0.528440237         0.668539226         0.859690011
     0.331460804         0.859901011         0.859690011
     0.140098974         0.471559793         0.859690011
     0.526567698         0.664794147         0.973643303
     0.335205883         0.861773551         0.973643303
     0.138226435         0.473432332         0.973643303
     0.804893136         0.998127460         0.806976676
     0.001872540         0.806765676         0.806976676
     0.193234354         0.195106894         0.806976676
     0.806765676         0.001872540         0.693023324
     0.998127460         0.804893136         0.693023324
     0.195106894         0.193234354         0.693023324
     0.524123907         0.836940706         0.746573806
     0.163059324         0.687183261         0.746573806
     0.312816739         0.475876063         0.746573806
     0.687183261         0.163059324         0.753426194
     0.836940706         0.524123907         0.753426194
     0.475876063         0.312816739         0.753426194
     0.809209406         0.829725981         0.920092881
     0.170274004         0.979483426         0.920092881
     0.020516589         0.190790594         0.920092881
     0.646150053         0.503607333         0.913240433
     0.496392667         0.142542735         0.913240433
     0.857457280         0.353849918         0.913240433
