Ca1 Cr12 F42
1.0
7.247033 -0.027432 -0.010339
-3.597698 6.333627 -0.155237
0.051423 -0.362171 17.405538
Ca Cr F
1 12 42
direct
0.854409 0.994583 0.832488 Ca
0.285464 0.000215 0.333966 Cr
0.692747 0.668585 0.010870 Cr
0.023804 0.327051 0.655713 Cr
0.355978 0.995581 0.833482 Cr
0.653762 0.665162 0.497602 Cr
0.986944 0.334196 0.169906 Cr
0.655308 0.165727 0.496333 Cr
0.484998 0.331156 0.169677 Cr
0.856178 0.496073 0.834868 Cr
0.355545 0.495002 0.832343 Cr
0.154737 0.667970 0.497952 Cr
0.488086 0.833496 0.170756 Cr
0.544236 0.785538 0.066410 F
0.275273 0.452310 0.725681 F
0.175848 0.750533 0.393958 F
0.425655 0.249810 0.273867 F
0.816459 0.539096 0.941325 F
0.758801 0.213511 0.600547 F
0.905963 0.089340 0.715649 F
0.193570 0.124278 0.397868 F
0.910089 0.773425 0.075531 F
0.136496 0.223575 0.590317 F
0.068202 0.877598 0.270828 F
0.811817 0.904192 0.949914 F
0.135419 0.587389 0.603207 F
0.427618 0.874337 0.274187 F
0.438696 0.542159 0.937300 F
0.894768 0.451008 0.729911 F
0.554396 0.124200 0.392923 F
0.544253 0.409888 0.064227 F
0.361500 0.581321 0.477352 F
0.194308 0.623229 0.151699 F
0.462167 0.794626 0.819885 F
0.663170 0.196147 0.846701 F
0.571318 0.375832 0.515460 F
0.778759 0.418908 0.189283 F
0.686732 0.623154 0.399232 F
0.914869 0.290474 0.070741 F
0.379109 0.041281 0.732232 F
0.333408 0.949645 0.934689 F
0.622469 0.707959 0.596672 F
0.059702 0.377175 0.268428 F
0.947418 0.752692 0.518552 F
0.781146 0.043594 0.188126 F
0.248864 0.195987 0.845510 F
0.048479 0.795195 0.821678 F
0.738967 0.955748 0.479373 F
0.192696 0.245541 0.149984 F
0.645310 0.572994 0.805792 F
0.932660 0.385209 0.466237 F
0.428060 0.049794 0.138544 F
0.379076 0.949417 0.528863 F
0.545850 0.614204 0.201057 F
0.067601 0.418039 0.861316 F
