Ca1 Cr12 F42                            
   1.00000000000000     
     7.2245280000000003   -0.0372580000000000   -0.0258990000000000
    -3.5950460000000000    6.3016850000000000   -0.0543600000000000
     0.0160420000000000   -0.1090770000000000   17.3352059999999994
   Ca   Cr   F 
     1    12    42
Direct
  0.5786076858712694  0.8395294583004000  0.7039855255790454
  0.2970611792113280  0.0061649533686286  0.3328007002098727
  0.7007292326570982  0.6892764349355655  0.0048336263228309
  0.0223693584683631  0.3285368281205105  0.6636409611672701
  0.3352953966596213  0.9853651930577918  0.8426474639169490
  0.6631664228840324  0.6651205897217501  0.4933471437632562
  0.9996361427617690  0.3465621576107695  0.1682423095555217
  0.6639563223249643  0.1663774320064798  0.4960181396160850
  0.4987719011407055  0.3458359579372520  0.1685946421465078
  0.8405093398017117  0.4860166909618558  0.8378298221370579
  0.3356534325591011  0.4784155893403918  0.8434460773703865
  0.1622629519077292  0.6691456757766212  0.4983376922532438
  0.5002399318947236  0.8469259304368809  0.1684322847947784
  0.5443290653579602  0.7942046572116229  0.0630324151823270
  0.2751402706105213  0.4898055983782518  0.7320594435146008
  0.1952772625620759  0.7519427443670557  0.3932513184656975
  0.4282601942967527  0.2601653453574695  0.2727937364731108
  0.8258454996785584  0.5566039973947086  0.9432196203862133
  0.7578936853860375  0.1804663175231285  0.6038377786349357
  0.9137780589563141  0.0880024648923262  0.7250234014083485
  0.1949527109590139  0.1183206778120704  0.3967661941339954
  0.9232264794649294  0.8140370247579629  0.0649980797753728
  0.1607255400550626  0.2442836377464460  0.6019592692294816
  0.0808721538446474  0.8796737037912897  0.2696459750439395
  0.7704376737416294  0.8872011772526075  0.9364999865029602
  0.1321348716037228  0.5928616025844545  0.6070235285523022
  0.4501656001079684  0.8935317581640464  0.2731002849316305
  0.4243959723341447  0.5035008989023234  0.9465841169535570
  0.8617497672470479  0.4217159798104194  0.7317887585125656
  0.5650282984606690  0.1399582391385722  0.3930418237059319
  0.5798149463367421  0.4356990822410054  0.0656626024661587
  0.3668986725119422  0.5775013088259754  0.4822683218537479
  0.2017917448979240  0.6402748287647474  0.1543286474470024
  0.4387479385626374  0.7804050708016133  0.8385448037067726
  0.6286124313300142  0.1987374517556086  0.8594821108925108
  0.5881177150118300  0.3783364142544371  0.5205765523026167
  0.7894537938448258  0.4258011361954665  0.1928713744826545
  0.6877254617229031  0.6196391381484093  0.3949751553841686
  0.9287037143084123  0.3186162469205405  0.0694389718520452
  0.4011401446885936  0.0040590007062241  0.7350191078181106
  0.2842869581375719  0.9530174483444410  0.9426320378457628
  0.6361143390928171  0.7129612212423844  0.5999321581313291
  0.0699135963627002  0.3695579292316527  0.2668742788414827
  0.9585836760585734  0.7602340886630258  0.5141872893226148
  0.7973093811497028  0.0514219345927435  0.1820554441458138
  0.2376128982469628  0.1843310144598338  0.8343374101072877
  0.0487602131673586  0.7721435870167199  0.8156025084011964
  0.7453702115133866  0.9576241467876647  0.4742185768462968
  0.2101881239538090  0.2662466112106522  0.1438575562477967
  0.6200392056648283  0.5540405618294953  0.8057558665311089
  0.9440558521757454  0.3871136021815413  0.4676772365845403
  0.4403230124164416  0.0655273182828934  0.1366767510508985
  0.3880431564211735  0.9472265871211523  0.5313908288922009
  0.5590945477959679  0.6271651267337071  0.1998507108558629
  0.0539329249179845  0.4163428554870726  0.8700519485689553
 
             NaN             NaN             NaN
             NaN             NaN             NaN
             NaN             NaN             NaN
             NaN             NaN             NaN
             NaN             NaN             NaN
             NaN             NaN             NaN
             NaN             NaN             NaN
             NaN             NaN             NaN
             NaN             NaN             NaN
             NaN             NaN             NaN
             NaN             NaN             NaN
             NaN             NaN             NaN
             NaN             NaN             NaN
             NaN             NaN             NaN
             NaN             NaN             NaN
             NaN             NaN             NaN
             NaN             NaN             NaN
             NaN             NaN             NaN
             NaN             NaN             NaN
             NaN             NaN             NaN
             NaN             NaN             NaN
             NaN             NaN             NaN
             NaN             NaN             NaN
             NaN             NaN             NaN
             NaN             NaN             NaN
             NaN             NaN             NaN
             NaN             NaN             NaN
             NaN             NaN             NaN
             NaN             NaN             NaN
             NaN             NaN             NaN
             NaN             NaN             NaN
             NaN             NaN             NaN
             NaN             NaN             NaN
             NaN             NaN             NaN
             NaN             NaN             NaN
             NaN             NaN             NaN
             NaN             NaN             NaN
             NaN             NaN             NaN
             NaN             NaN             NaN
             NaN             NaN             NaN
             NaN             NaN             NaN
             NaN             NaN             NaN
             NaN             NaN             NaN
             NaN             NaN             NaN
             NaN             NaN             NaN
             NaN             NaN             NaN
             NaN             NaN             NaN
             NaN             NaN             NaN
             NaN             NaN             NaN
             NaN             NaN             NaN
             NaN             NaN             NaN
             NaN             NaN             NaN
             NaN             NaN             NaN
             NaN             NaN             NaN
             NaN             NaN             NaN
