Ca1 Cr12 F42
1.0
7.224528 -0.037258 -0.025899
-3.595046 6.301685 -0.054360
0.016042 -0.109077 17.335206
Ca Cr F
1 12 42
direct
0.588834 0.885407 0.714726 Ca
0.284092 0.001271 0.331818 Cr
0.710068 0.701663 0.004934 Cr
0.009082 0.303439 0.663524 Cr
0.351140 0.995188 0.839618 Cr
0.653340 0.651042 0.493756 Cr
0.995950 0.352643 0.167557 Cr
0.654539 0.154119 0.493987 Cr
0.494138 0.350150 0.167732 Cr
0.853122 0.495694 0.836541 Cr
0.350785 0.490111 0.838289 Cr
0.152589 0.653330 0.496746 Cr
0.497521 0.852080 0.167631 Cr
0.566907 0.819875 0.063639 F
0.265917 0.444940 0.729227 F
0.173542 0.745866 0.393236 F
0.428323 0.257015 0.272025 F
0.821860 0.556407 0.941729 F
0.745391 0.185789 0.602205 F
0.862307 0.060524 0.721235 F
0.195881 0.122460 0.397784 F
0.928702 0.805167 0.067743 F
0.123567 0.196895 0.600181 F
0.063963 0.885360 0.270038 F
0.808855 0.916288 0.940018 F
0.143385 0.573805 0.605663 F
0.423485 0.878109 0.270902 F
0.443262 0.556269 0.941688 F
0.885894 0.438506 0.730858 F
0.555130 0.118240 0.391160 F
0.563808 0.441690 0.063675 F
0.359801 0.568594 0.474179 F
0.204258 0.642288 0.145506 F
0.443667 0.786277 0.815153 F
0.649591 0.200812 0.854034 F
0.567453 0.359166 0.515527 F
0.788829 0.437743 0.188477 F
0.693911 0.614964 0.395729 F
0.918282 0.308639 0.069256 F
0.385927 0.049061 0.733343 F
0.320808 0.928010 0.938601 F
0.612053 0.690421 0.597537 F
0.073796 0.394898 0.265703 F
0.944970 0.734819 0.520394 F
0.789176 0.061294 0.189357 F
0.253634 0.196207 0.854576 F
0.055536 0.789167 0.818184 F
0.741170 0.946180 0.477314 F
0.201267 0.263968 0.146875 F
0.631208 0.554948 0.804677 F
0.933952 0.372680 0.464912 F
0.438280 0.071211 0.135488 F
0.381809 0.929606 0.533044 F
0.553487 0.630587 0.199711 F
0.070231 0.430767 0.867637 F
