Na32 Si16 Ni16 O64                      
   1.00000000000000     
    -0.0078071611467105   10.6249878914082476    0.0166789095842075
    11.3750262422508062   -0.0083167586623219   -0.0066936990888402
     0.0157755091492747  -10.6070086033538598  -13.6242224698735122
   Na   Ni   Si   O 
    31    16    16    64
Direct
  0.6223914141423716  0.5859671329070946  0.8734582177069810
  0.1215070827754866  0.0864699135446474  0.3731549765976963
  0.1231654441984061  0.0863947849170623  0.8744227633699312
  0.1208241956131536  0.5853440760303728  0.3733690137233609
  0.1224988083766858  0.5861769140689130  0.8735216830855588
  0.6216412201220247  0.0863222213431761  0.3724901741693630
  0.6224427831040337  0.0864817066191018  0.8737831157321693
  0.6239540304175752  0.5854570198506978  0.3736315186819848
  0.1223864156541650  0.4135339308592050  0.1235117862359750
  0.1202734436003473  0.4130246067227016  0.6218029542617277
  0.1222137238475038  0.9135591380445298  0.1234026093452287
  0.1222219128430780  0.9128493057539776  0.6233164537748555
  0.6234653728353975  0.4136289853680122  0.1247493248513651
  0.6225640851594905  0.4136166112776937  0.6237101117548894
  0.6222200193741290  0.9135551255808622  0.1234802565636642
  0.6211025553064228  0.9130635125857659  0.6234119518388422
  0.2478826098422514  0.1687687026209504  0.2506409719643806
  0.2490580224176765  0.1693018433111118  0.7513543110772578
  0.2478678777927731  0.6684742887199728  0.2507815913588709
  0.2476541005632733  0.6682279495583927  0.7508708731913449
  0.7485102387764382  0.1700478670569759  0.2514466516307324
  0.7476734523726049  0.1690209876881016  0.7513083479608172
  0.7483606717616910  0.6672444764252452  0.2514965420184507
  0.7474500688641885  0.6682794058853483  0.7508079067795402
  0.2477195002135996  0.3313846567388655  0.0006918083181953
  0.2478896792997393  0.8312821658426065  0.0008392558875080
  0.2471037393392683  0.8310733637109720  0.5001289043125410
  0.7477231884868508  0.3312741841169358  0.0007836496759181
  0.7493550203233897  0.3332910418670809  0.4995274309968629
  0.7479219475313291  0.8312488811593738  0.0008550372766389
  0.7472280627907838  0.8305416121733551  0.5000531695814046
  0.3775549327779510  0.4127118863632503  0.3782064583024332
  0.3784212876888053  0.4125027809520314  0.8786067115062653
  0.3779649687522197  0.9130918286901822  0.3783784784530817
  0.3781609130287694  0.9128745724220914  0.8784126781230859
  0.8756759869912663  0.4160128634626483  0.3758463629000671
  0.8782755817345834  0.4127650239449006  0.8783500742861131
  0.8778048237385702  0.9131068815329808  0.3783313142319334
  0.8781117732281470  0.9129374668199922  0.8784790607287278
  0.3778892863020786  0.0871647985543404  0.1283752417169254
  0.3769679722193565  0.0865380228124122  0.6279876630841722
  0.3777409177532764  0.5873741164335923  0.1282807185332788
  0.3766582311877664  0.5878203729383368  0.6274114554102966
  0.8783061103010914  0.0874591596691964  0.1286685044528528
  0.8782373966979670  0.0873070784640315  0.6279788684961852
  0.8779613549363879  0.5877023900839394  0.1282314007613954
  0.8778220195071517  0.5872681931410564  0.6282085645730107
  0.0036109387348935  0.1590186182421937  0.0007970605689710
  0.0041531463523957  0.1594562988833704  0.5012727587475388
  0.0037144328364110  0.6590614483822685  0.0008420549224740
  0.0037694028708062  0.6591936817339329  0.5009922156294857
  0.5040273589635846  0.1588435852351560  0.0010593140309109
  0.5047969161875030  0.1588417032578082  0.5012442150133856
  0.5037193925201016  0.6589394044476657  0.0008821608126288
  0.5036376626829461  0.6587699188654937  0.5009125035681703
  0.0044486813730769  0.3413360077507384  0.2511015407027264
  0.0044544223290593  0.3405885823564285  0.7512776704509730
  0.0036020298910051  0.8408427899390447  0.2508702615328438
  0.0028664589070496  0.8420619986699865  0.7504138859242491
  0.5044758212592021  0.3410154131041114  0.2511829116848924
  0.5040519600697759  0.3410170109267932  0.7512745837413094
  0.5042473058712365  0.8408421000702498  0.2509916213117765
  0.5037500906859645  0.8405633355422896  0.7508705762735558
  0.4480702752307913  0.2984225680427323 -0.0164676277846160
  0.4476395521774496  0.2986112058243897  0.4836883951001287
  0.4476273689684939  0.7984679515263963 -0.0165476297328495
  0.4476763924436810  0.7983357068071281  0.4838407861764301
  0.9476485354621297  0.2985049656326658 -0.0163646043836785
  0.9479883227204100  0.2987092191825160  0.4843574139568794
  0.9476990681246021  0.7984581221235947 -0.0163078345490155
  0.9473252477625302  0.7986045307193258  0.4834367270465928
  0.4482352719406118  0.2014917688005377  0.2337821344336572
  0.4475147048185562  0.2014859302886600  0.7336226155672446
  0.4480644828952082  0.7011516469538426  0.2338554599195170
  0.4487927789372944  0.7008002593531475  0.7342981093358641
  0.9474836792100952  0.2015327524810202  0.2334092622325225
  0.9481971488374583  0.2010111832600683  0.7341803569695231
  0.9476355588701018  0.7011496058168105  0.2338413159981157
  0.9473063080464326  0.7018236827982930  0.7332877975311458
  0.3668381394491704  0.0818024415791048  0.4021380656207073
  0.3676385342730077  0.0814661930270346  0.9023241706032171
  0.3672397391442601  0.5813558581612641  0.4023788497586824
  0.3672281975899734  0.5816744419682240  0.9021696186954087
  0.8671203608533041  0.0818833261643722  0.4021051822056823
  0.8673594188598023  0.0816010744725217  0.9024231763265526
  0.8673281330577208  0.5822775383692990  0.4021258691405128
  0.8675531494527688  0.5814841305575655  0.9024331972419823
  0.3680832808546416  0.4183037846648542  0.1523659975452132
  0.3693020432762001  0.4196719744968482  0.6533128625137989
  0.3674832291567091  0.9181752470754589  0.1521612627956176
  0.3673279428990919  0.9178581427531138  0.6521666536166334
  0.8670150006893480  0.4184062725949461  0.1521207149480566
  0.8683689103589048  0.4187113178097994  0.6526566060061171
  0.8669686615652502  0.9180757466263858  0.1519582151611412
  0.8678906893077002  0.9191823045341487  0.6528135459372432
  0.0298178067344233  0.3971440134300766  0.3478571442119019
  0.0291991997213883  0.3969225959664582  0.8483191313774069
  0.0285899399094894  0.8967290062680228  0.3480466959887379
  0.0292877114338054  0.8966922108794873  0.8482905956295036
  0.5297303286489058  0.3970500115509600  0.3483636596610226
  0.5286647428723686  0.3967370361777648  0.8483364477778991
  0.5294058779131351  0.8966963556552614  0.3482290738296245
  0.5288506988569005  0.8963072898550212  0.8479429641958041
  0.0290755996141851  0.1030778905878386  0.0982469185114872
  0.0299137958183276  0.1024130039693851  0.5989775364071040
  0.0290568225910472  0.6030044951257383  0.0982512204885049
  0.0289632050963178  0.6027054975548408  0.5980333713711168
  0.5293909519631447  0.1033423489531737  0.0984231019560808
  0.5291089870291138  0.1030995961946494  0.5984998408710362
  0.5292253657923767  0.6029548218694688  0.0983032398569362
  0.5292494613831046  0.6023661906751204  0.5982901966324339
  0.1735497328460894  0.3486878464021611  0.2675642355697896
  0.1731581693606092  0.3496452980249976  0.7679827659395008
  0.1729008642178158  0.8490848710608234  0.2678384584522672
  0.1734244652657584  0.8490665594056416  0.7678986404162194
  0.6725250342345489  0.3488707848082008  0.2672695998346937
  0.6736678086874291  0.3493152384354435  0.7682894186149750
  0.6731082440398718  0.8488132210775118  0.2677769078396742
  0.6730724954178176  0.8489148583786111  0.7678515681601975
  0.1728242520373572  0.1513440761623419  0.5176159222134750
  0.1729531591309233  0.1509941277239759  0.0178426237277293
  0.1717806500900234  0.6511149425378080  0.5168296063721818
  0.1728326692821109  0.6509282601220411  0.0176845059097855
  0.6718143741290108  0.1506633455790613  0.5173007068552781
  0.6733763334616054  0.1507228290355494  0.0180236033259101
  0.6727580577273857  0.6509085611761699  0.5177049645245169
  0.6730275671789534  0.6507211823459710  0.0177479313644966
 
  0.00000000E+00  0.00000000E+00  0.00000000E+00
  0.00000000E+00  0.00000000E+00  0.00000000E+00
  0.00000000E+00  0.00000000E+00  0.00000000E+00
  0.00000000E+00  0.00000000E+00  0.00000000E+00
  0.00000000E+00  0.00000000E+00  0.00000000E+00
  0.00000000E+00  0.00000000E+00  0.00000000E+00
  0.00000000E+00  0.00000000E+00  0.00000000E+00
  0.00000000E+00  0.00000000E+00  0.00000000E+00
  0.00000000E+00  0.00000000E+00  0.00000000E+00
  0.00000000E+00  0.00000000E+00  0.00000000E+00
  0.00000000E+00  0.00000000E+00  0.00000000E+00
  0.00000000E+00  0.00000000E+00  0.00000000E+00
  0.00000000E+00  0.00000000E+00  0.00000000E+00
  0.00000000E+00  0.00000000E+00  0.00000000E+00
  0.00000000E+00  0.00000000E+00  0.00000000E+00
  0.00000000E+00  0.00000000E+00  0.00000000E+00
  0.00000000E+00  0.00000000E+00  0.00000000E+00
  0.00000000E+00  0.00000000E+00  0.00000000E+00
  0.00000000E+00  0.00000000E+00  0.00000000E+00
  0.00000000E+00  0.00000000E+00  0.00000000E+00
  0.00000000E+00  0.00000000E+00  0.00000000E+00
  0.00000000E+00  0.00000000E+00  0.00000000E+00
  0.00000000E+00  0.00000000E+00  0.00000000E+00
  0.00000000E+00  0.00000000E+00  0.00000000E+00
  0.00000000E+00  0.00000000E+00  0.00000000E+00
  0.00000000E+00  0.00000000E+00  0.00000000E+00
  0.00000000E+00  0.00000000E+00  0.00000000E+00
  0.00000000E+00  0.00000000E+00  0.00000000E+00
  0.00000000E+00  0.00000000E+00  0.00000000E+00
  0.00000000E+00  0.00000000E+00  0.00000000E+00
  0.00000000E+00  0.00000000E+00  0.00000000E+00
  0.00000000E+00  0.00000000E+00  0.00000000E+00
  0.00000000E+00  0.00000000E+00  0.00000000E+00
  0.00000000E+00  0.00000000E+00  0.00000000E+00
  0.00000000E+00  0.00000000E+00  0.00000000E+00
  0.00000000E+00  0.00000000E+00  0.00000000E+00
  0.00000000E+00  0.00000000E+00  0.00000000E+00
  0.00000000E+00  0.00000000E+00  0.00000000E+00
  0.00000000E+00  0.00000000E+00  0.00000000E+00
  0.00000000E+00  0.00000000E+00  0.00000000E+00
  0.00000000E+00  0.00000000E+00  0.00000000E+00
  0.00000000E+00  0.00000000E+00  0.00000000E+00
  0.00000000E+00  0.00000000E+00  0.00000000E+00
  0.00000000E+00  0.00000000E+00  0.00000000E+00
  0.00000000E+00  0.00000000E+00  0.00000000E+00
  0.00000000E+00  0.00000000E+00  0.00000000E+00
  0.00000000E+00  0.00000000E+00  0.00000000E+00
  0.00000000E+00  0.00000000E+00  0.00000000E+00
  0.00000000E+00  0.00000000E+00  0.00000000E+00
  0.00000000E+00  0.00000000E+00  0.00000000E+00
  0.00000000E+00  0.00000000E+00  0.00000000E+00
  0.00000000E+00  0.00000000E+00  0.00000000E+00
  0.00000000E+00  0.00000000E+00  0.00000000E+00
  0.00000000E+00  0.00000000E+00  0.00000000E+00
  0.00000000E+00  0.00000000E+00  0.00000000E+00
  0.00000000E+00  0.00000000E+00  0.00000000E+00
  0.00000000E+00  0.00000000E+00  0.00000000E+00
  0.00000000E+00  0.00000000E+00  0.00000000E+00
  0.00000000E+00  0.00000000E+00  0.00000000E+00
  0.00000000E+00  0.00000000E+00  0.00000000E+00
  0.00000000E+00  0.00000000E+00  0.00000000E+00
  0.00000000E+00  0.00000000E+00  0.00000000E+00
  0.00000000E+00  0.00000000E+00  0.00000000E+00
  0.00000000E+00  0.00000000E+00  0.00000000E+00
  0.00000000E+00  0.00000000E+00  0.00000000E+00
  0.00000000E+00  0.00000000E+00  0.00000000E+00
  0.00000000E+00  0.00000000E+00  0.00000000E+00
  0.00000000E+00  0.00000000E+00  0.00000000E+00
  0.00000000E+00  0.00000000E+00  0.00000000E+00
  0.00000000E+00  0.00000000E+00  0.00000000E+00
  0.00000000E+00  0.00000000E+00  0.00000000E+00
  0.00000000E+00  0.00000000E+00  0.00000000E+00
  0.00000000E+00  0.00000000E+00  0.00000000E+00
  0.00000000E+00  0.00000000E+00  0.00000000E+00
  0.00000000E+00  0.00000000E+00  0.00000000E+00
  0.00000000E+00  0.00000000E+00  0.00000000E+00
  0.00000000E+00  0.00000000E+00  0.00000000E+00
  0.00000000E+00  0.00000000E+00  0.00000000E+00
  0.00000000E+00  0.00000000E+00  0.00000000E+00
  0.00000000E+00  0.00000000E+00  0.00000000E+00
  0.00000000E+00  0.00000000E+00  0.00000000E+00
  0.00000000E+00  0.00000000E+00  0.00000000E+00
  0.00000000E+00  0.00000000E+00  0.00000000E+00
  0.00000000E+00  0.00000000E+00  0.00000000E+00
  0.00000000E+00  0.00000000E+00  0.00000000E+00
  0.00000000E+00  0.00000000E+00  0.00000000E+00
  0.00000000E+00  0.00000000E+00  0.00000000E+00
  0.00000000E+00  0.00000000E+00  0.00000000E+00
  0.00000000E+00  0.00000000E+00  0.00000000E+00
  0.00000000E+00  0.00000000E+00  0.00000000E+00
  0.00000000E+00  0.00000000E+00  0.00000000E+00
  0.00000000E+00  0.00000000E+00  0.00000000E+00
  0.00000000E+00  0.00000000E+00  0.00000000E+00
  0.00000000E+00  0.00000000E+00  0.00000000E+00
  0.00000000E+00  0.00000000E+00  0.00000000E+00
  0.00000000E+00  0.00000000E+00  0.00000000E+00
  0.00000000E+00  0.00000000E+00  0.00000000E+00
  0.00000000E+00  0.00000000E+00  0.00000000E+00
  0.00000000E+00  0.00000000E+00  0.00000000E+00
  0.00000000E+00  0.00000000E+00  0.00000000E+00
  0.00000000E+00  0.00000000E+00  0.00000000E+00
  0.00000000E+00  0.00000000E+00  0.00000000E+00
  0.00000000E+00  0.00000000E+00  0.00000000E+00
  0.00000000E+00  0.00000000E+00  0.00000000E+00
  0.00000000E+00  0.00000000E+00  0.00000000E+00
  0.00000000E+00  0.00000000E+00  0.00000000E+00
  0.00000000E+00  0.00000000E+00  0.00000000E+00
  0.00000000E+00  0.00000000E+00  0.00000000E+00
  0.00000000E+00  0.00000000E+00  0.00000000E+00
  0.00000000E+00  0.00000000E+00  0.00000000E+00
  0.00000000E+00  0.00000000E+00  0.00000000E+00
  0.00000000E+00  0.00000000E+00  0.00000000E+00
  0.00000000E+00  0.00000000E+00  0.00000000E+00
  0.00000000E+00  0.00000000E+00  0.00000000E+00
  0.00000000E+00  0.00000000E+00  0.00000000E+00
  0.00000000E+00  0.00000000E+00  0.00000000E+00
  0.00000000E+00  0.00000000E+00  0.00000000E+00
  0.00000000E+00  0.00000000E+00  0.00000000E+00
  0.00000000E+00  0.00000000E+00  0.00000000E+00
  0.00000000E+00  0.00000000E+00  0.00000000E+00
  0.00000000E+00  0.00000000E+00  0.00000000E+00
  0.00000000E+00  0.00000000E+00  0.00000000E+00
  0.00000000E+00  0.00000000E+00  0.00000000E+00
  0.00000000E+00  0.00000000E+00  0.00000000E+00
  0.00000000E+00  0.00000000E+00  0.00000000E+00
  0.00000000E+00  0.00000000E+00  0.00000000E+00
  0.00000000E+00  0.00000000E+00  0.00000000E+00
  0.00000000E+00  0.00000000E+00  0.00000000E+00
