Li8 Mn16 O32                            
   1.00000000000000     
     8.1343698274505751   -0.0000086330564940    0.0000244914453351
    -0.0000086340085291    8.1343712155891179    0.0000461764280812
     0.0000244955906123    0.0000461750398641    8.1343516665206863
Li   Mn   O 
1    16    32
Direct
   0.3750000000000000    0.3750000000000000    0.8750000000000000 Li
  0.5000000575711212  0.2499999334250305  0.2499999881301775
  0.2499999858624520  0.5000000049050470  0.2499999329839824
  0.2500001378636512  0.2499999500500962  0.5000002350490504
  0.5000000049604338  0.4999998792846085  0.5000002217325985
  0.4999999750019626  0.7499999820123335  0.7499999671683426
  0.7499999146901288  0.4999998767429830  0.7500000524820649
  0.7499999759148395  0.7500000818970847  0.5000000556797630
  0.2499999697560753  0.0000001059166834  0.7500000712986861
  0.2499998370126875  0.7500000739698010  0.9999998738619809
  0.5000000636699227  0.0000001563070597  0.9999999055671580
  0.7500000711200769  0.0000000237589788  0.2499999154664820
  0.7500000209917985  0.2499998849886182  0.9999998751489585
  0.0000000180298017  0.2499999502684318  0.7500001421416655
  0.9999999620884878  0.4999999978269472  0.9999998629602445
  0.9999999308781469  0.7500001615863852  0.2499999035049569
  0.9999999696641240  0.9999999695422588  0.5000000393463111
  0.7353951481810768  0.0146055339234437  0.0146054658443902
  0.0146059753753747  0.7353942107815641  0.0146062445643054
  0.0146056678183655  0.0146059412375692  0.7353943821173274
  0.7353944346537347  0.7353941021398285  0.7353939836156727
  0.2646050782965403  0.9853943022329403  0.9853944373428831
  0.9853941340222008  0.2646054783961915  0.9853940112151562
  0.9853941759627531  0.9853938487714515  0.2646057278450442
  0.2646058534084545  0.2646057867691098  0.2646065985441624
  0.7353940926306990  0.5146057916376350  0.5146061912239830
  0.0146058785473642  0.2353943605663673  0.5146059938019363
  0.0146059407212320  0.5146063582998082  0.2353934791250012
  0.7353947396138523  0.2353942875942465  0.2353941170481235
  0.2646061077027682  0.4853936027784655  0.4853941190976627
  0.9853940156442889  0.7646058251469086  0.4853938473076980
  0.9853941251394147  0.4853941120023464  0.7646061218865867
  0.2646053885039663  0.7646055973599246  0.7646060658737852
  0.2353946390744923  0.0146063095492011  0.5146058816888370
  0.5146060874392404  0.7353942884232083  0.5146059319022314
  0.5146056238000583  0.0146054491754555  0.2353945867790159
  0.2353937541807980  0.7353942726849994  0.2353934869214740
  0.7646055196504022  0.9853939776405269  0.4853938680054029
  0.4853938664070441  0.2646057419787269  0.4853943358764425
  0.4853945711078538  0.9853947516784771  0.7646053234179817
  0.7646054167999452  0.2646055954189563  0.7646058646793037
  0.2353938133152695  0.5146064622675723  0.0146061994838718
  0.5146057273228664  0.2353948210376302  0.0146052264586487
  0.5146060248747091  0.5146055644798508  0.7353939935603009
  0.2353946169592191  0.2353945522432070  0.7353940118034785
  0.7646056067883933  0.4853940436356794  0.9853938218176452
  0.4853943679986301  0.7646052647022969  0.9853943877031810
  0.4853938803383784  0.4853939183103719  0.2646064092902378
  0.7646058326448966  0.7646058146536845  0.2646058416358201
 
  0.00000000E+00  0.00000000E+00  0.00000000E+00
  0.00000000E+00  0.00000000E+00  0.00000000E+00
  0.00000000E+00  0.00000000E+00  0.00000000E+00
  0.00000000E+00  0.00000000E+00  0.00000000E+00
  0.00000000E+00  0.00000000E+00  0.00000000E+00
  0.00000000E+00  0.00000000E+00  0.00000000E+00
  0.00000000E+00  0.00000000E+00  0.00000000E+00
  0.00000000E+00  0.00000000E+00  0.00000000E+00
  0.00000000E+00  0.00000000E+00  0.00000000E+00
  0.00000000E+00  0.00000000E+00  0.00000000E+00
  0.00000000E+00  0.00000000E+00  0.00000000E+00
  0.00000000E+00  0.00000000E+00  0.00000000E+00
  0.00000000E+00  0.00000000E+00  0.00000000E+00
  0.00000000E+00  0.00000000E+00  0.00000000E+00
  0.00000000E+00  0.00000000E+00  0.00000000E+00
  0.00000000E+00  0.00000000E+00  0.00000000E+00
  0.00000000E+00  0.00000000E+00  0.00000000E+00
  0.00000000E+00  0.00000000E+00  0.00000000E+00
  0.00000000E+00  0.00000000E+00  0.00000000E+00
  0.00000000E+00  0.00000000E+00  0.00000000E+00
  0.00000000E+00  0.00000000E+00  0.00000000E+00
  0.00000000E+00  0.00000000E+00  0.00000000E+00
  0.00000000E+00  0.00000000E+00  0.00000000E+00
  0.00000000E+00  0.00000000E+00  0.00000000E+00
  0.00000000E+00  0.00000000E+00  0.00000000E+00
  0.00000000E+00  0.00000000E+00  0.00000000E+00
  0.00000000E+00  0.00000000E+00  0.00000000E+00
  0.00000000E+00  0.00000000E+00  0.00000000E+00
  0.00000000E+00  0.00000000E+00  0.00000000E+00
  0.00000000E+00  0.00000000E+00  0.00000000E+00
  0.00000000E+00  0.00000000E+00  0.00000000E+00
  0.00000000E+00  0.00000000E+00  0.00000000E+00
  0.00000000E+00  0.00000000E+00  0.00000000E+00
  0.00000000E+00  0.00000000E+00  0.00000000E+00
  0.00000000E+00  0.00000000E+00  0.00000000E+00
  0.00000000E+00  0.00000000E+00  0.00000000E+00
  0.00000000E+00  0.00000000E+00  0.00000000E+00
  0.00000000E+00  0.00000000E+00  0.00000000E+00
  0.00000000E+00  0.00000000E+00  0.00000000E+00
  0.00000000E+00  0.00000000E+00  0.00000000E+00
  0.00000000E+00  0.00000000E+00  0.00000000E+00
  0.00000000E+00  0.00000000E+00  0.00000000E+00
  0.00000000E+00  0.00000000E+00  0.00000000E+00
  0.00000000E+00  0.00000000E+00  0.00000000E+00
  0.00000000E+00  0.00000000E+00  0.00000000E+00
  0.00000000E+00  0.00000000E+00  0.00000000E+00
  0.00000000E+00  0.00000000E+00  0.00000000E+00
  0.00000000E+00  0.00000000E+00  0.00000000E+00
