Ca1 Ni12 F42                            
   1.00000000000000     
     7.0308750000000000   -0.0085300000000000   -0.0203850000000000
    -3.5185550000000001    6.1189280000000004   -0.0513340000000000
    -0.1642600000000000   -0.1390160000000000   16.7718099999999986
   Ca   Ni   F 
     1    12    42
Direct
  0.9113381814783685  0.8308124176153024  0.6882410677188139
  0.3174670687766735  0.0109885287743346  0.3317861234658417
  0.6715954585705071  0.6603553219616707  0.0025630597691777
  0.0085945541265112  0.3399014742731604  0.6650458698070094
  0.3273164556185991  0.9732465465260379  0.8387889821432126
  0.6711878960239984  0.6899801588921538  0.4991357223769585
  0.0063992450475011  0.3451856613798561  0.1690793500121564
  0.6674923651524181  0.1900052019107370  0.4971479802926627
  0.5043940861836004  0.3430567468438382  0.1708433320000008
  0.8252695586725650  0.4691584594018271  0.8407309061571129
  0.3266171676841440  0.4745270061958478  0.8399634978952931
  0.1739819115084212  0.6868399575407614  0.4990908260849937
  0.5075232548857451  0.8442604036146545  0.1682769303032296
  0.5824024049781770  0.8266390719081470  0.0624497367641439
  0.2504754439517448  0.4062411585134530  0.7324459900745893
  0.1740836300642498  0.7626876384676897  0.3895894440520371
  0.4740082384516526  0.2728412022909027  0.2778111533175115
  0.7415124497788607  0.4762895743108625  0.9464055401050683
  0.7565495562962227  0.2704990363060783  0.6024458905196786
  0.8456468834610440  0.0979060539109702  0.7227078622682226
  0.2196101896477513  0.1408285658255198  0.3944926857977785
  0.9168686728466677  0.7679793927385745  0.0578284648207958
  0.0892843950715669  0.1798464631792780  0.6070913993248994
  0.0917127109613515  0.9123824234881955  0.2666446029284572
  0.7828885584392173  0.8723228279947380  0.9340644659822835
  0.1714511367479639  0.5950094988646819  0.6091111142553416
  0.4350974961354975  0.8638322784137528  0.2736562592618835
  0.3988943863153525  0.5394556819556977  0.9482446972746688
  0.9184008741719204  0.5031970700757148  0.7276153315704516
  0.5824224673335268  0.1139343745365926  0.3912554065831061
  0.5264854480102180  0.4106889240707984  0.0649010538054686
  0.3883519850595791  0.6117278364194007  0.4693017704086859
  0.2216482478052402  0.6409453862009645  0.1403393377054726
  0.3986692270278877  0.7615164242638472  0.8117474338993955
  0.6157071241362633  0.1748188169807009  0.8202382041409398
  0.5654545244739352  0.3911159457984559  0.5026473056856404
  0.8012972097708214  0.4475775266228849  0.1850137718745719
  0.7350412618064031  0.6941150940368264  0.3982449946725747
  0.9328382487078496  0.2921179236725184  0.0680779511503333
  0.2591250050222584  0.9821787574774040  0.7329479744988056
  0.3855567074385881  0.9613714476347974  0.9399322565084954
  0.6169302901385593  0.6899628332304704  0.6063302367474233
  0.0806347138010536  0.3991360699842968  0.2699843375517806
  0.9552232501826000  0.7605367196662227  0.5350879433272656
  0.7933802322768220  0.0475557039839721  0.1960754392539384
  0.2501066434258771  0.1823302797711300  0.8632286950928360
  0.0313836809355268  0.7721250010332148  0.8498343159701162
  0.7711643512095318  0.9881158410841110  0.4966708343923907
  0.2085066348446640  0.2394046497272635  0.1553673922078093
  0.6247835676398290  0.5556805957313427  0.8026656479944485
  0.9435836105368320  0.3988260026860742  0.4639559099574858
  0.4486669722303886  0.0596524095347626  0.1357210706187070
  0.3949262406777707  0.9787499488539694  0.5332080739879709
  0.5664836636705161  0.6299648518962854  0.2028390391605155
  0.0291942348131949  0.3870113343632692  0.8704044638083296
 
             NaN             NaN             NaN
             NaN             NaN             NaN
             NaN             NaN             NaN
             NaN             NaN             NaN
             NaN             NaN             NaN
             NaN             NaN             NaN
             NaN             NaN             NaN
             NaN             NaN             NaN
             NaN             NaN             NaN
             NaN             NaN             NaN
             NaN             NaN             NaN
             NaN             NaN             NaN
             NaN             NaN             NaN
             NaN             NaN             NaN
             NaN             NaN             NaN
             NaN             NaN             NaN
             NaN             NaN             NaN
             NaN             NaN             NaN
             NaN             NaN             NaN
             NaN             NaN             NaN
             NaN             NaN             NaN
             NaN             NaN             NaN
             NaN             NaN             NaN
             NaN             NaN             NaN
             NaN             NaN             NaN
             NaN             NaN             NaN
             NaN             NaN             NaN
             NaN             NaN             NaN
             NaN             NaN             NaN
             NaN             NaN             NaN
             NaN             NaN             NaN
             NaN             NaN             NaN
             NaN             NaN             NaN
             NaN             NaN             NaN
             NaN             NaN             NaN
             NaN             NaN             NaN
             NaN             NaN             NaN
             NaN             NaN             NaN
             NaN             NaN             NaN
             NaN             NaN             NaN
             NaN             NaN             NaN
             NaN             NaN             NaN
             NaN             NaN             NaN
             NaN             NaN             NaN
             NaN             NaN             NaN
             NaN             NaN             NaN
             NaN             NaN             NaN
             NaN             NaN             NaN
             NaN             NaN             NaN
             NaN             NaN             NaN
             NaN             NaN             NaN
             NaN             NaN             NaN
             NaN             NaN             NaN
             NaN             NaN             NaN
             NaN             NaN             NaN
