Ca1 Ni12 F42                            
   1.00000000000000     
     7.0308750000000000   -0.0085300000000000   -0.0203850000000000
    -3.5185550000000001    6.1189280000000004   -0.0513340000000000
    -0.1642600000000000   -0.1390160000000000   16.7718099999999986
   Ca   Ni   F 
     1    12    42
Direct
  0.9153934036366101  0.8317089254334745  0.6876375041944405
  0.3132109488560732  1.0086430218149007  0.3313487727736834
  0.6749678681982356  0.6622263556290834  0.0044803963954782
  0.0094440006184479  0.3409720547801327  0.6650547106727863
  0.3325270889824783  0.9775158684253819  0.8375729354876961
  0.6695009878801694  0.6884417766107106  0.4993504252616732
  1.0009761958480052  0.3413096588466948  0.1688775507867074
  0.6658344713986227  0.1882679900678453  0.4971546277911241
  0.4991414307870581  0.3395790301633789  0.1706143868957378
  0.8325732693343995  0.4727532559923254  0.8429428203802317
  0.3344190053949942  0.4796089318134985  0.8384456570827232
  0.1721703490697395  0.6852065156114479  0.4984174084143665
  0.5023552569916684  0.8407527019952914  0.1681444114240976
  0.5770510873366311  0.8238370696239004  0.0618256330495442
  0.2539320484219736  0.4112545729754901  0.7310165547127918
  0.1713243854316857  0.7606327144553801  0.3888610162363762
  0.4681843409610363  0.2705939521871918  0.2775992754268767
  0.7544895198424554  0.4851016418001406  0.9497151557236577
  0.7564634765037694  0.2672170168582194  0.6029818035497617
  0.8510379385392840  0.0996262758379897  0.7234017730448068
  0.2150008964674243  0.1374509988131196  0.3944281420114757
  0.9139576425187568  0.7690131809498632  0.0632663076493757
  0.0897507816613470  0.1816470981186028  0.6065430794412268
  0.0873405739663768  0.9098043375131565  0.2661654825987387
  0.7922503082304152  0.8763530322571840  0.9372176287895104
  0.1699009752592324  0.5956928774361250  0.6090046919333026
  0.4313047810617667  0.8612859152347565  0.2734353939367110
  0.4076163994385289  0.5428804700816532  0.9469676435348083
  0.9192934051553278  0.5042700323603710  0.7275954950791952
  0.5776696762387625  0.1129013498859387  0.3911094477835172
  0.5232924801842334  0.4087591036728210  0.0648912280867533
  0.3877970518715151  0.6092641951686105  0.4691478223257119
  0.2148017372513761  0.6345713131010211  0.1405474772985165
  0.4016181778729093  0.7655889503189316  0.8106245522424197
  0.6200010979130367  0.1756282832807301  0.8208318030808706
  0.5648126119691778  0.3909356819370985  0.5047000935953105
  0.7977562559037221  0.4416246661801892  0.1855145987014167
  0.7326079105206909  0.6881864330569247  0.3984939137119859
  0.9260114696920125  0.2889243862624344  0.0678212932144463
  0.2653145561253870 -0.0128146061937651  0.7314916114125740
  0.3894170474163494  0.9645191073139342  0.9389971890222423
  0.6171819727425908  0.6935310334580722  0.6065675100722492
  0.0772983394985838  0.3950379548601023  0.2700938659370835
  0.9528175769042178  0.7602352019314972  0.5351834642927524
  0.7900872249521858  0.0467681275351643  0.1956222305210449
  0.2596905479915095  0.1876697097809297  0.8620314565960591
  0.0374896873233250  0.7812569342755579  0.8481250847805029
  0.7694030005282703  0.9854959771150970  0.4950396991266215
  0.2016924340912044  0.2379761347426606  0.1544174782312340
  0.6215708028903947  0.5604529799954724  0.8034852347844237
  0.9399672663298936  0.3948449933387813  0.4633017610535030
  0.4413787883538787  0.0563737969658707  0.1358538874737880
  0.3947141174862712  0.9792177757438222  0.5332268180082839
  0.5627610352808131  0.6259463926597787  0.2024108930121592
  0.0470641381211437  0.3908933111829547  0.8697219885966813
 
             NaN             NaN             NaN
             NaN             NaN             NaN
             NaN             NaN             NaN
             NaN             NaN             NaN
             NaN             NaN             NaN
             NaN             NaN             NaN
             NaN             NaN             NaN
             NaN             NaN             NaN
             NaN             NaN             NaN
             NaN             NaN             NaN
             NaN             NaN             NaN
             NaN             NaN             NaN
             NaN             NaN             NaN
             NaN             NaN             NaN
             NaN             NaN             NaN
             NaN             NaN             NaN
             NaN             NaN             NaN
             NaN             NaN             NaN
             NaN             NaN             NaN
             NaN             NaN             NaN
             NaN             NaN             NaN
             NaN             NaN             NaN
             NaN             NaN             NaN
             NaN             NaN             NaN
             NaN             NaN             NaN
             NaN             NaN             NaN
             NaN             NaN             NaN
             NaN             NaN             NaN
             NaN             NaN             NaN
             NaN             NaN             NaN
             NaN             NaN             NaN
             NaN             NaN             NaN
             NaN             NaN             NaN
             NaN             NaN             NaN
             NaN             NaN             NaN
             NaN             NaN             NaN
             NaN             NaN             NaN
             NaN             NaN             NaN
             NaN             NaN             NaN
             NaN             NaN             NaN
             NaN             NaN             NaN
             NaN             NaN             NaN
             NaN             NaN             NaN
             NaN             NaN             NaN
             NaN             NaN             NaN
             NaN             NaN             NaN
             NaN             NaN             NaN
             NaN             NaN             NaN
             NaN             NaN             NaN
             NaN             NaN             NaN
             NaN             NaN             NaN
             NaN             NaN             NaN
             NaN             NaN             NaN
             NaN             NaN             NaN
             NaN             NaN             NaN
