Ca8 Cr12 F42                            
   1.00000000000000     
     7.4174850000000001   -0.0117530000000000   -0.4875940000000000
    -3.6024379999999998    6.6619539999999997    0.2080070000000000
     0.9970580000000000    0.1928600000000000   18.5757469999999998
   Ca   Cr   F 
     8    12    42
Direct
  0.5410489812742028  0.8106346289542982  0.6975180680368264
  0.8478683934370955  0.5139427411333606  0.3139637382848361
  0.5770420664330229  0.0745721731971650  0.9895298318862831
  0.0491613267589303  0.8566086792363719  0.6705226498812655
  0.8382864166861183  0.0070805499008329  0.3465317516898184
  0.0943977086517339  0.5815706953372721  0.9797700454900546
  0.9925581494899521  0.8536957163729302  0.1517692859405872
  0.2707491684723174  0.2459223788917528  0.5043535615781773
  0.3441640888498556  0.0127892542786320  0.3462085552326167
  1.0065129293286841  0.3088638021216318  0.6648879973341947
  0.6189304968594693  0.5986310344692545  0.9994386413721527
  0.3202434773904411  0.9678320043331290  0.8282072290489049
  0.9318808040191403  0.3043924510614134  0.1594013496846581
  0.7320003201425272  0.7101141359211252  0.5043936115947321
  0.4390904146383659  0.8046794439167096  0.1732353722321388
  0.2234780184035925  0.7206820207821445  0.5016325859628429
  0.3214860960042849  0.4629786525221449  0.8300179738560243
  0.8148585722242268  0.4641541122123741  0.8169862798044341
  0.7435028983372803  0.2180366559810547  0.5037599203944320
  0.4454053935597561  0.3196457293678724  0.1686716095788352
  0.7423888004442101  0.1536101116103785  0.6076031947771614
  0.7875852061618819  0.5020109746829053  0.9208222583033659
  0.5037818984233725  0.2732582143892229  0.2982058312028333
  0.1716685641062253  0.7370870387461855  0.3923375569610713
  0.3508834586707318  0.7852537289798870  0.0531774318188089
  0.2651928667722236  0.4807554832177564  0.7162720636239545
  0.7067356461684646  0.8724344013965816  0.9690460633339709
  0.9330175794911921  0.8326005018667287  0.2702458635513919
  0.1563955714179659  0.1752364481602885  0.6172976944391255
  0.8945062477515087  0.6926508836602249  0.0485667791260258
  0.8712018405118762  0.9992538971769740  0.7215742711016971
  0.1723187249548021  0.1235176569288416  0.3901472148727422
  0.5161135429702691  0.3204787530235961  0.0388514444626442
  0.7821433248143314  0.2724246352196546  0.3989461356071710
  0.8814461328014276  0.4627050122442855  0.7103479461228623
  0.3542304095641254  0.5048946341420147  0.9471718357644829
  0.2589752345445844  0.7371556129980450  0.6091569299170736
  0.5193281783183669  0.9130231348786052  0.3057791098093079
  0.7517508170599674  0.4318970694569300  0.1803554889111321
  0.6341943398891106  0.4182822464827013  0.5231686199281128
  0.5971293444370331  0.1438599959872407  0.8627461821334215
  0.4099623844522169  0.7583411232480766  0.8195887853711968
  0.4199214323936852  0.6069195202194344  0.4898609801984535
  0.1432252383203666  0.6620467259817064  0.1978116017773665
  0.9387334037758384  0.2771518349581697  0.2661962018272414
  0.7225833700670617  0.7382985952220158  0.6104572522132224
  0.2554994867143053  0.8980509995188725  0.9291273876000544
  0.3837509950628091  0.0041042928824717  0.7242491228163619
  0.7530555845109544  0.6799052358126193  0.3993300461124720
  0.9012593875880159  0.3055630491085558  0.0523473178997937
  0.1422395666173609  0.2075824950378977  0.1506040790406238
  0.7979260383650979 -0.0112382872531094  0.4750393925145471
  0.0466474122231846  0.7808579501142091  0.7943153762057761
  0.2426107296916533  0.1779636699636826  0.8328062174339975
  0.0487320658588060  0.8510034979191730  0.5231557313225632
  0.7339920702231550  0.9506839633464443  0.1472101312198929
  0.0425485310720963  0.4154053404838005  0.8570686688287041
  0.4919235992530464  0.5820534218200629  0.1992391559652597
  0.4444152076529646  1.0498838863531474  0.4874579190244306
  0.3723444913396488  0.0336931371250678  0.1566098111796697
  0.5982758479466799  0.5404165139132145  0.7925526827368288
  0.0422744155017144  0.3790068818709941  0.5119327462245494
 
             NaN             NaN             NaN
             NaN             NaN             NaN
             NaN             NaN             NaN
             NaN             NaN             NaN
             NaN             NaN             NaN
             NaN             NaN             NaN
             NaN             NaN             NaN
             NaN             NaN             NaN
             NaN             NaN             NaN
             NaN             NaN             NaN
             NaN             NaN             NaN
             NaN             NaN             NaN
             NaN             NaN             NaN
             NaN             NaN             NaN
             NaN             NaN             NaN
             NaN             NaN             NaN
             NaN             NaN             NaN
             NaN             NaN             NaN
             NaN             NaN             NaN
             NaN             NaN             NaN
             NaN             NaN             NaN
             NaN             NaN             NaN
             NaN             NaN             NaN
             NaN             NaN             NaN
             NaN             NaN             NaN
             NaN             NaN             NaN
             NaN             NaN             NaN
             NaN             NaN             NaN
             NaN             NaN             NaN
             NaN             NaN             NaN
             NaN             NaN             NaN
             NaN             NaN             NaN
             NaN             NaN             NaN
             NaN             NaN             NaN
             NaN             NaN             NaN
             NaN             NaN             NaN
             NaN             NaN             NaN
             NaN             NaN             NaN
             NaN             NaN             NaN
             NaN             NaN             NaN
             NaN             NaN             NaN
             NaN             NaN             NaN
             NaN             NaN             NaN
             NaN             NaN             NaN
             NaN             NaN             NaN
             NaN             NaN             NaN
             NaN             NaN             NaN
             NaN             NaN             NaN
             NaN             NaN             NaN
             NaN             NaN             NaN
             NaN             NaN             NaN
             NaN             NaN             NaN
             NaN             NaN             NaN
             NaN             NaN             NaN
             NaN             NaN             NaN
             NaN             NaN             NaN
             NaN             NaN             NaN
             NaN             NaN             NaN
             NaN             NaN             NaN
             NaN             NaN             NaN
             NaN             NaN             NaN
             NaN             NaN             NaN
