Ca8 Cr12 F42
1.0
7.417485 -0.011753 -0.487594
-3.602438 6.661954 0.208007
0.997058 0.192860 18.575747
Ca Cr F
8 12 42
direct
0.592094 0.840084 0.724303 Ca
0.835397 0.514341 0.315871 Ca
0.589879 0.090217 -0.006902 Ca
0.028469 0.837603 0.672365 Ca
0.830958 0.007660 0.345997 Ca
0.113752 0.592117 0.978999 Ca
0.994895 0.861430 0.152423 Ca
0.235045 0.216300 0.502196 Ca
0.332812 0.002733 0.339916 Cr
0.988750 0.285071 0.667023 Cr
0.642613 0.624925 0.995623 Cr
0.326418 0.978930 0.827106 Cr
0.939907 0.316684 0.160216 Cr
0.713226 0.692211 0.504181 Cr
0.447695 0.816276 0.171587 Cr
0.209319 0.697980 0.499838 Cr
0.327103 0.469895 0.826760 Cr
0.821182 0.464744 0.818968 Cr
0.720237 0.197117 0.503462 Cr
0.451804 0.328687 0.167759 Cr
0.724786 0.135110 0.607677 F
0.812838 0.532887 0.919849 F
0.495733 0.266621 0.292886 F
0.150955 0.723889 0.378663 F
0.379088 0.782610 0.050690 F
0.247907 0.449101 0.720504 F
0.735899 0.902842 0.964338 F
0.923527 0.833299 0.268788 F
0.126269 0.148732 0.614732 F
0.914879 0.713578 0.046166 F
0.857202 -0.016350 0.725013 F
0.167114 0.117287 0.385281 F
0.532735 0.346038 0.034322 F
0.759087 0.261776 0.398696 F
0.866967 0.438299 0.714181 F
0.384752 0.531550 0.936974 F
0.229301 0.730139 0.613831 F
0.515479 0.910327 0.299589 F
0.758813 0.445146 0.178390 F
0.591388 0.368174 0.520048 F
0.612574 0.174498 0.859919 F
0.428885 0.779342 0.812252 F
0.407715 0.585085 0.491168 F
0.151969 0.675258 0.193346 F
0.934870 0.283486 0.266843 F
0.710748 0.716328 0.609333 F
0.284135 0.905761 0.929281 F
0.362818 0.028587 0.725373 F
0.732397 0.680577 0.397483 F
0.914608 0.320193 0.051932 F
0.147536 0.214808 0.152605 F
0.830790 1.016676 0.475666 F
0.043199 0.765931 0.797999 F
0.225275 0.170081 0.842147 F
0.018143 0.812545 0.516783 F
0.740733 0.960921 0.143599 F
0.050852 0.422840 0.859583 F
0.495839 0.590653 0.198526 F
0.414563 -0.002525 0.482340 F
0.384741 0.045396 0.146866 F
0.605687 0.537925 0.793998 F
0.025717 0.395258 0.515848 F
