Li32 V32 P32 O160
1.0
13.663862 0.000000 0.000000
-6.286648 12.847044 0.000000
-0.419592 -0.092797 16.075575
Li V P O
31 32 32 160
direct
0.392727 0.349523 0.460415 Li
0.392727 0.349523 0.960415 Li
0.392727 0.849523 0.460415 Li
0.392727 0.849523 0.960415 Li
0.892727 0.349523 0.460415 Li
0.892727 0.349523 0.960415 Li
0.892727 0.849523 0.460415 Li
0.892727 0.849523 0.960415 Li
0.107273 0.150477 0.039585 Li
0.107273 0.150477 0.539585 Li
0.107273 0.650477 0.039585 Li
0.607273 0.150477 0.039585 Li
0.607273 0.150477 0.539585 Li
0.607273 0.650477 0.039585 Li
0.607273 0.650477 0.539585 Li
0.354064 0.093314 0.286325 Li
0.354064 0.093314 0.786325 Li
0.354064 0.593314 0.286325 Li
0.354064 0.593314 0.786325 Li
0.854064 0.093314 0.286325 Li
0.854064 0.093314 0.786325 Li
0.854064 0.593314 0.286325 Li
0.854064 0.593314 0.786325 Li
0.145936 0.406686 0.213675 Li
0.145936 0.406686 0.713675 Li
0.145936 0.906686 0.213675 Li
0.145936 0.906686 0.713675 Li
0.645936 0.406686 0.213675 Li
0.645936 0.406686 0.713675 Li
0.645936 0.906686 0.213675 Li
0.645936 0.906686 0.713675 Li
0.376229 0.488706 0.117547 V
0.376229 0.488706 0.617547 V
0.376229 0.988706 0.117547 V
0.376229 0.988706 0.617547 V
0.876229 0.488706 0.117547 V
0.876229 0.488706 0.617547 V
0.876229 0.988706 0.117547 V
0.876229 0.988706 0.617547 V
0.123772 0.011294 0.382452 V
0.123772 0.011294 0.882452 V
0.123772 0.511294 0.382452 V
0.123772 0.511294 0.882452 V
0.623772 0.011294 0.382452 V
0.623772 0.011294 0.882452 V
0.623772 0.511294 0.382452 V
0.623772 0.511294 0.882452 V
0.378053 0.240529 0.131270 V
0.378053 0.240529 0.631270 V
0.378053 0.740529 0.131270 V
0.378053 0.740529 0.631270 V
0.878053 0.240529 0.131270 V
0.878053 0.240529 0.631270 V
0.878053 0.740529 0.131270 V
0.878053 0.740529 0.631270 V
0.121946 0.259471 0.368730 V
0.121946 0.259471 0.868730 V
0.121946 0.759471 0.368730 V
0.121946 0.759471 0.868730 V
0.621946 0.259471 0.368730 V
0.621946 0.259471 0.868730 V
0.621946 0.759471 0.368730 V
0.621946 0.759471 0.868730 V
0.381611 0.125291 0.456189 P
0.381611 0.125291 0.956189 P
0.381611 0.625291 0.456189 P
0.381611 0.625291 0.956189 P
0.881611 0.125291 0.456189 P
0.881611 0.125291 0.956189 P
0.881611 0.625291 0.456189 P
0.881611 0.625291 0.956189 P
0.118389 0.374709 0.043811 P
0.118389 0.374709 0.543811 P
0.118389 0.874709 0.043811 P
0.118389 0.874709 0.543811 P
0.618389 0.374709 0.043811 P
0.618389 0.374709 0.543811 P
0.618389 0.874709 0.043811 P
0.618389 0.874709 0.543811 P
0.370122 0.378000 0.292989 P
0.370122 0.378000 0.792989 P
0.370122 0.878000 0.292989 P
0.370122 0.878000 0.792989 P
0.870122 0.378000 0.292989 P
0.870122 0.378000 0.792989 P
0.870122 0.878000 0.292989 P
0.870122 0.878000 0.792989 P
0.129878 0.122001 0.207011 P
0.129878 0.122001 0.707011 P
0.129878 0.622001 0.207011 P
0.129878 0.622001 0.707011 P
0.629878 0.122001 0.207011 P
0.629878 0.122001 0.707011 P
0.629878 0.622001 0.207011 P
0.629878 0.622001 0.707011 P
0.221490 0.456089 0.089360 O
0.221490 0.456089 0.589360 O
0.221490 0.956089 0.089360 O
0.221490 0.956089 0.589360 O
0.721490 0.456089 0.089360 O
0.721490 0.456089 0.589360 O
0.721490 0.956089 0.089360 O
0.721490 0.956089 0.589360 O
0.278510 0.043912 0.410639 O
0.278510 0.043912 0.910639 O
0.278510 0.543912 0.410639 O
0.278510 0.543912 0.910639 O
0.778510 0.043912 0.410639 O
0.778510 0.043912 0.910639 O
0.778510 0.543912 0.410639 O
0.778510 0.543912 0.910639 O
0.433950 0.071420 0.014485 O
0.433950 0.071420 0.514485 O
0.433950 0.571420 0.014485 O
0.433950 0.571420 0.514485 O
0.933950 0.071420 0.014485 O
0.933950 0.071420 0.514485 O
0.933950 0.571420 0.014485 O
0.933950 0.571420 0.514485 O
0.066050 0.428580 0.485515 O
0.066050 0.428580 0.985515 O
0.066050 0.928580 0.485515 O
0.066050 0.928580 0.985515 O
0.566050 0.428580 0.485515 O
0.566050 0.428580 0.985515 O
0.566050 0.928580 0.485515 O
0.566050 0.928580 0.985515 O
0.032535 0.046565 0.153079 O
0.032535 0.046565 0.653079 O
0.032535 0.546565 0.153079 O
0.032535 0.546565 0.653079 O
0.532535 0.046565 0.153079 O
0.532535 0.046565 0.653079 O
0.532535 0.546565 0.153079 O
0.532535 0.546565 0.653079 O
0.467465 0.453434 0.346920 O
0.467465 0.453434 0.846920 O
0.467465 0.953434 0.346920 O
0.467465 0.953434 0.846920 O
0.967465 0.453434 0.346920 O
0.967465 0.453434 0.846920 O
0.967465 0.953434 0.346920 O
0.967465 0.953434 0.846920 O
0.324313 0.440433 0.236353 O
0.324313 0.440433 0.736353 O
0.324313 0.940433 0.236353 O
0.324313 0.940433 0.736353 O
0.824313 0.440433 0.236353 O
0.824313 0.440433 0.736353 O
0.824313 0.940433 0.236353 O
0.824313 0.940433 0.736353 O
0.175688 0.059567 0.263647 O
0.175688 0.059567 0.763647 O
0.175688 0.559567 0.263647 O
0.175688 0.559567 0.763647 O
0.675688 0.059567 0.263647 O
0.675688 0.059567 0.763647 O
0.675688 0.559567 0.263647 O
0.675688 0.559567 0.763647 O
0.378826 0.125712 0.162778 O
0.378826 0.125712 0.662778 O
0.378826 0.625712 0.162778 O
0.378826 0.625712 0.662778 O
0.878826 0.125712 0.162778 O
0.878826 0.125712 0.662778 O
0.878826 0.625712 0.162778 O
0.878826 0.625712 0.662778 O
0.121174 0.374288 0.337222 O
0.121174 0.374288 0.837222 O
0.121174 0.874288 0.337222 O
0.121174 0.874288 0.837222 O
0.621174 0.374288 0.337222 O
0.621174 0.374288 0.837222 O
0.621174 0.874288 0.337222 O
0.621174 0.874288 0.837222 O
0.367662 0.371719 0.083763 O
0.367662 0.371719 0.583763 O
0.367662 0.871719 0.083763 O
0.367662 0.871719 0.583763 O
0.867662 0.371719 0.083763 O
0.867662 0.371719 0.583763 O
0.867662 0.871719 0.083763 O
0.867662 0.871719 0.583763 O
0.132337 0.128281 0.416237 O
0.132337 0.128281 0.916237 O
0.132337 0.628281 0.416237 O
0.132337 0.628281 0.916237 O
0.632337 0.128281 0.416237 O
0.632337 0.128281 0.916237 O
0.632337 0.628281 0.416237 O
0.632337 0.628281 0.916237 O
0.459175 0.180225 0.383871 O
0.459175 0.180225 0.883871 O
0.459175 0.680225 0.383871 O
0.459175 0.680225 0.883871 O
0.959175 0.180225 0.383871 O
0.959175 0.180225 0.883871 O
0.959175 0.680225 0.383871 O
0.959175 0.680225 0.883871 O
0.040824 0.319775 0.116128 O
0.040824 0.319775 0.616128 O
0.040824 0.819775 0.116128 O
0.040824 0.819775 0.616128 O
0.540824 0.319775 0.116128 O
0.540824 0.319775 0.616128 O
0.540824 0.819775 0.116128 O
0.540824 0.819775 0.616128 O
0.358490 0.204815 0.006959 O
0.358490 0.204815 0.506959 O
0.358490 0.704815 0.006959 O
0.358490 0.704815 0.506959 O
0.858490 0.204815 0.006959 O
0.858490 0.204815 0.506959 O
0.858490 0.704815 0.006959 O
0.858490 0.704815 0.506959 O
0.141510 0.295185 0.493041 O
0.141510 0.295185 0.993041 O
0.141510 0.795185 0.493041 O
0.141510 0.795185 0.993041 O
0.641510 0.295185 0.493041 O
0.641510 0.295185 0.993041 O
0.641510 0.795185 0.493041 O
0.641510 0.795185 0.993041 O
0.284829 0.312115 0.357381 O
0.284829 0.312115 0.857381 O
0.284829 0.812115 0.357381 O
0.284829 0.812115 0.857381 O
0.784829 0.312115 0.357381 O
0.784829 0.312115 0.857381 O
0.784829 0.812115 0.357381 O
0.784829 0.812115 0.857381 O
0.215171 0.187885 0.142620 O
0.215171 0.187885 0.642620 O
0.215171 0.687885 0.142620 O
0.215171 0.687885 0.642620 O
0.715171 0.187885 0.142620 O
0.715171 0.187885 0.642620 O
0.715171 0.687885 0.142620 O
0.715171 0.687885 0.642620 O
0.405659 0.309877 0.239720 O
0.405659 0.309877 0.739720 O
0.405659 0.809877 0.239720 O
0.405659 0.809877 0.739720 O
0.905659 0.309877 0.239720 O
0.905659 0.309877 0.739720 O
0.905659 0.809877 0.239720 O
0.905659 0.809877 0.739720 O
0.094341 0.190123 0.260280 O
0.094341 0.190123 0.760280 O
0.094341 0.690123 0.260280 O
0.094341 0.690123 0.760280 O
0.594341 0.190123 0.260280 O
0.594341 0.190123 0.760280 O
0.594341 0.690123 0.260280 O
0.594341 0.690123 0.760280 O
