Ca2 Fe4 S6 O24
1.0
7.602509 0.000208 4.362901
2.525588 7.123975 4.337440
0.053793 -0.001459 8.768845
Ca Fe S O
2 4 6 24
direct
0.498106 0.496822 0.497407 Ca
0.997187 0.996879 0.998246 Ca
0.646058 0.647757 0.647928 Fe
0.148044 0.147515 0.145962 Fe
0.847775 0.846609 0.846513 Fe
0.346675 0.346651 0.347553 Fe
0.948536 0.248616 0.547367 S
0.448994 0.045828 0.747006 S
0.546854 0.948475 0.246638 S
0.746836 0.448387 0.047051 S
0.247061 0.546013 0.948938 S
0.047352 0.748545 0.448579 S
0.403842 0.563654 0.768301 O
0.904286 0.268523 0.065442 O
0.768202 0.406096 0.567655 O
0.067564 0.905888 0.268143 O
0.565036 0.768548 0.403953 O
0.268395 0.063344 0.903795 O
0.727056 0.928622 0.089094 O
0.226924 0.590867 0.430046 O
0.090424 0.726259 0.929964 O
0.430003 0.226056 0.590390 O
0.929889 0.090932 0.726990 O
0.589255 0.428479 0.227272 O
0.981523 0.195070 0.398119 O
0.483988 0.895533 0.691732 O
0.396971 0.982439 0.193987 O
0.694279 0.482025 0.897323 O
0.191658 0.395752 0.984050 O
0.898000 0.694877 0.481775 O
0.097734 0.303615 0.513887 O
0.596840 0.013373 0.801668 O
0.515456 0.098400 0.299864 O
0.799881 0.598529 0.015601 O
0.301806 0.513661 0.096660 O
0.013912 0.803758 0.597499 O
