Ca1 Ni12 F42
1.0
7.034868 -0.017561 0.012860
-3.529447 6.071590 -0.001417
-0.087775 0.045937 16.984138
Ca Ni F
1 12 42
direct
0.359984 0.506001 0.340359 Ca
0.308037 -0.002184 0.334337 Ni
0.699278 0.698652 0.997055 Ni
-0.000837 0.301412 0.669607 Ni
0.346641 -0.000674 0.833490 Ni
0.659345 0.660471 0.505888 Ni
0.992240 0.338777 0.159743 Ni
0.656199 0.157647 0.503334 Ni
0.495414 0.339590 0.158838 Ni
0.847509 0.499347 0.834508 Ni
0.347389 0.499308 0.832603 Ni
0.150688 0.658787 0.508464 Ni
0.494532 0.841408 0.160045 Ni
0.560751 0.819615 0.052437 F
0.260611 0.433137 0.727512 F
0.191842 0.740664 0.396768 F
0.438311 0.251984 0.268960 F
0.830960 0.570901 0.941869 F
0.745093 0.176380 0.610183 F
0.886729 0.066521 0.729736 F
0.207045 0.144492 0.391555 F
0.915765 0.806519 0.064703 F
0.120137 0.198905 0.605004 F
0.072440 0.879120 0.274540 F
0.823033 0.930396 0.935737 F
0.123873 0.570319 0.614637 F
0.427169 0.855627 0.274957 F
0.437131 0.565561 0.936437 F
0.864804 0.424391 0.728696 F
0.568206 0.131434 0.393805 F
0.549348 0.430896 0.053139 F
0.363457 0.563889 0.480994 F
0.197528 0.631878 0.136646 F
0.431867 0.792629 0.808445 F
0.636340 0.199224 0.860827 F
0.575077 0.370711 0.529112 F
0.791749 0.431266 0.181767 F
0.686984 0.613016 0.401142 F
0.914307 0.294358 0.060410 F
0.396719 0.088947 0.734549 F
0.296486 0.909740 0.932379 F
0.619606 0.703026 0.604792 F
0.070147 0.382616 0.264105 F
0.950733 0.762505 0.525590 F
0.786937 0.048930 0.186980 F
0.261729 0.206128 0.857471 F
0.056822 0.799008 0.807210 F
0.736577 0.945588 0.477244 F
0.193987 0.245475 0.141229 F
0.623047 0.565072 0.800369 F
0.931469 0.371897 0.469888 F
0.430528 0.058803 0.127143 F
0.379678 0.950882 0.536933 F
0.541702 0.612432 0.201363 F
0.072852 0.433571 0.866531 F
