Mg48 Ni48 O96
1.0
  11.9054727556000000    0.0000000000000000    0.0000000000000000
  -5.9527363776000000   10.3104418504000002    0.0000000000000000
   0.0000000000000000    0.0000000000000000   14.3304576873999991
Mg Ni O
47 48 96
direct
   0.3333333357500000    0.4166666717500000    0.6666666869999999 Mg
   0.0000000000000000    0.0000000000000000    0.0000000000000000 Mg
   0.0000000000000000    0.2500000000000000    0.0000000000000000 Mg
   0.0000000000000000    0.5000000000000000    0.0000000000000000 Mg
   0.0000000000000001    0.7500000000000000    0.0000000000000000 Mg
   0.2500000000000000    0.0000000000000000    0.0000000000000000 Mg
   0.2500000000000000    0.2500000000000000    0.0000000000000000 Mg
   0.2500000000000000    0.5000000000000000    0.0000000000000000 Mg
   0.2500000000000000    0.7500000000000000    0.0000000000000000 Mg
   0.4999999999999999    0.0000000000000000    0.0000000000000000 Mg
   0.4999999999999999    0.2500000000000000    0.0000000000000000 Mg
   0.5000000000000000    0.5000000000000000    0.0000000000000000 Mg
   0.5000000000000000    0.7500000000000000    0.0000000000000000 Mg
   0.7499999999999999    0.0000000000000000    0.0000000000000000 Mg
   0.7499999999999999    0.2500000000000000    0.0000000000000000 Mg
   0.7499999999999999    0.5000000000000000    0.0000000000000000 Mg
   0.7500000000000000    0.7500000000000000    0.0000000000000000 Mg
   0.1666666717500000    0.0833333357500000    0.3333333429999999 Mg
   0.1666666717500000    0.3333333357500000    0.3333333429999999 Mg
   0.1666666717500000    0.5833333357500000    0.3333333429999999 Mg
   0.1666666717500001    0.8333333357500001    0.3333333429999999 Mg
   0.4166666717499999    0.0833333357500000    0.3333333429999999 Mg
   0.4166666717500000    0.3333333357500000    0.3333333429999999 Mg
   0.4166666717499999    0.5833333357500000    0.3333333429999999 Mg
   0.4166666717500000    0.8333333357500001    0.3333333429999999 Mg
   0.6666666717499999    0.0833333357500000    0.3333333429999999 Mg
   0.6666666717499999    0.3333333357500000    0.3333333429999999 Mg
   0.6666666717499999    0.5833333357500000    0.3333333429999999 Mg
   0.6666666717500001    0.8333333357500001    0.3333333429999999 Mg
   0.9166666717499998    0.0833333357500000    0.3333333429999999 Mg
   0.9166666717499998    0.3333333357500000    0.3333333429999999 Mg
   0.9166666717499998    0.5833333357500000    0.3333333429999999 Mg
   0.9166666717499999    0.8333333357500001    0.3333333429999999 Mg
   0.0833333357500000    0.1666666717500000    0.6666666869999999 Mg
   0.0833333357500000    0.4166666717500000    0.6666666869999999 Mg
   0.0833333357500000    0.6666666717500001    0.6666666869999999 Mg
   0.0833333357500001    0.9166666717500002    0.6666666869999999 Mg
   0.3333333357500000    0.1666666717500000    0.6666666869999999 Mg
   0.3333333357500000    0.6666666717500001    0.6666666869999999 Mg
   0.3333333357500001    0.9166666717500002    0.6666666869999999 Mg
   0.5833333357500000    0.1666666717500000    0.6666666869999999 Mg
   0.5833333357500000    0.6666666717500001    0.6666666869999999 Mg
   0.5833333357500000    0.9166666717500002    0.6666666869999999 Mg
   0.8333333357499999    0.1666666717500000    0.6666666869999999 Mg
   0.8333333357499999    0.4166666717500000    0.6666666869999999 Mg
   0.8333333357499999    0.6666666717500001    0.6666666869999999 Mg
   0.8333333357500000    0.9166666717500002    0.6666666869999999 Mg
   0.1666666717500000    0.0833333357500000    0.8333333130000000 Ni
   0.1666666717500000    0.3333333357500000    0.8333333130000000 Ni
   0.1666666717500000    0.5833333357500000    0.8333333130000000 Ni
   0.1666666717500001    0.8333333357500001    0.8333333130000000 Ni
   0.4166666717499999    0.0833333357500000    0.8333333130000000 Ni
   0.4166666717500000    0.3333333357500000    0.8333333130000000 Ni
   0.4166666717499999    0.5833333357500000    0.8333333130000000 Ni
   0.4166666717500000    0.8333333357500001    0.8333333130000000 Ni
   0.6666666717499999    0.0833333357500000    0.8333333130000000 Ni
   0.6666666717499999    0.3333333357500000    0.8333333130000000 Ni
   0.6666666717499999    0.5833333357500000    0.8333333130000000 Ni
   0.6666666717500001    0.8333333357500001    0.8333333130000000 Ni
   0.9166666717499998    0.0833333357500000    0.8333333130000000 Ni
   0.9166666717499998    0.3333333357500000    0.8333333130000000 Ni
   0.9166666717499998    0.5833333357500000    0.8333333130000000 Ni
   0.9166666717499999    0.8333333357500001    0.8333333130000000 Ni
   0.0833333357500000    0.1666666717500000    0.1666666720000000 Ni
   0.0833333357500000    0.4166666717500000    0.1666666720000000 Ni
   0.0833333357500000    0.6666666717500001    0.1666666720000000 Ni
   0.0833333357500001    0.9166666717500002    0.1666666720000000 Ni
   0.3333333357500000    0.1666666717500000    0.1666666720000000 Ni
   0.3333333357500000    0.4166666717500000    0.1666666720000000 Ni
   0.3333333357500000    0.6666666717500001    0.1666666720000000 Ni
   0.3333333357500001    0.9166666717500002    0.1666666720000000 Ni
   0.5833333357500000    0.1666666717500000    0.1666666720000000 Ni
   0.5833333357500000    0.4166666717500000    0.1666666720000000 Ni
   0.5833333357500000    0.6666666717500001    0.1666666720000000 Ni
   0.5833333357500000    0.9166666717500002    0.1666666720000000 Ni
   0.8333333357499999    0.1666666717500000    0.1666666720000000 Ni
   0.8333333357499999    0.4166666717500000    0.1666666720000000 Ni
   0.8333333357499999    0.6666666717500001    0.1666666720000000 Ni
   0.8333333357500000    0.9166666717500002    0.1666666720000000 Ni
   0.0000000000000000    0.0000000000000000    0.4999999999999999 Ni
   0.0000000000000000    0.2500000000000000    0.4999999999999999 Ni
   0.0000000000000000    0.5000000000000000    0.4999999999999999 Ni
   0.0000000000000001    0.7500000000000000    0.4999999999999999 Ni
   0.2500000000000000    0.0000000000000000    0.4999999999999999 Ni
   0.2500000000000000    0.2500000000000000    0.4999999999999999 Ni
   0.2500000000000000    0.5000000000000000    0.4999999999999999 Ni
   0.2500000000000000    0.7500000000000000    0.4999999999999999 Ni
   0.4999999999999999    0.0000000000000000    0.4999999999999999 Ni
   0.4999999999999999    0.2500000000000000    0.4999999999999999 Ni
   0.5000000000000000    0.5000000000000000    0.4999999999999999 Ni
   0.5000000000000000    0.7500000000000000    0.4999999999999999 Ni
   0.7499999999999999    0.0000000000000000    0.4999999999999999 Ni
   0.7499999999999999    0.2500000000000000    0.4999999999999999 Ni
   0.7499999999999999    0.5000000000000000    0.4999999999999999 Ni
   0.7500000000000000    0.7500000000000000    0.4999999999999999 Ni
   0.0833333357500000    0.1666666717500000    0.9174299839999999 O
   0.0833333357500000    0.4166666717500000    0.9174299839999999 O
   0.0833333357500000    0.6666666717500001    0.9174299839999999 O
   0.0833333357500001    0.9166666717500002    0.9174299839999999 O
   0.3333333357500000    0.1666666717500000    0.9174299839999999 O
   0.3333333357500000    0.4166666717500000    0.9174299839999999 O
   0.3333333357500000    0.6666666717500001    0.9174299839999999 O
   0.3333333357500001    0.9166666717500002    0.9174299839999999 O
   0.5833333357500000    0.1666666717500000    0.9174299839999999 O
   0.5833333357500000    0.4166666717500000    0.9174299839999999 O
   0.5833333357500000    0.6666666717500001    0.9174299839999999 O
   0.5833333357500000    0.9166666717500002    0.9174299839999999 O
   0.8333333357499999    0.1666666717500000    0.9174299839999999 O
   0.8333333357499999    0.4166666717500000    0.9174299839999999 O
   0.8333333357499999    0.6666666717500001    0.9174299839999999 O
   0.8333333357500000    0.9166666717500002    0.9174299839999999 O
   0.0000000000000000    0.0000000000000000    0.7492367029999999 O
   0.0000000000000000    0.2500000000000000    0.7492367029999999 O
   0.0000000000000000    0.5000000000000000    0.7492367029999999 O
   0.0000000000000001    0.7500000000000000    0.7492367029999999 O
   0.2500000000000000    0.0000000000000000    0.7492367029999999 O
   0.2500000000000000    0.2500000000000000    0.7492367029999999 O
   0.2500000000000000    0.5000000000000000    0.7492367029999999 O
   0.2500000000000000    0.7500000000000000    0.7492367029999999 O
   0.4999999999999999    0.0000000000000000    0.7492367029999999 O
   0.4999999999999999    0.2500000000000000    0.7492367029999999 O
   0.5000000000000000    0.5000000000000000    0.7492367029999999 O
   0.5000000000000000    0.7500000000000000    0.7492367029999999 O
   0.7499999999999999    0.0000000000000000    0.7492367029999999 O
   0.7499999999999999    0.2500000000000000    0.7492367029999999 O
   0.7499999999999999    0.5000000000000000    0.7492367029999999 O
   0.7500000000000000    0.7500000000000000    0.7492367029999999 O
   0.0000000000000000    0.0000000000000000    0.2507632970000000 O
   0.0000000000000000    0.2500000000000000    0.2507632970000000 O
   0.0000000000000000    0.5000000000000000    0.2507632970000000 O
   0.0000000000000001    0.7500000000000000    0.2507632970000000 O
   0.2500000000000000    0.0000000000000000    0.2507632970000000 O
   0.2500000000000000    0.2500000000000000    0.2507632970000000 O
   0.2500000000000000    0.5000000000000000    0.2507632970000000 O
   0.2500000000000000    0.7500000000000000    0.2507632970000000 O
   0.4999999999999999    0.0000000000000000    0.2507632970000000 O
   0.4999999999999999    0.2500000000000000    0.2507632970000000 O
   0.5000000000000000    0.5000000000000000    0.2507632970000000 O
   0.5000000000000000    0.7500000000000000    0.2507632970000000 O
   0.7499999999999999    0.0000000000000000    0.2507632970000000 O
   0.7499999999999999    0.2500000000000000    0.2507632970000000 O
   0.7499999999999999    0.5000000000000000    0.2507632970000000 O
   0.7500000000000000    0.7500000000000000    0.2507632970000000 O
   0.1666666717500000    0.0833333357500000    0.0825700310000000 O
   0.1666666717500000    0.3333333357500000    0.0825700310000000 O
   0.1666666717500000    0.5833333357500000    0.0825700310000000 O
   0.1666666717500001    0.8333333357500001    0.0825700310000000 O
   0.4166666717499999    0.0833333357500000    0.0825700310000000 O
   0.4166666717500000    0.3333333357500000    0.0825700310000000 O
   0.4166666717499999    0.5833333357500000    0.0825700310000000 O
   0.4166666717500000    0.8333333357500001    0.0825700310000000 O
   0.6666666717499999    0.0833333357500000    0.0825700310000000 O
   0.6666666717499999    0.3333333357500000    0.0825700310000000 O
   0.6666666717499999    0.5833333357500000    0.0825700310000000 O
   0.6666666717500001    0.8333333357500001    0.0825700310000000 O
   0.9166666717499998    0.0833333357500000    0.0825700310000000 O
   0.9166666717499998    0.3333333357500000    0.0825700310000000 O
   0.9166666717499998    0.5833333357500000    0.0825700310000000 O
   0.9166666717499999    0.8333333357500001    0.0825700310000000 O
   0.1666666717500000    0.0833333357500000    0.5840966110000000 O
   0.1666666717500000    0.3333333357500000    0.5840966110000000 O
   0.1666666717500000    0.5833333357500000    0.5840966110000000 O
   0.1666666717500001    0.8333333357500001    0.5840966110000000 O
   0.4166666717499999    0.0833333357500000    0.5840966110000000 O
   0.4166666717500000    0.3333333357500000    0.5840966110000000 O
   0.4166666717499999    0.5833333357500000    0.5840966110000000 O
   0.4166666717500000    0.8333333357500001    0.5840966110000000 O
   0.6666666717499999    0.0833333357500000    0.5840966110000000 O
   0.6666666717499999    0.3333333357500000    0.5840966110000000 O
   0.6666666717499999    0.5833333357500000    0.5840966110000000 O
   0.6666666717500001    0.8333333357500001    0.5840966110000000 O
   0.9166666717499998    0.0833333357500000    0.5840966110000000 O
   0.9166666717499998    0.3333333357500000    0.5840966110000000 O
   0.9166666717499998    0.5833333357500000    0.5840966110000000 O
   0.9166666717499999    0.8333333357500001    0.5840966110000000 O
   0.0833333357500000    0.1666666717500000    0.4159033599999999 O
   0.0833333357500000    0.4166666717500000    0.4159033599999999 O
   0.0833333357500000    0.6666666717500001    0.4159033599999999 O
   0.0833333357500001    0.9166666717500002    0.4159033599999999 O
   0.3333333357500000    0.1666666717500000    0.4159033599999999 O
   0.3333333357500000    0.4166666717500000    0.4159033599999999 O
   0.3333333357500000    0.6666666717500001    0.4159033599999999 O
   0.3333333357500001    0.9166666717500002    0.4159033599999999 O
   0.5833333357500000    0.1666666717500000    0.4159033599999999 O
   0.5833333357500000    0.4166666717500000    0.4159033599999999 O
   0.5833333357500000    0.6666666717500001    0.4159033599999999 O
   0.5833333357500000    0.9166666717500002    0.4159033599999999 O
   0.8333333357499999    0.1666666717500000    0.4159033599999999 O
   0.8333333357499999    0.4166666717500000    0.4159033599999999 O
   0.8333333357499999    0.6666666717500001    0.4159033599999999 O
   0.8333333357500000    0.9166666717500002    0.4159033599999999 O
