Na2 Ca2 V4 Si4 P2 O24
1.0
8.844812 0.097372 0.090087
4.248296 7.640825 0.055990
4.422944 2.503053 7.239796
Ca Na V Si P O
2 2 4 4 2 24
direct
0.498030 0.502485 0.498515 Ca
0.001440 0.997536 0.001995 Ca
0.108612 0.749998 0.391377 Na
0.898208 0.249973 0.601818 Na
0.365150 0.354594 0.349126 V
0.646828 0.642251 0.653991 V
0.150912 0.145408 0.134831 V
0.845921 0.857771 0.853203 V
0.033141 0.457175 0.754710 Si
0.745250 0.042837 0.466849 Si
0.460117 0.749962 0.039890 Si
0.542188 0.250056 0.957775 Si
0.967210 0.543515 0.244534 P
0.255557 0.956465 0.532797 P
0.225476 0.444346 0.573020 O
0.778012 0.558097 0.412748 O
0.567824 0.229929 0.441476 O
0.425408 0.778524 0.555105 O
0.438614 0.581229 0.237451 O
0.563290 0.418723 0.757906 O
0.926954 0.055647 0.274543 O
0.087353 0.941857 0.721988 O
0.058549 0.270047 0.932104 O
0.944846 0.721492 0.074731 O
0.262565 0.918698 0.061401 O
0.742063 0.081375 0.936665 O
0.490914 0.310485 0.131870 O
0.504979 0.691838 0.867371 O
0.120538 0.528474 0.292910 O
0.862483 0.477737 0.710859 O
0.282948 0.137447 0.488420 O
0.720271 0.847301 0.514303 O
0.368086 0.189632 0.009014 O
0.632577 0.808091 0.995102 O
0.207247 0.971466 0.379443 O
0.789043 0.022270 0.637536 O
0.011554 0.362543 0.217154 O
0.985632 0.652715 0.779708 O
