Ca4 Mn4 P6 O24
1.0
2.652379 7.885840 4.541379
-0.066097 0.320380 8.733026
7.728017 0.288575 4.229040
Ca Mn P O
4 4 6 24
direct
0.245873 0.865942 0.617108 Ca
0.915065 0.989625 0.074363 Ca
0.383193 0.733840 0.100924 Ca
0.133075 0.399569 0.761493 Ca
0.643047 0.648342 0.630142 Mn
0.167485 0.142434 0.165878 Mn
0.830133 0.872991 0.829594 Mn
0.338220 0.330966 0.364605 Mn
0.250801 0.545347 0.961652 P
0.035305 0.765822 0.440176 P
0.960255 0.245541 0.581305 P
0.448117 0.043043 0.735216 P
0.544264 0.922265 0.250763 P
0.751265 0.482031 0.001897 P
0.564726 0.752628 0.423151 O
0.277812 0.069926 0.910520 O
0.391173 0.563095 0.767946 O
0.892260 0.287359 -0.005195 O
0.796856 0.418574 0.572619 O
0.081707 0.915827 0.250347 O
0.920048 0.079019 0.758768 O
0.609771 0.492334 0.188621 O
0.716481 0.900212 0.084722 O
0.203758 0.585336 0.428371 O
0.106616 0.744253 0.948062 O
0.419673 0.229617 0.582440 O
0.181793 0.396701 0.003796 O
0.870264 0.750970 0.468957 O
0.044690 0.172213 0.415814 O
0.453696 0.883851 0.692718 O
0.393437 0.927353 0.220865 O
0.647638 0.560977 0.870453 O
0.314435 0.496815 0.115962 O
1.024572 0.809427 0.600140 O
0.107337 0.271591 0.589353 O
0.606893 -0.020564 0.782155 O
0.495500 0.102042 0.287019 O
0.861143 0.606586 0.920724 O
