Ca32 Ir32 O96
1.0
   6.3640031814000002    0.0000000000000000    0.0000000000000000
   0.0000000000000000   19.5955314636000004    0.0000000000000000
   0.0000000000000000    0.0000000000000000   14.6544609070000007
Ca Ir O
31 32 96
direct
   0.7500000000000000    0.6241299810000001    0.8750000000000000 Ca
   0.2500000000000000    0.1241299810000000    0.3750000000000000 Ca
   0.2500000000000000    0.1241299810000000    0.8750000000000000 Ca
   0.2500000000000000    0.6241299810000001    0.3750000000000000 Ca
   0.7500000000000000    0.1241299810000000    0.3750000000000000 Ca
   0.7500000000000000    0.1241299810000000    0.8750000000000000 Ca
   0.7500000000000000    0.6241299810000001    0.3750000000000000 Ca
   0.0000000000000000    0.1258700190000000    0.1250000000000000 Ca
   0.0000000000000000    0.1258700190000000    0.6250000000000000 Ca
   0.0000000000000000    0.6258700190000001    0.1250000000000000 Ca
   0.0000000000000000    0.6258700190000001    0.6250000000000000 Ca
   0.5000000000000000    0.1258700190000000    0.1250000000000000 Ca
   0.5000000000000000    0.1258700190000000    0.6250000000000000 Ca
   0.5000000000000000    0.6258700190000001    0.1250000000000000 Ca
   0.5000000000000000    0.6258700190000001    0.6250000000000000 Ca
   0.0000000000000000    0.3741299810000000    0.3750000000000000 Ca
   0.0000000000000000    0.3741299810000000    0.8750000000000000 Ca
   0.0000000000000000    0.8741299809999999    0.3750000000000000 Ca
   0.0000000000000000    0.8741299809999999    0.8750000000000000 Ca
   0.5000000000000000    0.3741299810000000    0.3750000000000000 Ca
   0.5000000000000000    0.3741299810000000    0.8750000000000000 Ca
   0.5000000000000000    0.8741299809999999    0.3750000000000000 Ca
   0.5000000000000000    0.8741299809999999    0.8750000000000000 Ca
   0.2500000000000000    0.3758700190000000    0.1250000000000000 Ca
   0.2500000000000000    0.3758700190000000    0.6250000000000000 Ca
   0.2500000000000000    0.8758700190000001    0.1250000000000000 Ca
   0.2500000000000000    0.8758700190000001    0.6250000000000000 Ca
   0.7500000000000000    0.3758700190000000    0.1250000000000000 Ca
   0.7500000000000000    0.3758700190000000    0.6250000000000000 Ca
   0.7500000000000000    0.8758700190000001    0.1250000000000000 Ca
   0.7500000000000000    0.8758700190000001    0.6250000000000000 Ca
   0.2500000000000000    0.0000000000000000    0.2500000000000000 Ir
   0.2500000000000000    0.0000000000000000    0.7500000000000000 Ir
   0.2500000000000000    0.5000000000000000    0.2500000000000000 Ir
   0.2500000000000000    0.5000000000000000    0.7500000000000000 Ir
   0.7500000000000000    0.0000000000000000    0.2500000000000000 Ir
   0.7500000000000000    0.0000000000000000    0.7500000000000000 Ir
   0.7500000000000000    0.5000000000000000    0.2500000000000000 Ir
   0.7500000000000000    0.5000000000000000    0.7500000000000000 Ir
   0.0000000000000000    0.2500000000000000    0.0000000000000000 Ir
   0.0000000000000000    0.2500000000000000    0.5000000000000000 Ir
   0.0000000000000000    0.7500000000000000    0.0000000000000000 Ir
   0.0000000000000000    0.7500000000000000    0.5000000000000000 Ir
   0.5000000000000000    0.2500000000000000    0.0000000000000000 Ir
   0.5000000000000000    0.2500000000000000    0.5000000000000000 Ir
   0.5000000000000000    0.7500000000000000    0.0000000000000000 Ir
   0.5000000000000000    0.7500000000000000    0.5000000000000000 Ir
   0.0000000000000000    0.2500000000000000    0.2500000000000000 Ir
   0.0000000000000000    0.2500000000000000    0.7500000000000000 Ir
   0.0000000000000000    0.7500000000000000    0.2500000000000000 Ir
   0.0000000000000000    0.7500000000000000    0.7500000000000000 Ir
   0.5000000000000000    0.2500000000000000    0.2500000000000000 Ir
   0.5000000000000000    0.2500000000000000    0.7500000000000000 Ir
   0.5000000000000000    0.7500000000000000    0.2500000000000000 Ir
   0.5000000000000000    0.7500000000000000    0.7500000000000000 Ir
   0.2500000000000000    0.0000000000000000    0.0000000000000000 Ir
   0.2500000000000000    0.0000000000000000    0.5000000000000000 Ir
   0.2500000000000000    0.5000000000000000    0.0000000000000000 Ir
   0.2500000000000000    0.5000000000000000    0.5000000000000000 Ir
   0.7500000000000000    0.0000000000000000    0.0000000000000000 Ir
   0.7500000000000000    0.0000000000000000    0.5000000000000000 Ir
   0.7500000000000000    0.5000000000000000    0.0000000000000000 Ir
   0.7500000000000000    0.5000000000000000    0.5000000000000000 Ir
   0.2500000000000000    0.1873388440000000    0.2243083715000000 O
   0.2500000000000000    0.1873388440000000    0.7243083714999999 O
   0.2500000000000000    0.6873388440000000    0.2243083715000000 O
   0.2500000000000000    0.6873388440000000    0.7243083714999999 O
   0.7500000000000000    0.1873388440000000    0.2243083715000000 O
   0.7500000000000000    0.1873388440000000    0.7243083714999999 O
   0.7500000000000000    0.6873388440000000    0.2243083715000000 O
   0.7500000000000000    0.6873388440000000    0.7243083714999999 O
   0.0000000000000000    0.0626611635000000    0.4743083715000000 O
   0.0000000000000000    0.0626611635000000    0.9743083714999999 O
   0.0000000000000000    0.5626611635000000    0.4743083715000000 O
   0.0000000000000000    0.5626611635000000    0.9743083714999999 O
   0.5000000000000000    0.0626611635000000    0.4743083715000000 O
   0.5000000000000000    0.0626611635000000    0.9743083714999999 O
   0.5000000000000000    0.5626611635000000    0.4743083715000000 O
   0.5000000000000000    0.5626611635000000    0.9743083714999999 O
   0.2500000000000000    0.1873388440000000    0.0256916305000000 O
   0.2500000000000000    0.1873388440000000    0.5256916305000000 O
   0.2500000000000000    0.6873388440000000    0.0256916305000000 O
   0.2500000000000000    0.6873388440000000    0.5256916305000000 O
   0.7500000000000000    0.1873388440000000    0.0256916305000000 O
   0.7500000000000000    0.1873388440000000    0.5256916305000000 O
   0.7500000000000000    0.6873388440000000    0.0256916305000000 O
   0.7500000000000000    0.6873388440000000    0.5256916305000000 O
   0.0000000000000000    0.0626611635000000    0.2756916285000000 O
   0.0000000000000000    0.0626611635000000    0.7756916285000001 O
   0.0000000000000000    0.5626611635000000    0.2756916285000000 O
   0.0000000000000000    0.5626611635000000    0.7756916285000001 O
   0.5000000000000000    0.0626611635000000    0.2756916285000000 O
   0.5000000000000000    0.0626611635000000    0.7756916285000001 O
   0.5000000000000000    0.5626611635000000    0.2756916285000000 O
   0.5000000000000000    0.5626611635000000    0.7756916285000001 O
   0.0000000000000000    0.2101099940000000    0.3750000000000000 O
   0.0000000000000000    0.2101099940000000    0.8750000000000000 O
   0.0000000000000000    0.7101099940000000    0.3750000000000000 O
   0.0000000000000000    0.7101099940000000    0.8750000000000000 O
   0.5000000000000000    0.2101099940000000    0.3750000000000000 O
   0.5000000000000000    0.2101099940000000    0.8750000000000000 O
   0.5000000000000000    0.7101099940000000    0.3750000000000000 O
   0.5000000000000000    0.7101099940000000    0.8750000000000000 O
   0.2500000000000000    0.0398899985000000    0.1250000000000000 O
   0.2500000000000000    0.0398899985000000    0.6250000000000000 O
   0.2500000000000000    0.5398899985000000    0.1250000000000000 O
   0.2500000000000000    0.5398899985000000    0.6250000000000000 O
   0.7500000000000000    0.0398899985000000    0.1250000000000000 O
   0.7500000000000000    0.0398899985000000    0.6250000000000000 O
   0.7500000000000000    0.5398899985000000    0.1250000000000000 O
   0.7500000000000000    0.5398899985000000    0.6250000000000000 O
   0.0000000000000000    0.4373388289999999    0.2243083715000000 O
   0.0000000000000000    0.4373388289999999    0.7243083714999999 O
   0.0000000000000000    0.9373388289999999    0.2243083715000000 O
   0.0000000000000000    0.9373388289999999    0.7243083714999999 O
   0.5000000000000000    0.4373388289999999    0.2243083715000000 O
   0.5000000000000000    0.4373388289999999    0.7243083714999999 O
   0.5000000000000000    0.9373388289999999    0.2243083715000000 O
   0.5000000000000000    0.9373388289999999    0.7243083714999999 O
   0.2500000000000000    0.3126611710000000    0.4743083715000000 O
   0.2500000000000000    0.3126611710000000    0.9743083714999999 O
   0.2500000000000000    0.8126611710000000    0.4743083715000000 O
   0.2500000000000000    0.8126611710000000    0.9743083714999999 O
   0.7500000000000000    0.3126611710000000    0.4743083715000000 O
   0.7500000000000000    0.3126611710000000    0.9743083714999999 O
   0.7500000000000000    0.8126611710000000    0.4743083715000000 O
   0.7500000000000000    0.8126611710000000    0.9743083714999999 O
   0.0000000000000000    0.4373388289999999    0.0256916305000000 O
   0.0000000000000000    0.4373388289999999    0.5256916305000000 O
   0.0000000000000000    0.9373388289999999    0.0256916305000000 O
   0.0000000000000000    0.9373388289999999    0.5256916305000000 O
   0.5000000000000000    0.4373388289999999    0.0256916305000000 O
   0.5000000000000000    0.4373388289999999    0.5256916305000000 O
   0.5000000000000000    0.9373388289999999    0.0256916305000000 O
   0.5000000000000000    0.9373388289999999    0.5256916305000000 O
   0.2500000000000000    0.3126611710000000    0.2756916285000000 O
   0.2500000000000000    0.3126611710000000    0.7756916285000001 O
   0.2500000000000000    0.8126611710000000    0.2756916285000000 O
   0.2500000000000000    0.8126611710000000    0.7756916285000001 O
   0.7500000000000000    0.3126611710000000    0.2756916285000000 O
   0.7500000000000000    0.3126611710000000    0.7756916285000001 O
   0.7500000000000000    0.8126611710000000    0.2756916285000000 O
   0.7500000000000000    0.8126611710000000    0.7756916285000001 O
   0.2500000000000000    0.4601100085000000    0.3750000000000000 O
   0.2500000000000000    0.4601100085000000    0.8750000000000000 O
   0.2500000000000000    0.9601100084999999    0.3750000000000000 O
   0.2500000000000000    0.9601100084999999    0.8750000000000000 O
   0.7500000000000000    0.4601100085000000    0.3750000000000000 O
   0.7500000000000000    0.4601100085000000    0.8750000000000000 O
   0.7500000000000000    0.9601100084999999    0.3750000000000000 O
   0.7500000000000000    0.9601100084999999    0.8750000000000000 O
   0.0000000000000000    0.2898899915000000    0.1250000000000000 O
   0.0000000000000000    0.2898899915000000    0.6250000000000000 O
   0.0000000000000000    0.7898899915000001    0.1250000000000000 O
   0.0000000000000000    0.7898899915000001    0.6250000000000000 O
   0.5000000000000000    0.2898899915000000    0.1250000000000000 O
   0.5000000000000000    0.2898899915000000    0.6250000000000000 O
   0.5000000000000000    0.7898899915000001    0.1250000000000000 O
   0.5000000000000000    0.7898899915000001    0.6250000000000000 O
