Ca9 V12 F42                             
   1.00000000000000     
     7.5303500000000003   -0.0098010000000000    0.0129320000000000
    -3.7793260000000002    6.4821280000000003   -0.0698750000000000
    -0.5820190000000000    0.4989350000000000   18.4485740000000007
   Ca   V    F 
     9    12    42
Direct
  0.9434363228480376  0.5250505653350632  0.3408348185881593
  0.4997425700625084  0.8492577095294976  0.6667116517271099
  0.6159225854046194  0.1321133028838605  0.9887979877669353
  0.9870942140747621  0.8161084089662666  0.6652553015432399
  0.8136490728781387  0.9757649263563354  0.3344586294826490
  0.1394333120938046  0.6132179072836076  0.0043409542381770
  0.9768042671519664  0.8214858050320467  0.1606597332393549
  0.8601684033953482  0.0007836916583689  0.8389198999642175
  0.2104808901207563  0.1879194653411663  0.5005796755497505
  0.3416423475889625  1.0258244141688124  0.3300941907910377
  1.0104185605540736  0.3243127051214710  0.6685338274216536
  0.6479960090230514  0.6417099010525497  0.9986961523352809
  0.3306939605669937  0.9877244966198360  0.8245413119021405
  0.9693636458754650  0.2997234133140770  0.1662813249755427
  0.6873670931970709  0.6782566543451128  0.4988919105135990
  0.4728074057201432  0.8044995812052308  0.1696477090416757
  0.1863339629989708  0.6790845244526624  0.5071590546480083
  0.3359310388875835  0.4983079887304699  0.8318092532756302
  0.8295126053177422  0.4891230561726468  0.8286945028612249
  0.6874241502659864  0.1748436987335415  0.4964050679539025
  0.4776807420821001  0.3080777250261177  0.1607797288325753
  0.7478359223572106  0.1784699347354258  0.6062941259706752
  0.8022036978419865  0.5051351871581944  0.9409258304425920
  0.4492828948978634  0.2835749983298884  0.2690945088429373
  0.2216922223904482  0.7761862825309261  0.4017042299355734
  0.4998073987142905  0.8053196336922387  0.0547066430032360
  0.2927037735026664  0.4819076125837195  0.7213418084977212
  0.7590243104992179  0.9334833415501844  0.9502085171621432
  0.0362658093302415  0.8346561730452741  0.2814304743068633
  0.1157757339632772  0.1555735442807150  0.6143632163832161
  0.9412873965369216  0.7517187914224025  0.0458619295739265
  0.8433287696189372  0.0173389761088283  0.7183238623274272
  0.1591881517087040  0.1232755297455685  0.3834725654226594
  0.5274676571945950  0.3451158517499254  0.0472235107791373
  0.6436837522912860  0.1614109058885175  0.3793874848110794
  0.8743635337521344  0.4762789030508642  0.7186682023520735
  0.3656251052985109  0.5358233766328174  0.9452544958499244
  0.1544904715782373  0.6202214778566174  0.6183596433176216
  0.4527372837149408  0.8434010846184633  0.2817707444421155
  0.7970720333289462  0.4358678906643242  0.1880524153647771
  0.5647560715605378  0.3606816132231722  0.5100979009589462
  0.6357845739600103  0.1778698853528891  0.8572217651187611
  0.4638806642384332  0.8141256329204439  0.8017978259982745
  0.3665316263924142  0.5505418576210950  0.4891009172606638
  0.1689457396482821  0.6045350629466864  0.1357816210504974
  1.0008168008675797  0.3072921473045894  0.2810339807757355
  0.6700283105805344  0.7155751120614793  0.6105690822211959
  0.3027943315443517  0.9114849120264820  0.9367877808342679
  0.3212694170394251  0.9915816158997618  0.7093633469410850
  0.7418443863545336  0.6667762910895211  0.3885025065314799
  0.9139659365183609  0.2932389281380439  0.0520731528542752
  0.1574364449317562  0.1845071695490152  0.1440937270161442
  0.8158485892798313  0.9953558885617023  0.4725935961938342
  0.0193854186873277  0.8037296548855475  0.8014250473594884
  0.2200023260322279  0.1815028686508958  0.8467701410838504
  1.0021948495299335  0.8051591398905327  0.5296552630231919
  0.7849318896422439 -0.0105187449537942  0.2005320948014898
  0.0251286006364451  0.3776413410477852  0.8519974977794854
  0.5996212578277672  0.6214480011289180  0.1624551589947063
  0.4097317613615745  0.9576701725221896  0.5435471614977238
  0.3493457738512357 -0.0093256340194224  0.1556378226685652
  0.6437919881002945  0.6130079728626324  0.8195217144833314
  0.9655920741485008  0.4090173959159712  0.4576218114101498
 
             NaN             NaN             NaN
             NaN             NaN             NaN
             NaN             NaN             NaN
             NaN             NaN             NaN
             NaN             NaN             NaN
             NaN             NaN             NaN
             NaN             NaN             NaN
             NaN             NaN             NaN
             NaN             NaN             NaN
             NaN             NaN             NaN
             NaN             NaN             NaN
             NaN             NaN             NaN
             NaN             NaN             NaN
             NaN             NaN             NaN
             NaN             NaN             NaN
             NaN             NaN             NaN
             NaN             NaN             NaN
             NaN             NaN             NaN
             NaN             NaN             NaN
             NaN             NaN             NaN
             NaN             NaN             NaN
             NaN             NaN             NaN
             NaN             NaN             NaN
             NaN             NaN             NaN
             NaN             NaN             NaN
             NaN             NaN             NaN
             NaN             NaN             NaN
             NaN             NaN             NaN
             NaN             NaN             NaN
             NaN             NaN             NaN
             NaN             NaN             NaN
             NaN             NaN             NaN
             NaN             NaN             NaN
             NaN             NaN             NaN
             NaN             NaN             NaN
             NaN             NaN             NaN
             NaN             NaN             NaN
             NaN             NaN             NaN
             NaN             NaN             NaN
             NaN             NaN             NaN
             NaN             NaN             NaN
             NaN             NaN             NaN
             NaN             NaN             NaN
             NaN             NaN             NaN
             NaN             NaN             NaN
             NaN             NaN             NaN
             NaN             NaN             NaN
             NaN             NaN             NaN
             NaN             NaN             NaN
             NaN             NaN             NaN
             NaN             NaN             NaN
             NaN             NaN             NaN
             NaN             NaN             NaN
             NaN             NaN             NaN
             NaN             NaN             NaN
             NaN             NaN             NaN
             NaN             NaN             NaN
             NaN             NaN             NaN
             NaN             NaN             NaN
             NaN             NaN             NaN
             NaN             NaN             NaN
             NaN             NaN             NaN
             NaN             NaN             NaN
