Ca9 V12 F42
1.0
7.530350 -0.009801 0.012932
-3.779326 6.482128 -0.069875
-0.582019 0.498935 18.448574
Ca V F
9 12 42
direct
0.963143 0.488991 0.334489 Ca
0.485872 0.832282 0.665972 Ca
0.627145 0.146409 0.989990 Ca
0.980270 0.808328 0.662918 Ca
0.819618 0.988132 0.334761 Ca
0.148038 0.624631 0.005521 Ca
0.995119 0.845400 0.161353 Ca
0.857197 1.000054 0.837803 Ca
0.194317 0.181115 0.500979 Ca
0.322642 0.997882 0.330361 V
0.996474 0.316065 0.667154 V
0.655446 0.652394 0.999288 V
0.329807 0.987845 0.824770 V
0.986972 0.324375 0.170451 V
0.672903 0.668140 0.497828 V
0.489398 0.824733 0.168083 V
0.165390 0.663803 0.498841 V
0.333523 0.497846 0.831619 V
0.829094 0.489931 0.828808 V
0.671018 0.159991 0.497758 V
0.494762 0.327630 0.165590 V
0.726490 0.160735 0.608210 F
0.807009 0.509921 0.941824 F
0.471197 0.284296 0.276995 F
0.180013 0.726023 0.389179 F
0.510885 0.812178 0.054605 F
0.280541 0.481222 0.720542 F
0.766484 0.944545 0.950608 F
0.019017 0.847622 0.280919 F
0.103203 0.146242 0.614504 F
0.948591 0.763927 0.046721 F
0.835505 0.009563 0.717708 F
0.161327 0.114815 0.385082 F
0.541578 0.362708 0.051820 F
0.612059 0.132339 0.384278 F
0.870424 0.475699 0.718221 F
0.371497 0.542439 0.945289 F
0.141345 0.607664 0.612544 F
0.472652 0.856230 0.279379 F
0.810529 0.454824 0.191646 F
0.549785 0.349819 0.510416 F
0.634981 0.180216 0.857292 F
0.462349 0.813399 0.803080 F
0.354025 0.540980 0.484256 F
0.182329 0.628356 0.137312 F
0.998983 0.316521 0.285606 F
0.661433 0.704583 0.609779 F
0.312095 0.923198 0.938667 F
0.312304 0.979472 0.708939 F
0.699709 0.664141 0.385666 F
0.923615 0.308773 0.056069 F
0.179063 0.212079 0.149397 F
0.803680 0.983443 0.472168 F
0.018158 0.803098 0.802832 F
0.218161 0.181622 0.845425 F
0.986606 0.792643 0.525943 F
0.800071 0.014208 0.196328 F
0.024028 0.378140 0.852398 F
0.614267 0.639394 0.170643 F
0.387098 0.943046 0.537316 F
0.368472 0.013692 0.154266 F
0.640872 0.610764 0.818436 F
0.949253 0.381371 0.460448 F
