Na2 Ca2 V4 P4 S2 O24
1.0
8.873786 0.221887 0.118992
4.334137 7.792043 0.152196
4.285508 2.633263 7.314328
Ca Na V P S O
2 2 4 4 2 24
direct
0.504761 0.476281 0.520277 Ca
0.020188 0.976387 0.004723 Ca
0.745128 0.395618 0.107027 Na
0.607029 0.895651 0.245310 Na
0.354501 0.358344 0.349732 V
0.642699 0.651768 0.643783 V
0.143831 0.151821 0.142519 V
0.849612 0.858374 0.854630 V
0.951863 0.538812 0.250388 P
0.750404 0.038871 0.451949 P
0.459393 0.755967 0.046781 P
0.546765 0.255962 0.959263 P
0.044341 0.459582 0.743374 S
0.243470 0.959517 0.544438 S
0.227175 0.433097 0.593052 O
0.760430 0.571870 0.409901 O
0.587055 0.230517 0.434203 O
0.405069 0.778331 0.554657 O
0.438398 0.588005 0.233569 O
0.562314 0.420803 0.773663 O
0.910006 0.071744 0.260542 O
0.092959 0.933043 0.727161 O
0.054378 0.278455 0.905081 O
0.934304 0.730455 0.087027 O
0.273805 0.920878 0.061924 O
0.733516 0.087931 0.938515 O
0.528943 0.300314 0.116045 O
0.508991 0.704090 0.883493 O
0.114791 0.491093 0.301635 O
0.896812 0.496477 0.685830 O
0.300556 0.104422 0.512326 O
0.696842 0.889888 0.468928 O
0.383437 0.204487 0.008216 O
0.615971 0.800392 0.029229 O
0.186385 0.996582 0.396543 O
0.801440 0.991414 0.614922 O
0.968760 0.389842 0.196859 O
0.011843 0.604616 0.800451 O
