Ca3 V8 F24                              
   1.00000000000000     
     7.9279770000000003    0.0002040000000000    0.0000280000000000
     0.0001990000000000    8.1158239999999999    0.0000660000000000
     0.0000230000000000    0.0000690000000000    7.9032239999999998
   Ca   V    F 
     3     8    24
Direct
  0.4999897215121811  0.9788884972308554  0.5001053120158694
 -0.0000283842636453  0.4970828708647422  0.4998741237232387
  0.5000337793330705  0.0102900373312904  0.9999457683188747
  0.2475768283990686  0.2435940411735025  0.2500563495398025
  0.2475192069353601  0.2436449288947438  0.7498938669158600
  0.2477936369577376  0.7382641333745632  0.2468689482661949
  0.2476653978811091  0.7383056950350000  0.7531713847371786
  0.7524057984014482  0.2436061167443501  0.2501411436071737
  0.7524357222672231  0.2436496550785412  0.7498221148390612
  0.7522335887614040  0.7382823772810941  0.2468649068229373
  0.7523495808313796  0.7383159716380494  0.7531703131065501
 -0.0000120712373382  0.2421326076512199  0.3236664506813224
  0.9999944837967866  0.2417538771774331  0.6762319279169013
  0.0000120869962496  0.7581447317044636  0.1990144293922985
  0.0000210544468688  0.7591735359234074  0.8010604908459759
  0.5000002846402893  0.2454837988568606  0.1846905653230473
  0.4999792525175087  0.2458047623446024  0.8152708445515505
  0.5000148159240499  0.7382849309579627  0.3187841771540104
  0.5000346519990887  0.7379490659352063  0.6812285504031128
  0.2072482650045908  0.2241006612794955 -0.0000209238393492
  0.3165798188800031  0.2144452754074607  0.4999871598283567
  0.3200076974233131  0.7654638584904211  0.0000000733871246
  0.1865329567817775  0.7420103418644962  0.5000151513179319
  0.7925724724567929  0.2239149258868575  0.9999980300377391
  0.6833806480000565  0.2145064158484117  0.4999903935930070
  0.6800519425914806  0.7656014628608284  0.9999801568297079
  0.8136404575036384  0.7417847923539654  0.5000022849447152
  0.3085594884173942  0.9907339845026383  0.2486476365882949
  0.3088320206150326  0.9907835086156890  0.7512914690680775
  0.2106923835924739  0.4909450590141586  0.2836729788981692
  0.2100859579292448  0.4909922504635248  0.7164628921110430
  0.6914545126537258  0.9907238845770833  0.2487697910422769
  0.6911788511099566  0.9907288679484103  0.7511663207427368
  0.7893750837564801  0.4909252570346079  0.2835445267859595
  0.7899243434446488  0.4909587063684767  0.7166174938824086
 
             NaN             NaN             NaN
             NaN             NaN             NaN
             NaN             NaN             NaN
             NaN             NaN             NaN
             NaN             NaN             NaN
             NaN             NaN             NaN
             NaN             NaN             NaN
             NaN             NaN             NaN
             NaN             NaN             NaN
             NaN             NaN             NaN
             NaN             NaN             NaN
             NaN             NaN             NaN
             NaN             NaN             NaN
             NaN             NaN             NaN
             NaN             NaN             NaN
             NaN             NaN             NaN
             NaN             NaN             NaN
             NaN             NaN             NaN
             NaN             NaN             NaN
             NaN             NaN             NaN
             NaN             NaN             NaN
             NaN             NaN             NaN
             NaN             NaN             NaN
             NaN             NaN             NaN
             NaN             NaN             NaN
             NaN             NaN             NaN
             NaN             NaN             NaN
             NaN             NaN             NaN
             NaN             NaN             NaN
             NaN             NaN             NaN
             NaN             NaN             NaN
             NaN             NaN             NaN
             NaN             NaN             NaN
             NaN             NaN             NaN
             NaN             NaN             NaN
