Ca3 V8 F24                              
   1.00000000000000     
     7.9279770000000003    0.0002040000000000    0.0000280000000000
     0.0001990000000000    8.1158239999999999    0.0000660000000000
     0.0000230000000000    0.0000690000000000    7.9032239999999998
   Ca   V    F 
     3     8    24
Direct
  0.5000112535319616  0.9805940811725322  0.5001223773612375
  0.0001783650728677  0.4960804981068140  0.5001365014447479
  0.4995050844558435  1.0153539019143456  0.9999349029627228
  0.2474359592951108  0.2444529202100427  0.2504456147066290
  0.2472844891470289  0.2449088752879117  0.7497316401995825
  0.2472339835818706  0.7403516852457432  0.2467911416787891
  0.2477273661061675  0.7399286857868667  0.7531998148397003
  0.7525447756034220  0.2447791774502373  0.2500243777984906
  0.7525994713181657  0.2449176926699353  0.7499055297010564
  0.7527917653407923  0.7396495745576558  0.2463404855217998
  0.7521904303556997  0.7394899862377945  0.7533705279517700
  0.0003346416826980  0.2405798749411830  0.3230249066349115
 -0.0013312865167376  0.2405115914256254  0.6769244985315923
  0.0002852919686254  0.7659708844943367  0.2000328020758412
  0.0000220084379332  0.7660080622500919  0.8000383703338463
  0.4999700849753988  0.2490552755777820  0.1859156827870360
  0.5017259150651235  0.2492184411792929  0.8143680934000430
  0.4994643245964943  0.7366293896518534  0.3179535142737830
  0.4998780226631433  0.7368486014396408  0.6821013268682624
  0.2124584779928738  0.2142348826711395  0.0013993972181507
  0.3165846504553559  0.2215341543952122  0.4981056895282617
  0.3189353658169504  0.7714928147841920  1.0003154198228379
  0.1865328237331570  0.7376627395583155  0.4996433303489590
  0.7884887667028881  0.2163106996266069 -0.0003190539330326
  0.6837114007716570  0.2204860289755225  0.5002228417785279
  0.6807572239289750  0.7706803655798129  0.9996964630073950
  0.8131981474039817  0.7387615593476182  0.5005582952105415
  0.3106541922769960  0.9921653587378819  0.2543382713563506
  0.3105451196983682  0.9908318955280739  0.7457495656336932
  0.2062313303866454  0.4921227961871526  0.2781140735142952
  0.2062702383108328  0.4934200502190335  0.7218764004034911
  0.6894427291175701 -0.0073804807301920  0.2533525802706141
  0.6894542139276103 -0.0075976002484209  0.7466940854006926
  0.7934567542933734  0.4921291479654599  0.2787744804912223
  0.7935989622908448  0.4923132566209034  0.7211047911314040
 
             NaN             NaN             NaN
             NaN             NaN             NaN
             NaN             NaN             NaN
             NaN             NaN             NaN
             NaN             NaN             NaN
             NaN             NaN             NaN
             NaN             NaN             NaN
             NaN             NaN             NaN
             NaN             NaN             NaN
             NaN             NaN             NaN
             NaN             NaN             NaN
             NaN             NaN             NaN
             NaN             NaN             NaN
             NaN             NaN             NaN
             NaN             NaN             NaN
             NaN             NaN             NaN
             NaN             NaN             NaN
             NaN             NaN             NaN
             NaN             NaN             NaN
             NaN             NaN             NaN
             NaN             NaN             NaN
             NaN             NaN             NaN
             NaN             NaN             NaN
             NaN             NaN             NaN
             NaN             NaN             NaN
             NaN             NaN             NaN
             NaN             NaN             NaN
             NaN             NaN             NaN
             NaN             NaN             NaN
             NaN             NaN             NaN
             NaN             NaN             NaN
             NaN             NaN             NaN
             NaN             NaN             NaN
             NaN             NaN             NaN
             NaN             NaN             NaN
