Ca1 Ni16 F48                            
   1.00000000000000     
    10.4529479999999992   -0.0000840000000000   -0.0274530000000000
    -0.0001730000000000    7.2692589999999999   -0.0059000000000000
    -0.0256050000000000    0.0133010000000000   10.0659379999999992
   Ca   Ni   F 
     1    16    48
Direct
  0.4824433547560826  0.7834622015484424  0.5019976364217258
  0.9995288930937805  0.5017742043162391  0.2471668521980150
  1.0002723654899635  0.5023124077129385  0.7509868960107801
  0.5009937350546689  0.4964064842426542  0.2394573630792753
  0.5002210978578663  0.5005490213486601  0.7605074634809826
  0.2446881626592602  1.0004567176646622 -0.0008364954019217
  0.2378957258848729  0.0144200188683752  0.4973356849349390
  0.7554439806445363  0.0036757719390145  1.0021222074089855
  0.7606896315157671  0.0075701925354720  0.5026340167680446
  0.9981758957522326  0.0023096433851644  0.2455574576366122
  1.0021674563624252  1.0018680562737863  0.7534659934617992
  0.4983703107085307  0.0109491782752445  0.2354267921933954
  0.5024764697109756  0.0098332910545866  0.7672596999689467
  0.2466292883488393  0.4999993595979577 -0.0004585072590157
  0.2442326549020110  0.5016190650577267  0.4986471045342945
  0.7535650918612735  0.5030513074989807  0.9997919930118645
  0.7546966529170753  0.5003766990362312  0.4985767407233038
  0.4885204969763723  0.2543432905312791  0.1797828431140776
  0.4917063321435942  0.2534079874245312  0.7036874966213331
  0.9851641612246795  0.2498651198996646  0.1902477150831294
  0.9888045848207642  0.2490870320470021  0.6973086439394407
  0.2323928076255549  0.2527555108233049  0.0559720339767769
  0.2352741181119871  0.2583504167271122  0.5574074676509051
  0.7440040849362289  0.2549847341245678  0.0588903236163455
  0.7449833148175233  0.2564741886300038  0.5564157870611656
  0.0117729419352707  0.7548654595866535  0.3028662938843584
  0.0144931055121452  0.7538254731253283  0.8079545246368689
  0.5104324983228917  0.7537726259231993  0.2866860962102891
  0.5097067364717529  0.7542256223175544  0.8131236361110962
  0.2635631576522293  0.7569569327298257  0.4463747262932231
  0.2583246946560515  0.7476089588064549  0.9427484344352343
  0.7503837813323514  0.7520682805344876  0.4472880571945531
  0.7653429880848450  0.7521182146755160  0.9438115149225818
  0.3440671531712499  0.5544589167797358  0.1498064113960514
  0.3560228539170858  0.5675156225528488  0.6462769180266265
  0.8478858698731203  0.5602628988023529  0.1524597322278773
  0.8500564788113973  0.5583324451390366  0.6518252453984433
  0.0931651373782751  0.9436893521479082  0.0923842102886346
  0.0961901075260778  0.9454390111753134  0.5999221571804714
  0.6032464945828412  0.9472104748137312  0.0914199026057922
  0.6171250556824077  0.9519782590889652  0.6209899223751530
  0.1458683828812964  0.0622429238891022  0.3385237863537758
  0.1533595820722340  0.0585909257977469  0.8436563490157475
  0.6367472930315478  0.0511085145330738  0.3614521622656061
  0.6556952158182562  0.0680486744763602  0.8572484576081542
  0.4029853288529765  0.4656965075010343  0.4035125287192233
  0.3974488004426470  0.4425373201650554  0.9093076740764524
  0.9033563913600671  0.4490231009227759  0.4018121892338672
  0.9026018714211539  0.4472712202746856  0.9055944020969792
  0.1500625444678096  0.4472161104013100  0.3440350594467842
  0.1529794767083324  0.4445832680001764  0.8463701673633794
  0.6508213932984570  0.4471660819051664  0.3474888248010832
  0.6562903140744567  0.4469714194241954  0.8497904330697468
  0.3932008596424255  0.0548597322260756  0.3937467954207862
  0.3966923227144148  0.0627638351547337  0.9109883624310338
  0.9047707360494861  0.0614105451152158  0.3984286111524464
  0.9065502743381566  0.0576658362562760  0.9073409945880246
  0.3447846763311088  0.9446678778104698  0.1470225401349825
  0.3590862521849427  0.9528380204127150  0.6462843232092651
  0.8467158575655720  0.9426107873786155  0.1567182035965121
  0.8570899773894458  0.9441053000254839  0.6562336912204864
  0.0969777161048425  0.5566060824126496  0.0927794684987252
  0.0975319871644760  0.5582987428138123  0.5968644284431420
  0.6023841174801339  0.5578834512905824  0.0897016436643463
  0.6013378539172582  0.5559655589039493  0.5996708057108554
 
             NaN             NaN             NaN
             NaN             NaN             NaN
             NaN             NaN             NaN
             NaN             NaN             NaN
             NaN             NaN             NaN
             NaN             NaN             NaN
             NaN             NaN             NaN
             NaN             NaN             NaN
             NaN             NaN             NaN
             NaN             NaN             NaN
             NaN             NaN             NaN
             NaN             NaN             NaN
             NaN             NaN             NaN
             NaN             NaN             NaN
             NaN             NaN             NaN
             NaN             NaN             NaN
             NaN             NaN             NaN
             NaN             NaN             NaN
             NaN             NaN             NaN
             NaN             NaN             NaN
             NaN             NaN             NaN
             NaN             NaN             NaN
             NaN             NaN             NaN
             NaN             NaN             NaN
             NaN             NaN             NaN
             NaN             NaN             NaN
             NaN             NaN             NaN
             NaN             NaN             NaN
             NaN             NaN             NaN
             NaN             NaN             NaN
             NaN             NaN             NaN
             NaN             NaN             NaN
             NaN             NaN             NaN
             NaN             NaN             NaN
             NaN             NaN             NaN
             NaN             NaN             NaN
             NaN             NaN             NaN
             NaN             NaN             NaN
             NaN             NaN             NaN
             NaN             NaN             NaN
             NaN             NaN             NaN
             NaN             NaN             NaN
             NaN             NaN             NaN
             NaN             NaN             NaN
             NaN             NaN             NaN
             NaN             NaN             NaN
             NaN             NaN             NaN
             NaN             NaN             NaN
             NaN             NaN             NaN
             NaN             NaN             NaN
             NaN             NaN             NaN
             NaN             NaN             NaN
             NaN             NaN             NaN
             NaN             NaN             NaN
             NaN             NaN             NaN
             NaN             NaN             NaN
             NaN             NaN             NaN
             NaN             NaN             NaN
             NaN             NaN             NaN
             NaN             NaN             NaN
             NaN             NaN             NaN
             NaN             NaN             NaN
             NaN             NaN             NaN
             NaN             NaN             NaN
             NaN             NaN             NaN
