Ca1 Ni16 F48
1.0
10.452948 -0.000084 -0.027453
-0.000173 7.269259 -0.005900
-0.025605 0.013301 10.065938
Ca Ni F
1 16 48
direct
0.479607 -0.187319 0.506049 Ca
-0.000552 0.499873 0.246577 Ni
-0.000594 0.500037 0.752379 Ni
0.501892 0.494486 0.239845 Ni
0.499733 0.495783 0.763040 Ni
0.246772 0.999725 1.000960 Ni
0.239284 1.005731 0.499563 Ni
0.753518 0.000653 0.999970 Ni
0.757566 1.002759 0.498275 Ni
-0.000404 0.000319 0.246640 Ni
-0.000551 0.999672 0.752220 Ni
0.501851 1.004279 0.240430 Ni
0.499947 1.004509 0.761890 Ni
0.246886 0.500099 1.001173 Ni
0.240184 0.494793 0.499670 Ni
0.753318 0.499684 0.999986 Ni
0.756431 0.497391 0.498602 Ni
0.483774 0.248678 0.187799 F
0.484157 0.249247 0.705656 F
0.985811 0.248191 0.191265 F
0.987695 0.247755 0.698127 F
0.232674 0.252403 0.055654 F
0.237547 0.250693 0.557525 F
0.742285 0.251975 0.056733 F
0.746517 0.251467 0.553952 F
0.012322 0.752004 0.302382 F
0.011914 0.751997 0.806957 F
0.517943 0.750197 0.291395 F
0.515150 0.751584 0.806371 F
0.256333 0.749615 0.447068 F
0.260898 0.747333 0.945616 F
0.749835 0.748349 0.446460 F
0.764240 0.748354 0.944317 F
0.344391 0.553964 0.152340 F
0.352383 0.558437 0.650224 F
0.846999 0.557248 0.153265 F
0.849566 0.555567 0.653036 F
0.095182 0.943803 0.094401 F
0.092188 0.944920 0.598377 F
0.600250 0.948139 0.089887 F
0.602334 0.958942 0.602236 F
0.149292 0.057957 0.340461 F
0.151796 0.053028 0.844115 F
0.650396 0.056909 0.345176 F
0.655179 0.058897 0.849354 F
0.402049 0.463753 0.403952 F
0.398991 0.443417 0.913408 F
0.904735 0.447338 0.401590 F
0.903644 0.445404 0.907110 F
0.149244 0.441974 0.342576 F
0.153623 0.446467 0.846592 F
0.651398 0.442208 0.347731 F
0.656699 0.441665 0.849855 F
0.402889 0.036025 0.403251 F
0.399595 0.055749 0.911139 F
0.906773 0.054341 0.400587 F
0.905012 0.054946 0.905614 F
0.346987 0.945738 0.153169 F
0.352739 0.941904 0.650634 F
0.848187 0.943415 0.154915 F
0.850333 0.944668 0.656248 F
0.096348 0.556492 0.092722 F
0.093549 0.553190 0.597348 F
0.600964 0.552653 0.088607 F
0.602615 0.541023 0.601644 F
