Y16 Zn8 S32
1.0
       11.0323143005         0.0000000000         0.0000000000
        0.0000000000        11.0323143005         0.0000000000
        0.0000000000         0.0000000000        11.0323143005
Zn    Y   Zn    S
1   16    6   32
Direct
  -0.2500000000000000   -0.2500000000000000    0.7500000000000000 Zn
     0.625000000         0.875000000         0.375000000
     0.375000000         0.125000000         0.375000000
     0.875000000         0.875000000         0.125000000
     0.125000000         0.125000000         0.125000000
     0.625000000         0.375000000         0.875000000
     0.375000000         0.625000000         0.875000000
     0.875000000         0.375000000         0.625000000
     0.125000000         0.625000000         0.625000000
     0.125000000         0.875000000         0.875000000
     0.875000000         0.125000000         0.875000000
     0.375000000         0.875000000         0.625000000
     0.625000000         0.125000000         0.625000000
     0.125000000         0.375000000         0.375000000
     0.875000000         0.625000000         0.375000000
     0.375000000         0.375000000         0.125000000
     0.625000000         0.625000000         0.125000000
     0.250000000         0.750000000         0.250000000
     0.250000000         0.250000000         0.750000000
     0.000000000         0.500000000         0.000000000
     0.500000000         0.000000000         0.000000000
     0.750000000         0.250000000         0.250000000
     0.500000000         0.500000000         0.500000000
     0.876512349         0.123487674         0.123487674
     0.123487674         0.876512349         0.123487674
     0.623487651         0.123487674         0.376512319
     0.376512319         0.876512349         0.376512319
     0.373487681         0.126512334         0.126512334
     0.126512334         0.373487681         0.126512334
     0.126512334         0.126512334         0.373487681
     0.373487681         0.373487681         0.373487681
     0.876512349         0.623487651         0.623487651
     0.123487674         0.376512319         0.623487651
     0.623487651         0.623487651         0.876512349
     0.376512319         0.376512319         0.876512349
     0.373487681         0.626512349         0.626512349
     0.126512334         0.873487651         0.626512349
     0.126512334         0.626512349         0.873487651
     0.373487681         0.873487651         0.873487651
     0.376512319         0.123487674         0.623487651
     0.623487651         0.876512349         0.623487651
     0.123487674         0.123487674         0.876512349
     0.876512349         0.876512349         0.876512349
     0.873487651         0.126512334         0.626512349
     0.626512349         0.373487681         0.626512349
     0.626512349         0.126512334         0.873487651
     0.873487651         0.373487681         0.873487651
     0.376512319         0.623487651         0.123487674
     0.623487651         0.376512319         0.123487674
     0.123487674         0.623487651         0.376512319
     0.876512349         0.376512319         0.376512319
     0.873487651         0.626512349         0.126512334
     0.626512349         0.873487651         0.126512334
     0.626512349         0.626512349         0.373487681
     0.873487651         0.873487651         0.373487681
