Na6 Ti12 P18 O72
1.0
        8.6167716980         0.0000000000         0.0000000000
       -4.3083858490         7.4623431891         0.0000000000
        0.0000000000         0.0000000000        22.0215396881
   Na   Ti    P    O
    5   12   18   72
Direct
   1.0000000000000000   -0.0000000000000001    0.5000000000000000 Na
     0.333333343         0.666666687         0.166666672
     0.000000000         0.000000000         0.000000000
     0.666666687         0.333333343         0.833333313
     0.333333343         0.666666687         0.666666687
     0.666666687         0.333333343         0.188741326
     0.333333343         0.666666687         0.311258674
     0.333333343         0.666666687         0.022074670
     0.000000000         0.000000000         0.144592002
     0.333333343         0.666666687         0.522074699
     0.000000000         0.000000000         0.644591987
     0.000000000         0.000000000         0.355408013
     0.666666687         0.333333343         0.477925330
     0.000000000         0.000000000         0.855408013
     0.666666687         0.333333343         0.977925301
     0.666666687         0.333333343         0.688741326
     0.333333343         0.666666687         0.811258674
     0.000000000         0.287209988         0.250000000
     0.712790012         0.712790012         0.250000000
     0.666666687         0.046123330         0.083333328
     0.953876674         0.620543301         0.083333328
     0.287209988         0.000000000         0.250000000
     0.379456669         0.333333343         0.083333328
     0.666666687         0.620543301         0.583333313
     0.379456669         0.046123330         0.583333313
     0.333333343         0.379456669         0.416666657
     0.620543301         0.953876674         0.416666657
     0.953876674         0.333333343         0.583333313
     0.046123330         0.666666687         0.416666657
     0.333333343         0.953876674         0.916666687
     0.046123330         0.379456669         0.916666687
     0.000000000         0.712790012         0.750000000
     0.287209988         0.287209988         0.750000000
     0.620543301         0.666666687         0.916666687
     0.712790012         0.000000000         0.750000000
     0.192192674         0.164766327         0.087758332
     0.835233688         0.027426330         0.087758332
     0.972573698         0.807807326         0.087758332
     0.360759676         0.501900315         0.078908332
     0.498099685         0.858859301         0.078908332
     0.141140670         0.639240324         0.078908332
     0.474474013         0.168567002         0.245574996
     0.831432998         0.305907011         0.245574996
     0.694092989         0.525525987         0.245574996
     0.305907011         0.831432998         0.254424989
     0.168567002         0.474474013         0.254424989
     0.525525987         0.694092989         0.254424989
     0.841578305         0.529033661         0.026063669
     0.687455356         0.158421665         0.026063669
     0.470966339         0.312544674         0.026063669
     0.862366974         0.508244991         0.140603006
     0.645878017         0.137632996         0.140603006
     0.491755009         0.354122013         0.140603006
     0.825088322         0.804299653         0.307269663
     0.979211330         0.174911663         0.307269663
     0.195700333         0.020788670         0.307269663
     0.804299653         0.825088322         0.192730337
     0.020788670         0.195700333         0.192730337
     0.174911663         0.979211330         0.192730337
     0.858859301         0.498099685         0.421091676
     0.501900315         0.360759676         0.421091676
     0.639240324         0.141140670         0.421091676
     0.027426330         0.835233688         0.412241668
     0.164766327         0.192192674         0.412241668
     0.807807326         0.972573698         0.412241668
     0.141140670         0.501900315         0.578908324
     0.498099685         0.639240324         0.578908324
     0.360759676         0.858859301         0.578908324
     0.972573698         0.164766327         0.587758303
     0.835233688         0.807807326         0.587758303
     0.192192674         0.027426330         0.587758303
     0.508244991         0.862366974         0.359396994
     0.354122013         0.491755009         0.359396994
     0.137632996         0.645878017         0.359396994
     0.529033661         0.841578305         0.473936319
     0.312544674         0.470966339         0.473936319
     0.158421665         0.687455356         0.473936319
     0.491755009         0.137632996         0.640603006
     0.645878017         0.508244991         0.640603006
     0.862366974         0.354122013         0.640603006
     0.470966339         0.158421665         0.526063681
     0.687455356         0.529033661         0.526063681
     0.841578305         0.312544674         0.526063681
     0.525525987         0.831432998         0.754424989
     0.168567002         0.694092989         0.754424989
     0.305907011         0.474474013         0.754424989
     0.694092989         0.168567002         0.745575011
     0.831432998         0.525525987         0.745575011
     0.474474013         0.305907011         0.745575011
     0.807807326         0.835233688         0.912241697
     0.164766327         0.972573698         0.912241697
     0.027426330         0.192192674         0.912241697
     0.639240324         0.498099685         0.921091676
     0.501900315         0.141140670         0.921091676
     0.858859301         0.360759676         0.921091676
     0.174911663         0.195700333         0.692730308
     0.020788670         0.825088322         0.692730308
     0.804299653         0.979211330         0.692730308
     0.195700333         0.174911663         0.807269692
     0.979211330         0.804299653         0.807269692
     0.825088322         0.020788670         0.807269692
     0.158421665         0.470966339         0.973936319
     0.312544674         0.841578305         0.973936319
     0.529033661         0.687455356         0.973936319
     0.137632996         0.491755009         0.859396994
     0.354122013         0.862366974         0.859396994
     0.508244991         0.645878017         0.859396994
