Ca16 Mn32 O64                           
   1.00000000000000     
     9.9432094061808023    0.2565898671785054    0.5816396941830613
     1.4569430600086173   11.1618955474878927    2.3103079310701524
    -0.6871797154564271    0.7020475624691264   11.4608445267682164
   Ca   Mn   O 
     1    32    64
Direct
  0.6961780292397393  0.3438346231274068  0.2906407618110975
  0.1563752823067972  0.0929254620441355  0.4792042858926706
  0.1561416543877669  0.0948671112481492  0.9780410822881294
  0.1533369862232803  0.5961673116431143  0.4780417276860049
  0.1530809695446465  0.5964723258922717  0.9769969984604359
  0.6571360097944066  0.0844262903097501  0.4819078308154801
  0.6563142713667389  0.0932055090162720  0.9783837644434499
  0.6522022493665816  0.5994397026301002  0.4773906070522997
  0.6522782106410290  0.5999030946827446  0.9755810400576337
  0.1561937792478574  0.0930752217104640  0.2280117937990980
  0.1563663622417550  0.0944828987157607  0.7284139048639986
  0.1541745766805107  0.5974699911381691  0.2274915641555495
  0.1530002778708379  0.5954461286855022  0.7276047014712788
  0.6574051678512092  0.0845497127725352  0.2296148242703211
  0.6560866517538457  0.0930297125197797  0.7287861658799031
  0.6497517582163681  0.6162606776314092  0.2225869866032255
  0.6541846973824264  0.5956207410002392  0.7275474993399058
  0.4060671811422694  0.0934214908898738  0.1033534063738557
  0.4060323883983799  0.0930042495815542  0.6038108612822839
  0.4020811913829334  0.6008699105186750  0.0999705765703780
  0.4030040999756466  0.5959284590434990  0.6030778470963085
  0.9070500060158793  0.0933007669016845  0.1022722980860209
  0.9069756852782973  0.0930643310589545  0.6048531561706909
  0.9042506962023751  0.5998013690543473  0.1014654892951441
  0.9036149480533950  0.5959531695320024  0.6025741868352910
  0.4047106340276585  0.0933157200995467  0.3534452129224306
  0.4061681751925832  0.0939365532302503  0.8535188511149556
  0.4019045952126277  0.6005831548127745  0.3525844274289085
  0.4032536523117685  0.5961517458655763  0.8521261437577508
  0.9096001184094789  0.0836616429468151  0.3558085992665312
  0.9055510421260777  0.0948892699283803  0.8533624240670576
  0.9044358625286435  0.5994191745247548  0.3516932273779076
  0.9033682761955433  0.5963050616652481  0.8524195990666499
  0.0022619881736006  0.5095564670915138  0.0005261441505624
  0.0027612900416401  0.5091122021528562  0.4980802279544321
  0.0049642636102618  0.0069979473924207  0.0012629921301084
  0.0068998673110698  0.0032148501696199  0.5023456808470428
  0.5039290464246164  0.5106695385079405  0.0007140335166227
  0.5037173733104865  0.5103783334603307  0.4973009242509221
  0.5061267310647111  0.0062342714635690  0.0006358891529032
  0.5054397091927925  0.0037010270953388  0.5004163516185827
  0.0068358914895725  0.0031808479232325  0.2499162089569822
  0.0050355939964390  0.0068662793097403  0.7499564152847498
  0.0018415624559722  0.5106641779739931  0.2488839997820449
  0.0026619244422577  0.5082155172309868  0.7500051126495180
  0.5055226715825469  0.0039263046274840  0.2513322377570759
  0.5059131357572326  0.0060755062588029  0.7506707075111692
  0.5088555772247219  0.5124578667565061  0.2484758648005041
  0.5032234435221525  0.5085700699168640  0.7494793541249862
  0.0553030764200670  0.1815206106293559  0.0821225502020013
  0.0556666168770334  0.1811915401085287  0.5806554376782245
  0.0533343638458632  0.6850220267129856  0.0800600283848212
  0.0538824645268363  0.6832438732257700  0.5803786352840774
  0.5584683429744430  0.1791472031312296  0.0842882673059862
  0.5583041813181495  0.1788753370314140  0.5796342749802434
  0.5509063882879133  0.6922420131282934  0.0760826805985673
  0.5537785560677051  0.6841307311286542  0.5805790465272196
  0.0537157582056267  0.1782949950391099  0.3320052057996961
  0.0559781812921969  0.1819410735116236  0.8312370437417158
  0.0532243371822645  0.6847856482546248  0.3309448861352635
  0.0533779734834425  0.6834521874355772  0.8302409145670069
  0.5615790551917144  0.1815553053480912  0.3312299641955292
  0.5569402198806657  0.1811561332207248  0.8315100824432378
  0.5505893814843219  0.6919989708757512  0.3308521744842778
  0.5537816549415169  0.6843351976748551  0.8298934484475851
  0.2545174913061601  0.5106075030676109  0.1245937013285356
  0.2533857035437990  0.5081967982023770  0.6242717812156258
  0.2558640630936395  0.0064271287992952  0.1251184103252569
  0.2558742535044587  0.0061291577073774  0.6257524268444214
  0.7493074420219870  0.5116419844542008  0.1290069541265879
  0.7526950018311140  0.5089795590294983  0.6229999985761268
  0.7575419953062053  0.0036357815642987  0.1255321477669114
  0.7574814319536642  0.0034945966037299  0.6268027910671776
  0.2544312586571422  0.5103082377561563  0.3739108681596406
  0.2533405405558611  0.5086345026570243  0.8749654437364569
  0.2574141633560458  0.0059763752922706  0.3752996455912552
  0.2552842609246824  0.0069739159265865  0.8755453738204508
  0.7493441167619395  0.5112293509229318  0.3685738856605525
  0.7527619509624870  0.5092536850713429  0.8758206970850821
  0.7574362027660868  0.9984993479739330  0.3772404672937242
  0.7561401258020339  0.0063987862541666  0.8755623826620180
  0.3064037960910326  0.1808920482627840  0.4559996318261383
  0.3065035868022576  0.1816914860021726  0.9568796398199311
  0.3027373437135523  0.6847776102499523  0.4554444218657068
  0.3029149345185900  0.6851438532134679  0.9546039647427662
  0.8043105561972652  0.1809395993573375  0.4526092788476177
  0.8063863196438916  0.1816589204373926  0.9573530931403269
  0.8035907343644908  0.6845495183849124  0.4551817181488289
  0.8037284701593563  0.6847332034519198  0.9550201448452853
  0.3061535158430146  0.1811558174098096  0.2067366796864860
  0.3066198381021508  0.1813649300431308  0.7059723054065401
  0.3030586487905325  0.6861467063028783  0.2049256366261361
  0.3035864149148111  0.6832160869329797  0.7054936970097145
  0.8043885413749265  0.1811968165186357  0.2098887484386509
  0.8061420304833433  0.1814180197534796  0.7056771558820927
  0.8052764448595369  0.6916235426494239  0.2035837705324042
  0.8039607136446705  0.6833109915373825  0.7054635070552564
 
  0.00000000E+00  0.00000000E+00  0.00000000E+00
  0.00000000E+00  0.00000000E+00  0.00000000E+00
  0.00000000E+00  0.00000000E+00  0.00000000E+00
  0.00000000E+00  0.00000000E+00  0.00000000E+00
  0.00000000E+00  0.00000000E+00  0.00000000E+00
  0.00000000E+00  0.00000000E+00  0.00000000E+00
  0.00000000E+00  0.00000000E+00  0.00000000E+00
  0.00000000E+00  0.00000000E+00  0.00000000E+00
  0.00000000E+00  0.00000000E+00  0.00000000E+00
  0.00000000E+00  0.00000000E+00  0.00000000E+00
  0.00000000E+00  0.00000000E+00  0.00000000E+00
  0.00000000E+00  0.00000000E+00  0.00000000E+00
  0.00000000E+00  0.00000000E+00  0.00000000E+00
  0.00000000E+00  0.00000000E+00  0.00000000E+00
  0.00000000E+00  0.00000000E+00  0.00000000E+00
  0.00000000E+00  0.00000000E+00  0.00000000E+00
  0.00000000E+00  0.00000000E+00  0.00000000E+00
  0.00000000E+00  0.00000000E+00  0.00000000E+00
  0.00000000E+00  0.00000000E+00  0.00000000E+00
  0.00000000E+00  0.00000000E+00  0.00000000E+00
  0.00000000E+00  0.00000000E+00  0.00000000E+00
  0.00000000E+00  0.00000000E+00  0.00000000E+00
  0.00000000E+00  0.00000000E+00  0.00000000E+00
  0.00000000E+00  0.00000000E+00  0.00000000E+00
  0.00000000E+00  0.00000000E+00  0.00000000E+00
  0.00000000E+00  0.00000000E+00  0.00000000E+00
  0.00000000E+00  0.00000000E+00  0.00000000E+00
  0.00000000E+00  0.00000000E+00  0.00000000E+00
  0.00000000E+00  0.00000000E+00  0.00000000E+00
  0.00000000E+00  0.00000000E+00  0.00000000E+00
  0.00000000E+00  0.00000000E+00  0.00000000E+00
  0.00000000E+00  0.00000000E+00  0.00000000E+00
  0.00000000E+00  0.00000000E+00  0.00000000E+00
  0.00000000E+00  0.00000000E+00  0.00000000E+00
  0.00000000E+00  0.00000000E+00  0.00000000E+00
  0.00000000E+00  0.00000000E+00  0.00000000E+00
  0.00000000E+00  0.00000000E+00  0.00000000E+00
  0.00000000E+00  0.00000000E+00  0.00000000E+00
  0.00000000E+00  0.00000000E+00  0.00000000E+00
  0.00000000E+00  0.00000000E+00  0.00000000E+00
  0.00000000E+00  0.00000000E+00  0.00000000E+00
  0.00000000E+00  0.00000000E+00  0.00000000E+00
  0.00000000E+00  0.00000000E+00  0.00000000E+00
  0.00000000E+00  0.00000000E+00  0.00000000E+00
  0.00000000E+00  0.00000000E+00  0.00000000E+00
  0.00000000E+00  0.00000000E+00  0.00000000E+00
  0.00000000E+00  0.00000000E+00  0.00000000E+00
  0.00000000E+00  0.00000000E+00  0.00000000E+00
  0.00000000E+00  0.00000000E+00  0.00000000E+00
  0.00000000E+00  0.00000000E+00  0.00000000E+00
  0.00000000E+00  0.00000000E+00  0.00000000E+00
  0.00000000E+00  0.00000000E+00  0.00000000E+00
  0.00000000E+00  0.00000000E+00  0.00000000E+00
  0.00000000E+00  0.00000000E+00  0.00000000E+00
  0.00000000E+00  0.00000000E+00  0.00000000E+00
  0.00000000E+00  0.00000000E+00  0.00000000E+00
  0.00000000E+00  0.00000000E+00  0.00000000E+00
  0.00000000E+00  0.00000000E+00  0.00000000E+00
  0.00000000E+00  0.00000000E+00  0.00000000E+00
  0.00000000E+00  0.00000000E+00  0.00000000E+00
  0.00000000E+00  0.00000000E+00  0.00000000E+00
  0.00000000E+00  0.00000000E+00  0.00000000E+00
  0.00000000E+00  0.00000000E+00  0.00000000E+00
  0.00000000E+00  0.00000000E+00  0.00000000E+00
  0.00000000E+00  0.00000000E+00  0.00000000E+00
  0.00000000E+00  0.00000000E+00  0.00000000E+00
  0.00000000E+00  0.00000000E+00  0.00000000E+00
  0.00000000E+00  0.00000000E+00  0.00000000E+00
  0.00000000E+00  0.00000000E+00  0.00000000E+00
  0.00000000E+00  0.00000000E+00  0.00000000E+00
  0.00000000E+00  0.00000000E+00  0.00000000E+00
  0.00000000E+00  0.00000000E+00  0.00000000E+00
  0.00000000E+00  0.00000000E+00  0.00000000E+00
  0.00000000E+00  0.00000000E+00  0.00000000E+00
  0.00000000E+00  0.00000000E+00  0.00000000E+00
  0.00000000E+00  0.00000000E+00  0.00000000E+00
  0.00000000E+00  0.00000000E+00  0.00000000E+00
  0.00000000E+00  0.00000000E+00  0.00000000E+00
  0.00000000E+00  0.00000000E+00  0.00000000E+00
  0.00000000E+00  0.00000000E+00  0.00000000E+00
  0.00000000E+00  0.00000000E+00  0.00000000E+00
  0.00000000E+00  0.00000000E+00  0.00000000E+00
  0.00000000E+00  0.00000000E+00  0.00000000E+00
  0.00000000E+00  0.00000000E+00  0.00000000E+00
  0.00000000E+00  0.00000000E+00  0.00000000E+00
  0.00000000E+00  0.00000000E+00  0.00000000E+00
  0.00000000E+00  0.00000000E+00  0.00000000E+00
  0.00000000E+00  0.00000000E+00  0.00000000E+00
  0.00000000E+00  0.00000000E+00  0.00000000E+00
  0.00000000E+00  0.00000000E+00  0.00000000E+00
  0.00000000E+00  0.00000000E+00  0.00000000E+00
  0.00000000E+00  0.00000000E+00  0.00000000E+00
  0.00000000E+00  0.00000000E+00  0.00000000E+00
  0.00000000E+00  0.00000000E+00  0.00000000E+00
  0.00000000E+00  0.00000000E+00  0.00000000E+00
  0.00000000E+00  0.00000000E+00  0.00000000E+00
  0.00000000E+00  0.00000000E+00  0.00000000E+00
