Na2 Ca2 V4 P2 S4 O24                    
   1.00000000000000     
     8.9707760000000007    0.3520850000000000    0.1931800000000000
     4.2636459999999996    7.9109910000000001    0.2214590000000000
     4.1720670000000002    2.6219489999999999    7.4367919999999996
   Ca   Na   V    P    S    O 
     2     2     4     2     4    24
Direct
  0.6304019080740084  0.4714506617500891  0.3315364868522393
  0.0050706591812868  1.0020396954696351  0.0039500408600684
  0.4138254083193401  0.1052294948155754  0.7476371149595031
  0.5901487538414392  0.9081430633592072  0.2515297318391961
  0.3462357883018000  0.3431977487602874  0.3629021276770477
  0.6474211146970271  0.6567926806952696  0.6403323377471924
  0.1442750432752696  0.1550580353632126  0.1427617092849802
  0.8485923175986498  0.8440149191326873  0.8563838659686607
  0.7585007786010702  0.0315400614416415  0.4414233505346603
  0.4539420292621270  0.7529391745031747  0.0425051181171255
  0.0496346843312988  0.4544391237977179  0.7427005876052343
  0.9514803445123388  0.5509113211016740  0.2490106909319145
  0.2390247949497309  0.9623277403428258  0.5613076571084741
  0.5443249572189479  0.2482067398163781  0.9540661511762141
  0.2254884556875708  0.4406507082095013  0.5867767166506170
  0.7711638414967019  0.5723984023293948  0.4038091971696062
  0.5805120401339515  0.2101522862085707  0.4437944853345972
  0.4057518561572098  0.7933294498637335  0.5511929300444041
  0.4317965453556330  0.5697253672247002  0.1909205425785452
  0.5573966684647894  0.4206087069449880  0.8067526151844344
  0.9063371712365130  0.0924437310888576  0.2564146334491327
  0.0899210483462976  0.9191472612028087  0.7379732716992433
  0.0815833739958533  0.2660371053805165  0.8930195153601812
  0.9324559436713636  0.7338677495098372  0.0978784850083804
  0.2692525684440769  0.9151485312887043  0.0744697955067560
  0.7285670481176347  0.0933712117502090  0.9252565213188636
  0.4993837340788963  0.2453764281094087  0.1395567727819141
  0.5078400219028161  0.7659984716154664  0.8462501367609891
  0.1033748584006813  0.4979385531334393  0.3027111887383127
  0.8992601068758204  0.4847982699238665  0.6949176479564316
  0.2786849805701769  0.1032290170352460  0.5649241424469365
  0.7252752782146239  0.8837879699626043  0.4339663474651781
  0.4059941346390753  0.1997031414068727  0.9576498901266789
  0.6064114496892590  0.7675279557210822  0.0696455388872667
  0.1847166768315519  0.0324356772600148  0.4009956755201193
  0.7982878827378099  0.9777520644294521  0.6122706920832856
  0.9633196601456420  0.4144433601777449  0.1911691397742204
  0.0113564896125846  0.5918584639641404  0.8118154975029875
 
             NaN             NaN             NaN
             NaN             NaN             NaN
             NaN             NaN             NaN
             NaN             NaN             NaN
             NaN             NaN             NaN
             NaN             NaN             NaN
             NaN             NaN             NaN
             NaN             NaN             NaN
             NaN             NaN             NaN
             NaN             NaN             NaN
             NaN             NaN             NaN
             NaN             NaN             NaN
             NaN             NaN             NaN
             NaN             NaN             NaN
             NaN             NaN             NaN
             NaN             NaN             NaN
             NaN             NaN             NaN
             NaN             NaN             NaN
             NaN             NaN             NaN
             NaN             NaN             NaN
             NaN             NaN             NaN
             NaN             NaN             NaN
             NaN             NaN             NaN
             NaN             NaN             NaN
             NaN             NaN             NaN
             NaN             NaN             NaN
             NaN             NaN             NaN
             NaN             NaN             NaN
             NaN             NaN             NaN
             NaN             NaN             NaN
             NaN             NaN             NaN
             NaN             NaN             NaN
             NaN             NaN             NaN
             NaN             NaN             NaN
             NaN             NaN             NaN
             NaN             NaN             NaN
             NaN             NaN             NaN
             NaN             NaN             NaN
