Na2 Ca2 V4 P2 S4 O24
1.0
8.970776 0.352085 0.193180
4.263646 7.910991 0.221459
4.172067 2.621949 7.436792
Ca Na V P S O
2 2 4 2 4 24
direct
0.592041 0.464218 0.356796 Ca
0.010637 0.986116 0.014338 Ca
0.430162 0.106137 0.746315 Na
0.590737 0.891782 0.249434 Na
0.348345 0.354194 0.359077 V
0.646920 0.654032 0.636883 V
0.145614 0.150244 0.145910 V
0.849495 0.848310 0.856263 V
0.752078 0.037080 0.444290 P
0.456923 0.750062 0.046588 P
0.043634 0.454028 0.748700 S
0.950258 0.546790 0.251377 S
0.240925 0.962388 0.559064 S
0.547936 0.255519 0.947830 S
0.227518 0.424063 0.603145 O
0.766985 0.568586 0.399852 O
0.585794 0.224619 0.434021 O
0.402265 0.786048 0.555667 O
0.422646 0.586817 0.223988 O
0.573061 0.405960 0.771379 O
0.913358 0.077053 0.263947 O
0.089871 0.928143 0.736395 O
0.057733 0.272953 0.907704 O
0.932467 0.730612 0.098165 O
0.277878 0.923587 0.054569 O
0.724675 0.091130 0.944716 O
0.502036 0.305333 0.103144 O
0.505504 0.721975 0.870832 O
0.094100 0.504803 0.313077 O
0.899572 0.490249 0.689364 O
0.292528 0.100298 0.550709 O
0.708058 0.893853 0.440664 O
0.405630 0.198712 0.973715 O
0.611122 0.783133 0.045524 O
0.186071 0.024913 0.401551 O
0.783082 0.981750 0.621169 O
0.983413 0.407251 0.186631 O
0.010819 0.596326 0.808036 O
