K64 V64 F256
1.0
15.181600 0.000000 0.000000
0.000000 15.487800 0.000000
0.000000 0.000000 24.565001
K  V K F
1  64 62 256
direct
   0.8750000000000000    0.9368600000000000    0.7374400000000000 K
0.000285 0.062720 0.125740 V
0.000285 0.062720 0.625740 V
0.000285 0.562720 0.125740 V
0.000285 0.562720 0.625740 V
0.500285 0.062720 0.125740 V
0.500285 0.062720 0.625740 V
0.500285 0.562720 0.125740 V
0.500285 0.562720 0.625740 V
0.499715 0.437280 0.374260 V
0.499715 0.437280 0.874260 V
0.499715 0.937280 0.374260 V
0.499715 0.937280 0.874260 V
0.999715 0.437280 0.374260 V
0.999715 0.437280 0.874260 V
0.999715 0.937280 0.374260 V
0.999715 0.937280 0.874260 V
0.499715 0.312720 0.124260 V
0.499715 0.312720 0.624260 V
0.499715 0.812720 0.124260 V
0.499715 0.812720 0.624260 V
0.999715 0.312720 0.124260 V
0.999715 0.312720 0.624260 V
0.999715 0.812720 0.124260 V
0.999715 0.812720 0.624260 V
0.000285 0.187280 0.375740 V
0.000285 0.187280 0.875740 V
0.000285 0.687280 0.375740 V
0.000285 0.687280 0.875740 V
0.500285 0.187280 0.375740 V
0.500285 0.187280 0.875740 V
0.500285 0.687280 0.375740 V
0.500285 0.687280 0.875740 V
0.250285 0.437280 0.374260 V
0.250285 0.437280 0.874260 V
0.250285 0.937280 0.374260 V
0.250285 0.937280 0.874260 V
0.750285 0.437280 0.374260 V
0.750285 0.437280 0.874260 V
0.750285 0.937280 0.374260 V
0.750285 0.937280 0.874260 V
0.249715 0.062720 0.125740 V
0.249715 0.062720 0.625740 V
0.249715 0.562720 0.125740 V
0.249715 0.562720 0.625740 V
0.749715 0.062720 0.125740 V
0.749715 0.062720 0.625740 V
0.749715 0.562720 0.125740 V
0.749715 0.562720 0.625740 V
0.249715 0.187280 0.375740 V
0.249715 0.187280 0.875740 V
0.249715 0.687280 0.375740 V
0.249715 0.687280 0.875740 V
0.749715 0.187280 0.375740 V
0.749715 0.187280 0.875740 V
0.749715 0.687280 0.375740 V
0.749715 0.687280 0.875740 V
0.250285 0.312720 0.124260 V
0.250285 0.312720 0.624260 V
0.250285 0.812720 0.124260 V
0.250285 0.812720 0.624260 V
0.750285 0.312720 0.124260 V
0.750285 0.312720 0.624260 V
0.750285 0.812720 0.124260 V
0.750285 0.812720 0.624260 V
0.125000 0.186860 0.012560 K
0.125000 0.186860 0.512560 K
0.125000 0.686860 0.012560 K
0.125000 0.686860 0.512560 K
0.625000 0.186860 0.012560 K
0.625000 0.186860 0.512560 K
0.625000 0.686860 0.012560 K
0.625000 0.686860 0.512560 K
0.375000 0.313140 0.487440 K
0.375000 0.313140 0.987440 K
0.375000 0.813140 0.487440 K
0.375000 0.813140 0.987440 K
0.875000 0.313140 0.487440 K
0.875000 0.313140 0.987440 K
0.875000 0.813140 0.487440 K
0.875000 0.813140 0.987440 K
0.375000 0.436860 0.237440 K
0.375000 0.436860 0.737440 K
0.375000 0.936860 0.237440 K
0.375000 0.936860 0.737440 K
0.875000 0.436860 0.237440 K
0.875000 0.436860 0.737440 K
0.875000 0.936860 0.237440 K
0.125000 0.063140 0.262560 K
0.125000 0.063140 0.762560 K
0.125000 0.563140 0.262560 K
0.125000 0.563140 0.762560 K
0.625000 0.063140 0.262560 K
0.625000 0.063140 0.762560 K
0.625000 0.563140 0.262560 K
0.625000 0.563140 0.762560 K
0.125000 0.437300 0.006990 K
0.125000 0.437300 0.506990 K
0.125000 0.937300 0.006990 K
0.125000 0.937300 0.506990 K
0.625000 0.437300 0.006990 K
0.625000 0.437300 0.506990 K
0.625000 0.937300 0.006990 K
0.625000 0.937300 0.506990 K
0.375000 0.062700 0.493010 K
0.375000 0.062700 0.993010 K
0.375000 0.562700 0.493010 K
0.375000 0.562700 0.993010 K
0.875000 0.062700 0.493010 K
0.875000 0.062700 0.993010 K
0.875000 0.562700 0.493010 K
0.875000 0.562700 0.993010 K
0.375000 0.187300 0.243010 K
0.375000 0.187300 0.743010 K
0.375000 0.687300 0.243010 K
0.375000 0.687300 0.743010 K
0.875000 0.187300 0.243010 K
0.875000 0.187300 0.743010 K
0.875000 0.687300 0.243010 K
0.125000 0.312700 0.256990 K
0.125000 0.312700 0.756990 K
0.125000 0.812700 0.256990 K
0.125000 0.812700 0.756990 K
0.625000 0.312700 0.256990 K
0.625000 0.312700 0.756990 K
0.625000 0.812700 0.256990 K
0.625000 0.812700 0.756990 K
0.024600 0.058550 0.050795 F
0.024600 0.058550 0.550795 F
0.024600 0.558550 0.050795 F
0.024600 0.558550 0.550795 F
0.524600 0.058550 0.050795 F
0.524600 0.058550 0.550795 F
0.524600 0.558550 0.050795 F
0.524600 0.558550 0.550795 F
0.475400 0.441450 0.449205 F
0.475400 0.441450 0.949205 F
0.475400 0.941450 0.449205 F
0.475400 0.941450 0.949205 F
0.975400 0.441450 0.449205 F
0.975400 0.441450 0.949205 F
0.975400 0.941450 0.449205 F
0.975400 0.941450 0.949205 F
0.475400 0.308550 0.199205 F
0.475400 0.308550 0.699205 F
0.475400 0.808550 0.199205 F
0.475400 0.808550 0.699205 F
0.975400 0.308550 0.199205 F
0.975400 0.308550 0.699205 F
0.975400 0.808550 0.199205 F
0.975400 0.808550 0.699205 F
0.024600 0.191450 0.300795 F
0.024600 0.191450 0.800795 F
0.024600 0.691450 0.300795 F
0.024600 0.691450 0.800795 F
0.524600 0.191450 0.300795 F
0.524600 0.191450 0.800795 F
0.524600 0.691450 0.300795 F
0.524600 0.691450 0.800795 F
0.274600 0.441450 0.449205 F
0.274600 0.441450 0.949205 F
0.274600 0.941450 0.449205 F
0.274600 0.941450 0.949205 F
0.774600 0.441450 0.449205 F
0.774600 0.441450 0.949205 F
0.774600 0.941450 0.449205 F
0.774600 0.941450 0.949205 F
0.225400 0.058550 0.050795 F
0.225400 0.058550 0.550795 F
0.225400 0.558550 0.050795 F
0.225400 0.558550 0.550795 F
0.725400 0.058550 0.050795 F
0.725400 0.058550 0.550795 F
0.725400 0.558550 0.050795 F
0.725400 0.558550 0.550795 F
0.225400 0.191450 0.300795 F
0.225400 0.191450 0.800795 F
0.225400 0.691450 0.300795 F
0.225400 0.691450 0.800795 F
0.725400 0.191450 0.300795 F
0.725400 0.191450 0.800795 F
0.725400 0.691450 0.300795 F
0.725400 0.691450 0.800795 F
0.274600 0.308550 0.199205 F
0.274600 0.308550 0.699205 F
0.274600 0.808550 0.199205 F
0.274600 0.808550 0.699205 F
0.774600 0.308550 0.199205 F
0.774600 0.308550 0.699205 F
0.774600 0.808550 0.199205 F
0.774600 0.808550 0.699205 F
0.476750 0.066950 0.200835 F
0.476750 0.066950 0.700835 F
0.476750 0.566950 0.200835 F
0.476750 0.566950 0.700835 F
0.976750 0.066950 0.200835 F
0.976750 0.066950 0.700835 F
0.976750 0.566950 0.200835 F
0.976750 0.566950 0.700835 F
0.023250 0.433050 0.299165 F
0.023250 0.433050 0.799165 F
0.023250 0.933050 0.299165 F
0.023250 0.933050 0.799165 F
0.523250 0.433050 0.299165 F
0.523250 0.433050 0.799165 F
0.523250 0.933050 0.299165 F
0.523250 0.933050 0.799165 F
0.023250 0.316950 0.049165 F
0.023250 0.316950 0.549165 F
0.023250 0.816950 0.049165 F
0.023250 0.816950 0.549165 F
0.523250 0.316950 0.049165 F
0.523250 0.316950 0.549165 F
0.523250 0.816950 0.049165 F
0.523250 0.816950 0.549165 F
0.476750 0.183050 0.450835 F
0.476750 0.183050 0.950835 F
0.476750 0.683050 0.450835 F
0.476750 0.683050 0.950835 F
0.976750 0.183050 0.450835 F
0.976750 0.183050 0.950835 F
0.976750 0.683050 0.450835 F
0.976750 0.683050 0.950835 F
0.226750 0.433050 0.299165 F
0.226750 0.433050 0.799165 F
0.226750 0.933050 0.299165 F
0.226750 0.933050 0.799165 F
0.726750 0.433050 0.299165 F
0.726750 0.433050 0.799165 F
0.726750 0.933050 0.299165 F
0.726750 0.933050 0.799165 F
0.273250 0.066950 0.200835 F
0.273250 0.066950 0.700835 F
0.273250 0.566950 0.200835 F
0.273250 0.566950 0.700835 F
0.773250 0.066950 0.200835 F
0.773250 0.066950 0.700835 F
0.773250 0.566950 0.200835 F
0.773250 0.566950 0.700835 F
0.273250 0.183050 0.450835 F
0.273250 0.183050 0.950835 F
0.273250 0.683050 0.450835 F
0.273250 0.683050 0.950835 F
0.773250 0.183050 0.450835 F
0.773250 0.183050 0.950835 F
0.773250 0.683050 0.450835 F
0.773250 0.683050 0.950835 F
0.226750 0.316950 0.049165 F
0.226750 0.316950 0.549165 F
0.226750 0.816950 0.049165 F
0.226750 0.816950 0.549165 F
0.726750 0.316950 0.049165 F
0.726750 0.316950 0.549165 F
0.726750 0.816950 0.049165 F
0.726750 0.816950 0.549165 F
0.375000 0.082700 0.108550 F
0.375000 0.082700 0.608550 F
0.375000 0.582700 0.108550 F
0.375000 0.582700 0.608550 F
0.875000 0.082700 0.108550 F
0.875000 0.082700 0.608550 F
0.875000 0.582700 0.108550 F
0.875000 0.582700 0.608550 F
0.125000 0.417300 0.391450 F
0.125000 0.417300 0.891450 F
0.125000 0.917300 0.391450 F
0.125000 0.917300 0.891450 F
0.625000 0.417300 0.391450 F
0.625000 0.417300 0.891450 F
0.625000 0.917300 0.391450 F
0.625000 0.917300 0.891450 F
0.125000 0.332700 0.141450 F
0.125000 0.332700 0.641450 F
0.125000 0.832700 0.141450 F
0.125000 0.832700 0.641450 F
0.625000 0.332700 0.141450 F
0.625000 0.332700 0.641450 F
0.625000 0.832700 0.141450 F
0.625000 0.832700 0.641450 F
0.375000 0.167300 0.358550 F
0.375000 0.167300 0.858550 F
0.375000 0.667300 0.358550 F
0.375000 0.667300 0.858550 F
0.875000 0.167300 0.358550 F
0.875000 0.167300 0.858550 F
0.875000 0.667300 0.358550 F
0.875000 0.667300 0.858550 F
0.125000 0.042900 0.143510 F
0.125000 0.042900 0.643510 F
0.125000 0.542900 0.143510 F
0.125000 0.542900 0.643510 F
0.625000 0.042900 0.143510 F
0.625000 0.042900 0.643510 F
0.625000 0.542900 0.143510 F
0.625000 0.542900 0.643510 F
0.375000 0.457100 0.356490 F
0.375000 0.457100 0.856490 F
0.375000 0.957100 0.356490 F
0.375000 0.957100 0.856490 F
0.875000 0.457100 0.356490 F
0.875000 0.457100 0.856490 F
0.875000 0.957100 0.356490 F
0.875000 0.957100 0.856490 F
0.375000 0.292900 0.106490 F
0.375000 0.292900 0.606490 F
0.375000 0.792900 0.106490 F
0.375000 0.792900 0.606490 F
0.875000 0.292900 0.106490 F
0.875000 0.292900 0.606490 F
0.875000 0.792900 0.106490 F
0.875000 0.792900 0.606490 F
0.125000 0.207100 0.393510 F
0.125000 0.207100 0.893510 F
0.125000 0.707100 0.393510 F
0.125000 0.707100 0.893510 F
0.625000 0.207100 0.393510 F
0.625000 0.207100 0.893510 F
0.625000 0.707100 0.393510 F
0.625000 0.707100 0.893510 F
0.478000 0.437750 0.126235 F
0.478000 0.437750 0.626235 F
0.478000 0.937750 0.126235 F
0.478000 0.937750 0.626235 F
0.978000 0.437750 0.126235 F
0.978000 0.437750 0.626235 F
0.978000 0.937750 0.126235 F
0.978000 0.937750 0.626235 F
0.022000 0.062250 0.373765 F
0.022000 0.062250 0.873765 F
0.022000 0.562250 0.373765 F
0.022000 0.562250 0.873765 F
0.522000 0.062250 0.373765 F
0.522000 0.062250 0.873765 F
0.522000 0.562250 0.373765 F
0.522000 0.562250 0.873765 F
0.022000 0.187750 0.123765 F
0.022000 0.187750 0.623765 F
0.022000 0.687750 0.123765 F
0.022000 0.687750 0.623765 F
0.522000 0.187750 0.123765 F
0.522000 0.187750 0.623765 F
0.522000 0.687750 0.123765 F
0.522000 0.687750 0.623765 F
0.478000 0.312250 0.376235 F
0.478000 0.312250 0.876235 F
0.478000 0.812250 0.376235 F
0.478000 0.812250 0.876235 F
0.978000 0.312250 0.376235 F
0.978000 0.312250 0.876235 F
0.978000 0.812250 0.376235 F
0.978000 0.812250 0.876235 F
0.228000 0.062250 0.373765 F
0.228000 0.062250 0.873765 F
0.228000 0.562250 0.373765 F
0.228000 0.562250 0.873765 F
0.728000 0.062250 0.373765 F
0.728000 0.062250 0.873765 F
0.728000 0.562250 0.373765 F
0.728000 0.562250 0.873765 F
0.272000 0.437750 0.126235 F
0.272000 0.437750 0.626235 F
0.272000 0.937750 0.126235 F
0.272000 0.937750 0.626235 F
0.772000 0.437750 0.126235 F
0.772000 0.437750 0.626235 F
0.772000 0.937750 0.126235 F
0.772000 0.937750 0.626235 F
0.272000 0.312250 0.376235 F
0.272000 0.312250 0.876235 F
0.272000 0.812250 0.376235 F
0.272000 0.812250 0.876235 F
0.772000 0.312250 0.376235 F
0.772000 0.312250 0.876235 F
0.772000 0.812250 0.376235 F
0.772000 0.812250 0.876235 F
0.228000 0.187750 0.123765 F
0.228000 0.187750 0.623765 F
0.228000 0.687750 0.123765 F
0.228000 0.687750 0.623765 F
0.728000 0.187750 0.123765 F
0.728000 0.187750 0.623765 F
0.728000 0.687750 0.123765 F
0.728000 0.687750 0.623765 F
