Ca1 Fe4 S6 O24                          
   1.00000000000000     
     7.7184580000000000    0.1385550000000000    4.5622949999999998
     2.6560589999999999    7.2504410000000004    4.5894149999999998
     0.1842830000000000    0.1650610000000000    8.9647279999999991
   Ca   Fe   S    O 
     1     4     6    24
Direct
  0.2519361287994961  0.8681710887120995  0.6100263686111664
  0.6623030584320146  0.6334635359822652  0.6477334918446213
  0.1394393158240874  0.1454242258843070  0.1380774209229435
  0.8331554753867639  0.8431341983282636  0.8526041503991078
  0.3622421726566500  0.3481176254453340  0.3512064906838938
  0.9549748055517051  0.2475985372415567  0.5259949762780286
  0.4485071430663362  0.0309249793508536  0.7446752597557634
  0.5429310788109553  0.9621014552069205  0.2442902729869698
  0.7503902071760391  0.4490701709813901  0.0454464836985595
  0.2543474223279115  0.5280005340198255  0.9572473262233617
  0.0515773311851372  0.7450396657409900  0.4538042639383688
  0.4140418258341724  0.5633490385102448  0.7761455160525014
  0.9270999607777287  0.2878989386611610  0.0328333072606912
  0.7967717480914727  0.4046137717267741  0.5802338618366309
  0.0545187872979489  0.9238593254858042  0.2948568561566569
  0.5833587094164242  0.7808773369112292  0.4030869170095179
  0.3125923660727544  0.0290428334815420  0.9332333277730612
  0.6811841338286698  0.9489799676550983  0.0622586538517140
  0.2210155676182351  0.5905287954933102  0.4025184381208673
  0.0902512326799882  0.7049112735581098  0.9298865510117472
  0.3956493041067345  0.2180788744249323  0.6026930038800647
  0.9364386275966173  0.0665768352937051  0.6860739456268953
  0.6032050725516906  0.4062795190137135  0.2284011435095377
  0.9590065049716615  0.2518659984685058  0.3573228582888671
  0.4493537323469872  0.8871812316524283  0.7043217767997728
  0.3499394546542673  0.9960136714143690  0.2644859117792346
  0.6881455291182469  0.5019004925386744  0.8941577297027106
  0.2252200660697223  0.3678586848926323  0.9829453833050222
  0.8807353332196827  0.7162633815722890  0.5054186355483840
  0.1387898870328584  0.2407376644106041  0.4971573095835085
  0.6397995749124257  0.9809602784214363  0.7323096164963776
  0.5373881046229296  0.1133694565880992  0.2716994780676405
  0.7820403770464227  0.6104227230130000  0.0188503800571436
  0.2928616423488477  0.4938356774455061  0.1150638397425122
  0.0500970556490791  0.7539038253623996  0.6179030765896114
 
             NaN             NaN             NaN
             NaN             NaN             NaN
             NaN             NaN             NaN
             NaN             NaN             NaN
             NaN             NaN             NaN
             NaN             NaN             NaN
             NaN             NaN             NaN
             NaN             NaN             NaN
             NaN             NaN             NaN
             NaN             NaN             NaN
             NaN             NaN             NaN
             NaN             NaN             NaN
             NaN             NaN             NaN
             NaN             NaN             NaN
             NaN             NaN             NaN
             NaN             NaN             NaN
             NaN             NaN             NaN
             NaN             NaN             NaN
             NaN             NaN             NaN
             NaN             NaN             NaN
             NaN             NaN             NaN
             NaN             NaN             NaN
             NaN             NaN             NaN
             NaN             NaN             NaN
             NaN             NaN             NaN
             NaN             NaN             NaN
             NaN             NaN             NaN
             NaN             NaN             NaN
             NaN             NaN             NaN
             NaN             NaN             NaN
             NaN             NaN             NaN
             NaN             NaN             NaN
             NaN             NaN             NaN
             NaN             NaN             NaN
             NaN             NaN             NaN
