Ca1 Cr12 F42                            
   1.00000000000000     
     7.2207770000000000   -0.0388960000000000   -0.0284920000000000
    -3.5946039999999999    6.2963610000000001   -0.0375470000000000
     0.0101450000000000   -0.0668940000000000   17.3234850000000016
   Ca   Cr   F 
     1    12    42
Direct
  0.5306337602852185  0.8509831255242302  0.6855725226915059
  0.2946531028418587  0.0021553139053205  0.3331349670504639
  0.7052363905372787  0.6995736726491039  0.0046263737402085
  0.0142017210892629  0.3124043812842736  0.6666249939533772
  0.3410658648732149  0.9956622396541536  0.8422594932626138
  0.6651032731962087  0.6561552570364494  0.4935150571396419
  1.0003173160173695  0.3490867048028722  0.1687953069916022
  0.6642445275285456  0.1582081685794192  0.4952242120123486
  0.4994264865209743  0.3484666651695293  0.1687052041905583
  0.8459063856476816  0.4955300530387350  0.8372536374457370
  0.3437024732881787  0.4897922988270014  0.8422671214236253
  0.1635382127615765  0.6581791061618446  0.4983361905177168
  0.5013638024444957  0.8495589454439679  0.1689359757235536
  0.5520905004022671  0.8055259975450260  0.0638839925197818
  0.2717523615390861  0.4727257739701450  0.7313009378860809
  0.1922568397193172  0.7464188501112063  0.3940474167438012
  0.4276636964604768  0.2574197385188532  0.2729902386922328
  0.8246260549459128  0.5626631729815544  0.9425585181082210
  0.7504143668657395  0.1759554409459281  0.6045330684371578
  0.8745749216045428  0.0700740579385104  0.7263675510598364
  0.1975941656750617  0.1152713674303597  0.3987769367387428
  0.9280256306790615  0.8176768393987037  0.0648470826666692
  0.1405091905847803  0.2129969664195943  0.6056040912150744
  0.0763526391907775  0.8781372941897674  0.2709741384776455
  0.7795062411043452  0.9018282410724975  0.9375156871509819
  0.1474261182313402  0.5828911639491970  0.6080118366074700
  0.4450668745045881  0.8884337214598887  0.2734260033991109
  0.4310853964513627  0.5305120704245426  0.9462967026581631
  0.8735034611228352  0.4336671006905033  0.7312951987116162
  0.5654596114094536  0.1308768225846162  0.3926238459672856
  0.5789708367545046  0.4428668982257560  0.0654816534151568
  0.3686823932320665  0.5686397360840399  0.4792818449511870
  0.2032355956887675  0.6424241418556735  0.1533586474188199
  0.4416569969570291  0.7899400961716186  0.8247878669506656
  0.6354086025133328  0.2056328429691064  0.8575430982632276
  0.5838488006681003  0.3664186983055887  0.5194315640918823
  0.7906290451732930  0.4290174881551144  0.1929598025599649
  0.6980670703041384  0.6150933055446033  0.3952688588579250
  0.9272601230012538  0.3184691372055223  0.0702411069121202
  0.3891118457923799  0.0366072587160509  0.7339006329863923
  0.3015968474100775  0.9413797717457997  0.9418729042887413
  0.6306704299756348  0.7005841601032301  0.5994977773395876
  0.0722928109408967  0.3736890660951080  0.2673925501186569
  0.9591332842719655  0.7462342499670458  0.5178476019808365
  0.7975629227034748  0.0541086195383988  0.1845764127704055
  0.2397601085758322  0.1933176848314503  0.8466012378361932
  0.0527371813637018  0.7846171700284417  0.8166764082477331
  0.7486870459097971  0.9503811858069569  0.4753272914417758
  0.2098534461112914  0.2675166597930011  0.1446116321472196
  0.6223786391173407  0.5538796170942608  0.8056735957250147
  0.9455155622076186  0.3771603124516220  0.4677194381128484
  0.4418203529808706  0.0687074314431756  0.1369396961876002
  0.3917285471344921  0.9339465318226340  0.5341751114213755
  0.5590382898349089  0.6287668854908166  0.2005953580696487
  0.0640662732773481  0.4339882559467199  0.8698969209363284
 
             NaN             NaN             NaN
             NaN             NaN             NaN
             NaN             NaN             NaN
             NaN             NaN             NaN
             NaN             NaN             NaN
             NaN             NaN             NaN
             NaN             NaN             NaN
             NaN             NaN             NaN
             NaN             NaN             NaN
             NaN             NaN             NaN
             NaN             NaN             NaN
             NaN             NaN             NaN
             NaN             NaN             NaN
             NaN             NaN             NaN
             NaN             NaN             NaN
             NaN             NaN             NaN
             NaN             NaN             NaN
             NaN             NaN             NaN
             NaN             NaN             NaN
             NaN             NaN             NaN
             NaN             NaN             NaN
             NaN             NaN             NaN
             NaN             NaN             NaN
             NaN             NaN             NaN
             NaN             NaN             NaN
             NaN             NaN             NaN
             NaN             NaN             NaN
             NaN             NaN             NaN
             NaN             NaN             NaN
             NaN             NaN             NaN
             NaN             NaN             NaN
             NaN             NaN             NaN
             NaN             NaN             NaN
             NaN             NaN             NaN
             NaN             NaN             NaN
             NaN             NaN             NaN
             NaN             NaN             NaN
             NaN             NaN             NaN
             NaN             NaN             NaN
             NaN             NaN             NaN
             NaN             NaN             NaN
             NaN             NaN             NaN
             NaN             NaN             NaN
             NaN             NaN             NaN
             NaN             NaN             NaN
             NaN             NaN             NaN
             NaN             NaN             NaN
             NaN             NaN             NaN
             NaN             NaN             NaN
             NaN             NaN             NaN
             NaN             NaN             NaN
             NaN             NaN             NaN
             NaN             NaN             NaN
             NaN             NaN             NaN
             NaN             NaN             NaN
