Ca1 Cr12 F42
1.0
7.220777 -0.038896 -0.028492
-3.594604 6.296361 -0.037547
0.010145 -0.066894 17.323485
Ca Cr F
1 12 42
direct
0.544571 0.867211 0.695099 Ca
0.283863 0.001447 0.331459 Cr
0.712954 0.707176 0.003944 Cr
0.006628 0.299504 0.664826 Cr
0.350334 0.995123 0.840641 Cr
0.653270 0.648689 0.493115 Cr
0.997450 0.355718 0.167166 Cr
0.654411 0.152184 0.493596 Cr
0.495661 0.353316 0.167408 Cr
0.852613 0.495631 0.836820 Cr
0.349991 0.489296 0.839279 Cr
0.152230 0.650890 0.496545 Cr
0.499094 0.855177 0.167110 Cr
0.570686 0.825597 0.063178 F
0.264358 0.443712 0.729818 F
0.173158 0.745089 0.393116 F
0.428768 0.258215 0.271717 F
0.822760 0.559292 0.941797 F
0.743156 0.181168 0.602482 F
0.855032 0.055721 0.722166 F
0.196267 0.122157 0.397770 F
0.931804 0.810457 0.066445 F
0.121413 0.192448 0.601825 F
0.063257 0.886654 0.269907 F
0.808361 0.918303 0.938368 F
0.144712 0.571541 0.606073 F
0.422796 0.878737 0.270355 F
0.444023 0.558620 0.942419 F
0.884415 0.436422 0.731016 F
0.555253 0.117247 0.390867 F
0.567068 0.446990 0.063583 F
0.359518 0.566473 0.473650 F
0.205916 0.645465 0.144474 F
0.440584 0.784885 0.814365 F
0.647328 0.201590 0.855256 F
0.566809 0.356389 0.515538 F
0.790508 0.440882 0.188342 F
0.695108 0.613599 0.395145 F
0.918850 0.311666 0.069008 F
0.387064 0.050357 0.733528 F
0.318708 0.924404 0.939253 F
0.610317 0.687498 0.597682 F
0.076145 0.397851 0.265249 F
0.944561 0.731841 0.520701 F
0.790514 0.064244 0.189562 F
0.254429 0.196244 0.856087 F
0.056712 0.788162 0.817601 F
0.741537 0.944586 0.476971 F
0.202695 0.267039 0.146357 F
0.628857 0.551940 0.804492 F
0.934167 0.370592 0.464691 F
0.439983 0.074781 0.134979 F
0.382265 0.926304 0.533741 F
0.554760 0.633317 0.199486 F
0.070669 0.432889 0.868691 F
