Na48 Ti72 O168
1.0
  25.6385736464999994    0.0000000000000000    0.0000000000000000
   0.0000000000000000    7.5832962989999997    0.0000000000000000
  -3.7620017473999998    0.0000000000000000   17.8832125242000011
Na Ti O
47 72 168
direct
   0.5001111230000000    0.6250000000000000    0.4207839370000000 Na
   0.1667777896666667    0.1250000000000000    0.4207839370000000 Na
   0.1667777896666667    0.1250000000000000    0.9207839370000001 Na
   0.1667777896666667    0.6250000000000000    0.4207839370000000 Na
   0.1667777896666667    0.6250000000000000    0.9207839370000001 Na
   0.5001111230000000    0.1250000000000000    0.9207839370000001 Na
   0.5001111230000000    0.6250000000000000    0.9207839370000001 Na
   0.8334444563333334    0.1250000000000000    0.4207839370000000 Na
   0.8334444563333334    0.1250000000000000    0.9207839370000001 Na
   0.8334444563333334    0.6250000000000000    0.4207839370000000 Na
   0.8334444563333334    0.6250000000000000    0.9207839370000001 Na
   0.1665555436666667    0.3750000000000000    0.0792160555000000 Na
   0.1665555436666667    0.3750000000000000    0.5792160555000000 Na
   0.1665555436666667    0.8749999999999999    0.0792160555000000 Na
   0.1665555436666667    0.8749999999999999    0.5792160555000000 Na
   0.4998888770000001    0.3750000000000000    0.0792160555000000 Na
   0.4998888770000001    0.3750000000000000    0.5792160555000000 Na
   0.4998888770000001    0.8749999999999999    0.0792160555000000 Na
   0.4998888770000001    0.8749999999999999    0.5792160555000000 Na
   0.8332222103333333    0.3750000000000000    0.0792160555000000 Na
   0.8332222103333333    0.3750000000000000    0.5792160555000000 Na
   0.8332222103333333    0.8749999999999999    0.0792160555000000 Na
   0.8332222103333333    0.8749999999999999    0.5792160555000000 Na
   0.1057655116666667    0.1250000000000000    0.2053189875000000 Na
   0.1057655116666667    0.1250000000000000    0.7053189875000000 Na
   0.1057655116666667    0.6250000000000000    0.2053189875000000 Na
   0.1057655116666667    0.6250000000000000    0.7053189875000000 Na
   0.4390988450000000    0.1250000000000000    0.2053189875000000 Na
   0.4390988450000000    0.1250000000000000    0.7053189875000000 Na
   0.4390988450000000    0.6250000000000000    0.2053189875000000 Na
   0.4390988450000000    0.6250000000000000    0.7053189875000000 Na
   0.7724321783333333    0.1250000000000000    0.2053189875000000 Na
   0.7724321783333333    0.1250000000000000    0.7053189875000000 Na
   0.7724321783333333    0.6250000000000000    0.2053189875000000 Na
   0.7724321783333333    0.6250000000000000    0.7053189875000000 Na
   0.2275678316666667    0.3750000000000000    0.2946810125000000 Na
   0.2275678316666667    0.3750000000000000    0.7946810125000000 Na
   0.2275678316666667    0.8749999999999999    0.2946810125000000 Na
   0.2275678316666667    0.8749999999999999    0.7946810125000000 Na
   0.5609011650000001    0.3750000000000000    0.2946810125000000 Na
   0.5609011650000001    0.3750000000000000    0.7946810125000000 Na
   0.5609011650000001    0.8749999999999999    0.2946810125000000 Na
   0.5609011650000001    0.8749999999999999    0.7946810125000000 Na
   0.8942344983333335    0.3750000000000000    0.2946810125000000 Na
   0.8942344983333333    0.3750000000000000    0.7946810125000000 Na
   0.8942344983333335    0.8749999999999999    0.2946810125000000 Na
   0.8942344983333333    0.8749999999999999    0.7946810125000000 Na
   0.3231911856666667    0.1250000000000000    0.3602633474999999 Ti
   0.3231911856666667    0.1250000000000000    0.8602633475000000 Ti
   0.3231911856666667    0.6250000000000000    0.3602633474999999 Ti
   0.3231911856666667    0.6250000000000000    0.8602633475000000 Ti
   0.6565245190000000    0.1250000000000000    0.3602633474999999 Ti
   0.6565245190000001    0.1250000000000000    0.8602633475000000 Ti
   0.6565245190000000    0.6250000000000000    0.3602633474999999 Ti
   0.6565245190000001    0.6250000000000000    0.8602633475000000 Ti
   0.9898578523333333    0.1250000000000000    0.3602633474999999 Ti
   0.9898578523333333    0.1250000000000000    0.8602633475000000 Ti
   0.9898578523333333    0.6250000000000000    0.3602633474999999 Ti
   0.9898578523333333    0.6250000000000000    0.8602633475000000 Ti
   0.0101421570000000    0.3750000000000000    0.1397366675000000 Ti
   0.0101421570000000    0.3750000000000000    0.6397366675000000 Ti
   0.0101421570000000    0.8749999999999999    0.1397366675000000 Ti
   0.0101421570000000    0.8749999999999999    0.6397366675000000 Ti
   0.3434754903333333    0.3750000000000000    0.1397366675000000 Ti
   0.3434754903333334    0.3750000000000000    0.6397366675000000 Ti
   0.3434754903333333    0.8749999999999999    0.1397366675000000 Ti
   0.3434754903333334    0.8749999999999999    0.6397366675000000 Ti
   0.6768088236666665    0.3750000000000000    0.1397366675000000 Ti
   0.6768088236666666    0.3750000000000000    0.6397366675000000 Ti
   0.6768088236666665    0.8749999999999999    0.1397366675000000 Ti
   0.6768088236666666    0.8749999999999999    0.6397366675000000 Ti
   0.2500711480000000    0.1250000000000000    0.1619228275000000 Ti
   0.2500711480000000    0.1250000000000000    0.6619228275000000 Ti
   0.2500711480000000    0.6250000000000000    0.1619228275000000 Ti
   0.2500711480000000    0.6250000000000000    0.6619228275000000 Ti
   0.5834044813333333    0.1250000000000000    0.1619228275000000 Ti
   0.5834044813333333    0.1250000000000000    0.6619228275000000 Ti
   0.5834044813333333    0.6250000000000000    0.1619228275000000 Ti
   0.5834044813333333    0.6250000000000000    0.6619228275000000 Ti
   0.9167378146666667    0.1250000000000000    0.1619228275000000 Ti
   0.9167378146666667    0.1250000000000000    0.6619228275000000 Ti
   0.9167378146666667    0.6250000000000000    0.1619228275000000 Ti
   0.9167378146666667    0.6250000000000000    0.6619228275000000 Ti
   0.0832621803333333    0.3750000000000000    0.3380771875000000 Ti
   0.0832621803333333    0.3750000000000000    0.8380771874999999 Ti
   0.0832621803333333    0.8749999999999999    0.3380771875000000 Ti
   0.0832621803333333    0.8749999999999999    0.8380771874999999 Ti
   0.4165955136666666    0.3750000000000000    0.3380771875000000 Ti
   0.4165955136666666    0.3750000000000000    0.8380771874999999 Ti
   0.4165955136666666    0.8749999999999999    0.3380771875000000 Ti
   0.4165955136666666    0.8749999999999999    0.8380771874999999 Ti
   0.7499288470000000    0.3750000000000000    0.3380771875000000 Ti
   0.7499288470000001    0.3750000000000000    0.8380771874999999 Ti
   0.7499288470000000    0.8749999999999999    0.3380771875000000 Ti
   0.7499288470000001    0.8749999999999999    0.8380771874999999 Ti
   0.2841143606666667    0.1250000000000000    0.0074299400000000 Ti
   0.2841143606666667    0.1250000000000000    0.5074299400000000 Ti
   0.2841143606666667    0.6250000000000000    0.0074299400000000 Ti
   0.2841143606666667    0.6250000000000000    0.5074299400000000 Ti
   0.6174476940000001    0.1250000000000000    0.0074299400000000 Ti
   0.6174476940000000    0.1250000000000000    0.5074299400000000 Ti
   0.6174476940000001    0.6250000000000000    0.0074299400000000 Ti
   0.6174476940000000    0.6250000000000000    0.5074299400000000 Ti
   0.9507810273333334    0.1250000000000000    0.0074299400000000 Ti
   0.9507810273333334    0.1250000000000000    0.5074299400000000 Ti
   0.9507810273333334    0.6250000000000000    0.0074299400000000 Ti
   0.9507810273333334    0.6250000000000000    0.5074299400000000 Ti
   0.0492189676666667    0.3750000000000000    0.4925700725000000 Ti
   0.0492189676666667    0.3750000000000000    0.9925700725000001 Ti
   0.0492189676666667    0.8749999999999999    0.4925700725000000 Ti
   0.0492189676666667    0.8749999999999999    0.9925700725000001 Ti
   0.3825523010000000    0.3750000000000000    0.4925700725000000 Ti
   0.3825523010000000    0.3750000000000000    0.9925700725000001 Ti
   0.3825523010000000    0.8749999999999999    0.4925700725000000 Ti
   0.3825523010000000    0.8749999999999999    0.9925700725000001 Ti
   0.7158856343333333    0.3750000000000000    0.4925700725000000 Ti
   0.7158856343333333    0.3750000000000000    0.9925700725000001 Ti
   0.7158856343333333    0.8749999999999999    0.4925700725000000 Ti
   0.7158856343333333    0.8749999999999999    0.9925700725000001 Ti
   0.0282908776666667    0.1250000000000000    0.4781965315000000 O
   0.0282908776666667    0.1250000000000000    0.9781965315000001 O
   0.0282908776666667    0.6250000000000000    0.4781965315000000 O
   0.0282908776666667    0.6250000000000000    0.9781965315000001 O
   0.3616242110000000    0.1250000000000000    0.4781965315000000 O
   0.3616242110000000    0.1250000000000000    0.9781965315000001 O
   0.3616242110000000    0.6250000000000000    0.4781965315000000 O
   0.3616242110000000    0.6250000000000000    0.9781965315000001 O
   0.6949575443333332    0.1250000000000000    0.4781965315000000 O
   0.6949575443333333    0.1250000000000000    0.9781965315000001 O
   0.6949575443333332    0.6250000000000000    0.4781965315000000 O
   0.6949575443333333    0.6250000000000000    0.9781965315000001 O
   0.3050424656666667    0.3750000000000000    0.0218034645000000 O
   0.3050424656666667    0.3750000000000000    0.5218034644999999 O
   0.3050424656666667    0.8749999999999999    0.0218034645000000 O
   0.3050424656666667    0.8749999999999999    0.5218034644999999 O
   0.6383757990000001    0.3750000000000000    0.0218034645000000 O
   0.6383757990000001    0.3750000000000000    0.5218034644999999 O
   0.6383757990000001    0.8749999999999999    0.0218034645000000 O
   0.6383757990000001    0.8749999999999999    0.5218034644999999 O
   0.9717091323333334    0.3750000000000000    0.0218034645000000 O
   0.9717091323333333    0.3750000000000000    0.5218034644999999 O
   0.9717091323333334    0.8749999999999999    0.0218034645000000 O
   0.9717091323333333    0.8749999999999999    0.5218034644999999 O
   0.0656328796666667    0.1250000000000000    0.3419232665000000 O
   0.0656328796666667    0.1250000000000000    0.8419232664999999 O
   0.0656328796666667    0.6250000000000000    0.3419232665000000 O
   0.0656328796666667    0.6250000000000000    0.8419232664999999 O
   0.3989662130000000    0.1250000000000000    0.3419232665000000 O
   0.3989662130000000    0.1250000000000000    0.8419232664999999 O
   0.3989662130000000    0.6250000000000000    0.3419232665000000 O
   0.3989662130000000    0.6250000000000000    0.8419232664999999 O
   0.7322995463333334    0.1250000000000000    0.3419232665000000 O
   0.7322995463333333    0.1250000000000000    0.8419232664999999 O
   0.7322995463333334    0.6250000000000000    0.3419232665000000 O
   0.7322995463333333    0.6250000000000000    0.8419232664999999 O
   0.2677004536666667    0.3750000000000000    0.1580767335000000 O
   0.2677004536666667    0.3750000000000000    0.6580767335000000 O
   0.2677004536666667    0.8749999999999999    0.1580767335000000 O
   0.2677004536666667    0.8749999999999999    0.6580767335000000 O
   0.6010337870000000    0.3750000000000000    0.1580767335000000 O
   0.6010337870000000    0.3750000000000000    0.6580767335000000 O
   0.6010337870000000    0.8749999999999999    0.1580767335000000 O
   0.6010337870000000    0.8749999999999999    0.6580767335000000 O
   0.9343671203333332    0.3750000000000000    0.1580767335000000 O
   0.9343671203333334    0.3750000000000000    0.6580767335000000 O
   0.9343671203333332    0.8749999999999999    0.1580767335000000 O
   0.9343671203333334    0.8749999999999999    0.6580767335000000 O
   0.3282360433333334    0.1250000000000000    0.1230914815000000 O
   0.3282360433333334    0.1250000000000000    0.6230914815000000 O
   0.3282360433333334    0.6250000000000000    0.1230914815000000 O
   0.3282360433333334    0.6250000000000000    0.6230914815000000 O
   0.6615693766666667    0.1250000000000000    0.1230914815000000 O
   0.6615693766666667    0.1250000000000000    0.6230914815000000 O
   0.6615693766666667    0.6250000000000000    0.1230914815000000 O
   0.6615693766666667    0.6250000000000000    0.6230914815000000 O
   0.9949027100000000    0.1250000000000000    0.1230914815000000 O
   0.9949027100000001    0.1250000000000000    0.6230914815000000 O
   0.9949027100000000    0.6250000000000000    0.1230914815000000 O
   0.9949027100000001    0.6250000000000000    0.6230914815000000 O
   0.0050972833333333    0.3750000000000000    0.3769085110000000 O
   0.0050972833333333    0.3750000000000000    0.8769085110000000 O
   0.0050972833333333    0.8749999999999999    0.3769085110000000 O
   0.0050972833333333    0.8749999999999999    0.8769085110000000 O
   0.3384306166666667    0.3750000000000000    0.3769085110000000 O
   0.3384306166666666    0.3750000000000000    0.8769085110000000 O
   0.3384306166666667    0.8749999999999999    0.3769085110000000 O
   0.3384306166666666    0.8749999999999999    0.8769085110000000 O
   0.6717639500000000    0.3750000000000000    0.3769085110000000 O
   0.6717639499999999    0.3750000000000000    0.8769085110000000 O
   0.6717639500000000    0.8749999999999999    0.3769085110000000 O
   0.6717639499999999    0.8749999999999999    0.8769085110000000 O
   0.2243441143333334    0.1250000000000000    0.0452617815000000 O
   0.2243441143333334    0.1250000000000000    0.5452617814999999 O
   0.2243441143333334    0.6250000000000000    0.0452617815000000 O
   0.2243441143333334    0.6250000000000000    0.5452617814999999 O
   0.5576774476666667    0.1250000000000000    0.0452617815000000 O
   0.5576774476666667    0.1250000000000000    0.5452617814999999 O
   0.5576774476666667    0.6250000000000000    0.0452617815000000 O
   0.5576774476666667    0.6250000000000000    0.5452617814999999 O
   0.8910107810000000    0.1250000000000000    0.0452617815000000 O
   0.8910107810000001    0.1250000000000000    0.5452617814999999 O
   0.8910107810000000    0.6250000000000000    0.0452617815000000 O
   0.8910107810000001    0.6250000000000000    0.5452617814999999 O
   0.1089892090000000    0.3750000000000000    0.4547382295000000 O
   0.1089892090000000    0.3750000000000000    0.9547382295000000 O
   0.1089892090000000    0.8749999999999999    0.4547382295000000 O
   0.1089892090000000    0.8749999999999999    0.9547382295000000 O
   0.4423225423333333    0.3750000000000000    0.4547382295000000 O
   0.4423225423333333    0.3750000000000000    0.9547382295000000 O
   0.4423225423333333    0.8749999999999999    0.4547382295000000 O
   0.4423225423333333    0.8749999999999999    0.9547382295000000 O
   0.7756558756666667    0.3750000000000000    0.4547382295000000 O
   0.7756558756666666    0.3750000000000000    0.9547382295000000 O
   0.7756558756666667    0.8749999999999999    0.4547382295000000 O
   0.7756558756666666    0.8749999999999999    0.9547382295000000 O
   0.1845857900000001    0.1250000000000000    0.1728288980000000 O
   0.1845857900000001    0.1250000000000000    0.6728288980000000 O
   0.1845857900000001    0.6250000000000000    0.1728288980000000 O
   0.1845857900000001    0.6250000000000000    0.6728288980000000 O
   0.5179191233333333    0.1250000000000000    0.1728288980000000 O
   0.5179191233333333    0.1250000000000000    0.6728288980000000 O
   0.5179191233333333    0.6250000000000000    0.1728288980000000 O
   0.5179191233333333    0.6250000000000000    0.6728288980000000 O
   0.8512524566666666    0.1250000000000000    0.1728288980000000 O
   0.8512524566666666    0.1250000000000000    0.6728288980000000 O
   0.8512524566666666    0.6250000000000000    0.1728288980000000 O
   0.8512524566666666    0.6250000000000000    0.6728288980000000 O
   0.1487475533333334    0.3750000000000000    0.3271711170000000 O
   0.1487475533333334    0.3750000000000000    0.8271711169999999 O
   0.1487475533333334    0.8749999999999999    0.3271711170000000 O
   0.1487475533333334    0.8749999999999999    0.8271711169999999 O
   0.4820808866666667    0.3750000000000000    0.3271711170000000 O
   0.4820808866666667    0.3750000000000000    0.8271711169999999 O
   0.4820808866666667    0.8749999999999999    0.3271711170000000 O
   0.4820808866666667    0.8749999999999999    0.8271711169999999 O
   0.8154142200000000    0.3750000000000000    0.3271711170000000 O
   0.8154142200000000    0.3750000000000000    0.8271711169999999 O
   0.8154142200000000    0.8749999999999999    0.3271711170000000 O
   0.8154142200000000    0.8749999999999999    0.8271711169999999 O
   0.0733444143333333    0.3750000000000000    0.0943624525000000 O
   0.0733444143333333    0.3750000000000000    0.5943624525000000 O
   0.0733444143333333    0.8749999999999999    0.0943624525000000 O
   0.0733444143333333    0.8749999999999999    0.5943624525000000 O
   0.4066777476666666    0.3750000000000000    0.0943624525000000 O
   0.4066777476666666    0.3750000000000000    0.5943624525000000 O
   0.4066777476666666    0.8749999999999999    0.0943624525000000 O
   0.4066777476666666    0.8749999999999999    0.5943624525000000 O
   0.7400110810000000    0.3750000000000000    0.0943624525000000 O
   0.7400110810000000    0.3750000000000000    0.5943624525000000 O
   0.7400110810000000    0.8749999999999999    0.0943624525000000 O
   0.7400110810000000    0.8749999999999999    0.5943624525000000 O
   0.2599889240000000    0.1250000000000000    0.4056375325000000 O
   0.2599889240000001    0.1250000000000000    0.9056375325000000 O
   0.2599889240000000    0.6250000000000000    0.4056375325000000 O
   0.2599889240000001    0.6250000000000000    0.9056375325000000 O
   0.5933222573333333    0.1250000000000000    0.4056375325000000 O
   0.5933222573333333    0.1250000000000000    0.9056375325000000 O
   0.5933222573333333    0.6250000000000000    0.4056375325000000 O
   0.5933222573333333    0.6250000000000000    0.9056375325000000 O
   0.9266555906666666    0.1250000000000000    0.4056375325000000 O
   0.9266555906666668    0.1250000000000000    0.9056375325000000 O
   0.9266555906666666    0.6250000000000000    0.4056375325000000 O
   0.9266555906666668    0.6250000000000000    0.9056375325000000 O
   0.0500484606666667    0.3750000000000000    0.2315230220000000 O
   0.0500484606666667    0.3750000000000000    0.7315230220000000 O
   0.0500484606666667    0.8749999999999999    0.2315230220000000 O
   0.0500484606666667    0.8749999999999999    0.7315230220000000 O
   0.3833817940000000    0.3750000000000000    0.2315230220000000 O
   0.3833817939999999    0.3750000000000000    0.7315230220000000 O
   0.3833817940000000    0.8749999999999999    0.2315230220000000 O
   0.3833817939999999    0.8749999999999999    0.7315230220000000 O
   0.7167151273333334    0.3750000000000000    0.2315230220000000 O
   0.7167151273333333    0.3750000000000000    0.7315230220000000 O
   0.7167151273333334    0.8749999999999999    0.2315230220000000 O
   0.7167151273333333    0.8749999999999999    0.7315230220000000 O
   0.2832848826666667    0.1250000000000000    0.2684769930000000 O
   0.2832848826666667    0.1250000000000000    0.7684769930000001 O
   0.2832848826666667    0.6250000000000000    0.2684769930000000 O
   0.2832848826666667    0.6250000000000000    0.7684769930000001 O
   0.6166182160000000    0.1250000000000000    0.2684769930000000 O
   0.6166182160000001    0.1250000000000000    0.7684769930000001 O
   0.6166182160000000    0.6250000000000000    0.2684769930000000 O
   0.6166182160000001    0.6250000000000000    0.7684769930000001 O
   0.9499515493333333    0.1250000000000000    0.2684769930000000 O
   0.9499515493333335    0.1250000000000000    0.7684769930000001 O
   0.9499515493333333    0.6250000000000000    0.2684769930000000 O
   0.9499515493333335    0.6250000000000000    0.7684769930000001 O
