Li16 Sc16 Ge16 O64
1.0
  10.0482120514000002    0.0000000000000000    0.0000000000000000
   0.0000000000000000   12.1141557693999999    0.0000000000000000
   0.0000000000000000    0.0000000000000000   10.7711076735999995
Li Sc Ge O
15 16 16 64
direct
   0.7500000000000000    0.5000000000000000    0.5000000000000000 Li
   0.0000000000000000    0.0000000000000000    0.0000000000000000 Li
   0.0000000000000000    0.5000000000000000    0.0000000000000000 Li
   0.5000000000000000    0.0000000000000000    0.0000000000000000 Li
   0.5000000000000000    0.5000000000000000    0.0000000000000000 Li
   0.0000000000000000    0.2500000000000000    0.0000000000000000 Li
   0.0000000000000000    0.7500000000000000    0.0000000000000000 Li
   0.5000000000000000    0.2500000000000000    0.0000000000000000 Li
   0.5000000000000000    0.7500000000000000    0.0000000000000000 Li
   0.2500000000000000    0.0000000000000000    0.5000000000000000 Li
   0.2500000000000000    0.5000000000000000    0.5000000000000000 Li
   0.7500000000000000    0.0000000000000000    0.5000000000000000 Li
   0.2500000000000000    0.2500000000000000    0.5000000000000000 Li
   0.2500000000000000    0.7500000000000000    0.5000000000000000 Li
   0.7500000000000000    0.2500000000000000    0.5000000000000000 Li
   0.4981204865000000    0.3750000000000000    0.7281550170000000 Sc
   0.4981204865000000    0.8750000000000001    0.7281550170000000 Sc
   0.9981204865000000    0.3750000000000000    0.7281550170000000 Sc
   0.9981204865000000    0.8750000000000001    0.7281550170000000 Sc
   0.2481205015000000    0.1250000000000000    0.7718449830000000 Sc
   0.2481205015000000    0.6250000000000000    0.7718449830000000 Sc
   0.7481205015000000    0.1250000000000000    0.7718449830000000 Sc
   0.7481205015000000    0.6250000000000000    0.7718449830000000 Sc
   0.0018795000000000    0.1250000000000000    0.2718450130000000 Sc
   0.0018795000000000    0.6250000000000000    0.2718450130000000 Sc
   0.5018795000000000    0.1250000000000000    0.2718450130000000 Sc
   0.5018795000000000    0.6250000000000000    0.2718450130000000 Sc
   0.2518795135000000    0.3750000000000000    0.2281550020000000 Sc
   0.2518795135000000    0.8750000000000001    0.2281550020000000 Sc
   0.7518795135000000    0.3750000000000000    0.2281550020000000 Sc
   0.7518795135000000    0.8750000000000001    0.2281550020000000 Sc
   0.2751534880000000    0.3750000000000000    0.9099320170000001 Ge
   0.2751534880000000    0.8750000000000001    0.9099320170000001 Ge
   0.7751534880000001    0.3750000000000000    0.9099320170000001 Ge
   0.7751534880000001    0.8750000000000001    0.9099320170000001 Ge
   0.0251534990000000    0.1250000000000000    0.5900679830000000 Ge
   0.0251534990000000    0.6250000000000000    0.5900679830000000 Ge
   0.5251534990000001    0.1250000000000000    0.5900679830000000 Ge
   0.5251534990000001    0.6250000000000000    0.5900679830000000 Ge
   0.2248464970000000    0.1250000000000000    0.0900679980000000 Ge
   0.2248464970000000    0.6250000000000000    0.0900679980000000 Ge
   0.7248464970000000    0.1250000000000000    0.0900679980000000 Ge
   0.7248464970000000    0.6250000000000000    0.0900679980000000 Ge
   0.4748465120000000    0.3750000000000000    0.4099319880000000 Ge
   0.4748465120000000    0.8750000000000001    0.4099319880000000 Ge
   0.9748465120000001    0.3750000000000000    0.4099319880000000 Ge
   0.9748465120000001    0.8750000000000001    0.4099319880000000 Ge
   0.1018145010000000    0.3750000000000000    0.9028499719999999 O
   0.1018145010000000    0.8750000000000001    0.9028499719999999 O
   0.6018145010000000    0.3750000000000000    0.9028499719999999 O
   0.6018145010000000    0.8750000000000001    0.9028499719999999 O
   0.3518145085000001    0.1250000000000000    0.5971500280000001 O
   0.3518145085000001    0.6250000000000000    0.5971500280000001 O
   0.8518145085000001    0.1250000000000000    0.5971500280000001 O
   0.8518145085000001    0.6250000000000000    0.5971500280000001 O
   0.3981854915000000    0.1250000000000000    0.0971499980000000 O
   0.3981854915000000    0.6250000000000000    0.0971499980000000 O
   0.8981854915000000    0.1250000000000000    0.0971499980000000 O
   0.8981854915000000    0.6250000000000000    0.0971499980000000 O
   0.1481855065000000    0.3750000000000000    0.4028500019999999 O
   0.1481855065000000    0.8750000000000001    0.4028500019999999 O
   0.6481855065000001    0.3750000000000000    0.4028500019999999 O
   0.6481855065000001    0.8750000000000001    0.4028500019999999 O
   0.4002369940000001    0.3750000000000000    0.5581210260000000 O
   0.4002369940000001    0.8750000000000001    0.5581210260000000 O
   0.9002369940000002    0.3750000000000000    0.5581210260000000 O
   0.9002369940000002    0.8750000000000001    0.5581210260000000 O
   0.1502369940000000    0.1250000000000000    0.9418789740000000 O
   0.1502369940000000    0.6250000000000000    0.9418789740000000 O
   0.6502369940000000    0.1250000000000000    0.9418789740000000 O
   0.6502369940000000    0.6250000000000000    0.9418789740000000 O
   0.0997629985000000    0.1250000000000000    0.4418790040000000 O
   0.0997629985000000    0.6250000000000000    0.4418790040000000 O
   0.5997629985000000    0.1250000000000000    0.4418790040000000 O
   0.5997629985000000    0.6250000000000000    0.4418790040000000 O
   0.3497630060000000    0.3750000000000000    0.0581209990000000 O
   0.3497630060000000    0.8750000000000001    0.0581209990000000 O
   0.8497630060000001    0.3750000000000000    0.0581209990000000 O
   0.8497630060000001    0.8750000000000001    0.0581209990000000 O
   0.3574689925000000    0.4851169885000001    0.8268790250000000 O
   0.3574689925000000    0.9851169885000002    0.8268790250000000 O
   0.8574689925000001    0.4851169885000001    0.8268790250000000 O
   0.8574689925000001    0.9851169885000002    0.8268790250000000 O
   0.1074690000000000    0.0148830005000000    0.6731209750000000 O
   0.1074690000000000    0.5148830005000000    0.6731209750000000 O
   0.6074690000000000    0.0148830005000000    0.6731209750000000 O
   0.6074690000000000    0.5148830005000000    0.6731209750000000 O
   0.1425309925000000    0.2351170035000000    0.1731210050000000 O
   0.1425309925000000    0.7351170035000000    0.1731210050000000 O
   0.6425309925000001    0.2351170035000000    0.1731210050000000 O
   0.6425309925000001    0.7351170035000000    0.1731210050000000 O
   0.3925310075000000    0.2648830115000000    0.3268789950000000 O
   0.3925310075000000    0.7648830115000000    0.3268789950000000 O
   0.8925310075000000    0.2648830115000000    0.3268789950000000 O
   0.8925310075000000    0.7648830115000000    0.3268789950000000 O
   0.1425309925000000    0.0148830005000000    0.1731210050000000 O
   0.1425309925000000    0.5148830005000000    0.1731210050000000 O
   0.6425309925000001    0.0148830005000000    0.1731210050000000 O
   0.6425309925000001    0.5148830005000000    0.1731210050000000 O
   0.3925310075000000    0.4851169885000001    0.3268789950000000 O
   0.3925310075000000    0.9851169885000002    0.3268789950000000 O
   0.8925310075000000    0.4851169885000001    0.3268789950000000 O
   0.8925310075000000    0.9851169885000002    0.3268789950000000 O
   0.3574689925000000    0.2648830115000000    0.8268790250000000 O
   0.3574689925000000    0.7648830115000000    0.8268790250000000 O
   0.8574689925000001    0.2648830115000000    0.8268790250000000 O
   0.8574689925000001    0.7648830115000000    0.8268790250000000 O
   0.1074690000000000    0.2351170035000000    0.6731209750000000 O
   0.1074690000000000    0.7351170035000000    0.6731209750000000 O
   0.6074690000000000    0.2351170035000000    0.6731209750000000 O
   0.6074690000000000    0.7351170035000000    0.6731209750000000 O
