Mg8 Sc16 Te32                           
   1.00000000000000     
    12.1541305801606327    0.0000005253704204   -0.0000005275815949
     0.0000005246423001   12.1541337165661982    0.0000012526022368
    -0.0000005293676749    0.0000012517765062   12.1541341521737056
   Mg   Sc   Te
     7    16    32
Direct
   0.2500000116646390    0.7499999939009783    0.7500000094543182 Mg
  0.2500000119014274  0.2499999962475101  0.2500000117118546
  0.4999999942110591  0.0000000045578332  0.4999999870801588
  0.7500000105491154  0.2499999967151254  0.7500000090459267
  0.9999999934601789  0.0000000026735734  0.9999999967015398
  0.7500000138432554  0.7499999986057162  0.2500000115146435
  0.9999999967753936  0.5000000001001155  0.4999999911093624
  0.1250005212569505  0.8749993970674197  0.3749994116158817
  0.3749994278230062  0.1250005694423706  0.8749994483243455
  0.3749994771840832  0.3749994000985808  0.6250005657318525
  0.1250005406200145  0.1250006097993435  0.6250006115259410
  0.1250005535745942  0.3749994587439360  0.8749994677322590
  0.3749993874415551  0.6250005875807858  0.3749994214754366
  0.3749994231955753  0.8749993898293411  0.1250005466087742
  0.1250005877192635  0.6250006433703845  0.1250005648949326
  0.6250005694550680  0.8749993898486252  0.8749994117964945
  0.8749994360642788  0.1250006197253128  0.3749994221579414
  0.8749993993623946  0.3749994132726897  0.1250005611163871
  0.6250005725642325  0.1250005759640942  0.1250005607496192
  0.6250005768126954  0.3749994272638659  0.3749994122096325
  0.8749994185649328  0.6250005748424314  0.8749993806737635
  0.8749994346945371  0.8749994331639996  0.6250005846205298
  0.6250005562232772  0.6250005634261484  0.6250005704624471
  0.3827574992528682  0.1172425840454139  0.1172426644144053
  0.6172425670812345  0.3827574977203767  0.6172425889509157
  0.6172426639042286  0.1172425849926597  0.8827575062834114
  0.3827574236891422  0.3827573057438869  0.3827574424432285
  0.3673429040010134  0.1326570768908155  0.6326569685632180
  0.1326570415062918  0.8673428686621705  0.1326570983003847
  0.1326569575551346  0.1326571183913643  0.8673428957496725
  0.3673428924068389  0.8673430540277423  0.3673429432325719
  0.3827575054668060  0.6172425302261573  0.6172427061973949
  0.6172425955045355  0.8827574937100380  0.1172426000057740
  0.6172426927698851  0.6172425433256592  0.3827574874653052
  0.3827574222477494  0.8827573495949466  0.8827574349787497
  0.3673428677964807  0.6326570513545917  0.1326569474931318
  0.1326570738909680  0.3673429158430821  0.6326571044669294
  0.1326569425156308  0.6326570988300801  0.3673428801309484
  0.3673428819117177  0.3673430444117756  0.8673429198702252
  0.8827574869424168  0.1172425527893850  0.6172426696660622
  0.1172426084092280  0.3827574779947227  0.1172425464591171
  0.1172426785930156  0.1172425415880696  0.3827574713450446
  0.8827574712349673  0.3827573791345955  0.8827574099869793
  0.8673428702143724  0.1326570579276947  0.1326569693372548
  0.6326570709454913  0.8673428471452311  0.6326570291916767
  0.6326569616350142  0.1326570676662939  0.3673428714371099
  0.8673429655581799  0.8673429882961088  0.8673429232527141
  0.8827574855546629  0.6172425893480593  0.1172426445277210
  0.1172425549020488  0.8827574671897693  0.6172425452300345
  0.1172426512943403  0.6172425185636570  0.8827574664492914
  0.8827574893184220  0.8827573354567306  0.3827574473413051
  0.8673428751669618  0.6326570693719162  0.6326570258459370
  0.6326570484488414  0.3673428747647520  0.1326570517379935
  0.6326570055661662  0.6326570273032033  0.8673428641564342
  0.8673429327656308  0.3673430383526650  0.3673429241523749
 
  0.00000000E+00  0.00000000E+00  0.00000000E+00
  0.00000000E+00  0.00000000E+00  0.00000000E+00
  0.00000000E+00  0.00000000E+00  0.00000000E+00
  0.00000000E+00  0.00000000E+00  0.00000000E+00
  0.00000000E+00  0.00000000E+00  0.00000000E+00
  0.00000000E+00  0.00000000E+00  0.00000000E+00
  0.00000000E+00  0.00000000E+00  0.00000000E+00
  0.00000000E+00  0.00000000E+00  0.00000000E+00
  0.00000000E+00  0.00000000E+00  0.00000000E+00
  0.00000000E+00  0.00000000E+00  0.00000000E+00
  0.00000000E+00  0.00000000E+00  0.00000000E+00
  0.00000000E+00  0.00000000E+00  0.00000000E+00
  0.00000000E+00  0.00000000E+00  0.00000000E+00
  0.00000000E+00  0.00000000E+00  0.00000000E+00
  0.00000000E+00  0.00000000E+00  0.00000000E+00
  0.00000000E+00  0.00000000E+00  0.00000000E+00
  0.00000000E+00  0.00000000E+00  0.00000000E+00
  0.00000000E+00  0.00000000E+00  0.00000000E+00
  0.00000000E+00  0.00000000E+00  0.00000000E+00
  0.00000000E+00  0.00000000E+00  0.00000000E+00
  0.00000000E+00  0.00000000E+00  0.00000000E+00
  0.00000000E+00  0.00000000E+00  0.00000000E+00
  0.00000000E+00  0.00000000E+00  0.00000000E+00
  0.00000000E+00  0.00000000E+00  0.00000000E+00
  0.00000000E+00  0.00000000E+00  0.00000000E+00
  0.00000000E+00  0.00000000E+00  0.00000000E+00
  0.00000000E+00  0.00000000E+00  0.00000000E+00
  0.00000000E+00  0.00000000E+00  0.00000000E+00
  0.00000000E+00  0.00000000E+00  0.00000000E+00
  0.00000000E+00  0.00000000E+00  0.00000000E+00
  0.00000000E+00  0.00000000E+00  0.00000000E+00
  0.00000000E+00  0.00000000E+00  0.00000000E+00
  0.00000000E+00  0.00000000E+00  0.00000000E+00
  0.00000000E+00  0.00000000E+00  0.00000000E+00
  0.00000000E+00  0.00000000E+00  0.00000000E+00
  0.00000000E+00  0.00000000E+00  0.00000000E+00
  0.00000000E+00  0.00000000E+00  0.00000000E+00
  0.00000000E+00  0.00000000E+00  0.00000000E+00
  0.00000000E+00  0.00000000E+00  0.00000000E+00
  0.00000000E+00  0.00000000E+00  0.00000000E+00
  0.00000000E+00  0.00000000E+00  0.00000000E+00
  0.00000000E+00  0.00000000E+00  0.00000000E+00
  0.00000000E+00  0.00000000E+00  0.00000000E+00
  0.00000000E+00  0.00000000E+00  0.00000000E+00
  0.00000000E+00  0.00000000E+00  0.00000000E+00
  0.00000000E+00  0.00000000E+00  0.00000000E+00
  0.00000000E+00  0.00000000E+00  0.00000000E+00
  0.00000000E+00  0.00000000E+00  0.00000000E+00
  0.00000000E+00  0.00000000E+00  0.00000000E+00
  0.00000000E+00  0.00000000E+00  0.00000000E+00
  0.00000000E+00  0.00000000E+00  0.00000000E+00
  0.00000000E+00  0.00000000E+00  0.00000000E+00
  0.00000000E+00  0.00000000E+00  0.00000000E+00
  0.00000000E+00  0.00000000E+00  0.00000000E+00
  0.00000000E+00  0.00000000E+00  0.00000000E+00
  0.00000000E+00  0.00000000E+00  0.00000000E+00
