Na2 Ca2 V4 P2 S4 O24                    
   1.00000000000000     
     8.9691829999999992    0.3235760000000000    0.2103040000000000
     4.2358929999999999    7.9332390000000004    0.2610610000000000
     4.1753479999999996    2.6496659999999999    7.4610649999999996
   Ca   Na   V    P    S    O 
     2     2     4     2     4    24
Direct
  0.7260653672569160  0.4242033747706150  0.1970989541337385
  0.0098917788910526  0.9899949745030371  0.0114142835549912
  0.4210574512951395  0.1267291127840602  0.7437321935316498
  0.5872640963063774  0.8834240562383699  0.2510241143603247
  0.3408279524262103  0.3517721082250687  0.3669038559088937
  0.6408871925523254  0.6554187918176790  0.6360787599635689
  0.1534933557813917  0.1468375197029002  0.1498745638406463
  0.8499421573608685  0.8508747043297040  0.8527757518741195
  0.7512829739429281  0.0328000782036341  0.4437826937909680
  0.4532771049815409  0.7555062608137534  0.0332362140138981
  0.0360770487088751  0.4544634013138527  0.7514939451421679
  0.9521303350027580  0.5515917450559524  0.2537698786497291
  0.2379999313519428  0.9673469667337943  0.5655176738493229
  0.5492340583509544  0.2466726671168625  0.9615205655969373
  0.2138315099209076  0.4345073301837021  0.6028887966789948
  0.7683934185588487  0.5581491110538457  0.3968505967651768
  0.5833182340195100  0.2174089726305805  0.4332550923290437
  0.4018059317559332  0.8004351738037572  0.5533247618866023
  0.4360629734766560  0.5713558486974949  0.1844738901254541
  0.5561936194595670  0.4172598051181035  0.8088763530258875
  0.9047694316725626  0.0967233169376093  0.2605876394165669
  0.0896315945325400  0.9216802221007813  0.7428761647512333
  0.0567802497456105  0.2720189764441767  0.9132665299387301
  0.9293236988520850  0.7347794865860288  0.1006056545946879
  0.2724067282404234  0.9167699897750675  0.0724887022054965
  0.7321829703742293  0.0932204705597137  0.9324922459271313
  0.5097646105732759  0.2528818688829862  0.1406683748841157
  0.4928472051254873  0.7685694267902606  0.8411303740836187
  0.0891925009312763  0.5180568903774730  0.3189682317380917
  0.8869898106619934  0.4821669033844461  0.7037661974993432
  0.2765562656216636  0.1091770655835076  0.5683562789093113
  0.7233757447825997  0.8858638978364666  0.4292352048906181
  0.4111813841481202  0.1879193745508783  0.9772803228403586
  0.6168146341827025  0.7670072184239310  0.0445587653202035
  0.1787605009833289  0.0376924028765021  0.4084675192366904
  0.7849901507775477  0.9769206959556103  0.6180999279480704
  1.0029306048404245  0.4099271417048963  0.1802690455718444
 -0.0064931039300597  0.5949263007216892  0.8187992486971120
 
             NaN             NaN             NaN
             NaN             NaN             NaN
             NaN             NaN             NaN
             NaN             NaN             NaN
             NaN             NaN             NaN
             NaN             NaN             NaN
             NaN             NaN             NaN
             NaN             NaN             NaN
             NaN             NaN             NaN
             NaN             NaN             NaN
             NaN             NaN             NaN
             NaN             NaN             NaN
             NaN             NaN             NaN
             NaN             NaN             NaN
             NaN             NaN             NaN
             NaN             NaN             NaN
             NaN             NaN             NaN
             NaN             NaN             NaN
             NaN             NaN             NaN
             NaN             NaN             NaN
             NaN             NaN             NaN
             NaN             NaN             NaN
             NaN             NaN             NaN
             NaN             NaN             NaN
             NaN             NaN             NaN
             NaN             NaN             NaN
             NaN             NaN             NaN
             NaN             NaN             NaN
             NaN             NaN             NaN
             NaN             NaN             NaN
             NaN             NaN             NaN
             NaN             NaN             NaN
             NaN             NaN             NaN
             NaN             NaN             NaN
             NaN             NaN             NaN
             NaN             NaN             NaN
             NaN             NaN             NaN
             NaN             NaN             NaN
