Na2 Ca2 V4 P2 S4 O24
1.0
8.969183 0.323576 0.210304
4.235893 7.933239 0.261061
4.175348 2.649666 7.461065
Ca Na V P S O
2 2 4 2 4 24
direct
0.674865 0.432088 0.231942 Ca
0.017721 0.981403 0.010205 Ca
0.438335 0.134304 0.742778 Na
0.588092 0.876997 0.248842 Na
0.347245 0.353136 0.361024 V
0.641465 0.653662 0.635136 V
0.146502 0.149858 0.148996 V
0.853300 0.849085 0.851063 V
0.750794 0.034153 0.443066 P
0.453888 0.753425 0.038634 P
0.039611 0.455498 0.747423 S
0.948473 0.545754 0.252676 S
0.241330 0.964169 0.559264 S
0.556523 0.251592 0.954537 S
0.222104 0.419199 0.606406 O
0.767523 0.567152 0.399466 O
0.588634 0.222960 0.427532 O
0.400098 0.790730 0.554604 O
0.419860 0.588539 0.214778 O
0.573940 0.401874 0.778692 O
0.911626 0.079796 0.260931 O
0.089966 0.928105 0.736914 O
0.044843 0.278515 0.915127 O
0.934816 0.727799 0.096473 O
0.281984 0.929932 0.049859 O
0.730890 0.086862 0.945796 O
0.524934 0.299939 0.105878 O
0.493772 0.729073 0.864595 O
0.095925 0.499114 0.311211 O
0.892989 0.491822 0.691610 O
0.290863 0.102745 0.552729 O
0.710091 0.890487 0.437357 O
0.409100 0.191496 0.996453 O
0.619422 0.772353 0.034928 O
0.182772 0.029330 0.403519 O
0.781140 0.980700 0.619273 O
0.977799 0.406786 0.187943 O
0.009427 0.598715 0.803490 O
