Na2 Ca2 V4 Si4 P2 O24                   
   1.00000000000000     
     8.8498699999999992    0.1100910000000000    0.0833540000000000
     4.2615420000000004    7.6506239999999996    0.0554860000000000
     4.4233589999999996    2.5131869999999998    7.2441129999999996
   Ca   Na   V    Si   P    O 
     2     2     4     4     2    24
Direct
  0.5010078866803116  0.5460268049720792  0.4682490840065565
 -0.0012129654828270  1.0079096565522367  0.9972603889415118
  0.1045327451140911  0.7557597023314820  0.3865648984029963
  0.8894857448544726  0.2527753140826962  0.5979366221962489
  0.3667173843650638  0.3596505836774809  0.3455398894778573
  0.6553418986098222  0.6453921579814226  0.6506670478519248
  0.1537628811485517  0.1492103555401383  0.1316048721713608
  0.8457559159713859  0.8598926025653305  0.8540835072977615
  0.0387623134403334  0.4602630145383259  0.7501459011979483
  0.7473687168308930  0.0459921011001761  0.4653499818736967
  0.4616644275329203  0.7567854850066247  0.0354172755226943
  0.5414805693763931  0.2588858052298210  0.9504927895648202
  0.9727011290737302  0.5496120992054945  0.2398284255198958
  0.2554924405763378  0.9654720664231478  0.5307078857092672
  0.2291182067292143  0.4556486822249809  0.5665085190872140
  0.7836497019006005  0.5638567606251279  0.4089177345932521
  0.5668240857876754  0.2290871965050597  0.4377549097552378
  0.4333344679264933  0.7976597821167257  0.5517850009922083
  0.4418512737190825  0.5836384455123702  0.2292515565629705
  0.5612149092636233  0.4289420757404421  0.7513092182276992
  0.9291873878427326  0.0682777792393437  0.2731367446841096
  0.0883427875991389  0.9445379268227597  0.7191450409250674
  0.0644699868374898  0.2731532204798724  0.9272738441292251
  0.9455982238267040  0.7285554112963230  0.0717892875914307
  0.2619276767714296  0.9228293339616044  0.0580684540233535
  0.7408458248801174  0.0885916630320488  0.9322143411016244
  0.4866710720802470  0.3155786386658762  0.1289160392081698
  0.5142697754397983  0.6995900936999131  0.8598953577957024
  0.1250774727226509  0.5395269104014170  0.2850598163237970
  0.8688863051256975  0.4737411270702893  0.7097566207901724
  0.2657282195431747  0.1557164408973130  0.4847507519287395
  0.7428545670402558  0.8429809299164679  0.5055466083852881
  0.3688256041725477  0.1942894351251086  0.0051769409395453
  0.6302881967528647  0.8107792353173914  1.0046875806971118
  0.2189508005906372  0.9654509197520711  0.3766743267147787
  0.7843327635790326  0.0248774582709035  0.6400769545533987
  0.0177472832465180  0.3684111311781930  0.2135529086668969
  0.9822898466824608  0.6548840045817246  0.7831758845191347
 
             NaN             NaN             NaN
             NaN             NaN             NaN
             NaN             NaN             NaN
             NaN             NaN             NaN
             NaN             NaN             NaN
             NaN             NaN             NaN
             NaN             NaN             NaN
             NaN             NaN             NaN
             NaN             NaN             NaN
             NaN             NaN             NaN
             NaN             NaN             NaN
             NaN             NaN             NaN
             NaN             NaN             NaN
             NaN             NaN             NaN
             NaN             NaN             NaN
             NaN             NaN             NaN
             NaN             NaN             NaN
             NaN             NaN             NaN
             NaN             NaN             NaN
             NaN             NaN             NaN
             NaN             NaN             NaN
             NaN             NaN             NaN
             NaN             NaN             NaN
             NaN             NaN             NaN
             NaN             NaN             NaN
             NaN             NaN             NaN
             NaN             NaN             NaN
             NaN             NaN             NaN
             NaN             NaN             NaN
             NaN             NaN             NaN
             NaN             NaN             NaN
             NaN             NaN             NaN
             NaN             NaN             NaN
             NaN             NaN             NaN
             NaN             NaN             NaN
             NaN             NaN             NaN
             NaN             NaN             NaN
             NaN             NaN             NaN
