Na2 Ca2 V4 Si4 P2 O24
1.0
8.849870 0.110091 0.083354
4.261542 7.650624 0.055486
4.423359 2.513187 7.244113
Ca Na V Si P O
2 2 4 4 2 24
direct
0.511660 0.548518 0.468068 Ca
0.003978 0.998076 -0.000779 Ca
0.113968 0.750365 0.391918 Na
0.888009 0.251229 0.599391 Na
0.366276 0.354525 0.351008 V
0.646659 0.641754 0.654170 V
0.150885 0.146463 0.134075 V
0.847101 0.856148 0.852937 V
0.033895 0.456805 0.754018 Si
0.746146 0.041014 0.465803 Si
0.461100 0.749770 0.039432 Si
0.541038 0.250808 0.958973 Si
0.967948 0.543248 0.244885 P
0.254326 0.958667 0.533944 P
0.225271 0.444571 0.572255 O
0.778191 0.559063 0.412151 O
0.568311 0.228695 0.440892 O
0.424428 0.780566 0.556358 O
0.438676 0.579232 0.234846 O
0.562993 0.420439 0.760914 O
0.928230 0.056210 0.274869 O
0.085137 0.942985 0.721094 O
0.058775 0.269468 0.931294 O
0.944031 0.722785 0.075971 O
0.263205 0.918450 0.062341 O
0.740506 0.080480 0.937823 O
0.490054 0.304263 0.136449 O
0.506754 0.696043 0.864384 O
0.121650 0.527283 0.292704 O
0.862614 0.479463 0.709915 O
0.280697 0.138433 0.492932 O
0.720963 0.848279 0.508330 O
0.367478 0.191199 0.007634 O
0.632648 0.805788 0.998991 O
0.210281 0.974261 0.377590 O
0.787837 0.018643 0.638282 O
0.011176 0.364027 0.215812 O
0.986723 0.650673 0.781465 O
