Ca7 Mn16 F48                            
   1.00000000000000     
    11.5061820000000008   -0.0000050000000000   -0.0220040000000000
     0.0000040000000000    8.2092030000000005    0.0000030000000000
    -0.0213890000000000    0.0000050000000000   11.1460419999999996
   Ca   Mn   F 
     7    16    48
Direct
  0.4821088079427027  0.7499980896603630  0.5216659441511666
  0.2185004058208526  0.7499992045601143  0.2456898232789068
  0.2192735033622354  0.7500009215174991  0.7435842002381006
  0.7148622447513608  0.7499985915326437  0.2498871653557949
  0.4702320399113026  0.7500008042949881  0.9990209616554292
  0.9590612368801250  0.7500010729485580  0.0029185349302993
  0.9644937452768219  0.7499994300155575  0.5096359978557197
  0.4980743234986224  0.4820856898828564  0.2561122750925514
  0.5011402585636123  0.4819467399362649  0.7560282462609917
  0.9976999001456340  0.4838646512714903  0.2508675805097109
  0.9956627323948319  0.4855441063393264  0.7533672477068650
  0.2515892266959695  0.0164357538043884  0.4973714785414551
  0.2462741257280773  0.0182948546231046  0.9980778701287847
  0.7475340661489110  0.0144921740615123  0.5069791287076414
  0.7445910083849656  0.0139104583588871  0.9972190491078363
  0.4980752709341457  0.0179105567838678  0.2561135350980860
  0.5011408041040493  0.0180490309111959  0.7560282430333283
  0.9976984896361034  0.0161356824737093  0.2508663145551316
  0.9956648221799728  0.0144579885980702  0.7533677260398332
  0.2515888513882815  0.4835651781025349  0.4973695094136121
  0.2462718026159848  0.4817039787057164  0.9980774232812897
  0.7475357652102065  0.4854951892122846  0.5069787223824026
  0.7445922774731353  0.4860890749600602  0.9972207525018119
  0.4847791159958246  0.2499949116719746  0.2090368462298142
  0.4582681205060450  0.2500001894784698  0.7221067187091431
  0.9796403113443427  0.2499929079819673  0.2133059925335057
  0.9885786677782583  0.2499984909107971  0.7198573629390858
  0.2250066783790336  0.2500015066285231  0.0445996739706362
  0.2279277703515681  0.2499989829715693  0.5331896458610862
  0.7453666846972729  0.2499993096005956  0.0399969515768896
  0.7597465577327644  0.2499947006418473  0.5418201130229354
  0.0197085262217493  0.7500009898599248  0.3000162995703327
  0.0198970297984136  0.7500018125696172  0.7987661554461951
  0.5170277315239038  0.7499980844651599  0.3125322851316841
  0.5104656955494463  0.7500032284150198  0.7927676287697156
  0.2775520283510894  0.7500010755240086  0.4491898985918452
  0.2674063032348396  0.7500018727066208  0.9473358784699010
  0.7457529519324015  0.7500008405007579  0.4643873088516183
  0.7553304104033719  0.7500037238848593  0.9693036577077313
  0.3540797543703068  0.5817686736431801  0.1487594760243376
  0.3575728871277790  0.5791814576844024  0.6498775444035008
  0.8511736821476225  0.5772952212248685  0.1483314022194486
  0.8693926327036514  0.5666617613366847  0.6384665173313309
  0.1021653165165679  0.9177193143005179  0.0998284515767435
  0.1111090737710060  0.9172550814926588  0.5985955755602121
  0.6001351206993578  0.9197970548231614  0.1091710755139569
  0.5940597841357637  0.9631725213337118  0.5976175491534435
  0.1637072482875948  0.0022322363020134  0.3327705199949565
  0.1610595614168585  0.0048040259582487  0.8326079281758614
  0.6646235283462052  0.0058439345547293  0.3376717424922631
  0.6454473690676111  0.0458734865696327  0.8547100535259110
  0.4123810164408651  0.4836421954513401  0.4161073155297103
  0.4098963854911569  0.4971981499453571  0.9173906281969998
  0.9038423993124614  0.5121638396493049  0.4070813663612955
  0.9112593350252267  0.5001281799357358  0.9178627204845656
  0.1637093191999444  0.4977672894458555  0.3327673814096866
  0.1610614228950119  0.4951969970348136  0.8326065374434090
  0.6646249744455179  0.4941545284706682  0.3376711009922744
  0.6454498406709740  0.4541328279062394  0.8547093146035190
  0.4123822263778686  0.0163574921257288  0.4161100020053886
  0.4098972997228794  0.0028045844222929  0.9173883036584616
  0.9038396724305071 -0.0121621569489966  0.4070800730323781
  0.9112586960447397 -0.0001261353782303  0.9178628706055627
  0.3540809564799346  0.9182320127116484  0.1487606645380800
  0.3575738515301977  0.9208217588592077  0.6498779634562509
  0.8511724881199643  0.9227058226715796  0.1483317321611960
  0.8693934580600402  0.9333421913636085  0.6384676271756989
  0.1021640489338520  0.5822809309456560  0.0998271710111360
  0.1111096844696549  0.5827477226444072  0.5985949612749489
  0.6001341478590447  0.5802032393529457  0.1091690033013907
  0.5940603049207213  0.5368319010682721  0.5976172027671752
 
             NaN             NaN             NaN
             NaN             NaN             NaN
             NaN             NaN             NaN
             NaN             NaN             NaN
             NaN             NaN             NaN
             NaN             NaN             NaN
             NaN             NaN             NaN
             NaN             NaN             NaN
             NaN             NaN             NaN
             NaN             NaN             NaN
             NaN             NaN             NaN
             NaN             NaN             NaN
             NaN             NaN             NaN
             NaN             NaN             NaN
             NaN             NaN             NaN
             NaN             NaN             NaN
             NaN             NaN             NaN
             NaN             NaN             NaN
             NaN             NaN             NaN
             NaN             NaN             NaN
             NaN             NaN             NaN
             NaN             NaN             NaN
             NaN             NaN             NaN
             NaN             NaN             NaN
             NaN             NaN             NaN
             NaN             NaN             NaN
             NaN             NaN             NaN
             NaN             NaN             NaN
             NaN             NaN             NaN
             NaN             NaN             NaN
             NaN             NaN             NaN
             NaN             NaN             NaN
             NaN             NaN             NaN
             NaN             NaN             NaN
             NaN             NaN             NaN
             NaN             NaN             NaN
             NaN             NaN             NaN
             NaN             NaN             NaN
             NaN             NaN             NaN
             NaN             NaN             NaN
             NaN             NaN             NaN
             NaN             NaN             NaN
             NaN             NaN             NaN
             NaN             NaN             NaN
             NaN             NaN             NaN
             NaN             NaN             NaN
             NaN             NaN             NaN
             NaN             NaN             NaN
             NaN             NaN             NaN
             NaN             NaN             NaN
             NaN             NaN             NaN
             NaN             NaN             NaN
             NaN             NaN             NaN
             NaN             NaN             NaN
             NaN             NaN             NaN
             NaN             NaN             NaN
             NaN             NaN             NaN
             NaN             NaN             NaN
             NaN             NaN             NaN
             NaN             NaN             NaN
             NaN             NaN             NaN
             NaN             NaN             NaN
             NaN             NaN             NaN
             NaN             NaN             NaN
             NaN             NaN             NaN
             NaN             NaN             NaN
             NaN             NaN             NaN
             NaN             NaN             NaN
             NaN             NaN             NaN
             NaN             NaN             NaN
             NaN             NaN             NaN
