Ca7 Mn16 F48
1.0
11.506182 -0.000005 -0.022004
0.000004 8.209203 0.000003
-0.021389 0.000005 11.146042
Ca Mn F
7 16 48
direct
0.497707 0.749999 0.538185 Ca
0.215110 0.750001 0.244184 Ca
0.217082 0.750001 0.743125 Ca
0.713253 0.749999 0.244540 Ca
0.466932 0.750001 0.999545 Ca
0.961021 0.750001 0.004404 Ca
0.961811 0.750000 0.509011 Ca
0.496271 0.482203 0.253558 Mn
0.502913 0.488357 0.750309 Mn
0.995074 0.481777 0.252524 Mn
0.993434 0.485076 0.752813 Mn
0.247146 0.017642 0.497438 Mn
0.245768 0.018838 0.996404 Mn
0.744314 0.012920 0.503720 Mn
0.745007 0.013633 0.995329 Mn
0.496271 0.017794 0.253557 Mn
0.502911 0.011644 0.750308 Mn
0.995073 0.018222 0.252524 Mn
0.993433 0.014916 0.752815 Mn
0.247146 0.482358 0.497439 Mn
0.245769 0.481164 0.996404 Mn
0.744314 0.487080 0.503721 Mn
0.745010 0.486359 0.995333 Mn
0.477645 0.249998 0.208447 F
0.483528 0.250002 0.718473 F
0.978251 0.249999 0.207707 F
0.982124 0.249995 0.717835 F
0.223843 0.250004 0.042917 F
0.225600 0.250000 0.540255 F
0.740769 0.249994 0.035958 F
0.734842 0.250002 0.535256 F
0.015205 0.750000 0.302504 F
0.017738 0.750003 0.799495 F
0.514577 0.750005 0.301940 F
0.506934 0.750003 0.794497 F
0.266936 0.750000 0.448334 F
0.263870 0.749998 0.947232 F
0.762007 0.750002 0.452192 F
0.758962 0.750003 0.967207 F
0.352257 0.581538 0.146290 F
0.352185 0.574866 0.649918 F
0.851213 0.577244 0.148975 F
0.863780 0.566670 0.640493 F
0.101943 0.917916 0.101726 F
0.106453 0.917430 0.599948 F
0.599583 0.921267 0.104620 F
0.594600 0.941549 0.593211 F
0.161286 0.004917 0.332243 F
0.158438 0.006569 0.832899 F
0.662611 0.003817 0.334140 F
0.649710 0.031395 0.848018 F
0.407128 0.488221 0.412089 F
0.408767 0.497142 0.913118 F
0.906940 0.496469 0.412256 F
0.912695 0.498622 0.919138 F
0.161287 0.495081 0.332242 F
0.158437 0.493429 0.832894 F
0.662610 0.496183 0.334141 F
0.649713 0.468612 0.848022 F
0.407127 0.011773 0.412088 F
0.408765 0.002857 0.913115 F
0.906941 0.003536 0.412258 F
0.912690 0.001379 0.919142 F
0.352254 0.918467 0.146286 F
0.352186 0.925143 0.649919 F
0.851214 0.922753 0.148976 F
0.863780 0.933328 0.640492 F
0.101943 0.582085 0.101724 F
0.106451 0.582569 0.599946 F
0.599585 0.578728 0.104622 F
0.594600 0.558453 0.593214 F
