Ca1 Co16 F48                            
   1.00000000000000     
    10.6494319999999991   -0.0023550000000000   -0.0347930000000000
    -0.0014490000000000    7.4416070000000003   -0.0068570000000000
    -0.0322670000000000   -0.0100840000000000   10.3491070000000001
   Ca   Co   F 
     1    16    48
Direct
  0.4789701334520701  0.7864431273248070  0.5060101251572880
  0.0017447420383480  0.5064166053671586  0.2506956746654233
  0.0022777317126522  0.5010327151046448  0.7493329661684498
  0.5009194743919364  0.4987663234014149  0.2398114749848473
  0.5010990872203758  0.4931010369915172  0.7623675252992740
  0.2284602199005468  0.0184926525576018  0.4899855612773802
  0.2405435288863698  0.9988521021954851  1.0008914599482888
  0.7597211231917351  0.0125387406623444  0.4978051114240581
  0.7583223415269462  0.0037258786709417  0.0045925618347505
  0.4928283501697585  0.0086577846925082  0.2338105809066133
  0.5026573966325913  0.0056807319443161  0.7722260419468281
 -0.0032791727834336  0.0068155107452621  0.2432722721547349
  1.0010870301717760  1.0026883289107669  0.7517899354367984
  0.2471769840865659  0.4970611696200265  0.0005363640286991
  0.2487517947789820  0.5032691203633688  0.4995855067287507
  0.7555521458369860  0.5030637037750668  1.0009974765950338
  0.7536691992366141  0.5056687963330072  0.4981480829286855
  0.4930159881275656  0.2546871083538179  0.1901046243874948
  0.4874692953440813  0.2533906818740134  0.7047819695598888
  0.9812834396901845  0.2485527048834524  0.1952343998000570
  0.9936240236355232  0.2517999334194034  0.6982387687438046
  0.2353212337864461  0.2561105367126400  0.0518992238688496
  0.2431722500462308  0.2617429641920337  0.5486027164973646
  0.7461124780216603  0.2524203226718180  0.0573453013674081
  0.7456200354779656  0.2659638991333849  0.5477774532529598
  0.0167914474422941  0.7671205279991218  0.2955822773163946
  0.0102417009993662  0.7509090307933590  0.7966535176565390
  0.5055804106089101  0.7540599107648723  0.2943629119305143
  0.5132759494423879  0.7417654445337608  0.8086577621579243
  0.2643865435829780  0.7534759741155659  0.4536127806318472
  0.2548939882450035  0.7384053800657546  0.9501800878700370
  0.7542023537304943  0.7481219474673940  0.4489231567258049
  0.7657882907796290  0.7556431735038004  0.9498720298836417
  0.3456305474706136  0.5494547931796351  0.1451096735854075
  0.3594668261056488  0.5602252194547037  0.6392205308220403
  0.8550512675143271  0.5599306744132958  0.1514675278201804
  0.8517492031204726  0.5572048747421382  0.6427255888621789
  0.0841882323407209  0.9541604893440484  0.0916886232147177
  0.0919232565764814  0.9509827199622124  0.5886989486189688
  0.6050959836601174  0.9505078323328142  0.0990032177686396
  0.6127372458629579  0.9514847905206147  0.6185798282283530
  0.1446773632057727  0.0684648590779283  0.3263563857804787
  0.1574627553144484  0.0472711201498508  0.8399156705535742
  0.6313731313223593  0.0421798584836539  0.3693611824458826
  0.6545352063697316  0.0634407672959829  0.8553673326798086
  0.3978243573821263  0.4708203313013329  0.4013821752406067
  0.3929448973719670  0.4432912711725258  0.9088268522830334
  0.8978859293220520  0.4600765401733041  0.4030337493395387
  0.9028890844877473  0.4480316591695492  0.8986152130754382
  0.1494611838049678  0.4554530923291726  0.3547014832124488
  0.1532021802967057  0.4452352423927812  0.8535568634135264
  0.6503935665648369  0.4553124795453699  0.3541288026874516
  0.6548217792865305  0.4441019556737700  0.8515758065736481
  0.3879496147299519  0.0475943194616526  0.3951749853179136
  0.3988478216305069  0.0502995315656201  0.9158910351695014
  0.9060323628305909  0.0605408001556813  0.3924016584120597
  0.9062228514153768  0.0537303327578718  0.9058896555598653
  0.3390409822598968  0.9402458696259547  0.1519253726973653
  0.3631850895620664  0.9460876059261056  0.6524956339074590
  0.8481417830179596  0.9466870055909526  0.1629718563462491
  0.8531828491422351  0.9551225008909474  0.6465804999107049
  0.1037252131742428  0.5487313059778446  0.0963962257587545
  0.1086546563656603  0.5514930779816253  0.5999019844231748
  0.6043113150084510  0.5614861100577972  0.0977091649564503
  0.6062421219933015  0.5552994132812732  0.5956165085495014
 
             NaN             NaN             NaN
             NaN             NaN             NaN
             NaN             NaN             NaN
             NaN             NaN             NaN
             NaN             NaN             NaN
             NaN             NaN             NaN
             NaN             NaN             NaN
             NaN             NaN             NaN
             NaN             NaN             NaN
             NaN             NaN             NaN
             NaN             NaN             NaN
             NaN             NaN             NaN
             NaN             NaN             NaN
             NaN             NaN             NaN
             NaN             NaN             NaN
             NaN             NaN             NaN
             NaN             NaN             NaN
             NaN             NaN             NaN
             NaN             NaN             NaN
             NaN             NaN             NaN
             NaN             NaN             NaN
             NaN             NaN             NaN
             NaN             NaN             NaN
             NaN             NaN             NaN
             NaN             NaN             NaN
             NaN             NaN             NaN
             NaN             NaN             NaN
             NaN             NaN             NaN
             NaN             NaN             NaN
             NaN             NaN             NaN
             NaN             NaN             NaN
             NaN             NaN             NaN
             NaN             NaN             NaN
             NaN             NaN             NaN
             NaN             NaN             NaN
             NaN             NaN             NaN
             NaN             NaN             NaN
             NaN             NaN             NaN
             NaN             NaN             NaN
             NaN             NaN             NaN
             NaN             NaN             NaN
             NaN             NaN             NaN
             NaN             NaN             NaN
             NaN             NaN             NaN
             NaN             NaN             NaN
             NaN             NaN             NaN
             NaN             NaN             NaN
             NaN             NaN             NaN
             NaN             NaN             NaN
             NaN             NaN             NaN
             NaN             NaN             NaN
             NaN             NaN             NaN
             NaN             NaN             NaN
             NaN             NaN             NaN
             NaN             NaN             NaN
             NaN             NaN             NaN
             NaN             NaN             NaN
             NaN             NaN             NaN
             NaN             NaN             NaN
             NaN             NaN             NaN
             NaN             NaN             NaN
             NaN             NaN             NaN
             NaN             NaN             NaN
             NaN             NaN             NaN
             NaN             NaN             NaN
