Ca1 Co16 F48
1.0
10.649432 -0.002355 -0.034793
-0.001449 7.441607 -0.006857
-0.032267 -0.010084 10.349107
Ca Co F
1 16 48
direct
0.482227 0.813815 0.508847 Ca
0.001261 0.502313 0.250825 Co
0.001585 0.497786 0.749256 Co
0.498883 0.496969 0.238552 Co
0.497407 0.490501 0.763336 Co
0.238415 0.011434 0.496781 Co
0.246714 0.998644 -0.000004 Co
0.759347 0.005201 0.496177 Co
0.753245 0.001181 0.000301 Co
0.500427 0.002432 0.239369 Co
0.499398 0.001853 0.758624 Co
0.001008 0.001633 0.246147 Co
0.999232 -0.000052 0.751851 Co
0.246174 0.498780 0.001727 Co
0.244763 0.498742 0.500106 Co
0.755043 0.500546 -0.000140 Co
0.752834 0.498739 0.498595 Co
0.486158 0.250130 0.200814 F
0.481947 0.242700 0.708328 F
0.986962 0.246294 0.201254 F
0.993887 0.250153 0.697139 F
0.238180 0.257538 0.050156 F
0.244796 0.258968 0.551090 F
0.740670 0.249075 0.053973 F
0.747313 0.258924 0.547060 F
0.016317 0.758735 0.296458 F
0.008509 0.747662 0.795231 F
0.511422 0.747305 0.297427 F
0.513145 0.753126 0.794625 F
0.259391 0.744431 0.452625 F
0.256006 0.739521 0.952513 F
0.744899 0.742219 0.452568 F
0.763732 0.752611 0.948591 F
0.342299 0.550323 0.148626 F
0.353924 0.555120 0.643943 F
0.852445 0.553776 0.153558 F
0.849158 0.551995 0.643672 F
0.094117 0.953650 0.097776 F
0.099609 0.953601 0.596846 F
0.602047 0.945443 0.094861 F
0.599384 0.963524 0.606644 F
0.147675 0.057761 0.338450 F
0.153813 0.047407 0.846660 F
0.645756 0.045514 0.354585 F
0.645857 0.054330 0.848390 F
0.398348 0.466199 0.406006 F
0.393301 0.449716 0.911051 F
0.897192 0.458677 0.403864 F
0.901737 0.446607 0.899435 F
0.150198 0.446658 0.353226 F
0.154292 0.449050 0.852519 F
0.649042 0.447397 0.354889 F
0.650638 0.446158 0.849654 F
0.399825 0.026814 0.406985 F
0.402009 0.043485 0.903705 F
0.908622 0.047812 0.396399 F
0.901646 0.054268 0.902489 F
0.345573 0.949101 0.151401 F
0.359031 0.944794 0.651222 F
0.853215 0.949904 0.156860 F
0.849890 0.949832 0.647774 F
0.101596 0.546728 0.095718 F
0.102691 0.548774 0.596076 F
0.601708 0.552125 0.094861 F
0.604033 0.536050 0.597991 F
