Y16 Mg8 S32
1.0
       11.1415853500         0.0000000000         0.0000000000
        0.0000000000        11.1415853500         0.0000000000
        0.0000000000         0.0000000000        11.1415853500
Mg    Y   Mg    S
1   16    6   32
Direct
     0.750000000         0.750000000         0.750000000
     0.375000000         0.125000000         0.375000000
     0.375000000         0.875000000         0.625000000
     0.125000000         0.875000000         0.875000000
     0.125000000         0.125000000         0.125000000
     0.375000000         0.625000000         0.875000000
     0.375000000         0.375000000         0.125000000
     0.125000000         0.375000000         0.375000000
     0.125000000         0.625000000         0.625000000
     0.875000000         0.125000000         0.875000000
     0.875000000         0.875000000         0.125000000
     0.625000000         0.875000000         0.375000000
     0.625000000         0.125000000         0.625000000
     0.875000000         0.625000000         0.375000000
     0.875000000         0.375000000         0.625000000
     0.625000000         0.375000000         0.875000000
     0.625000000         0.625000000         0.125000000
     0.250000000         0.250000000         0.750000000
     0.000000000         0.500000000         0.000000000
     0.250000000         0.750000000         0.250000000
     0.500000000         0.000000000         0.000000000
     0.750000000         0.250000000         0.250000000
     0.500000000         0.500000000         0.500000000
     0.379519075         0.879519105         0.379519075
     0.379519075         0.120480917         0.620480895
     0.120480917         0.879519105         0.120480917
     0.120480917         0.120480917         0.879519105
     0.129519075         0.629519105         0.870480895
     0.129519075         0.870480895         0.629519105
     0.370480925         0.629519105         0.629519105
     0.370480925         0.870480895         0.870480895
     0.379519075         0.379519075         0.879519105
     0.379519075         0.620480895         0.120480917
     0.120480917         0.379519075         0.620480895
     0.120480917         0.620480895         0.379519075
     0.129519075         0.129519075         0.370480925
     0.129519075         0.370480925         0.129519075
     0.370480925         0.129519075         0.129519075
     0.370480925         0.370480925         0.370480925
     0.879519105         0.879519105         0.879519105
     0.879519105         0.120480917         0.120480917
     0.620480895         0.879519105         0.620480895
     0.620480895         0.120480917         0.379519075
     0.629519105         0.629519105         0.370480925
     0.629519105         0.870480895         0.129519075
     0.870480895         0.629519105         0.129519075
     0.870480895         0.870480895         0.370480925
     0.879519105         0.379519075         0.379519075
     0.879519105         0.620480895         0.620480895
     0.620480895         0.379519075         0.120480917
     0.620480895         0.620480895         0.879519105
     0.629519105         0.129519075         0.870480895
     0.629519105         0.370480925         0.629519105
     0.870480895         0.129519075         0.629519105
     0.870480895         0.370480925         0.870480895
