Ca8 Cr12 F42                            
   1.00000000000000     
     7.4643179999999996   -0.0043470000000000   -0.5309940000000000
    -3.6179299999999999    6.7447850000000003    0.2328450000000000
     0.8927290000000000    0.2111010000000000   18.5210889999999999
   Ca   Cr   F 
     8    12    42
Direct
  0.9349761919504813  0.3593481464288757  0.3616439763696008
  0.5294247521401195  0.8257561525619310  0.6823531401771251
  0.5998662650885895  0.1254498343691309  0.0026819388644540
  0.0159260545741736  0.8012621456867487  0.6645889600149455
  0.1080902207836033  0.6807100274220291  0.0149004331743169
  0.8810941551256144  0.7778804588840682  0.1853188031276363
  0.8605306968492106  0.9103088865190452  0.8480962627945710
  0.2516131850784857  0.2110790771037771  0.5067622020884830
  0.3230490116678696  1.0205034996930298  0.3293894094372426
  0.0086306469123281  0.2938885896581067  0.6676532259251317
  0.6213450030488235  0.6584951365088422  0.9971711185004967
  0.3516278912697204  0.9804255941684126  0.8280465707603109
  0.9627138927891954  0.3262089403762635  0.1530581255803078
  0.7000966025983373  0.6622216755249614  0.5014907349943971
  0.4395552676154365  0.8321535828830121  0.1676761763646284
  0.2056631201511276  0.6779106198255083  0.5035431214815330
  0.3135753034877530  0.4693715911371366  0.8313695571615177
  0.8182514606587387  0.4635101847651036  0.8280506367877931
  0.6864776286157984  0.1535047848558593  0.5049413423706239
  0.4567975084520691  0.3275565809795400  0.1509899849732231
  0.7414518175988983  0.1184777077843831  0.6213858429013933
  0.8924567317958929  0.6748858398435358  0.9267724639790278
  0.4063925765038833  0.2275418377565226  0.2482576018978987
  0.1621094407738533  0.6567230849446095  0.3996395062784080
  0.4410938760802363  0.7850375885971171  0.0594853871422362
  0.2735873661655110  0.4702409234529308  0.7226786398777835
  0.7318590102762432  0.9347747836860354  0.9554177546153113
  1.0548631269915942  0.8727574598958512  0.2845222621930037
  0.1280015836094656  0.1383393638102201  0.6195258175356241
  0.8693965993774684  0.7591653793842975  0.0626396341527441
  0.8549544665747476  0.9489633308874297  0.7278912516809979
  0.2119269729115746  0.1541111078822988  0.3912816065314152
  0.5318716515210056  0.3922502082073714  0.0390788199776703
  0.6017607456658506  0.1570934167559129  0.3784179817253276
  0.8946789273151350  0.4651363674199832  0.6932673124433352
  0.3651959424620179  0.5466596913065181  0.9354401199831140
  0.2433172901818903  0.6984331119799464  0.6100395843280090
  0.4232228591407817  0.8715301115228902  0.2704235392268923
  0.7567951799113181  0.4246660687058864  0.1719182009942932
  0.6269986198460140  0.3796006583274054  0.5266796291396387
  0.6351454498787495  0.2400018587796493  0.8876986234263231
  0.5297733088939859  0.8586334472615005  0.8116819025282621
  0.3918377240835106  0.5519039546552330  0.4981658918513344
  0.1395456701789241  0.7007137935992145  0.1473799475426755
  1.0193577402203267  0.3359055133601178  0.2550228241307954
  0.6905610447494578  0.7075410693695700  0.6080635245159962
  0.3148595008518837  0.9240864415649259  0.9376710737247267
  0.3423980863602188  0.9793165965399333  0.7194003584793984
  0.7284796891059315  0.6008857186515266  0.4077929667324697
  0.9163206726627579  0.3516165667215240  0.0459251336922080
  0.1664066847744805  0.2403048984464294  0.1300951704908732
  0.7319741719324994  0.9268166928795893  0.4802271486914834
  0.0122144812500476  0.7329199555598042  0.7911502308541460
  0.1970512725892228  0.1267765305925067  0.8389502028338686
 -0.0012367268758861  0.7741878620151832  0.5239195168078050
  0.7413038635639367  0.9873636059568940  0.1687770090429249
  0.0172741580839325  0.3632035918626324  0.8432707940906958
  0.5203983266146786  0.5962045648558368  0.1804243667522850
  0.3929221870205523  0.0053572478341784  0.5141369628402679
  0.4267735966838868  0.0774161346015723  0.1124732095913412
  0.6097769643143245  0.5585910556764176  0.8141769983536652
 -0.0159874377274645  0.3067923365608611  0.4840652168457755
 
             NaN             NaN             NaN
             NaN             NaN             NaN
             NaN             NaN             NaN
             NaN             NaN             NaN
             NaN             NaN             NaN
             NaN             NaN             NaN
             NaN             NaN             NaN
             NaN             NaN             NaN
             NaN             NaN             NaN
             NaN             NaN             NaN
             NaN             NaN             NaN
             NaN             NaN             NaN
             NaN             NaN             NaN
             NaN             NaN             NaN
             NaN             NaN             NaN
             NaN             NaN             NaN
             NaN             NaN             NaN
             NaN             NaN             NaN
             NaN             NaN             NaN
             NaN             NaN             NaN
             NaN             NaN             NaN
             NaN             NaN             NaN
             NaN             NaN             NaN
             NaN             NaN             NaN
             NaN             NaN             NaN
             NaN             NaN             NaN
             NaN             NaN             NaN
             NaN             NaN             NaN
             NaN             NaN             NaN
             NaN             NaN             NaN
             NaN             NaN             NaN
             NaN             NaN             NaN
             NaN             NaN             NaN
             NaN             NaN             NaN
             NaN             NaN             NaN
             NaN             NaN             NaN
             NaN             NaN             NaN
             NaN             NaN             NaN
             NaN             NaN             NaN
             NaN             NaN             NaN
             NaN             NaN             NaN
             NaN             NaN             NaN
             NaN             NaN             NaN
             NaN             NaN             NaN
             NaN             NaN             NaN
             NaN             NaN             NaN
             NaN             NaN             NaN
             NaN             NaN             NaN
             NaN             NaN             NaN
             NaN             NaN             NaN
             NaN             NaN             NaN
             NaN             NaN             NaN
             NaN             NaN             NaN
             NaN             NaN             NaN
             NaN             NaN             NaN
             NaN             NaN             NaN
             NaN             NaN             NaN
             NaN             NaN             NaN
             NaN             NaN             NaN
             NaN             NaN             NaN
             NaN             NaN             NaN
             NaN             NaN             NaN
