Ca8 Cr12 F42
1.0
7.464318 -0.004347 -0.530994
-3.617930 6.744785 0.232845
0.892729 0.211101 18.521089
Ca Cr F
8 12 42
direct
0.823446 0.294633 0.335582 Ca
0.530246 0.841016 0.679892 Ca
0.597420 0.116777 0.004858 Ca
0.017693 0.812700 0.662575 Ca
0.110478 0.646372 1.001268 Ca
0.894133 0.785406 0.174541 Ca
0.856528 0.912988 0.845719 Ca
0.244986 0.223506 0.501347 Ca
0.310726 0.980190 0.331116 Cr
0.010959 0.306985 0.661757 Cr
0.627816 0.648934 -0.004658 Cr
0.349718 0.984170 0.827608 Cr
0.956617 0.317067 0.160682 Cr
0.704329 0.681097 0.504455 Cr
0.438521 0.818257 0.165492 Cr
0.210495 0.695086 0.500512 Cr
0.312141 0.471875 0.830321 Cr
0.815078 0.464675 0.825086 Cr
0.707633 0.180488 0.504904 Cr
0.450611 0.314319 0.161538 Cr
0.737448 0.136272 0.612217 F
0.891278 0.671471 0.921233 F
0.453799 0.225892 0.273708 F
0.187483 0.725558 0.395981 F
0.429387 0.772743 0.057688 F
0.265161 0.471234 0.722670 F
0.731287 0.927554 0.955236 F
0.986633 0.816150 0.277922 F
0.131103 0.149287 0.616239 F
0.885799 0.742665 0.055172 F
0.855564 0.968791 0.725177 F
0.196077 0.108594 0.393872 F
0.535931 0.380369 0.033380 F
0.676558 0.190715 0.402782 F
0.892685 0.471553 0.690689 F
0.365875 0.545319 0.935312 F
0.246621 0.701135 0.608391 F
0.436940 0.860100 0.268675 F
0.752460 0.421476 0.173117 F
0.613579 0.387420 0.521344 F
0.642364 0.238933 0.886956 F
0.525585 0.859598 0.809208 F
0.402607 0.576815 0.492140 F
0.141467 0.680291 0.154230 F
0.977558 0.313317 0.262731 F
0.687129 0.711279 0.610823 F
0.316576 0.919355 0.935546 F
0.342759 0.990191 0.718718 F
0.725948 0.652437 0.405222 F
0.920463 0.333439 0.050567 F
0.153123 0.209653 0.148231 F
0.789499 0.970241 0.489361 F
0.004562 0.738819 0.787181 F
0.193985 0.129895 0.840348 F
0.000637 0.779573 0.528776 F
0.736077 0.981733 0.159029 F
0.024520 0.385908 0.849112 F
0.521067 0.594329 0.181831 F
0.406115 0.006537 0.511328 F
0.421874 0.065363 0.119251 F
0.604451 0.555787 0.810375 F
0.008672 0.369454 0.504952 F
