Mg8 Mo48 S64                            
    1.000000000000000     
    12.9690954480228449   -0.1957836906021949   -0.1132902641116095
    -0.1125685044433079   12.9700812991528540   -0.1132931304407202
    -0.1970398701615989   -0.1957777094608185   12.9680946407554671
   Mg   Mo   S 
     1    48    64
Direct
  0.4999702550650937  0.5000180424401464  0.5000116182098964
  0.2233122901919700  0.3940223399734322  0.2977740085336364
  0.2256095958206998  0.3913233619209606  0.7963261701688609
  0.2241798868857927  0.8937271897418881  0.2981755910255472
  0.2240023038315897  0.8928563030665515  0.7985245172134157
  0.7249147540867753  0.3915070544265902  0.2958642810047607
  0.7245392234449142  0.3927725841707073  0.7973439837050833
  0.7242126816494405  0.8936245250888319  0.2962213407895717
  0.7237494157280082  0.8924225926000346  0.7960647622440504
  0.2977698277778771  0.2233126673553798  0.3940203544159786
  0.2981720315827658  0.2241766077954210  0.8937258041851877
  0.2958536046548446  0.7249131676231144  0.3914857871501383
  0.2962164119948270  0.7242065096464003  0.8936145027179521
  0.7963352297093493  0.2256139480267549  0.3913448389531524
  0.7985307400109676  0.2240051648710804  0.8928649988862745
  0.7973526926880510  0.7245408972197964  0.3927784179133127
  0.7960703142211401  0.7237479434948639  0.8924230538062261
  0.3940198891902824  0.2977763634897315  0.2233062912720882
  0.3914912012116005  0.2958614038000462  0.7249050354092432
  0.3913338143110110  0.7963275157817549  0.2256043486514869
  0.3927699336118806  0.7973468953551546  0.7245272954757880
  0.8937359137452674  0.2981756759795928  0.2241911325324466
  0.8936228028378892  0.2962223042758581  0.7242178720007644
  0.8928632479955567  0.7985240616818601  0.2240121486632134
  0.8924214890985454  0.7960640718177672  0.7237541702072647
  0.2762491373834735  0.1075825838212552  0.2039344595794574
  0.2757882736987938  0.1063846659432102  0.7037830496919497
  0.2754652822730890  0.6072289629741974  0.2026491370923580
  0.2750912128550382  0.6085153839045816  0.7041405726176819
  0.7759914419779790  0.1071356851343452  0.2014738280851844
  0.7758157195087776  0.1062638111622221  0.7018261586453534
  0.7743903454352576  0.6086549738582505  0.2036666635575841
  0.7766896243881121  0.6059752638669309  0.7022248694657023
  0.2039392285188626  0.2762486345932800  0.1075831334569060
  0.2026576149325763  0.2754670853794465  0.6072336674227046
  0.2014802910412072  0.7759944143670623  0.1071449112094314
  0.2036753722941569  0.7743952969153938  0.6086740830707811
  0.7037774563923165  0.2757832077461586  0.1063761322170862
  0.7041333473103961  0.2750887944034588  0.6084954707969814
  0.7018222737178945  0.7758129301699697  0.1062626113369234
  0.7022203992399199  0.7766904454441814  0.6059725516877563
  0.1075824095011555  0.2039341020485068  0.2762540736578671
  0.1071426992196152  0.2014720964663468  0.7760019682711459
  0.1063822931197507  0.7037842340906977  0.2757936349254848
  0.1062730680229507  0.7018242995623822  0.7758249599353562
  0.6072262556240346  0.2026518101382493  0.2754569912164584
  0.6086656916612725  0.2036688963658264  0.7743850462804573
  0.6085000505660076  0.7041410856918233  0.2750816871042190
  0.6059737716978120  0.7022261370324330  0.7766843126098166
  0.1346188438315465  0.3057321672022368  0.4343888487077976
  0.1351450016073557  0.3050923244992632  0.9343994071270316
  0.1327735944047390  0.8063100565209993  0.4351256014563560
  0.1325163589764102  0.8042528751766866  0.9342774842438999
  0.6315508044554079  0.3072307398234813  0.4351770847339154
  0.6351087348590170  0.3044628589733591  0.9332312549653068
  0.6348218737320792  0.8069073811553267  0.4332189131543771
  0.6328701468378526  0.8060957237258037  0.9330228886541434
  0.4343823188491172  0.1346181611781461  0.3057277806556442
  0.4351208501535453  0.1327768667791744  0.8063074979588194
  0.4351841147236470  0.6315435225544874  0.3072394052654985
  0.4332269389325774  0.6348137587230980  0.8069152698793616
  0.9343902096400285  0.1351525002020040  0.3050836317136572
  0.9342734237047736  0.1325212510723404  0.8042474023079933
  0.9332358198433397  0.6351088415014701  0.3044647178070221
  0.9330309365182714  0.6328685523745037  0.8060986464071220
  0.3057324448789771  0.4343858182852713  0.1346162672905180
  0.3072501312046967  0.4351882579429542  0.6315393232228104
  0.3050906124369419  0.9343949004811236  0.1351473391476219
  0.3044740219956097  0.9332394697154101  0.6351056034699312
  0.8062966174310233  0.4351135379784878  0.1327823183758241
  0.8069082760975661  0.4332207369978818  0.6348174185412105
  0.8042403741143147  0.9342674124962258  0.1325209738723458
  0.8060956724595840  0.9330258695662508  0.6328685461015411
  0.3671311629660821  0.1939014844925424  0.0669688870124503
  0.3651880752917336  0.1930838880466297  0.5667733193324764
  0.3648932328131309  0.6955290878023277  0.0667594641438001
  0.3684612372822897  0.6927500714524228  0.5648091400694213
  0.8674776574861340  0.1957592780830524  0.0657326080564644
  0.8672188968900372  0.1937007267357913  0.5648868539995604
  0.8648481219068458  0.6949168788259144  0.0656099889740673
  0.8653823804121004  0.6942713874376025  0.5656179759381459
  0.0669765310600710  0.3671306697483345  0.1939048221537902
  0.0667644683417308  0.3648929985874005  0.6955315161438804
  0.0657284724408740  0.8674823326374792  0.1957524358276501
  0.0656005281934000  0.8648549531356906  0.6949080733457009
  0.5667821050027300  0.3651788309590529  0.1930936567608725
  0.5648177803245034  0.3684544101207265  0.6927577966594640
  0.5648816445413303  0.8672227553269352  0.1936976633732286
  0.5656117133982548  0.8653812901510420  0.6942673865234426
  0.1939003767942253  0.0669709980703672  0.3671299658101077
  0.1957453842403325  0.0657237394357537  0.8674829506071120
  0.1930848084562982  0.5667759475350707  0.3651843426506431
  0.1936868956929345  0.5648733310617544  0.8672261923653508
  0.6955402979565477  0.0667678359641428  0.3648909479084921
  0.6949144248053898  0.0656063979237302  0.8648509580277874
  0.6927703581170022  0.5648231274933408  0.3684504977850480
  0.6942714600384718  0.5656144765701967  0.8653808390107116
  0.3889882610155624  0.3889846002278645  0.3889829739160859
  0.3898608340590926  0.3882427521204619  0.8889480654052946
  0.3882432467132588  0.8889495641967144  0.3898588000279872
  0.3891996081272922  0.8885105784075051  0.8894283587830145
  0.8889559093173460  0.3898671468184389  0.3882542149009254
  0.8894371486261932  0.3892057494569130  0.8885210252707481
  0.8885171189801042  0.8894390984617857  0.3892091308595198
  0.8881305078190849  0.8881297353817672  0.8881319389639870
  0.1118707486914801  0.1118694334875840  0.1118719357627000
  0.1114843075021383  0.1105680309935053  0.6108015057893184
  0.1105661077118256  0.6107983352824036  0.1114879353053126
  0.1110516729049706  0.6101418072103542  0.6117601403861030
  0.6107925094872826  0.1114794034624822  0.1105584435010627
  0.6117512919402230  0.1110465147297717  0.6101340388573675
  0.6101361280272783  0.6117511896943810  0.1110437039761081
  0.6110156512094207  0.6110115848208366  0.6110095816850674
 
  0.00000000E+00  0.00000000E+00  0.00000000E+00
  0.00000000E+00  0.00000000E+00  0.00000000E+00
  0.00000000E+00  0.00000000E+00  0.00000000E+00
  0.00000000E+00  0.00000000E+00  0.00000000E+00
  0.00000000E+00  0.00000000E+00  0.00000000E+00
  0.00000000E+00  0.00000000E+00  0.00000000E+00
  0.00000000E+00  0.00000000E+00  0.00000000E+00
  0.00000000E+00  0.00000000E+00  0.00000000E+00
  0.00000000E+00  0.00000000E+00  0.00000000E+00
  0.00000000E+00  0.00000000E+00  0.00000000E+00
  0.00000000E+00  0.00000000E+00  0.00000000E+00
  0.00000000E+00  0.00000000E+00  0.00000000E+00
  0.00000000E+00  0.00000000E+00  0.00000000E+00
  0.00000000E+00  0.00000000E+00  0.00000000E+00
  0.00000000E+00  0.00000000E+00  0.00000000E+00
  0.00000000E+00  0.00000000E+00  0.00000000E+00
  0.00000000E+00  0.00000000E+00  0.00000000E+00
  0.00000000E+00  0.00000000E+00  0.00000000E+00
  0.00000000E+00  0.00000000E+00  0.00000000E+00
  0.00000000E+00  0.00000000E+00  0.00000000E+00
  0.00000000E+00  0.00000000E+00  0.00000000E+00
  0.00000000E+00  0.00000000E+00  0.00000000E+00
  0.00000000E+00  0.00000000E+00  0.00000000E+00
  0.00000000E+00  0.00000000E+00  0.00000000E+00
  0.00000000E+00  0.00000000E+00  0.00000000E+00
  0.00000000E+00  0.00000000E+00  0.00000000E+00
  0.00000000E+00  0.00000000E+00  0.00000000E+00
  0.00000000E+00  0.00000000E+00  0.00000000E+00
  0.00000000E+00  0.00000000E+00  0.00000000E+00
  0.00000000E+00  0.00000000E+00  0.00000000E+00
  0.00000000E+00  0.00000000E+00  0.00000000E+00
  0.00000000E+00  0.00000000E+00  0.00000000E+00
  0.00000000E+00  0.00000000E+00  0.00000000E+00
  0.00000000E+00  0.00000000E+00  0.00000000E+00
  0.00000000E+00  0.00000000E+00  0.00000000E+00
  0.00000000E+00  0.00000000E+00  0.00000000E+00
  0.00000000E+00  0.00000000E+00  0.00000000E+00
  0.00000000E+00  0.00000000E+00  0.00000000E+00
  0.00000000E+00  0.00000000E+00  0.00000000E+00
  0.00000000E+00  0.00000000E+00  0.00000000E+00
  0.00000000E+00  0.00000000E+00  0.00000000E+00
  0.00000000E+00  0.00000000E+00  0.00000000E+00
  0.00000000E+00  0.00000000E+00  0.00000000E+00
  0.00000000E+00  0.00000000E+00  0.00000000E+00
  0.00000000E+00  0.00000000E+00  0.00000000E+00
  0.00000000E+00  0.00000000E+00  0.00000000E+00
  0.00000000E+00  0.00000000E+00  0.00000000E+00
  0.00000000E+00  0.00000000E+00  0.00000000E+00
  0.00000000E+00  0.00000000E+00  0.00000000E+00
  0.00000000E+00  0.00000000E+00  0.00000000E+00
  0.00000000E+00  0.00000000E+00  0.00000000E+00
  0.00000000E+00  0.00000000E+00  0.00000000E+00
  0.00000000E+00  0.00000000E+00  0.00000000E+00
  0.00000000E+00  0.00000000E+00  0.00000000E+00
  0.00000000E+00  0.00000000E+00  0.00000000E+00
  0.00000000E+00  0.00000000E+00  0.00000000E+00
  0.00000000E+00  0.00000000E+00  0.00000000E+00
  0.00000000E+00  0.00000000E+00  0.00000000E+00
  0.00000000E+00  0.00000000E+00  0.00000000E+00
  0.00000000E+00  0.00000000E+00  0.00000000E+00
  0.00000000E+00  0.00000000E+00  0.00000000E+00
  0.00000000E+00  0.00000000E+00  0.00000000E+00
  0.00000000E+00  0.00000000E+00  0.00000000E+00
  0.00000000E+00  0.00000000E+00  0.00000000E+00
  0.00000000E+00  0.00000000E+00  0.00000000E+00
  0.00000000E+00  0.00000000E+00  0.00000000E+00
  0.00000000E+00  0.00000000E+00  0.00000000E+00
  0.00000000E+00  0.00000000E+00  0.00000000E+00
  0.00000000E+00  0.00000000E+00  0.00000000E+00
  0.00000000E+00  0.00000000E+00  0.00000000E+00
  0.00000000E+00  0.00000000E+00  0.00000000E+00
  0.00000000E+00  0.00000000E+00  0.00000000E+00
  0.00000000E+00  0.00000000E+00  0.00000000E+00
  0.00000000E+00  0.00000000E+00  0.00000000E+00
  0.00000000E+00  0.00000000E+00  0.00000000E+00
  0.00000000E+00  0.00000000E+00  0.00000000E+00
  0.00000000E+00  0.00000000E+00  0.00000000E+00
  0.00000000E+00  0.00000000E+00  0.00000000E+00
  0.00000000E+00  0.00000000E+00  0.00000000E+00
  0.00000000E+00  0.00000000E+00  0.00000000E+00
  0.00000000E+00  0.00000000E+00  0.00000000E+00
  0.00000000E+00  0.00000000E+00  0.00000000E+00
  0.00000000E+00  0.00000000E+00  0.00000000E+00
  0.00000000E+00  0.00000000E+00  0.00000000E+00
  0.00000000E+00  0.00000000E+00  0.00000000E+00
  0.00000000E+00  0.00000000E+00  0.00000000E+00
  0.00000000E+00  0.00000000E+00  0.00000000E+00
  0.00000000E+00  0.00000000E+00  0.00000000E+00
  0.00000000E+00  0.00000000E+00  0.00000000E+00
  0.00000000E+00  0.00000000E+00  0.00000000E+00
  0.00000000E+00  0.00000000E+00  0.00000000E+00
  0.00000000E+00  0.00000000E+00  0.00000000E+00
  0.00000000E+00  0.00000000E+00  0.00000000E+00
  0.00000000E+00  0.00000000E+00  0.00000000E+00
  0.00000000E+00  0.00000000E+00  0.00000000E+00
  0.00000000E+00  0.00000000E+00  0.00000000E+00
  0.00000000E+00  0.00000000E+00  0.00000000E+00
  0.00000000E+00  0.00000000E+00  0.00000000E+00
  0.00000000E+00  0.00000000E+00  0.00000000E+00
  0.00000000E+00  0.00000000E+00  0.00000000E+00
  0.00000000E+00  0.00000000E+00  0.00000000E+00
  0.00000000E+00  0.00000000E+00  0.00000000E+00
  0.00000000E+00  0.00000000E+00  0.00000000E+00
  0.00000000E+00  0.00000000E+00  0.00000000E+00
  0.00000000E+00  0.00000000E+00  0.00000000E+00
  0.00000000E+00  0.00000000E+00  0.00000000E+00
  0.00000000E+00  0.00000000E+00  0.00000000E+00
  0.00000000E+00  0.00000000E+00  0.00000000E+00
  0.00000000E+00  0.00000000E+00  0.00000000E+00
  0.00000000E+00  0.00000000E+00  0.00000000E+00
  0.00000000E+00  0.00000000E+00  0.00000000E+00
  0.00000000E+00  0.00000000E+00  0.00000000E+00
  0.00000000E+00  0.00000000E+00  0.00000000E+00
