Nd16 Mg8 Se32
1.0
       12.0062923431         0.0000000000         0.0000000000
        0.0000000000        12.0062923431         0.0000000000
        0.0000000000         0.0000000000        12.0062923431
Mg   Nd   Mg   Se
1   16    6   32
Direct
   0.5000000000000000    0.5000000000000000    0.0000000000000000 Mg
     0.375000000         0.625000000         0.375000000
     0.375000000         0.875000000         0.125000000
     0.125000000         0.875000000         0.375000000
     0.125000000         0.625000000         0.125000000
     0.375000000         0.125000000         0.875000000
     0.375000000         0.375000000         0.625000000
     0.125000000         0.375000000         0.875000000
     0.125000000         0.125000000         0.625000000
     0.875000000         0.625000000         0.875000000
     0.875000000         0.875000000         0.625000000
     0.625000000         0.875000000         0.875000000
     0.625000000         0.625000000         0.625000000
     0.875000000         0.125000000         0.375000000
     0.875000000         0.375000000         0.125000000
     0.625000000         0.375000000         0.375000000
     0.625000000         0.125000000         0.125000000
     0.500000000         0.000000000         0.500000000
     0.250000000         0.250000000         0.250000000
     0.250000000         0.750000000         0.750000000
     0.000000000         0.000000000         0.000000000
     0.750000000         0.250000000         0.750000000
     0.000000000         0.500000000         0.500000000
     0.377745003         0.377745003         0.377745003
     0.377745003         0.122254997         0.122254997
     0.122254997         0.377745003         0.122254997
     0.122254997         0.122254997         0.377745003
     0.627744973         0.127745003         0.372254997
     0.127745003         0.872255027         0.127745003
     0.872255027         0.127745003         0.127745003
     0.372254997         0.872255027         0.372254997
     0.377745003         0.877744973         0.877744973
     0.377745003         0.622255027         0.622255027
     0.122254997         0.877744973         0.622255027
     0.122254997         0.622255027         0.877744973
     0.627744973         0.627744973         0.872255027
     0.127745003         0.372254997         0.627744973
     0.872255027         0.627744973         0.627744973
     0.372254997         0.372254997         0.872255027
     0.877744973         0.377745003         0.877744973
     0.877744973         0.122254997         0.622255027
     0.622255027         0.377745003         0.622255027
     0.622255027         0.122254997         0.877744973
     0.127745003         0.127745003         0.872255027
     0.627744973         0.872255027         0.627744973
     0.372254997         0.127745003         0.627744973
     0.872255027         0.872255027         0.872255027
     0.877744973         0.877744973         0.377745003
     0.877744973         0.622255027         0.122254997
     0.622255027         0.877744973         0.122254997
     0.622255027         0.622255027         0.377745003
     0.127745003         0.627744973         0.372254997
     0.627744973         0.372254997         0.127745003
     0.372254997         0.627744973         0.127745003
     0.872255027         0.372254997         0.372254997
