Na2 Ca2 V4 Si4 P2 O24                   
   1.00000000000000     
     8.8802199999999996    0.1864060000000000    0.0429550000000000
     4.3410200000000003    7.7094199999999997    0.0524660000000000
     4.4258499999999996    2.5739930000000002    7.2700129999999996
   Ca   Na   V    Si   P    O 
     2     2     4     4     2    24
Direct
  0.6014686167563794  0.8518989489407514  0.2541584300134846
  0.0125874206024023  0.0007017138735141  0.9904904639007843
  0.1401101349833219  0.7466589284202800  0.3993286350518626
  0.8393807810854006  0.2549938685942256  0.5857162878272918
  0.3735139658048114  0.3551277800510860  0.3633102736639648
  0.6435944700469615  0.6316648321934852  0.6601477486030913
  0.1513955557702300  0.1472565370498838  0.1340056634102855
  0.8561893194172294  0.8443330872363600  0.8485195599404918
  0.0361888164581220  0.4497529185874165  0.7529639389543700
  0.7513048164646032  0.0254690616497230  0.4635872168620573
  0.4633565110029333  0.7434485590243591  0.0396198412654198
  0.5343603414331102  0.2543234844651102  0.9662054722127184
  0.9742371472187809  0.5401794338056829  0.2486498676333479
  0.2455943876415821  0.9702805361721076  0.5415839006591875
  0.2213618836262436  0.4374848673726540  0.5711373975149613
  0.7800973477870269  0.5640238843416681  0.4091450025501223
  0.5679638321083360  0.2120738099052193  0.4375808089597488
  0.4193072848704060  0.7949435496309574  0.5652740794250286
  0.4366786173991452  0.5688807422399507  0.2314246582241775
  0.5645413796226529  0.4221375947072614  0.7723552417735062
  0.9335314308956772  0.0564922521469685  0.2782289489056922
  0.0713727207015867  0.9498177828650539  0.7187939168214528
  0.0594384023531875  0.2645665005489807  0.9318404609782384
  0.9356485879554730  0.7261067526615786  0.0835566364468704
  0.2653684889207280  0.9146949004978271  0.0678316544355094
  0.7270370809008049  0.0676995895115035  0.9586565102087697
  0.4803733808416761  0.2884447399128961  0.1535397367223211
  0.5083415936701311  0.7052187179471974  0.8575278014497743
  0.1264512716418173  0.5308255602631842  0.2893186831723643
  0.8608110214161573  0.4780705830980811  0.7131370566296233
  0.2629323654222700  0.1491071469106678  0.5080637277069348
  0.7283347552435677  0.8438906037835570  0.4843806975112042
  0.3655893677390894  0.1913687278453031  1.0084658290009356
  0.6328800109022871  0.7886375748788669  0.0155691526325435
  0.2282737177424052  0.9784154711661831  0.3708707140528037
  0.7792583668325956  1.0030329097010271  0.6429573715501004
  0.0160213149062700  0.3648569773367837  0.2168900681754602
  0.9934755140772485  0.6387088961673124  0.7861863237252439
 
             NaN             NaN             NaN
             NaN             NaN             NaN
             NaN             NaN             NaN
             NaN             NaN             NaN
             NaN             NaN             NaN
             NaN             NaN             NaN
             NaN             NaN             NaN
             NaN             NaN             NaN
             NaN             NaN             NaN
             NaN             NaN             NaN
             NaN             NaN             NaN
             NaN             NaN             NaN
             NaN             NaN             NaN
             NaN             NaN             NaN
             NaN             NaN             NaN
             NaN             NaN             NaN
             NaN             NaN             NaN
             NaN             NaN             NaN
             NaN             NaN             NaN
             NaN             NaN             NaN
             NaN             NaN             NaN
             NaN             NaN             NaN
             NaN             NaN             NaN
             NaN             NaN             NaN
             NaN             NaN             NaN
             NaN             NaN             NaN
             NaN             NaN             NaN
             NaN             NaN             NaN
             NaN             NaN             NaN
             NaN             NaN             NaN
             NaN             NaN             NaN
             NaN             NaN             NaN
             NaN             NaN             NaN
             NaN             NaN             NaN
             NaN             NaN             NaN
             NaN             NaN             NaN
             NaN             NaN             NaN
             NaN             NaN             NaN
