Na2 Ca2 V4 Si4 P2 O24
1.0
8.880220 0.186406 0.042955
4.341020 7.709420 0.052466
4.425850 2.573993 7.270013
Ca Na V Si P O
2 2 4 4 2 24
direct
0.593440 0.824718 0.285384 Ca
0.019202 1.001318 -0.017423 Ca
0.146105 0.752566 0.395161 Na
0.826816 0.258768 0.584829 Na
0.373035 0.354114 0.362303 V
0.645646 0.638768 0.655242 V
0.150722 0.152790 0.129538 V
0.854178 0.846415 0.851339 V
0.038416 0.454583 0.749870 Si
0.751518 0.030081 0.459533 Si
0.466996 0.748618 0.036681 Si
0.534138 0.255324 0.966162 Si
0.972376 0.541645 0.246994 P
0.246938 0.971882 0.540830 P
0.224046 0.445920 0.567667 O
0.779268 0.564861 0.408569 O
0.571229 0.221290 0.437387 O
0.418548 0.792816 0.563875 O
0.439046 0.567255 0.219212 O
0.561213 0.430733 0.778964 O
0.935890 0.059590 0.276826 O
0.071838 0.949757 0.715725 O
0.060128 0.265993 0.926436 O
0.939144 0.730548 0.083409 O
0.267044 0.916961 0.067980 O
0.731169 0.075108 0.944768 O
0.484896 0.266929 0.163924 O
0.517405 0.721272 0.846460 O
0.128327 0.520137 0.291470 O
0.863400 0.489823 0.704251 O
0.267187 0.144345 0.520007 O
0.725114 0.854146 0.472491 O
0.363831 0.200599 -0.000644 O
0.633077 0.791971 1.022321 O
0.228487 0.991033 0.366471 O
0.780604 -0.003120 0.642761 O
0.008910 0.372935 0.207758 O
0.993273 0.638426 0.792006 O
