Ca8 Ti12 F42
1.0
7.470695 -0.028944 -0.091062
-3.719408 6.505435 0.051197
0.238768 0.031135 18.906606
Ca Ti F
8 12 42
direct
0.850100 -0.004965 0.322110 Ca
0.514249 0.344817 0.677677 Ca
0.158268 0.166921 -0.001439 Ca
0.020683 0.830597 0.669896 Ca
0.653712 0.157659 0.993203 Ca
0.012795 0.791970 0.159254 Ca
0.817535 -0.003076 0.825683 Ca
0.198412 0.186571 0.496374 Ca
0.347043 0.989823 0.330868 Ti
0.010968 0.333922 0.662405 Ti
0.668550 0.667692 0.987196 Ti
0.350298 0.043269 0.830148 Ti
0.998295 0.303668 0.165841 Ti
0.687926 0.689313 0.504011 Ti
0.520733 0.836174 0.160752 Ti
0.203341 0.687464 0.503915 Ti
0.348392 0.485024 0.832383 Ti
0.796279 0.486988 0.831769 Ti
0.684099 0.168359 0.497374 Ti
0.500451 0.303702 0.158516 Ti
0.736257 0.244387 0.606231 F
0.803199 0.492948 0.944684 F
0.453219 0.213935 0.259603 F
0.245086 0.768578 0.402229 F
0.562225 0.829269 0.051421 F
0.279232 0.442220 0.722026 F
0.828617 -0.004126 0.947216 F
0.062845 0.864220 0.273965 F
0.187275 0.180407 0.615499 F
0.944971 0.828927 0.047060 F
0.890739 0.043151 0.710719 F
0.168969 0.104637 0.383714 F
0.522467 0.359118 0.046884 F
0.637183 0.103458 0.388705 F
0.855099 0.485422 0.718182 F
0.352876 0.488603 0.946518 F
0.134793 0.625172 0.612998 F
0.510371 0.878688 0.270426 F
0.817705 0.436642 0.165933 F
0.588619 0.380066 0.490649 F
0.659129 0.172078 0.865522 F
0.434298 0.803840 0.818724 F
0.372711 0.542645 0.513818 F
0.211603 0.615158 0.156940 F
0.025071 0.303777 0.268960 F
0.698164 0.647993 0.614219 F
0.332131 0.022048 0.945497 F
0.337797 0.020361 0.718039 F
0.706727 0.743512 0.401874 F
0.952645 0.280795 0.055667 F
0.193605 0.201681 0.131864 F
0.833884 1.007202 0.515885 F
0.012323 0.809355 0.801661 F
0.165059 0.169315 0.860598 F
-0.005680 0.787176 0.514901 F
0.834674 0.981876 0.187971 F
0.035847 0.418128 0.829988 F
0.591732 0.605209 0.169362 F
0.376438 1.001584 0.527186 F
0.371512 -0.004660 0.129014 F
0.660685 0.662226 0.868199 F
0.990190 0.384994 0.479441 F
