Ca8 Mn12 F42
1.0
7.742158 -0.101595 -0.014424
-3.965202 6.724443 0.064061
-0.017737 0.178703 18.292806
Ca Mn F
8 12 42
direct
0.486176 0.853278 0.654112 Ca
0.165526 0.651027 0.985912 Ca
0.343551 0.504045 0.347548 Ca
0.835241 -0.001038 0.343995 Ca
0.170545 0.148300 0.008504 Ca
0.814530 0.951683 0.838408 Ca
1.003230 0.774571 0.177398 Ca
0.170031 0.175069 0.517924 Ca
0.336319 1.032512 0.325258 Mn
-0.010838 0.343892 0.672746 Mn
0.646159 0.642429 0.012611 Mn
0.322899 0.003735 0.829260 Mn
0.017898 0.317593 0.167691 Mn
0.713233 0.631370 0.508298 Mn
0.510506 0.816409 0.164451 Mn
0.170590 0.679893 0.491576 Mn
0.323533 0.502192 0.834564 Mn
0.822047 0.506377 0.836405 Mn
0.674198 0.182432 0.490366 Mn
0.505883 0.311145 0.165374 Mn
0.752752 0.199851 0.600323 F
0.822582 0.568818 0.947192 F
0.453672 0.336710 0.274530 F
0.248106 0.751918 0.378225 F
0.466020 0.771083 0.052224 F
0.263958 0.537071 0.729028 F
0.841299 0.932757 0.963407 F
0.027457 0.891607 0.287324 F
0.123711 0.220584 0.631372 F
1.066700 0.822216 0.060505 F
0.782490 0.047777 0.728261 F
0.216038 0.160925 0.392420 F
0.502205 0.331429 0.051515 F
0.610884 0.117507 0.375579 F
0.867315 0.451416 0.734785 F
0.369058 0.485887 0.950312 F
0.147437 0.601166 0.601767 F
0.552610 0.776080 0.274193 F
0.812968 0.420976 0.178381 F
0.508077 0.318809 0.515360 F
0.602528 0.226685 0.847455 F
0.458967 0.819291 0.854762 F
0.262264 0.480446 0.469208 F
0.206836 0.621840 0.175546 F
0.045612 0.302524 0.283650 F
0.629536 0.714257 0.595088 F
0.271125 0.970623 0.937770 F
0.360088 -0.008891 0.725789 F
0.657116 0.689207 0.404618 F
0.053682 0.357347 0.052137 F
0.187570 0.170843 0.143499 F
0.868983 1.085839 0.464674 F
0.020017 0.803226 0.820249 F
0.165313 0.186978 0.843859 F
1.026611 0.841348 0.513392 F
0.798989 0.031601 0.167628 F
0.056049 0.470951 0.876898 F
0.664777 0.647370 0.137001 F
0.435236 0.917689 0.525954 F
0.395302 0.004888 0.204983 F
0.625118 0.608258 0.815128 F
0.877480 0.476152 0.467438 F
