Mg5 Ti12 P18 O72
1.0
8.652471 0.000001 -0.000008
-4.326235 7.493255 0.000006
-0.000020 0.000004 20.808630
Mg Ti P O
5 12 18 72
direct
   0.6666650000000000    0.3333360000000000    0.3324080000000000 Mg
0.000001 0.000000 0.998432 Mg
0.999998 0.000001 0.499088 Mg
0.666667 0.333333 0.833364 Mg
0.333333 0.666667 0.668195 Mg
1.000000 0.999998 0.140221 Ti
-0.000000 0.000000 0.855596 Ti
1.000000 0.999998 0.353533 Ti
0.999999 1.000000 0.643167 Ti
0.666664 0.333335 0.471337 Ti
0.666668 0.333331 0.195380 Ti
0.666667 0.333334 0.689608 Ti
0.666666 0.333332 0.977129 Ti
0.333334 0.666667 0.810998 Ti
0.333333 0.666669 0.526419 Ti
0.333335 0.666667 0.023466 Ti
0.333331 0.666668 0.313148 Ti
0.289048 0.991977 0.246170 P
0.704601 0.000110 0.749986 P
0.008024 0.297070 0.246169 P
0.999891 0.704491 0.749986 P
0.702929 0.710949 0.246170 P
0.295509 0.295399 0.749986 P
0.959955 0.334482 0.583977 P
0.373393 0.332236 0.082710 P
0.665516 0.625474 0.583978 P
0.667765 0.041155 0.082709 P
0.374525 0.040046 0.583978 P
0.958846 0.626606 0.082709 P
0.628719 0.666592 0.916646 P
0.044269 0.674706 0.420504 P
0.333408 0.962126 0.916646 P
0.325291 0.369565 0.420505 P
0.037875 0.371282 0.916646 P
0.630434 0.955732 0.420503 P
0.184306 0.988837 0.185499 O
0.802341 0.991570 0.810584 O
0.011168 0.195473 0.185497 O
0.008430 0.810771 0.810584 O
0.804533 0.815696 0.185501 O
0.189229 0.197659 0.810584 O
0.002929 0.192872 0.307065 O
0.992475 0.802857 0.689545 O
0.189953 0.997074 0.307067 O
0.810382 0.007527 0.689545 O
0.807126 0.810050 0.307067 O
0.197144 0.189619 0.689544 O
0.863839 0.349210 0.525082 O
0.469568 0.317651 0.141610 O
0.650789 0.514632 0.525083 O
0.682350 0.151915 0.141610 O
0.485370 0.136161 0.525083 O
0.848084 0.530431 0.141610 O
0.678277 0.531591 0.645563 O
0.655031 0.135078 0.021132 O
0.853307 0.321722 0.645561 O
0.480054 0.344970 0.021134 O
0.468409 0.146692 0.645562 O
0.864922 0.519947 0.021133 O
0.531001 0.675102 0.856034 O
0.149040 0.677862 0.481172 O
0.324900 0.855899 0.856034 O
0.322132 0.471174 0.481174 O
0.144103 0.469001 0.856035 O
0.528818 0.850957 0.481169 O
0.340816 0.863784 0.977103 O
0.330479 0.473838 0.359616 O
0.522969 0.659183 0.977103 O
0.143350 0.669519 0.359614 O
0.136217 0.477032 0.977103 O
0.526164 0.856649 0.359613 O
0.185287 0.165148 0.071743 O
0.816933 0.834063 0.924571 O
0.834853 0.020137 0.071743 O
0.165937 0.982868 0.924571 O
0.979863 0.814712 0.071743 O
0.017133 0.183068 0.924570 O
0.152184 0.184915 0.424299 O
0.833708 0.814247 0.575112 O
0.032733 0.847817 0.424300 O
0.980537 0.166290 0.575112 O
0.815082 0.967270 0.424299 O
0.185752 0.019463 0.575111 O
0.855563 0.512785 0.418906 O
0.477735 0.153952 0.247788 O
0.487216 0.342785 0.418905 O
0.846046 0.323775 0.247789 O
0.657214 0.144435 0.418905 O
0.676224 0.522266 0.247790 O
0.832040 0.516587 0.758861 O
0.501281 0.150024 0.907828 O
0.684547 0.167960 0.758862 O
0.648743 0.498719 0.907828 O
0.483413 0.315453 0.758861 O
0.849978 0.351258 0.907828 O
0.516409 0.832644 0.742049 O
0.148115 0.501489 0.594944 O
0.167357 0.683766 0.742049 O
0.498510 0.646629 0.594943 O
0.316235 0.483591 0.742049 O
0.353371 0.851885 0.594943 O
0.499613 0.852362 0.091533 O
0.181081 0.481751 0.242366 O
0.352752 0.500388 0.091533 O
0.300667 0.818917 0.242366 O
0.147640 0.647249 0.091533 O
0.518251 0.699329 0.242367 O
