K24 Co8 P8 C8 O56
1.0
  13.9409904480000009    0.0000000000000000    0.0000000000000000
  -0.0001954473000000   11.1195783598000002    0.0000000000000000
  -0.0024536967000000   -5.3717375650000001    9.7372335207000003
K Co P C O
23 8 8 8 56
direct
   0.7449350060000000    0.5181840060000000    0.2276999950000000 K
   0.0054275000000000    0.5163509850000000    0.2261770070000000 K
   0.2449350060000000    0.5181840060000000    0.2276999950000000 K
   0.1245545000000000    0.6563410160000002    0.5859990120000000 K
   0.6245544999999999    0.6563410160000002    0.5859990120000000 K
   0.1261444985000000    0.1568019990000000    0.0867239980000000 K
   0.6261444984999999    0.1568019990000000    0.0867239980000000 K
   0.3746309875000000    0.3433600070000000    0.4140050110000000 K
   0.8746309875000000    0.3433600070000000    0.4140050110000000 K
   0.3754535020000000    0.8432760240000000    0.9136049750000000 K
   0.8754535019999999    0.8432760240000000    0.9136049750000000 K
   0.0051625000000000    0.0162690000000001    0.7258080240000001 K
   0.5051625000000001    0.0162690000000001    0.7258080240000001 K
   0.2451560050000000    0.0168680010000000    0.7265239950000001 K
   0.7451560050000000    0.0168680010000000    0.7265239950000001 K
   0.2550730110000000    0.9834709760000000    0.2743130030000000 K
   0.7550730109999999    0.9834709760000000    0.2743130030000000 K
   0.2553679945000000    0.4840070010000000    0.7737609740000001 K
   0.7553679944999998    0.4840070010000000    0.7737609740000001 K
   0.4950875044999999    0.9834560160000001    0.2734679880000001 K
   0.9950875045000001    0.9834560160000001    0.2734679880000001 K
   0.4947890045000000    0.4817059930000000    0.7722989920000000 K
   0.9947890045000000    0.4817059930000000    0.7722989920000000 K
   0.3750525115000000    0.2957659960000000    0.9460650090000001 Co
   0.8750525114999999    0.2957659960000000    0.9460650090000001 Co
   0.1249250025000000    0.7041460280000000    0.0538440010000000 Co
   0.6249250024999999    0.7041460280000000    0.0538440010000000 Co
   0.3754040004999999    0.7960100169999998    0.4448139970000001 Co
   0.8754040005000000    0.7960100169999998    0.4448139970000001 Co
   0.1255989970000000    0.2041099970000000    0.5551329850000001 Co
   0.6255989970000000    0.2041099970000000    0.5551329850000001 Co
   0.1245175005000000    0.8413789869999999    0.4214369950000000 P
   0.6245175004999999    0.8413789869999999    0.4214369950000000 P
   0.1254500000000000    0.3420490030000001    0.9221580030000001 P
   0.6254500000000000    0.3420490030000001    0.9221580030000001 P
   0.3747139870000000    0.1583960060000000    0.5784770250000001 P
   0.8747139870000000    0.1583960060000000    0.5784770250000001 P
   0.3753449914999999    0.6579329970000000    0.0777070000000000 P
   0.8753449914999999    0.6579329970000000    0.0777070000000000 P
   0.3744094970000000    0.6696699860000001    0.5866460200000000 C
   0.8744094970000000    0.6696699860000001    0.5866460200000000 C
   0.3754549919999999    0.1694229990000000    0.0868590030000000 C
   0.8754549920000000    0.1694229990000000    0.0868590030000000 C
   0.1246230005000000    0.3304840030000000    0.4134770040000000 C
   0.6246230004999999    0.3304840030000000    0.4134770040000000 C
   0.1252364965000000    0.8306409720000001    0.9131910200000001 C
   0.6252364964999999    0.8306409720000001    0.9131910200000001 C
   0.1255249975000000    0.8956909779999999    0.8437240120000001 O
   0.6255249975000001    0.8956909779999999    0.8437240120000001 O
   0.1247100010000000    0.3955020010000000    0.3439430000000000 O
   0.6247100010000000    0.3955020010000000    0.3439430000000000 O
   0.3757854999999999    0.1044550020000000    0.1564110070000000 O
   0.8757854999999998    0.1044550020000000    0.1564110070000000 O
   0.3741709890000000    0.6045010090000000    0.6560609940000000 O
   0.8741709889999998    0.6045010090000000    0.6560609940000000 O
   0.3719165025000000    0.6049770119999999    0.4521729950000000 O
   0.8719165025000000    0.6049770119999999    0.4521729950000000 O
   0.3745805025000000    0.1046549980000000    0.9523199800000000 O
   0.8745805025000000    0.1046549980000000    0.9523199800000000 O
   0.1214559970000000    0.3952330050000000    0.5479130150000000 O
   0.6214559970000000    0.3952330050000000    0.5479130150000000 O
   0.1252149940000000    0.8953289989999998    0.0477430000000000 O
   0.6252149940000000    0.8953289989999998    0.0477430000000000 O
   0.3771769999999999    0.8041729930000001    0.6466889980000001 O
   0.8771770000000000    0.8041729930000001    0.6466889980000001 O
   0.3759185075000000    0.3040699960000000    0.1467899980000000 O
   0.8759185075000000    0.3040699960000000    0.1467899980000000 O
   0.1277839990000000    0.1959760040000000    0.3535949890000001 O
   0.6277839989999999    0.1959760040000000    0.3535949890000001 O
   0.1249459980000000    0.6959769730000001    0.8531780240000000 O
   0.6249459980000001    0.6959769730000001    0.8531780240000000 O
   0.1234100015000000    0.0014760000000000    0.5100139980000001 O
   0.6234100014999999    0.0014760000000000    0.5100139980000001 O
   0.1254905015000000    0.5017889740000000    0.0121030000000000 O
   0.6254905015000000    0.5017889740000000    0.0121030000000000 O
   0.3734399975000001    0.9983749990000000    0.4892959890000000 O
   0.8734399975000000    0.9983749990000000    0.4892959890000000 O
   0.3750275075000000    0.4981819990000000    0.9880229830000001 O
   0.8750275074999999    0.4981819990000000    0.9880229830000001 O
   0.3751299974999999    0.1994909940000001    0.7330690030000001 O
   0.8751299975000000    0.1994909940000001    0.7330690030000001 O
   0.3754765094999999    0.6990140080000001    0.2324620040000000 O
   0.8754765094999999    0.6990140080000001    0.2324620040000000 O
   0.1247695015000000    0.7995679970000000    0.2666729990000000 O
   0.6247695015000000    0.7995679970000000    0.2666729990000000 O
   0.1254249960000000    0.3012570140000000    0.7674369810000000 O
   0.6254249960000000    0.3012570140000000    0.7674369810000000 O
   0.0338760020000000    0.7823410030000000    0.4573369920000000 O
   0.5338760020000000    0.7823410030000000    0.4573369920000000 O
   0.0346884990000000    0.2830699980000001    0.9578070040000001 O
   0.5346884990000000    0.2830699980000001    0.9578070040000001 O
   0.2153429985000000    0.7842900160000000    0.4589050110000000 O
   0.7153429985000000    0.7842900160000000    0.4589050110000000 O
   0.2161760030000000    0.2830780150000001    0.9579830170000001 O
   0.7161760029999999    0.2830780150000001    0.9579830170000001 O
   0.2839910090000000    0.2178899940000001    0.5432459710000002 O
   0.7839910090000001    0.2178899940000001    0.5432459710000002 O
   0.2845815119999999    0.7170860169999999    0.0422340000000000 O
   0.7845815120000000    0.7170860169999999    0.0422340000000000 O
   0.4654295145000000    0.2159029990000000    0.5412669780000000 O
   0.9654295144999999    0.2159029990000000    0.5412669780000000 O
   0.4660474955000000    0.7165529730000000    0.0414120000000000 O
   0.9660474954999999    0.7165529730000000    0.0414120000000000 O
