Ca1 V12 F42                             
   1.00000000000000     
     7.3760890000000003   -0.0070120000000000   -0.1040830000000000
    -3.6794370000000001    6.3980139999999999    0.1019550000000000
     0.2702510000000000    0.0438480000000000   17.5182450000000003
   Ca   V    F 
     1    12    42
Direct
  0.8182671745656886  0.2175061835634571  0.3324371286465445
  0.2624767835064312 -0.0071742167871001  0.3286511452066510
  0.7290079960356184  0.7263764715824397  0.9980305036668636
  0.9978256935377192  0.2766039759868006  0.6705179790144822
  0.3577666780657381  0.0026666275672534  0.8337138418988777
  0.6235527026916642  0.6292823885367678  0.4998986254290168
  0.0276672527408748  0.3761634764244441  0.1600401285706726
  0.6177377091612654  0.1266081485292715  0.5097453975872163
  0.5186985641193518  0.3671606804944934  0.1672065758421188
  0.8576230636505752  0.5025792988118029  0.8326746735207790
  0.3578824117904009  0.5028876976903286  0.8348676277816249
  0.1259353680831130  0.6341503677103527  0.4994129169700972
  0.5243454836416683  0.8693202792744297  0.1680139200765320
  0.6009146446930101  0.8422570640439516  0.0649528192527341
  0.2488113963509747  0.4269441700977422  0.7312306957516612
  0.1511940436296323  0.7398937682946624  0.3948806325826168
  0.4424951549898039  0.2585639885330412  0.2727458701783882
  0.8306429570582349  0.5808303868643391  0.9354279489129035
  0.7447800454457628  0.1553327789359150  0.6075683411868067
  0.8833570833089363  0.0706550100207675  0.7371978762800927
  0.1029040174847100  0.0922286826307749  0.3712794956950598
  0.9496644365465178  0.8253523206307806  0.0578281758781615
  0.1171021405052182  0.1805402889684631  0.6080093835490464
  0.0911466712532624  0.8580522939927826  0.2528565364004701
  0.8135315303231649  0.9355773883985837  0.9328665805228510
  0.0909319524574955  0.5209306993965547  0.6009956718349088
  0.4799607368467203  0.9230502235329217  0.2786750962810084
  0.4636887050568316  0.5724380591013352  0.9383606864248087
  0.8878652255148614  0.4304172415474466  0.7295711545627961
  0.5096175919961047  0.1143520848832159  0.4024075675225495
  0.5925312758229523  0.4741977032188048  0.0644691310348252
  0.3323507737816133  0.5484387047816363  0.4776033448239620
  0.2362884720844567  0.6643466831344786  0.1469490671950291
  0.4384123865767643  0.7921622931064848  0.8147590055070824
  0.6483305811592606  0.2138626845975631  0.8535207793909929
  0.5474224937243454  0.3444218807132415  0.5270860916833661
  0.8060756250727833  0.4366389104030337  0.1965588509987435
  0.6657303368846473  0.5853995890743540  0.4018672000689267
  0.9310135888472774  0.3309239729766220  0.0661510724543925
  0.3955793570059086  0.0742964684204414  0.7357720332135055
  0.3212967441313681  0.9309540628702093  0.9315895394279357
  0.5919489168272470  0.6857431863290392  0.5954201908960537
  0.0983592708751951  0.4137169049846063  0.2671901520540781
  0.9153004717926425  0.7134692532209101  0.5190978777479747
  0.8175317968371101  0.0842696172855132  0.1973825438171984
  0.2764268638772775  0.2119299331966925  0.8535635804472019
  0.0677838931024515  0.7927825906234722  0.8128789933342019
  0.6968149775509067  0.9235286966307472  0.4716074518461117
  0.2297917992633905  0.2888718290826510  0.1465248490178819
  0.6317581344926432  0.5523887060851053  0.8029191031894026
  0.8936485191914465  0.3497158139468159  0.4600810799645179
  0.4739367686400611  0.0949331202012247  0.1382211442272540
  0.3424397989043870  0.9030821010417097  0.5366731434826320
  0.5704145532148247  0.6412972078996964  0.1996076922655200
  0.0824380739949056  0.4530254313792318  0.8645158736067646
 
             NaN             NaN             NaN
             NaN             NaN             NaN
             NaN             NaN             NaN
             NaN             NaN             NaN
             NaN             NaN             NaN
             NaN             NaN             NaN
             NaN             NaN             NaN
             NaN             NaN             NaN
             NaN             NaN             NaN
             NaN             NaN             NaN
             NaN             NaN             NaN
             NaN             NaN             NaN
             NaN             NaN             NaN
             NaN             NaN             NaN
             NaN             NaN             NaN
             NaN             NaN             NaN
             NaN             NaN             NaN
             NaN             NaN             NaN
             NaN             NaN             NaN
             NaN             NaN             NaN
             NaN             NaN             NaN
             NaN             NaN             NaN
             NaN             NaN             NaN
             NaN             NaN             NaN
             NaN             NaN             NaN
             NaN             NaN             NaN
             NaN             NaN             NaN
             NaN             NaN             NaN
             NaN             NaN             NaN
             NaN             NaN             NaN
             NaN             NaN             NaN
             NaN             NaN             NaN
             NaN             NaN             NaN
             NaN             NaN             NaN
             NaN             NaN             NaN
             NaN             NaN             NaN
             NaN             NaN             NaN
             NaN             NaN             NaN
             NaN             NaN             NaN
             NaN             NaN             NaN
             NaN             NaN             NaN
             NaN             NaN             NaN
             NaN             NaN             NaN
             NaN             NaN             NaN
             NaN             NaN             NaN
             NaN             NaN             NaN
             NaN             NaN             NaN
             NaN             NaN             NaN
             NaN             NaN             NaN
             NaN             NaN             NaN
             NaN             NaN             NaN
             NaN             NaN             NaN
             NaN             NaN             NaN
             NaN             NaN             NaN
             NaN             NaN             NaN
