Ca1 V12 F42                             
   1.00000000000000     
     7.3760890000000003   -0.0070120000000000   -0.1040830000000000
    -3.6794370000000001    6.3980139999999999    0.1019550000000000
     0.2702510000000000    0.0438480000000000   17.5182450000000003
   Ca   V    F 
     1    12    42
Direct
  0.8318566173028412  0.2135636149245712  0.3301522314520176
  0.2611260794261532  0.0026276816229666  0.3278827949212957
  0.7391166889939045  0.7370610516348824  0.9965341233825176
 -0.0082672225709725  0.2643461940340269  0.6718327843211721
  0.3612257133724173  1.0015231643284186  0.8342014100979142
  0.6068657266168871  0.6078565079520646  0.5037608318952793
  1.0379512062834440  0.3973232611713369  0.1585697610164493
  0.6086245415846799  0.1103749255053992  0.5105544705572548
  0.5261924271744340  0.3831073952084153  0.1681951618888544
  0.8603574217200135  0.5016470652741499  0.8328222105812690
  0.3602264418207237  0.5014121590337013  0.8350987655750706
  0.1141086436142448  0.6228890220374846  0.4990829492150663
  0.5365079521202680  0.8880830673665318  0.1658529084353182
  0.6184739217291986  0.8616030774198757  0.0633330749655368
  0.2440695537474568  0.4183570636373355  0.7322726282322130
  0.1412236735721631  0.7481990480713699  0.3971665719809849
  0.4354998874670842  0.2698812230963299  0.2729011171289222
  0.8343715178044656  0.5833802535445268  0.9351671174207641
  0.7366826960088194  0.1371841528516013  0.6089071984645514
  0.8768787459153163  0.0640540585610272  0.7406469470040135
  0.0731924504944360  0.0898737174316797  0.3595021138357751
  0.9655881041202167  0.8422795086808031  0.0533843362598694
  0.1078719942364117  0.1585112078457536  0.6123830251205401
  0.1053208260323718  0.8603689330008842  0.2498855157750485
  0.8199124940826333  0.9402322010370364  0.9289077024801421
  0.0819616079889039  0.4997806017546725  0.5991783865960054
  0.4926768838892404  0.9433490427449931  0.2761906377319559
  0.4704098020143790  0.5772633788325000  0.9381552048249807
  0.8873542829110158  0.4255450785495795  0.7299651671797092
  0.5035482645390900  0.1071685035296632  0.4026448591334760
  0.6073411431801961  0.4930025467253695  0.0660674768734089
  0.3191263562171059  0.5344642809078668  0.4761593402338680
  0.2491715244776386  0.6840534516021699  0.1425729859997249
  0.4402943917194627  0.7901645132010371  0.8140300867908328
  0.6514239855557358  0.2132634822445220  0.8545078158758442
  0.5328477511432904  0.3222309078494811  0.5305264147008453
  0.8103317423258232  0.4476721329729282  0.1984277598391826
  0.6514663189493569  0.5602442187571465  0.4067213600309327
  0.9355331176281775  0.3523967969870903  0.0654746958137690
  0.3995723493950417  0.0752139529648402  0.7364809475930185
  0.3250165704123989  0.9276497818821302  0.9317919399932064
  0.5619846859735504  0.6495932911651685  0.5995745597870233
  0.1099985137572058  0.4376053455301628  0.2649000211174817
  0.8982103382095844  0.6924138588623932  0.5241141316092977
  0.8314199009709371  0.1023188629741019  0.1954748043803151
  0.2808814370758071  0.2112786886089284  0.8550601080985870
  0.0713630154823343  0.7915653337154556  0.8127185073054568
  0.6841665909484049  0.9014797959697933  0.4774423842980858
  0.2399864308772675  0.3103588870584760  0.1441124996118497
  0.6338023212662006  0.5504330425710398  0.8026851392585403
  0.8845201459555111  0.3364410193701503  0.4601757088439116
  0.4846541114840666  0.1132402661493050  0.1371751610598380
  0.3320592970760609  0.8879326478883198  0.5382222470795892
  0.5794072085841627  0.6591148234346306  0.1992015739242070
  0.0855067179987403  0.4528555227100509  0.8653253471626894
 
             NaN             NaN             NaN
             NaN             NaN             NaN
             NaN             NaN             NaN
             NaN             NaN             NaN
             NaN             NaN             NaN
             NaN             NaN             NaN
             NaN             NaN             NaN
             NaN             NaN             NaN
             NaN             NaN             NaN
             NaN             NaN             NaN
             NaN             NaN             NaN
             NaN             NaN             NaN
             NaN             NaN             NaN
             NaN             NaN             NaN
             NaN             NaN             NaN
             NaN             NaN             NaN
             NaN             NaN             NaN
             NaN             NaN             NaN
             NaN             NaN             NaN
             NaN             NaN             NaN
             NaN             NaN             NaN
             NaN             NaN             NaN
             NaN             NaN             NaN
             NaN             NaN             NaN
             NaN             NaN             NaN
             NaN             NaN             NaN
             NaN             NaN             NaN
             NaN             NaN             NaN
             NaN             NaN             NaN
             NaN             NaN             NaN
             NaN             NaN             NaN
             NaN             NaN             NaN
             NaN             NaN             NaN
             NaN             NaN             NaN
             NaN             NaN             NaN
             NaN             NaN             NaN
             NaN             NaN             NaN
             NaN             NaN             NaN
             NaN             NaN             NaN
             NaN             NaN             NaN
             NaN             NaN             NaN
             NaN             NaN             NaN
             NaN             NaN             NaN
             NaN             NaN             NaN
             NaN             NaN             NaN
             NaN             NaN             NaN
             NaN             NaN             NaN
             NaN             NaN             NaN
             NaN             NaN             NaN
             NaN             NaN             NaN
             NaN             NaN             NaN
             NaN             NaN             NaN
             NaN             NaN             NaN
             NaN             NaN             NaN
             NaN             NaN             NaN
