Ca7 Mn16 F48                            
   1.00000000000000     
    11.5066550000000003    0.0000180000000000    0.0145580000000000
     0.0000210000000000    8.2086699999999997   -0.0000160000000000
     0.0141190000000000   -0.0000220000000000   11.1470120000000001
   Ca   Mn   F 
     7    16    48
Direct
  0.6841643832314045  0.7500206649896078  0.6854449862917488
  0.2198635773938112  0.7500072414722447  0.2511167710114325
  0.2163297056671643  0.7499990138196807  0.7401118803535119
  0.7116205590346800  0.7500127506040775  0.2480434213404746
  0.4658224531592833  0.7500069296745374  0.0032539736944002
  0.9582088506127395  0.7500044302134259  0.0028760984739737
  0.9656837633986323  0.7500067961802753  0.5052458597966991
  0.4949373187394817  0.4868937608798037  0.2552493691231529
  0.4871422838664691  0.4753796196598509  0.7499535802617076
  0.9986063040410759  0.4841799982304396  0.2484102480987882
  0.9928939937588747  0.4854735328772156  0.7503997059672632
  0.2552315390882864  0.0115836841726741  0.4984977436109826
  0.2441067004138719  0.0178387801677451  0.9962972072645228
  0.7463985207488062  0.0298227700994221  0.4929794371431917
  0.7404154804253077  0.0147291292085665  0.9925957221771246
  0.4949560941307239  0.0131113525800614  0.2552530295914457
  0.4871550488602417  0.0245943731987809  0.7499542401480215
  0.9986120525301395  0.0158005972922714  0.2484251199890783
  0.9928930116681136  0.0145081793113526  0.7504053379070833
  0.2552283009229335  0.4884044951669547  0.4984986275619235
  0.2441028612136385  0.4821552157703715  0.9962911565311120
  0.7463845347925184  0.4701619196700363  0.4929873202292840
  0.7404120843424673  0.4852569449533458  0.9926017434005556
  0.4935799645725540  0.2499941078122560  0.2142572317612843
  0.4363289120705017  0.2499978720813856  0.7156299811058712
  0.9771263231568897  0.2500104866757659  0.2133211560903528
  0.9861353771104632  0.2500034153572018  0.7182191659164828
  0.2246385569639796  0.2499917265778724  0.0428831168503834
  0.2308268859328865  0.2499893989143115  0.5268514409504012
  0.7389483783491644  0.2499989981601554  0.0341349939364238
  0.7792465213501609  0.2501471633457819  0.5537406729415051
  0.0172954586409667  0.7499917865011487  0.2983130177320258
  0.0145528256678826  0.7499987859450284  0.7962173403490170
  0.5118961536237658  0.7500139764247726  0.2848539080047619
  0.5154682013764029  0.7499943186169830  0.7933273906995136
  0.2585307929641150  0.7500013800993653  0.4543954595274610
  0.2677503350465758  0.7499984649477933  0.9441649258736462
  0.7469052718680551  0.7499651598712763  0.4662772195786745
  0.7537087851535290  0.7499872635286207  0.9566542352171225
  0.3501884738963991  0.5803620773457324  0.1455197943582390
  0.3436070855477998  0.5653494835584250  0.6572787738591747
  0.8507445007383473  0.5802119443094406  0.1471951469865500
  0.8517677714218022  0.5820583692685030  0.6438570998198465
  0.1006391422514827  0.9174117372370517  0.0986646698595219
  0.1027241490995564  0.9231777343499048  0.5985149150146533
  0.5991809524498964  0.9261404058123476  0.1038833765604666
  0.6036985595455718  0.9787352349121968  0.6026399268945304
  0.1599901078101910  0.0023478846808378  0.3346321242613294
  0.1565599750883736  0.0023611524294838  0.8347775799246563
  0.6648838100117281  0.0065647943601570  0.3308278610233101
  0.6457521703081968  0.0230854282070558  0.8391981535386780
  0.3997756754710208  0.4624963199383333  0.4005064137848011
  0.4105389872772294  0.4954883051627608  0.9184579622465253
  0.9058658793062641  0.5094165758514309  0.4086812531636420
  0.9069720564281338  0.5002086517538897  0.9144389941760305
  0.1599864272892702  0.4976511478085041  0.3346277020093070
  0.1565606099266486  0.4976374677100528  0.8347771365134317
  0.6648558723251548  0.4934322359750698  0.3308015983418026
  0.6457422903133423  0.4768924856976188  0.8392085829721820
  0.3997649205966388  0.0375017921609486  0.4005152199695917
  0.4105501245636924  0.0045143595346028  0.9184497817770179
  0.9058887304749711 -0.0094160486525525  0.4086921116852856
  0.9069617774904021 -0.0002201447917340  0.9144385935262842
  0.3501916406839944  0.9196387379159801  0.1455204095126988
  0.3436080277546295  0.9346591388617784  0.6572757708398110
  0.8507515026342192  0.9197694588058164  0.1471928123972414
  0.8517649367537747  0.9179815845311142  0.6438517856218102
  0.1006349930345173  0.5825864742307167  0.0986656027541911
  0.1027197933028315  0.5768026253820810  0.5985109309522137
  0.5991808786719813  0.5738612114153651  0.1038798961241034
  0.6036852617242621  0.5212548777343560  0.6026478799815131
 
             NaN             NaN             NaN
             NaN             NaN             NaN
             NaN             NaN             NaN
             NaN             NaN             NaN
             NaN             NaN             NaN
             NaN             NaN             NaN
             NaN             NaN             NaN
             NaN             NaN             NaN
             NaN             NaN             NaN
             NaN             NaN             NaN
             NaN             NaN             NaN
             NaN             NaN             NaN
             NaN             NaN             NaN
             NaN             NaN             NaN
             NaN             NaN             NaN
             NaN             NaN             NaN
             NaN             NaN             NaN
             NaN             NaN             NaN
             NaN             NaN             NaN
             NaN             NaN             NaN
             NaN             NaN             NaN
             NaN             NaN             NaN
             NaN             NaN             NaN
             NaN             NaN             NaN
             NaN             NaN             NaN
             NaN             NaN             NaN
             NaN             NaN             NaN
             NaN             NaN             NaN
             NaN             NaN             NaN
             NaN             NaN             NaN
             NaN             NaN             NaN
             NaN             NaN             NaN
             NaN             NaN             NaN
             NaN             NaN             NaN
             NaN             NaN             NaN
             NaN             NaN             NaN
             NaN             NaN             NaN
             NaN             NaN             NaN
             NaN             NaN             NaN
             NaN             NaN             NaN
             NaN             NaN             NaN
             NaN             NaN             NaN
             NaN             NaN             NaN
             NaN             NaN             NaN
             NaN             NaN             NaN
             NaN             NaN             NaN
             NaN             NaN             NaN
             NaN             NaN             NaN
             NaN             NaN             NaN
             NaN             NaN             NaN
             NaN             NaN             NaN
             NaN             NaN             NaN
             NaN             NaN             NaN
             NaN             NaN             NaN
             NaN             NaN             NaN
             NaN             NaN             NaN
             NaN             NaN             NaN
             NaN             NaN             NaN
             NaN             NaN             NaN
             NaN             NaN             NaN
             NaN             NaN             NaN
             NaN             NaN             NaN
             NaN             NaN             NaN
             NaN             NaN             NaN
             NaN             NaN             NaN
             NaN             NaN             NaN
             NaN             NaN             NaN
             NaN             NaN             NaN
             NaN             NaN             NaN
             NaN             NaN             NaN
             NaN             NaN             NaN
