Ca7 Mn16 F48
1.0
11.506655 0.000018 0.014558
0.000021 8.208670 -0.000016
0.014119 -0.000022 11.147012
Ca Mn F
7 16 48
direct
0.650094 0.749997 0.682731 Ca
0.216818 0.750002 0.249282 Ca
0.217263 0.749999 0.741409 Ca
0.711324 0.750001 0.245604 Ca
0.464615 0.750000 1.004031 Ca
0.963740 0.750003 0.006169 Ca
0.965606 0.750000 0.507260 Ca
0.495390 0.485626 0.254574 Mn
0.496938 0.487614 0.746726 Mn
0.995490 0.481281 0.253345 Mn
0.995427 0.482513 0.752778 Mn
0.252139 0.013293 0.498554 Mn
0.246259 0.018602 0.996535 Mn
0.743413 0.014006 0.499078 Mn
0.744983 0.016841 0.996965 Mn
0.495388 0.014377 0.254572 Mn
0.496936 0.012382 0.746728 Mn
0.995486 0.018715 0.253349 Mn
0.995425 0.017483 0.752778 Mn
0.252140 0.486705 0.498555 Mn
0.246262 0.481395 0.996535 Mn
0.743415 0.485992 0.499076 Mn
0.744985 0.483159 0.996964 Mn
0.488005 0.250000 0.213115 F
0.484460 0.249996 0.715345 F
0.974922 0.249998 0.207247 F
0.976683 0.249998 0.711119 F
0.225089 0.250000 0.042622 F
0.231004 0.249999 0.533628 F
0.732221 0.250000 0.040415 F
0.733574 0.250000 0.532182 F
0.014079 0.749999 0.302393 F
0.018190 0.750000 0.801710 F
0.509988 0.750009 0.286272 F
0.509999 0.750004 0.796794 F
0.259189 0.750004 0.453720 F
0.265019 0.750000 0.945668 F
0.765997 0.750001 0.451326 F
0.763606 0.750002 0.953174 F
0.350200 0.579737 0.145262 F
0.344772 0.562644 0.656605 F
0.851611 0.580643 0.148690 F
0.858792 0.578506 0.647480 F
0.102426 0.918170 0.102961 F
0.104474 0.921233 0.600962 F
0.600679 0.922928 0.102034 F
0.608908 0.937354 0.605835 F
0.159168 0.003441 0.335780 F
0.158420 0.007862 0.835236 F
0.662809 0.001907 0.331745 F
0.654763 0.011240 0.841147 F
0.401187 0.471344 0.403980 F
0.411490 0.496107 0.914683 F
0.908008 0.494440 0.416073 F
0.912028 0.495822 0.918664 F
0.159170 0.496560 0.335777 F
0.158423 0.492138 0.835233 F
0.662807 0.498093 0.331743 F
0.654767 0.488759 0.841145 F
0.401185 0.028656 0.403979 F
0.411489 0.003891 0.914685 F
0.908007 0.005564 0.416079 F
0.912023 0.004181 0.918666 F
0.350194 0.920261 0.145259 F
0.344771 0.937354 0.656606 F
0.851610 0.919357 0.148694 F
0.858791 0.921487 0.647481 F
0.102428 0.581831 0.102959 F
0.104475 0.578770 0.600956 F
0.600681 0.577079 0.102037 F
0.608907 0.562641 0.605834 F
