Ca8 Cr12 F42
1.0
7.437215 -0.005192 -0.474335
-3.604340 6.631539 0.227981
1.030791 0.267379 18.559152
Ca Cr F
8 12 42
direct
0.521312 0.819720 0.686446 Ca
0.833067 0.514206 0.316355 Ca
0.599237 0.099938 -0.011309 Ca
0.018553 0.828587 0.673376 Ca
0.828248 0.006761 0.346235 Ca
0.120683 0.600500 0.979036 Ca
0.995065 0.864731 0.151957 Ca
0.223014 0.205109 0.501745 Ca
0.329233 -0.000264 0.338831 Cr
0.991415 0.285727 0.667839 Cr
0.648462 0.630713 0.995079 Cr
0.329121 0.980680 0.824170 Cr
0.938488 0.319340 0.160171 Cr
0.707249 0.684537 0.505489 Cr
0.446466 0.819007 0.170890 Cr
0.207958 0.691706 0.500613 Cr
0.333628 0.474368 0.826803 Cr
0.827037 0.469115 0.819550 Cr
0.714450 0.190253 0.505213 Cr
0.450892 0.331992 0.167825 Cr
0.720541 0.125458 0.610624 F
0.809947 0.521316 0.921602 F
0.495960 0.267885 0.293650 F
0.142678 0.720210 0.376128 F
0.382652 0.796383 0.050353 F
0.254543 0.457094 0.718586 F
0.740863 0.908856 0.966025 F
0.920502 0.833597 0.268391 F
0.123320 0.144180 0.615841 F
0.919612 0.719213 0.045432 F
0.847005 -0.023045 0.723193 F
0.163952 0.113480 0.384727 F
0.535726 0.349371 0.034710 F
0.757502 0.260590 0.400392 F
0.874530 0.445904 0.713679 F
0.390351 0.537987 0.937640 F
0.240414 0.736023 0.617962 F
0.514206 0.908822 0.299838 F
0.756845 0.446808 0.178053 F
0.574557 0.350297 0.522191 F
0.618356 0.177655 0.852926 F
0.422095 0.770970 0.808646 F
0.402779 0.577146 0.490582 F
0.150341 0.674207 0.192226 F
0.931307 0.283651 0.266900 F
0.694424 0.706117 0.611943 F
0.291181 0.913998 0.926929 F
0.364646 0.018577 0.720559 F
0.731625 0.680907 0.398751 F
0.918891 0.326365 0.052063 F
0.147726 0.220159 0.152875 F
0.845742 1.025344 0.477587 F
0.044282 0.765680 0.797949 F
0.244921 0.186360 0.837270 F
0.011204 0.799928 0.521503 F
0.740992 0.965351 0.144517 F
0.060354 0.432737 0.859651 F
0.496010 0.594132 0.198390 F
0.407023 -0.019524 0.481527 F
0.379250 0.047134 0.149849 F
0.606054 0.532004 0.792068 F
0.021356 0.401799 0.520513 F
