Ca1 Ni12 F42                            
   1.00000000000000     
     7.0394740000000002   -0.0110850000000000    0.0158670000000000
    -3.5260829999999999    6.0683340000000001   -0.0024320000000000
    -0.0801350000000000    0.0472880000000000   16.9566720000000011
   Ca   Ni   F 
     1    12    42
Direct
  0.6499353890632991  0.7817736804849443  0.3265340019776015
  0.2939755224731856  1.0052877862437919  0.3383662833345123
  0.6985439036226133  0.6990376701572106  0.9947061447443938
  1.0019575196141073  0.2886455905893917  0.6706448616806636
  0.3493894932979369  0.9958001924330246  0.8319983942817817
  0.6577723464620499  0.6306286972483114  0.5070500622139018
  0.9905486405558794  0.3493776313594505  0.1642733649627456
  0.6605778211177262  0.1392657048661298  0.5029419242706999
  0.4893550545968960  0.3469598986241226  0.1625855100737545
  0.8494904960223710  0.4956376767682625  0.8323537736001217
  0.3494752518096118  0.4957324780757804  0.8318852220176386
  0.1575606472305826  0.6389698287366202  0.5038663479362750
  0.4840243929654864  0.8513477336662588  0.1556067717860692
  0.5778786024215308  0.8362971453854005  0.0509377513733243
  0.2664266526482698  0.4252213824073374  0.7268039542803173
  0.1805625945871975  0.7396312040858456  0.3991606661581560
  0.4273138234101446  0.2575337962030058  0.2703045301430792
  0.8159718895099338  0.5515019713348762  0.9385260415719736
  0.7490558579694524  0.1598092560668639  0.6124986438137682
  0.8874930009448715  0.0669611584230458  0.7364800139460325
  0.2311060484382218  0.1477278008311571  0.4083679176898247
  0.9251763886167245  0.8082254674374516  0.0578589879389960
  0.1121347406207931  0.1677467413063901  0.6100753465548647
  0.0250990812505685  0.9062866185595843  0.2936791116226370
  0.8215857464021706  0.9233771228037709  0.9299359996258817
  0.1377499214468646  0.5486872073008381  0.6091322147675273
  0.3870283581913021  0.8572031957946864  0.2670157370740443
  0.4334973424824387  0.5666133491451074  0.9361669520226673
  0.8825240100810152  0.4380440711848156  0.7269612725476069
  0.5668320247689671  0.0913939752342215  0.3871355014049259
  0.5480140481640078  0.4401563006254591  0.0562843715690565
  0.3758801306179539  0.5583555243014812  0.4736492519424559
  0.1924517836257748  0.6308192335034493  0.1285531325355556
  0.4371050041201620  0.7849497168252499  0.8059337730924185
  0.6508652245423433  0.2018404050203524  0.8538732901836792
  0.5681980861040380  0.3459856617222656  0.5349107510053807
  0.7903469576777340  0.4437440263843576  0.1871972020751079
  0.7024046008395676  0.5674144658558911  0.4059219913800975
  0.8889814478294910  0.2850740785073700  0.0670376090138488
  0.3843853965706098  0.0740814397253304  0.7325371237450309
  0.3144151254094083  0.9174721579313594  0.9314250540702074
  0.6129166409872082  0.6906629100748475  0.6029295703235449
  0.0908233567112013  0.4098766640427695  0.2629394648498555
  0.9458067781752442  0.7241520973681143  0.5323993659129374
  0.7735663114579777  0.0616717503198993  0.1977578084400020
  0.2620739471200675  0.2067188894946463  0.8578570055648529
  0.0481879798314421  0.7893477430862346  0.8105291224648936
  0.7429506316639748  0.9162583495647991  0.4697341627426547
  0.1865819037441499  0.2522138498824949  0.1424235901231988
  0.6317007084419418  0.5534338331252234  0.7987447849035201
  0.9464013409617424  0.3625424841394606  0.4692859908899664
  0.4182454698407295  0.0678711707311798  0.1245751277525084
  0.3727616476399209  0.9152312704999643  0.5359457319288505
  0.5523236417773618  0.6343147446530164  0.1994840847467176
  0.0676250460757995  0.4383060682580577  0.8655836443609276
 
             NaN             NaN             NaN
             NaN             NaN             NaN
             NaN             NaN             NaN
             NaN             NaN             NaN
             NaN             NaN             NaN
             NaN             NaN             NaN
             NaN             NaN             NaN
             NaN             NaN             NaN
             NaN             NaN             NaN
             NaN             NaN             NaN
             NaN             NaN             NaN
             NaN             NaN             NaN
             NaN             NaN             NaN
             NaN             NaN             NaN
             NaN             NaN             NaN
             NaN             NaN             NaN
             NaN             NaN             NaN
             NaN             NaN             NaN
             NaN             NaN             NaN
             NaN             NaN             NaN
             NaN             NaN             NaN
             NaN             NaN             NaN
             NaN             NaN             NaN
             NaN             NaN             NaN
             NaN             NaN             NaN
             NaN             NaN             NaN
             NaN             NaN             NaN
             NaN             NaN             NaN
             NaN             NaN             NaN
             NaN             NaN             NaN
             NaN             NaN             NaN
             NaN             NaN             NaN
             NaN             NaN             NaN
             NaN             NaN             NaN
             NaN             NaN             NaN
             NaN             NaN             NaN
             NaN             NaN             NaN
             NaN             NaN             NaN
             NaN             NaN             NaN
             NaN             NaN             NaN
             NaN             NaN             NaN
             NaN             NaN             NaN
             NaN             NaN             NaN
             NaN             NaN             NaN
             NaN             NaN             NaN
             NaN             NaN             NaN
             NaN             NaN             NaN
             NaN             NaN             NaN
             NaN             NaN             NaN
             NaN             NaN             NaN
             NaN             NaN             NaN
             NaN             NaN             NaN
             NaN             NaN             NaN
             NaN             NaN             NaN
             NaN             NaN             NaN
