Ca1 Ni12 F42
1.0
7.039474 -0.011085 0.015867
-3.526083 6.068334 -0.002432
-0.080135 0.047288 16.956672
Ca Ni F
1 12 42
direct
0.483431 0.502720 0.336655 Ca
0.308234 -0.001536 0.333741 Ni
0.698613 0.698427 0.996902 Ni
-0.000480 0.301523 0.669960 Ni
0.346971 -0.000372 0.833513 Ni
0.657798 0.659964 0.506247 Ni
0.994112 0.339193 0.159685 Ni
0.655396 0.157240 0.504046 Ni
0.494833 0.340403 0.158771 Ni
0.847783 0.499579 0.834480 Ni
0.347673 0.499620 0.832623 Ni
0.152007 0.658520 0.508300 Ni
0.495355 0.842040 0.160544 Ni
0.562228 0.820739 0.052989 F
0.261881 0.433761 0.727358 F
0.190108 0.741614 0.397263 F
0.441578 0.254166 0.268617 F
0.829889 0.568785 0.941389 F
0.745046 0.177076 0.611088 F
0.887833 0.068061 0.730779 F
0.203773 0.138544 0.391652 F
0.916247 0.805783 0.064047 F
0.118198 0.197162 0.605130 F
0.069386 0.872585 0.274604 F
0.821896 0.929832 0.935363 F
0.123568 0.570021 0.614411 F
0.429065 0.858520 0.274328 F
0.436195 0.565913 0.936707 F
0.866501 0.427698 0.728896 F
0.569227 0.134589 0.393102 F
0.549518 0.430127 0.052999 F
0.362704 0.564432 0.481992 F
0.199063 0.632099 0.136567 F
0.433559 0.792515 0.808434 F
0.639089 0.201325 0.860036 F
0.572789 0.369504 0.529506 F
0.793500 0.432409 0.182385 F
0.686930 0.613452 0.401472 F
0.915538 0.295254 0.060241 F
0.394228 0.086739 0.734333 F
0.299622 0.912625 0.932649 F
0.619615 0.702968 0.605404 F
0.071065 0.383815 0.264331 F
0.949988 0.759508 0.525769 F
0.787964 0.050213 0.187259 F
0.260723 0.206889 0.857532 F
0.054821 0.797487 0.808037 F
0.736992 0.946214 0.477906 F
0.193329 0.244301 0.140975 F
0.624711 0.563862 0.800558 F
0.931068 0.375055 0.468746 F
0.430821 0.059166 0.127531 F
0.377633 0.947960 0.537604 F
0.546304 0.615033 0.199809 F
0.071672 0.435310 0.866419 F
