Mg7 V32 O80
1.0
11.379819 -0.010177 -0.017376
-0.008683 14.288446 0.186219
-0.016729 0.121696 9.647020
Mg V O
7 32 80
direct
0.235181 0.196858 0.185232 Mg
0.248963 0.190002 0.690776 Mg
0.251246 0.690496 0.674797 Mg
0.751781 0.311239 0.320424 Mg
0.752905 0.810583 0.311916 Mg
0.750390 0.308388 0.821814 Mg
0.754397 0.807639 0.814734 Mg
0.102471 0.067641 0.465946 V
0.096757 0.562640 0.455870 V
0.102396 0.067079 0.964919 V
0.102315 0.567982 0.955418 V
0.101806 0.310154 0.454442 V
0.100454 0.813881 0.435548 V
0.102019 0.310919 0.947728 V
0.103806 0.809896 0.937080 V
0.898690 0.191100 0.061722 V
0.897963 0.690506 0.049001 V
0.897050 0.189896 0.560069 V
0.897061 0.689985 0.547122 V
0.898090 0.434184 0.040667 V
0.898783 0.934171 0.036736 V
0.896827 0.431769 0.547878 V
0.899341 0.933675 0.540454 V
0.399430 0.063983 0.472811 V
0.401310 0.561906 0.452705 V
0.398303 0.066987 0.967568 V
0.396873 0.567888 0.955119 V
0.396603 0.306477 0.449858 V
0.399482 0.813480 0.439217 V
0.397174 0.309696 0.949371 V
0.396566 0.810109 0.938799 V
0.603103 0.191395 0.061158 V
0.602484 0.690627 0.048732 V
0.603598 0.189697 0.560684 V
0.602905 0.688974 0.546425 V
0.601553 0.434588 0.039587 V
0.603336 0.933754 0.038799 V
0.600634 0.431117 0.543719 V
0.603929 0.931740 0.545378 V
0.128372 0.092800 0.301540 O
0.100042 0.562291 0.289737 O
0.126121 0.093542 0.800845 O
0.123145 0.589715 0.789154 O
0.126168 0.296327 0.288830 O
0.116565 0.816483 0.270942 O
0.128838 0.291054 0.784574 O
0.128489 0.787547 0.773326 O
0.871305 0.210117 0.225163 O
0.871389 0.710755 0.212352 O
0.870515 0.207532 0.724046 O
0.871681 0.710852 0.710442 O
0.874480 0.410775 0.205695 O
0.875434 0.910116 0.201484 O
0.871113 0.408373 0.712311 O
0.876990 0.910243 0.705241 O
0.381177 0.080885 0.306911 O
0.395568 0.564566 0.286598 O
0.374889 0.091397 0.802721 O
0.374524 0.590629 0.789087 O
0.365455 0.285970 0.287142 O
0.384458 0.819807 0.274350 O
0.369316 0.289124 0.786370 O
0.372659 0.788599 0.774347 O
0.631287 0.212151 0.224239 O
0.629885 0.709710 0.212336 O
0.631287 0.210084 0.723987 O
0.628602 0.707241 0.710227 O
0.624276 0.412496 0.205039 O
0.629697 0.908550 0.202813 O
0.624360 0.409282 0.708891 O
0.632053 0.905735 0.708547 O
0.932970 0.064001 0.515831 O
0.927373 0.561119 0.519592 O
0.933928 0.065221 0.019326 O
0.926930 0.563506 0.013592 O
0.926073 0.309365 0.472144 O
0.924261 0.812518 0.461774 O
0.927368 0.308987 0.971102 O
0.923769 0.811415 0.961990 O
0.076188 0.191728 0.043108 O
0.068725 0.691200 0.017587 O
0.072087 0.190345 0.539579 O
0.067896 0.689794 0.508722 O
0.065003 0.437108 0.983534 O
0.066406 0.937417 0.978377 O
0.068394 0.433612 0.507170 O
0.072031 0.937404 0.493723 O
0.569189 0.062170 0.525169 O
0.570835 0.560506 0.515112 O
0.568013 0.064597 0.022979 O
0.572438 0.563737 0.011466 O
0.572032 0.307961 0.469845 O
0.575712 0.811964 0.465206 O
0.572835 0.309522 0.971118 O
0.575577 0.811465 0.965219 O
0.427788 0.191100 0.038673 O
0.431071 0.690927 0.018150 O
0.428779 0.188801 0.539440 O
0.431176 0.688939 0.509258 O
0.434201 0.436728 0.982747 O
0.434759 0.937420 0.981873 O
0.429894 0.432287 0.497597 O
0.429735 0.934739 0.506212 O
0.250382 0.067433 0.040287 O
0.249700 0.560248 0.017428 O
0.249972 0.069936 0.542918 O
0.249639 0.572677 0.518186 O
0.249858 0.309710 0.023752 O
0.250130 0.817077 0.001244 O
0.250165 0.304099 0.526607 O
0.249712 0.799816 0.508637 O
0.749752 0.191610 0.485086 O
0.749987 0.692603 0.471057 O
0.750438 0.192884 0.986965 O
0.750023 0.694552 0.972120 O
0.749227 0.427395 0.469552 O
0.750432 0.934734 0.469008 O
0.749795 0.429377 0.966533 O
0.750468 0.936490 0.964782 O
