Ca1 Ti12 F42                            
   1.00000000000000     
     7.4987760000000003   -0.0046190000000000    0.0170170000000000
    -3.7429980000000000    6.5232729999999997   -0.0813280000000000
    -0.0821790000000000   -0.2140420000000000   17.7433109999999985
   Ca   Ti   F 
     1    12    42
Direct
  0.8031458460774095  0.1930644692796571  0.9441203273948429
  0.2655630075564665  0.9866386897435273  0.3336155530520126
  0.7061551564247126  0.6763970970662710  0.0067592099509985
  0.0072595411640449  0.2920539751639643  0.6633727279815171
  0.3649558064311046  0.0356616968431102  0.8285524306511557
  0.6483673784511482  0.6477628450723046  0.4991971733583277
 -0.0136037278177666  0.3273946674855567  0.1685123518030705
  0.6435472776248409  0.1462179128945320  0.4976915578653269
  0.4790545336036905  0.3209011459701833  0.1659558133992926
  0.8686789026659854  0.5436439711292892  0.8202656530054169
  0.3633607833564693  0.5286188461628557  0.8301459198767377
  0.1467502403369229  0.6443078251585823  0.4981682923122072
  0.4837522326560276  0.8246985975976115  0.1701095239005997
  0.5727611210022786  0.8029940830253987  0.0664100059207886
  0.2568135199122670  0.4430165315731776  0.7273889385778949
  0.1659986392604307  0.7415346439632633  0.3946894635766886
  0.4145843422010737  0.2279909041974101  0.2706751955201370
  0.7958071268035583  0.5214220325258775  0.9337711742571311
  0.7551557157322417  0.1906785125154984  0.6030505918531811
  0.8866170517054311  0.1135931336880890  0.7378294310981577
  0.1772149778689820  0.1082871652529378  0.3979113149945081
  0.9186210269211385  0.7507090353795812  0.0693025688427820
  0.1113981474310892  0.1735596041454845  0.6054555904990745
  0.0586482127908846  0.8671231978333588  0.2674889240555315
  0.8363988777944611  0.9194900068074198  0.9455724046130980
  0.1268733797149386  0.5437744675186839  0.5993110306450398
  0.4150305373135146  0.8642389957694112  0.2711625399986056
  0.4612858068485557  0.5881502845488390  0.9361019385315194
  0.9275974527555101  0.4938811842634782  0.7207984019642907
  0.5338396321544979  0.1008495899492504  0.3953035199616325
  0.5364903446384451  0.4140290423164592  0.0608706185038430
  0.3573885791872364  0.5723111410340116  0.4759422138953688
  0.2033339457494493  0.6122844545896292  0.1427552231062389
  0.4248162200164757  0.8061600084593209  0.8140702953559851
  0.6732684179050137  0.2448731341857442  0.8260983474759396
  0.5679136145145649  0.3548236541767197  0.5181599405316395
  0.7667291675945613  0.4004428199286594  0.1813446709693881
  0.6886231321908389  0.6108748755749347  0.4007223835908001
  0.9102065228439644  0.2802293385354577  0.0610392504767028
  0.3545414948245997  0.0636681451689312  0.7291716943268600
  0.4561032885144023  1.0391754621104654  0.9318772776910905
  0.6121758262624338  0.6864344749277101  0.5981808200315236
  0.0645645121741731  0.3783966805457185  0.2650563758509689
  0.9397637468139304  0.7212753460051716  0.5213164898518604
  0.7706213516623815  0.0390630022943228  0.1875385660741520
  0.2882039567781710  0.2457424966787025  0.8545568405775783
  0.0736181153962409  0.8269255831270046  0.8396118089688411
  0.7248988139472697  0.9399244775713228  0.4811375295662088
  0.1908613050160983  0.2370368034761992  0.1460592723036300
  0.6390112410811605  0.5887128843219159  0.8008030958533157
  0.9188582808718070  0.3687334404353446  0.4685437069763076
  0.4282328811919288  0.0430688902438741  0.1369231181198404
  0.3701872557111499  0.9220200484491126  0.5274680667421332
  0.5326595152143770  0.5982005189249735  0.1957621588462464
  0.0709004224966834  0.4544005150074076  0.8650593759610161
 
             NaN             NaN             NaN
             NaN             NaN             NaN
             NaN             NaN             NaN
             NaN             NaN             NaN
             NaN             NaN             NaN
             NaN             NaN             NaN
             NaN             NaN             NaN
             NaN             NaN             NaN
             NaN             NaN             NaN
             NaN             NaN             NaN
             NaN             NaN             NaN
             NaN             NaN             NaN
             NaN             NaN             NaN
             NaN             NaN             NaN
             NaN             NaN             NaN
             NaN             NaN             NaN
             NaN             NaN             NaN
             NaN             NaN             NaN
             NaN             NaN             NaN
             NaN             NaN             NaN
             NaN             NaN             NaN
             NaN             NaN             NaN
             NaN             NaN             NaN
             NaN             NaN             NaN
             NaN             NaN             NaN
             NaN             NaN             NaN
             NaN             NaN             NaN
             NaN             NaN             NaN
             NaN             NaN             NaN
             NaN             NaN             NaN
             NaN             NaN             NaN
             NaN             NaN             NaN
             NaN             NaN             NaN
             NaN             NaN             NaN
             NaN             NaN             NaN
             NaN             NaN             NaN
             NaN             NaN             NaN
             NaN             NaN             NaN
             NaN             NaN             NaN
             NaN             NaN             NaN
             NaN             NaN             NaN
             NaN             NaN             NaN
             NaN             NaN             NaN
             NaN             NaN             NaN
             NaN             NaN             NaN
             NaN             NaN             NaN
             NaN             NaN             NaN
             NaN             NaN             NaN
             NaN             NaN             NaN
             NaN             NaN             NaN
             NaN             NaN             NaN
             NaN             NaN             NaN
             NaN             NaN             NaN
             NaN             NaN             NaN
             NaN             NaN             NaN
