Ca1 Ti12 F42
1.0
7.498776 -0.004619 0.017017
-3.742998 6.523273 -0.081328
-0.082179 -0.214042 17.743311
Ca Ti F
1 12 42
direct
0.721832 0.089954 0.936558 Ca
0.265472 0.999917 0.334538 Ti
0.715844 0.701164 0.005694 Ti
0.012165 0.291384 0.660451 Ti
0.354892 0.003931 0.828264 Ti
0.645418 0.652537 0.498472 Ti
0.000093 0.343577 0.171650 Ti
0.644917 0.152604 0.496958 Ti
0.497960 0.342408 0.167440 Ti
0.859916 0.509317 0.828544 Ti
0.357105 0.505890 0.832852 Ti
0.145778 0.652925 0.499647 Ti
0.494570 0.841088 0.173497 Ti
0.561698 0.809781 0.066468 F
0.253283 0.438380 0.728882 F
0.170714 0.756234 0.395824 F
0.415131 0.237547 0.270021 F
0.834766 0.584254 0.933372 F
0.758511 0.185409 0.600413 F
0.896119 0.080679 0.726649 F
0.176634 0.121425 0.398388 F
0.921804 0.791870 0.072048 F
0.132777 0.200333 0.597310 F
0.058618 0.878753 0.268470 F
0.795327 0.938628 0.947820 F
0.116039 0.553377 0.602066 F
0.421105 0.883263 0.272607 F
0.458585 0.559928 0.937614 F
0.894395 0.436854 0.728113 F
0.535332 0.116141 0.395310 F
0.571116 0.424219 0.059331 F
0.352468 0.575861 0.477812 F
0.208945 0.633025 0.149419 F
0.454073 0.798635 0.817559 F
0.656281 0.219614 0.856707 F
0.572233 0.362865 0.519810 F
0.781074 0.417688 0.189694 F
0.678661 0.607367 0.399990 F
0.913656 0.297966 0.069074 F
0.408069 0.068006 0.732209 F
0.333991 0.948819 0.932607 F
0.611516 0.695164 0.597273 F
0.078759 0.383777 0.269053 F
0.938958 0.732192 0.519533 F
0.782285 0.053145 0.189443 F
0.265815 0.211880 0.847207 F
0.058563 0.802292 0.811290 F
0.720377 0.942222 0.477159 F
0.212594 0.265917 0.145246 F
0.633293 0.558498 0.802851 F
0.919810 0.377229 0.469050 F
0.453101 0.066619 0.131570 F
0.372562 0.930041 0.528113 F
0.546630 0.617578 0.196017 F
0.074120 0.442823 0.862932 F
