Na32 Mn16 Si16 O64                      
   1.00000000000000     
    -0.0000000376868351   10.8089887418298929   -0.0102104902944422
    11.3756095720919603   -0.0000000366196524   -0.0000001149333631
     0.0000001811500010  -10.7573262302938772  -14.0165788978631802
   Na   Mn   Si   O 
    31    16    16    64
Direct
  0.1215381131547701  0.4107472866426818  0.6237321823494142
  0.1215381169717560  0.0892526882290952  0.3737321846875616
  0.1215381177844677  0.0892526896783608  0.8737321850677020
  0.1215381192167442  0.5892526879804478  0.3737321851750224
  0.1215381174586696  0.5892526886697951  0.8737321842934307
  0.6215381194538594  0.0892526878484148  0.3737321855403763
  0.6215381177724950  0.0892526906563731  0.8737321847015878
  0.6215381182895499  0.5892526889364547  0.3737321853275617
  0.6215381176779644  0.5892526877516175  0.8737321849785289
  0.1215381135898852  0.4107472885343952  0.1237321832578786
  0.1215381120319066  0.9107472867524677  0.1237321826248206
  0.1215381126592732  0.9107472869424527  0.6237321827658135
  0.6215381132217175  0.4107472880008416  0.1237321821464477
  0.6215381124331003  0.4107472879534839  0.6237321829108993
  0.6215381136972198  0.9107472876761662  0.1237321832545817
  0.6215381138205700  0.9107472875806835  0.6237321825207758
  0.2474059056937179  0.1687874726086207  0.2511950906084337
  0.2474059061634151  0.1687874727999628  0.7511950907609659
  0.2474059059061489  0.6687874721359464  0.2511950914011507
  0.7474059074327570  0.1687874724953886  0.2511950911327148
  0.7474059047020489  0.1687874723986695  0.7511950899169548
  0.7474059048773967  0.6687874714901483  0.2511950901551785
  0.7474059059970841  0.6687874727304717  0.7511950910184311
  0.2474058993126675  0.3312125510851160  0.0011950890594150
  0.2474058987424925  0.3312125493696243  0.5011950883547627
  0.2474058984965595  0.8312125514800925  0.0011950879628131
  0.2474058975834765  0.8312125504249579  0.5011950877431914
  0.7474058988127297  0.3312125513013129  0.0011950884331569
  0.7474058991806842  0.3312125493477964  0.5011950883973029
  0.7474058969566073  0.8312125503668781  0.0011950872428343
  0.7474058981117935  0.8312125501895196  0.5011950881790099
  0.3786479879498330  0.4089341064106904  0.3777411814992107
  0.3786479842267738  0.4089341072233168  0.8777411808205358
  0.3786479858715452  0.9089341073933852  0.3777411821346917
  0.3786479860745686  0.9089341079526392  0.8777411804469679
  0.8786479854038944  0.4089341067209062  0.3777411809682576
  0.8786479869565795  0.4089341060439793  0.8777411814612748
  0.8786479841353412  0.9089341051319337  0.3777411802891990
  0.8786479850106801  0.9089341073621426  0.8777411812615341
  0.3786479868895398  0.0910659203260522  0.1277411806431914
  0.3786479874519273  0.0910659191656222  0.6277411806165318
  0.3786479857453315  0.5910659200180390  0.1277411801821273
  0.3786479881025357  0.5910659201690081  0.6277411807771145
  0.8786479880848077  0.0910659200345805  0.1277411805674049
  0.8786479869614894  0.0910659191620411  0.6277411806510358
  0.8786479885123057  0.5910659206410216  0.1277411810180169
  0.8786479869214787  0.5910659194836683  0.6277411808227598
  0.0034242127851272  0.1571731312251146  0.0003969833124060
  0.0034242137244505  0.1571731305970374  0.5003969833071267
  0.0034242120849299  0.6571731313853775  0.0003969828682457
  0.0034242132753022  0.6571731310463136  0.5003969836813056
  0.5034242134356077  0.1571731314540443  0.0003969834243662
  0.5034242131462108  0.1571731309980251  0.5003969837145092
  0.5034242131491453  0.6571731323345560  0.0003969831007495
  0.5034242134326448  0.6571731312645213  0.5003969834928341
  0.0034242143256122  0.3428268650636213  0.2503969831409449
  0.0034242125586346  0.3428268646142527  0.7503969825528074
  0.0034242131829458  0.8428268649569475  0.2503969830969126
  0.0034242123286958  0.8428268645751018  0.7503969826764632
  0.5034242146230525  0.3428268651360966  0.2503969831815667
  0.5034242125495325  0.3428268647409212  0.7503969824551717
  0.5034242118045498  0.8428268648913999  0.2503969828858317
  0.5034242126317352  0.8428268647473018  0.7503969824071390
  0.4522984835169623  0.2974187224588576  0.9888256540738496
  0.4522984850262617  0.2974187219206854  0.4888256549774184
  0.4522984834989217  0.7974187229976337  0.9888256534497302
  0.4522984828868886  0.7974187219711837  0.4888256536330644
  0.9522984844085229  0.2974187218618880  0.9888256547142191
  0.9522984834042347  0.2974187216491586  0.4888256536069875
  0.9522984821543119  0.7974187220313382  0.9888256535699114
  0.9522984827386693  0.7974187219402395  0.4888256538835520
  0.4522984855507133  0.2025812731316208  0.2388256572032645
  0.4522984855336389  0.2025812725731768  0.7388256569545888
  0.4522984838198028  0.7025812729631156  0.2388256570750897
  0.4522984864042527  0.7025812721380333  0.7388256575437069
  0.9522984861659864  0.2025812729931289  0.2388256568288085
  0.9522984853170371  0.2025812728810479  0.7388256572441065
  0.9522984864801032  0.7025812723137577  0.2388256575037602
  0.9522984863192434  0.7025812722845046  0.7388256579073911
  0.3652582438536385  0.0826980484964466  0.4037629991744467
  0.3652582446892367  0.0826980485707409  0.9037629992925318
  0.3652582448173973  0.5826980484172779  0.4037629993627831
  0.3652582444286949  0.5826980490526594  0.9037629995757257
  0.8652582454363724  0.0826980472470211  0.4037629992734537
  0.8652582441466592  0.0826980491286093  0.9037629990387686
  0.8652582445326473  0.5826980484586528  0.4037629993696896
  0.8652582437910254  0.5826980481483304  0.9037629989748126
  0.3652582546594303  0.4173019548470549  0.1537629967180649
  0.3652582550325150  0.4173019543327925  0.6537629962271367
  0.3652582530850665  0.9173019539045200  0.1537629964345797
  0.3652582527401478  0.9173019533464597  0.6537629956129010
  0.8652582556685218  0.4173019546381127  0.1537629967687693
  0.8652582535264273  0.4173019543099912  0.6537629964069822
  0.8652582553186363  0.9173019535627560  0.1537629960292861
  0.8652582536649049  0.9173019534146150  0.6537629959179441
  0.0332902177227083  0.3970877227715235  0.3472658298308602
  0.0332902194546065  0.3970877228863898  0.8472658302302349
  0.0332902172309630  0.8970877234304950  0.3472658298152993
  0.0332902185111834  0.8970877233740140  0.8472658302858349
  0.5332902199549210  0.3970877228680862  0.3472658305635150
  0.5332902173380702  0.3970877220894735  0.8472658294121942
  0.5332902191486966  0.8970877230114453  0.3472658305213514
  0.5332902184779726  0.8970877236478003  0.8472658295237139
  0.0332902295730833  0.1029122636701487  0.0972658329856984
  0.0332902279070808  0.1029122639336322  0.5972658327359426
  0.0332902289185597  0.6029122642995333  0.0972658328110896
  0.0332902288132360  0.6029122631878607  0.5972658332715497
  0.5332902281243150  0.1029122643437717  0.0972658327734095
  0.5332902291286103  0.1029122639376610  0.5972658331598311
  0.5332902273666775  0.6029122644074363  0.0972658322345907
  0.5332902297938915  0.6029122640968652  0.5972658332444638
  0.1672755799456027  0.3533012388953267  0.2624185825798477
  0.1672755779904591  0.3533012379806379  0.7624185814518611
  0.1672755783479687  0.8533012387535237  0.2624185819010521
  0.1672755783131166  0.8533012384347529  0.7624185819386611
  0.6672755790402078  0.3533012383533247  0.2624185816205298
  0.6672755790410605  0.3533012383665834  0.7624185824414340
  0.6672755769547010  0.8533012373546782  0.2624185810570268
  0.6672755788095515  0.8533012392150283  0.7624185814508948
  0.1672755723242147  0.1466987547776100  0.5124185738865634
  0.1672755719578873  0.1466987559636266  0.0124185744394296
  0.1672755721584522  0.6466987552322720  0.5124185737930205
  0.1672755703145228  0.6466987559112383  0.0124185733518729
  0.6672755718027261  0.1466987554151800  0.5124185743847605
  0.6672755723960009  0.1466987560636213  0.0124185738762108
  0.6672755718285543  0.6466987557161445  0.5124185740051317
  0.6672755717474814  0.6466987549736203  0.0124185736797386
 
  0.00000000E+00  0.00000000E+00  0.00000000E+00
  0.00000000E+00  0.00000000E+00  0.00000000E+00
  0.00000000E+00  0.00000000E+00  0.00000000E+00
  0.00000000E+00  0.00000000E+00  0.00000000E+00
  0.00000000E+00  0.00000000E+00  0.00000000E+00
  0.00000000E+00  0.00000000E+00  0.00000000E+00
  0.00000000E+00  0.00000000E+00  0.00000000E+00
  0.00000000E+00  0.00000000E+00  0.00000000E+00
  0.00000000E+00  0.00000000E+00  0.00000000E+00
  0.00000000E+00  0.00000000E+00  0.00000000E+00
  0.00000000E+00  0.00000000E+00  0.00000000E+00
  0.00000000E+00  0.00000000E+00  0.00000000E+00
  0.00000000E+00  0.00000000E+00  0.00000000E+00
  0.00000000E+00  0.00000000E+00  0.00000000E+00
  0.00000000E+00  0.00000000E+00  0.00000000E+00
  0.00000000E+00  0.00000000E+00  0.00000000E+00
  0.00000000E+00  0.00000000E+00  0.00000000E+00
  0.00000000E+00  0.00000000E+00  0.00000000E+00
  0.00000000E+00  0.00000000E+00  0.00000000E+00
  0.00000000E+00  0.00000000E+00  0.00000000E+00
  0.00000000E+00  0.00000000E+00  0.00000000E+00
  0.00000000E+00  0.00000000E+00  0.00000000E+00
  0.00000000E+00  0.00000000E+00  0.00000000E+00
  0.00000000E+00  0.00000000E+00  0.00000000E+00
  0.00000000E+00  0.00000000E+00  0.00000000E+00
  0.00000000E+00  0.00000000E+00  0.00000000E+00
  0.00000000E+00  0.00000000E+00  0.00000000E+00
  0.00000000E+00  0.00000000E+00  0.00000000E+00
  0.00000000E+00  0.00000000E+00  0.00000000E+00
  0.00000000E+00  0.00000000E+00  0.00000000E+00
  0.00000000E+00  0.00000000E+00  0.00000000E+00
  0.00000000E+00  0.00000000E+00  0.00000000E+00
  0.00000000E+00  0.00000000E+00  0.00000000E+00
  0.00000000E+00  0.00000000E+00  0.00000000E+00
  0.00000000E+00  0.00000000E+00  0.00000000E+00
  0.00000000E+00  0.00000000E+00  0.00000000E+00
  0.00000000E+00  0.00000000E+00  0.00000000E+00
  0.00000000E+00  0.00000000E+00  0.00000000E+00
  0.00000000E+00  0.00000000E+00  0.00000000E+00
  0.00000000E+00  0.00000000E+00  0.00000000E+00
  0.00000000E+00  0.00000000E+00  0.00000000E+00
  0.00000000E+00  0.00000000E+00  0.00000000E+00
  0.00000000E+00  0.00000000E+00  0.00000000E+00
  0.00000000E+00  0.00000000E+00  0.00000000E+00
  0.00000000E+00  0.00000000E+00  0.00000000E+00
  0.00000000E+00  0.00000000E+00  0.00000000E+00
  0.00000000E+00  0.00000000E+00  0.00000000E+00
  0.00000000E+00  0.00000000E+00  0.00000000E+00
  0.00000000E+00  0.00000000E+00  0.00000000E+00
  0.00000000E+00  0.00000000E+00  0.00000000E+00
  0.00000000E+00  0.00000000E+00  0.00000000E+00
  0.00000000E+00  0.00000000E+00  0.00000000E+00
  0.00000000E+00  0.00000000E+00  0.00000000E+00
  0.00000000E+00  0.00000000E+00  0.00000000E+00
  0.00000000E+00  0.00000000E+00  0.00000000E+00
  0.00000000E+00  0.00000000E+00  0.00000000E+00
  0.00000000E+00  0.00000000E+00  0.00000000E+00
  0.00000000E+00  0.00000000E+00  0.00000000E+00
  0.00000000E+00  0.00000000E+00  0.00000000E+00
  0.00000000E+00  0.00000000E+00  0.00000000E+00
  0.00000000E+00  0.00000000E+00  0.00000000E+00
  0.00000000E+00  0.00000000E+00  0.00000000E+00
  0.00000000E+00  0.00000000E+00  0.00000000E+00
  0.00000000E+00  0.00000000E+00  0.00000000E+00
  0.00000000E+00  0.00000000E+00  0.00000000E+00
  0.00000000E+00  0.00000000E+00  0.00000000E+00
  0.00000000E+00  0.00000000E+00  0.00000000E+00
  0.00000000E+00  0.00000000E+00  0.00000000E+00
  0.00000000E+00  0.00000000E+00  0.00000000E+00
  0.00000000E+00  0.00000000E+00  0.00000000E+00
  0.00000000E+00  0.00000000E+00  0.00000000E+00
  0.00000000E+00  0.00000000E+00  0.00000000E+00
  0.00000000E+00  0.00000000E+00  0.00000000E+00
  0.00000000E+00  0.00000000E+00  0.00000000E+00
  0.00000000E+00  0.00000000E+00  0.00000000E+00
  0.00000000E+00  0.00000000E+00  0.00000000E+00
  0.00000000E+00  0.00000000E+00  0.00000000E+00
  0.00000000E+00  0.00000000E+00  0.00000000E+00
  0.00000000E+00  0.00000000E+00  0.00000000E+00
  0.00000000E+00  0.00000000E+00  0.00000000E+00
  0.00000000E+00  0.00000000E+00  0.00000000E+00
  0.00000000E+00  0.00000000E+00  0.00000000E+00
  0.00000000E+00  0.00000000E+00  0.00000000E+00
  0.00000000E+00  0.00000000E+00  0.00000000E+00
  0.00000000E+00  0.00000000E+00  0.00000000E+00
  0.00000000E+00  0.00000000E+00  0.00000000E+00
  0.00000000E+00  0.00000000E+00  0.00000000E+00
  0.00000000E+00  0.00000000E+00  0.00000000E+00
  0.00000000E+00  0.00000000E+00  0.00000000E+00
  0.00000000E+00  0.00000000E+00  0.00000000E+00
  0.00000000E+00  0.00000000E+00  0.00000000E+00
  0.00000000E+00  0.00000000E+00  0.00000000E+00
  0.00000000E+00  0.00000000E+00  0.00000000E+00
  0.00000000E+00  0.00000000E+00  0.00000000E+00
  0.00000000E+00  0.00000000E+00  0.00000000E+00
  0.00000000E+00  0.00000000E+00  0.00000000E+00
  0.00000000E+00  0.00000000E+00  0.00000000E+00
  0.00000000E+00  0.00000000E+00  0.00000000E+00
  0.00000000E+00  0.00000000E+00  0.00000000E+00
  0.00000000E+00  0.00000000E+00  0.00000000E+00
  0.00000000E+00  0.00000000E+00  0.00000000E+00
  0.00000000E+00  0.00000000E+00  0.00000000E+00
  0.00000000E+00  0.00000000E+00  0.00000000E+00
  0.00000000E+00  0.00000000E+00  0.00000000E+00
  0.00000000E+00  0.00000000E+00  0.00000000E+00
  0.00000000E+00  0.00000000E+00  0.00000000E+00
  0.00000000E+00  0.00000000E+00  0.00000000E+00
  0.00000000E+00  0.00000000E+00  0.00000000E+00
  0.00000000E+00  0.00000000E+00  0.00000000E+00
  0.00000000E+00  0.00000000E+00  0.00000000E+00
  0.00000000E+00  0.00000000E+00  0.00000000E+00
  0.00000000E+00  0.00000000E+00  0.00000000E+00
  0.00000000E+00  0.00000000E+00  0.00000000E+00
  0.00000000E+00  0.00000000E+00  0.00000000E+00
  0.00000000E+00  0.00000000E+00  0.00000000E+00
  0.00000000E+00  0.00000000E+00  0.00000000E+00
  0.00000000E+00  0.00000000E+00  0.00000000E+00
  0.00000000E+00  0.00000000E+00  0.00000000E+00
  0.00000000E+00  0.00000000E+00  0.00000000E+00
  0.00000000E+00  0.00000000E+00  0.00000000E+00
  0.00000000E+00  0.00000000E+00  0.00000000E+00
  0.00000000E+00  0.00000000E+00  0.00000000E+00
  0.00000000E+00  0.00000000E+00  0.00000000E+00
  0.00000000E+00  0.00000000E+00  0.00000000E+00
  0.00000000E+00  0.00000000E+00  0.00000000E+00
  0.00000000E+00  0.00000000E+00  0.00000000E+00
  0.00000000E+00  0.00000000E+00  0.00000000E+00
  0.00000000E+00  0.00000000E+00  0.00000000E+00
