V16 O40                                 
   1.00000000000000     
     7.1341843349503034   -0.0000651017104392   -0.0000238489274885
    -0.0000998675835519   10.7086945806496985    0.0000553962662175
    -0.0000386073135180    0.0000610717830336   11.4851750670421442
   Li   V    O 
     1    16    40
Direct
  0.2500026016801931  0.5914612360874585  0.7500076515737705
  0.0011470921355066  0.2089546280169174  0.1021842781264289
  0.4988078627141424  0.2089606102234643  0.1021819211288932
  0.2499924801642705  0.3040815174175572  0.8956900247663230
  0.7499948527071435  0.3009498994567660  0.8962271534797854
  0.2499973560903760  0.3040946606043261  0.6043140475383690
  0.7499954498426930  0.3009670239217799  0.6037712964770268
  0.0011672001443819  0.2089876692361337  0.3978226548114852
  0.4988225560686506  0.2089926782337380  0.3978194996392106
  0.2500080869292869  0.7032121984696997  0.1038344962933236
  0.7500128214168371  0.7027357534348962  0.1033323707688572
  0.9991813176470444  0.7885177347043266  0.8965480734833343
  0.5008484407355188  0.7885233875846601  0.8965565805136390
  0.9991760049512334  0.7885014587883870  0.6034474318703337
  0.5008502927372084  0.7884947737963065  0.6034457527098331
  0.2500057805205231  0.7031974099377843  0.3961648457569577
  0.7500157176096213  0.7027212693368112  0.3966648512152067
  0.2499901506599824  0.2446722277756000  0.7499975134480991
  0.7499843555666728  0.2425330021137794  0.7499971667721061
  0.9990245805552980  0.2633164454242968  0.2499963557742363
  0.5009604732708187  0.2633171668201681  0.2499950195098319
  0.0020830697973290  0.2573024215088832  0.5703422713300853
  0.4979019177417509  0.2573013427079208  0.5703424790579192
  0.2499932357478006  0.2589650336431132  0.4319171802393106
  0.7499940579070735  0.2515135419117462  0.4329206470840012
  0.2499870834641433  0.2589456212433141  0.0680830268993805
  0.7499870825708631  0.2514810637996708  0.0670784721477966
  0.0020814927177102  0.2572764630524201  0.9296557126336034
  0.4978984562538215  0.2572780316806110  0.9296548891951875
  0.0065339096481907  0.0611369789541789  0.1107771577084063
  0.4934270064059630  0.0611434215191184  0.1107738181658353
  0.2499929718652973  0.4533402603574009  0.8750351549658669
  0.7499955246156763  0.4487226312822061  0.8830295833077104
  0.0065309789911988  0.0611759185646142  0.3892400014774806
  0.4934410875253540  0.0611773191703760  0.3892395744918155
  0.2500029365900620  0.4533539190269547  0.6249744322102174
  0.7499990980399486  0.4487384953533208  0.6169793652964088
  0.0181398502762752  0.7227707212454069  0.7500027228487823
  0.4818710800587267  0.7227682912268911  0.7500026199016721
  0.2500106130770038  0.7623137357277987  0.2500006613830664
  0.7500088260588820  0.7601471472411879  0.2499993160768731
  0.2500055809765072  0.7397640195739997  0.5696355713477613
  0.7500089787227598  0.7412842362857001  0.5736499456635583
  0.9992856810487309  0.7495952164000113  0.4314946376849862
  0.5007231590307066  0.7495970002621274  0.4314921612197407
  0.9992882346739869  0.7496143807046397  0.0685074716659370
  0.5007299358162560  0.7496275375046795  0.0685082804259528
  0.2500110563689541  0.7397971469935209  0.9303657520695298
  0.7500117300000078  0.7413224327999360  0.9263474065855963
  0.2500219111363495  0.5557368770844644  0.1170770612111332
  0.7499968116284925  0.5552945123718849  0.1165085095567858
  0.9984317883742257  0.9354845965565870  0.8803856341366187
  0.5015975724700414  0.9354896044369249  0.8803800294289581
  0.2500015173709110  0.5557234380462023  0.3829121324767055
  0.7499985924473518  0.5552818913671695  0.3834779259095405
  0.9984255512137824  0.9354696656289486  0.6196048594555114
  0.5015961452204490  0.9354622153812018  0.6196045490832772
 
  0.00000000E+00  0.00000000E+00  0.00000000E+00
  0.00000000E+00  0.00000000E+00  0.00000000E+00
  0.00000000E+00  0.00000000E+00  0.00000000E+00
  0.00000000E+00  0.00000000E+00  0.00000000E+00
  0.00000000E+00  0.00000000E+00  0.00000000E+00
  0.00000000E+00  0.00000000E+00  0.00000000E+00
  0.00000000E+00  0.00000000E+00  0.00000000E+00
  0.00000000E+00  0.00000000E+00  0.00000000E+00
  0.00000000E+00  0.00000000E+00  0.00000000E+00
  0.00000000E+00  0.00000000E+00  0.00000000E+00
  0.00000000E+00  0.00000000E+00  0.00000000E+00
  0.00000000E+00  0.00000000E+00  0.00000000E+00
  0.00000000E+00  0.00000000E+00  0.00000000E+00
  0.00000000E+00  0.00000000E+00  0.00000000E+00
  0.00000000E+00  0.00000000E+00  0.00000000E+00
  0.00000000E+00  0.00000000E+00  0.00000000E+00
  0.00000000E+00  0.00000000E+00  0.00000000E+00
  0.00000000E+00  0.00000000E+00  0.00000000E+00
  0.00000000E+00  0.00000000E+00  0.00000000E+00
  0.00000000E+00  0.00000000E+00  0.00000000E+00
  0.00000000E+00  0.00000000E+00  0.00000000E+00
  0.00000000E+00  0.00000000E+00  0.00000000E+00
  0.00000000E+00  0.00000000E+00  0.00000000E+00
  0.00000000E+00  0.00000000E+00  0.00000000E+00
  0.00000000E+00  0.00000000E+00  0.00000000E+00
  0.00000000E+00  0.00000000E+00  0.00000000E+00
  0.00000000E+00  0.00000000E+00  0.00000000E+00
  0.00000000E+00  0.00000000E+00  0.00000000E+00
  0.00000000E+00  0.00000000E+00  0.00000000E+00
  0.00000000E+00  0.00000000E+00  0.00000000E+00
  0.00000000E+00  0.00000000E+00  0.00000000E+00
  0.00000000E+00  0.00000000E+00  0.00000000E+00
  0.00000000E+00  0.00000000E+00  0.00000000E+00
  0.00000000E+00  0.00000000E+00  0.00000000E+00
  0.00000000E+00  0.00000000E+00  0.00000000E+00
  0.00000000E+00  0.00000000E+00  0.00000000E+00
  0.00000000E+00  0.00000000E+00  0.00000000E+00
  0.00000000E+00  0.00000000E+00  0.00000000E+00
  0.00000000E+00  0.00000000E+00  0.00000000E+00
  0.00000000E+00  0.00000000E+00  0.00000000E+00
  0.00000000E+00  0.00000000E+00  0.00000000E+00
  0.00000000E+00  0.00000000E+00  0.00000000E+00
  0.00000000E+00  0.00000000E+00  0.00000000E+00
  0.00000000E+00  0.00000000E+00  0.00000000E+00
  0.00000000E+00  0.00000000E+00  0.00000000E+00
  0.00000000E+00  0.00000000E+00  0.00000000E+00
  0.00000000E+00  0.00000000E+00  0.00000000E+00
  0.00000000E+00  0.00000000E+00  0.00000000E+00
  0.00000000E+00  0.00000000E+00  0.00000000E+00
  0.00000000E+00  0.00000000E+00  0.00000000E+00
  0.00000000E+00  0.00000000E+00  0.00000000E+00
  0.00000000E+00  0.00000000E+00  0.00000000E+00
  0.00000000E+00  0.00000000E+00  0.00000000E+00
  0.00000000E+00  0.00000000E+00  0.00000000E+00
  0.00000000E+00  0.00000000E+00  0.00000000E+00
  0.00000000E+00  0.00000000E+00  0.00000000E+00
  0.00000000E+00  0.00000000E+00  0.00000000E+00
