Ca8 Ni12 F42                            
   1.00000000000000     
     7.2713900000000002    0.0160100000000000   -0.0315490000000000
    -3.6459500000000000    6.3478349999999999    0.0100770000000000
    -0.0719390000000000   -0.0161710000000000   18.3170299999999990
   Ca   Ni   F 
     8    12    42
Direct
  0.0979856380443682  0.8196765541593476  0.6766165654840831
  0.1511962747532358  0.6453695967471585  0.9851305549020325
  0.3548019861049164  0.5065463018184745  0.3171872857835022
  0.8395322551902904  0.0158363542471037  0.3472190059062187
  0.1791671562808947  0.1688872885692594  0.0040589821984925
  0.9858629875617284  0.7948304998771566  0.1745364669945471
  0.7938082657509283  0.9736901317138890  0.8356583019314183
  0.2065073208177296  0.1771229633308471  0.5080604328160876
  0.3360580916171014  0.0002077726518508  0.3334609877158883
  0.9897333282000199  0.3192525852306149  0.6645474710839716
  0.6680418230462202  0.6698867048640547  0.0015737503260811
  0.3378941382450051  0.0286257676077465  0.8352551302321888
  0.9935589976522412  0.3109598648399474  0.1616579399644829
  0.6881276420214466  0.6722245677723028  0.4964497175288216
  0.4965561140458859  0.8192646928039433  0.1639199457230121
  0.1782293365522038  0.6626723583793666  0.4912376162077812
  0.3184011194637257  0.5038376714688345  0.8279938545428713
  0.8254092839891322  0.5071789948853378  0.8285462214041274
  0.6843228440461121  0.1721532163381037  0.4983245131907246
  0.4931884585954670  0.3104990972511592  0.1619235454138882
  0.7464809675836800  0.1962513441224549  0.6004772221089087
  0.8223837119691003  0.5774059995631255  0.9361348661840392
  0.4384301242111955  0.2537114196976126  0.2698836394408862
  0.2439267108775024  0.7227121517946807  0.3838525651226982
  0.4813246430542252  0.7506394311546380  0.0584732983154509
  0.2397378324329058  0.4909032925563078  0.7260369347866933
  0.8328288825599266  0.9582203390983596  0.9564814926199826
  0.0427814700469879  0.8815350083923961  0.2891635787150172
  0.1216921537189936  0.1602178933337710  0.6209431579367968
  0.9757063881141307  0.7973988285314927  0.0536462722809927
  0.8624307967538553  0.0807326740963008  0.7272135585443482
  0.2064485679097174  0.1767674224598071  0.3857398885636977
  0.5222160794999613  0.3878705064740126  0.0538757224308888
  0.6081244464749864  0.1253071231303997  0.3892892554451164
  0.8753640371093853  0.4844181718391545  0.7219835382328915
  0.3883483631901880  0.5290899084403325  0.9427632655444893
  0.1162285040643686  0.5886025560518355  0.5980531480978349
  0.5048830335297092  0.8746478002911777  0.2755555052077248
  0.7978522813200475  0.4241330055692863  0.1711118059315800
  0.5752555953212982  0.3653867383497604  0.4981706055836436
  0.6460309797954036  0.2097284781697844  0.8522393757876949
  0.4297804399168462  0.8139186496004839  0.8287983440356892
  0.3768530738700512  0.5561138055280868  0.4956736143204348
  0.1909885768116752  0.6205887583215188  0.1781868514620916
  0.0209167709852337  0.2942587433522289  0.2719783581907765
  0.7418802951775766  0.7106545001623095  0.5966210798116036
  0.2947411424206937  0.9744127334543153  0.9445406749133611
  0.3691445326964113  0.0795729440588565  0.7326578107507785
  0.6529403753062483  0.6703423520509666  0.3828433832616849
  0.0208788512548079  0.3503380473965809  0.0507592758106282
  0.1876987551694089  0.1986676514488728  0.1414920757440864
  0.7994178801606009  0.9810145327579766  0.4780368410535092
  0.0281980015297848  0.8186935630114456  0.8078194579266594
  0.1981857011307578  0.2019438549640793  0.8563175656999987
  0.9922866913542520  0.7819111216696685  0.4821615531673006
  0.8041024712162177 -0.0011984868787066  0.1622840131460523
  0.0520016240938991  0.4595019008562332  0.8709940881075723
  0.5747904666967715  0.6048196282508034  0.2001356202591193
  0.3746875937790884  0.9653204107669783  0.5235145110984385
  0.3867128099002733  0.0088413212908561  0.1386141232923515
  0.6188487755080609  0.6014024295183199  0.8077595506451731
  0.9800319007211430  0.3654899433505577  0.4628327890410565
 
             NaN             NaN             NaN
             NaN             NaN             NaN
             NaN             NaN             NaN
             NaN             NaN             NaN
             NaN             NaN             NaN
             NaN             NaN             NaN
             NaN             NaN             NaN
             NaN             NaN             NaN
             NaN             NaN             NaN
             NaN             NaN             NaN
             NaN             NaN             NaN
             NaN             NaN             NaN
             NaN             NaN             NaN
             NaN             NaN             NaN
             NaN             NaN             NaN
             NaN             NaN             NaN
             NaN             NaN             NaN
             NaN             NaN             NaN
             NaN             NaN             NaN
             NaN             NaN             NaN
             NaN             NaN             NaN
             NaN             NaN             NaN
             NaN             NaN             NaN
             NaN             NaN             NaN
             NaN             NaN             NaN
             NaN             NaN             NaN
             NaN             NaN             NaN
             NaN             NaN             NaN
             NaN             NaN             NaN
             NaN             NaN             NaN
             NaN             NaN             NaN
             NaN             NaN             NaN
             NaN             NaN             NaN
             NaN             NaN             NaN
             NaN             NaN             NaN
             NaN             NaN             NaN
             NaN             NaN             NaN
             NaN             NaN             NaN
             NaN             NaN             NaN
             NaN             NaN             NaN
             NaN             NaN             NaN
             NaN             NaN             NaN
             NaN             NaN             NaN
             NaN             NaN             NaN
             NaN             NaN             NaN
             NaN             NaN             NaN
             NaN             NaN             NaN
             NaN             NaN             NaN
             NaN             NaN             NaN
             NaN             NaN             NaN
             NaN             NaN             NaN
             NaN             NaN             NaN
             NaN             NaN             NaN
             NaN             NaN             NaN
             NaN             NaN             NaN
             NaN             NaN             NaN
             NaN             NaN             NaN
             NaN             NaN             NaN
             NaN             NaN             NaN
             NaN             NaN             NaN
             NaN             NaN             NaN
             NaN             NaN             NaN
