Ca8 Ni12 F42
1.0
7.271390 0.016010 -0.031549
-3.645950 6.347835 0.010077
-0.071939 -0.016171 18.317030
Ca Ni F
8 12 42
direct
0.125294 0.840136 0.670376 Ca
0.149121 0.643560 0.980274 Ca
0.351719 0.512349 0.318507 Ca
0.844413 0.016238 0.347145 Ca
0.168390 0.161430 0.008698 Ca
0.987419 0.793686 0.174636 Ca
0.786809 0.979367 0.835621 Ca
0.219040 0.188484 0.509338 Ca
0.345048 0.008389 0.334329 Ni
0.991712 0.337393 0.666320 Ni
0.659338 0.658305 0.001294 Ni
0.313785 0.005544 0.832056 Ni
0.994321 0.312000 0.161967 Ni
0.693110 0.683875 0.494258 Ni
0.497694 0.819423 0.162694 Ni
0.185376 0.676011 0.496396 Ni
0.308119 0.492521 0.829463 Ni
0.809647 0.497276 0.828792 Ni
0.695558 0.186253 0.497489 Ni
0.494661 0.310767 0.162783 Ni
0.749809 0.203416 0.600887 F
0.806235 0.554379 0.937567 F
0.440693 0.259790 0.270207 F
0.255043 0.735391 0.387148 F
0.475331 0.745198 0.056765 F
0.244323 0.490870 0.727615 F
0.824948 0.948031 0.955612 F
0.051646 0.885973 0.289133 F
0.124640 0.188009 0.618499 F
0.971351 0.790282 0.053262 F
0.858062 0.065241 0.723479 F
0.211775 0.184190 0.386452 F
0.519728 0.381241 0.055292 F
0.621174 0.139657 0.387854 F
0.861590 0.478368 0.723806 F
0.370031 0.499000 0.944270 F
0.115798 0.612328 0.602715 F
0.510839 0.879749 0.275071 F
0.799462 0.424409 0.172271 F
0.585678 0.379047 0.498792 F
0.622494 0.196759 0.843441 F
0.413237 0.796429 0.847278 F
0.382831 0.567818 0.498562 F
0.194956 0.619809 0.181979 F
0.021255 0.291511 0.271727 F
0.718361 0.722136 0.595816 F
0.280736 0.978003 0.943602 F
0.332642 0.010457 0.728910 F
0.654282 0.673906 0.381831 F
0.020465 0.355997 0.051591 F
0.188227 0.198908 0.142278 F
0.808277 0.993319 0.476631 F
0.003062 0.805188 0.817912 F
0.187744 0.190821 0.843854 F
0.998743 0.793624 0.484285 F
0.804488 0.000035 0.157892 F
0.028245 0.429198 0.869903 F
0.582285 0.609537 0.198334 F
0.388756 0.979415 0.522268 F
0.384627 0.007088 0.138768 F
0.609242 0.601655 0.806812 F
0.990777 0.381878 0.466082 F
