Mg8 Fe16 S32
1.0
        9.8594722748         0.0000000000         0.0000000000
        0.0000000000         9.8594722748         0.0000000000
        0.0000000000         0.0000000000         9.8594722748
   Mg   Fe    S
    7   16   32
Direct
   0.2500000000000000    0.7500000000000000    0.7500000000000000 Mg
     0.500000000         0.000000000         0.500000000
     0.250000000         0.250000000         0.250000000
     0.000000000         0.000000000         0.000000000
     0.750000000         0.250000000         0.750000000
     0.000000000         0.500000000         0.500000000
     0.750000000         0.750000000         0.250000000
     0.125000000         0.625000000         0.125000000
     0.125000000         0.875000000         0.375000000
     0.375000000         0.625000000         0.375000000
     0.375000000         0.875000000         0.125000000
     0.125000000         0.125000000         0.625000000
     0.125000000         0.375000000         0.875000000
     0.375000000         0.125000000         0.875000000
     0.375000000         0.375000000         0.625000000
     0.625000000         0.625000000         0.625000000
     0.625000000         0.875000000         0.875000000
     0.875000000         0.625000000         0.875000000
     0.875000000         0.875000000         0.625000000
     0.625000000         0.125000000         0.125000000
     0.625000000         0.375000000         0.375000000
     0.875000000         0.125000000         0.375000000
     0.875000000         0.375000000         0.125000000
     0.357982993         0.857982993         0.357982993
     0.392017007         0.107983001         0.107983001
     0.107983001         0.107983001         0.392017007
     0.107983001         0.392017007         0.107983001
     0.642017007         0.142017007         0.357982993
     0.142017007         0.857982993         0.142017007
     0.392017007         0.392017007         0.392017007
     0.857982993         0.142017007         0.142017007
     0.357982993         0.357982993         0.857982993
     0.392017007         0.607982993         0.607982993
     0.107983001         0.607982993         0.892017007
     0.107983001         0.892017007         0.607982993
     0.642017007         0.642017007         0.857982993
     0.142017007         0.357982993         0.642017007
     0.392017007         0.892017007         0.892017007
     0.857982993         0.642017007         0.642017007
     0.857982993         0.857982993         0.857982993
     0.892017007         0.107983001         0.607982993
     0.607982993         0.107983001         0.892017007
     0.607982993         0.392017007         0.607982993
     0.142017007         0.142017007         0.857982993
     0.642017007         0.857982993         0.642017007
     0.892017007         0.392017007         0.892017007
     0.357982993         0.142017007         0.642017007
     0.857982993         0.357982993         0.357982993
     0.892017007         0.607982993         0.107983001
     0.607982993         0.607982993         0.392017007
     0.607982993         0.892017007         0.107983001
     0.142017007         0.642017007         0.357982993
     0.642017007         0.357982993         0.142017007
     0.892017007         0.892017007         0.392017007
     0.357982993         0.642017007         0.142017007
