Ca1 Ni12 F42                            
   1.00000000000000     
     7.0102399999999996   -0.0280710000000000    0.0053160000000000
    -3.5256099999999999    6.1144429999999996   -0.0242560000000000
    -0.1032980000000000   -0.0273660000000000   16.9071670000000012
   Ca   Ni   F 
     1    12    42
Direct
  0.9825243021605899  0.8419533049728966  0.6678534637986038
  0.3004797030150761  0.9953064260050930  0.3302491681271580
  0.6828935578417883  0.6848382397657717  0.0034947619415938
 -0.0089256070167167  0.3114021758958149  0.6663187421039269
  0.3273014044086828  0.9908434703612183  0.8344490693024610
  0.6535541794311392  0.6567123290665219  0.4986498257378393
  0.9933566531926782  0.3423495013802654  0.1671621824495074
  0.6496361664162372  0.1561385012506916  0.4966495014821129
  0.4918534857495292  0.3412147116475163  0.1678865578265339
  0.8258445427380309  0.4870217929848490  0.8389434808010813
  0.3316818248246762  0.4942499490338155  0.8369811882540427
  0.1559669771667003  0.6545907301769124  0.4949575970864995
  0.4947044310961458  0.8425421353185848  0.1663385282579077
  0.5560811846933127  0.8215237765758319  0.0598696772721877
  0.2458217053035796  0.4299551488316876  0.7313619393022542
  0.1753766819666079  0.7393432339174710  0.3867537411126014
  0.4385116895661343  0.2593895376562002  0.2743875572144613
  0.7965887169977077  0.5414342953184573  0.9473920945719716
  0.7337736193171271  0.1890457749481955  0.6024254851823098
  0.8668519435459658  0.0656914948585643  0.7252478448803450
  0.1866349686074984  0.1072561942177350  0.3936215902372598
  0.9111966152802147  0.7966264316613599  0.0668924093062202
  0.1053195090340561  0.1815723284013204  0.6066068678281725
  0.0740158509889949  0.8854148632178100  0.2660506269937294
  0.8023236548498387  0.9086715315146530  0.9396408617822347
  0.1216905387881985  0.5734379520895481  0.6087927744316279
  0.4375910962304340  0.8682895669042930  0.2720107691532967
  0.4174505612440045  0.5543171944233303  0.9434944865092612
  0.8703971836900213  0.4530019074314411  0.7245651377860236
  0.5654643129163430  0.1205193724369091  0.3902469300929322
  0.5385645824363583  0.4225564529103608  0.0620993697133678
  0.3608110139089524  0.5590129967588251  0.4775451123910529
  0.2025272682323944  0.6416754816067504  0.1431984352429222
  0.4074952719787395  0.7835463395030285  0.8096036980363718
  0.6239924127302404  0.1826827603547360  0.8489164122882036
  0.5640937323060120  0.3652471884081868  0.5197467485746661
  0.7865605368730894  0.4363404841797359  0.1886699529804492
  0.6914684118489995  0.6225155791472812  0.3980919435539599
  0.9182301675969350  0.3023037746964530  0.0669056628857310
  0.3298970065139304  0.0451325863266741  0.7278083484019687
  0.3043391055155028  0.9238006238890825  0.9353194483669667
  0.6366756222840243  0.6989247625503545  0.6053305870833021
  0.0686101524586589  0.3832836991262083  0.2674015620190400
  0.9492051610537453  0.7494096696592329  0.5238123444691880
  0.7865820304598571  0.0423381332372554  0.1897977372015357
  0.2473906551709552  0.1987708558386284  0.8584856789799986
  0.0281027352575716  0.7922718862086324  0.8147651231451816
  0.7418608309994549  0.9486444089922028  0.4789731837691289
  0.1975263639684027  0.2451963498502262  0.1469105942153126
  0.6091003015070577  0.5576916838332453  0.8023681649714943
  0.9286963915133779  0.3676753127340969  0.4640502387559028
  0.4353973558135223  0.0650291267245062  0.1343396781867436
  0.3727938781053427  0.9412413986547457  0.5310353042621756
  0.5513226859844470  0.6192271902412428  0.1999599541751859
  0.0523952394727333  0.4256477461570400  0.8696208156778082
 
             NaN             NaN             NaN
             NaN             NaN             NaN
             NaN             NaN             NaN
             NaN             NaN             NaN
             NaN             NaN             NaN
             NaN             NaN             NaN
             NaN             NaN             NaN
             NaN             NaN             NaN
             NaN             NaN             NaN
             NaN             NaN             NaN
             NaN             NaN             NaN
             NaN             NaN             NaN
             NaN             NaN             NaN
             NaN             NaN             NaN
             NaN             NaN             NaN
             NaN             NaN             NaN
             NaN             NaN             NaN
             NaN             NaN             NaN
             NaN             NaN             NaN
             NaN             NaN             NaN
             NaN             NaN             NaN
             NaN             NaN             NaN
             NaN             NaN             NaN
             NaN             NaN             NaN
             NaN             NaN             NaN
             NaN             NaN             NaN
             NaN             NaN             NaN
             NaN             NaN             NaN
             NaN             NaN             NaN
             NaN             NaN             NaN
             NaN             NaN             NaN
             NaN             NaN             NaN
             NaN             NaN             NaN
             NaN             NaN             NaN
             NaN             NaN             NaN
             NaN             NaN             NaN
             NaN             NaN             NaN
             NaN             NaN             NaN
             NaN             NaN             NaN
             NaN             NaN             NaN
             NaN             NaN             NaN
             NaN             NaN             NaN
             NaN             NaN             NaN
             NaN             NaN             NaN
             NaN             NaN             NaN
             NaN             NaN             NaN
             NaN             NaN             NaN
             NaN             NaN             NaN
             NaN             NaN             NaN
             NaN             NaN             NaN
             NaN             NaN             NaN
             NaN             NaN             NaN
             NaN             NaN             NaN
             NaN             NaN             NaN
             NaN             NaN             NaN
