Ca1 Ni12 F42
1.0
7.010240 -0.028071 0.005316
-3.525610 6.114443 -0.024256
-0.103298 -0.027366 16.907167
Ca Ni F
1 12 42
direct
0.503064 0.611753 0.666891 Ca
0.298736 0.997848 0.329140 Ni
0.700922 0.697328 0.005820 Ni
0.002908 0.311911 0.665972 Ni
0.342999 0.999438 0.840010 Ni
0.658208 0.656554 0.492525 Ni
0.998750 0.344801 0.167422 Ni
0.657399 0.153670 0.491678 Ni
0.498959 0.345656 0.167805 Ni
0.845612 0.499460 0.838830 Ni
0.343638 0.497923 0.841890 Ni
0.155640 0.654477 0.494370 Ni
0.498726 0.845441 0.166864 Ni
0.564987 0.826482 0.061892 F
0.259890 0.449328 0.730755 F
0.175035 0.743185 0.387078 F
0.432299 0.261766 0.273009 F
0.825326 0.568704 0.946824 F
0.745853 0.189918 0.600973 F
0.871098 0.069684 0.723979 F
0.190413 0.111953 0.394142 F
0.930340 0.815576 0.068889 F
0.136081 0.205266 0.606747 F
0.068190 0.886789 0.266662 F
0.810794 0.921591 0.941842 F
0.138775 0.572825 0.607074 F
0.431801 0.865657 0.271117 F
0.435160 0.556316 0.947992 F
0.864334 0.432319 0.725703 F
0.567219 0.122225 0.385853 F
0.566041 0.431743 0.063305 F
0.365811 0.568906 0.469077 F
0.206724 0.643444 0.142356 F
0.438048 0.801208 0.816619 F
0.635266 0.204743 0.863120 F
0.565358 0.362525 0.516377 F
0.790634 0.435642 0.192597 F
0.700798 0.619311 0.392976 F
0.916723 0.303135 0.067976 F
0.386348 0.075013 0.735001 F
0.302207 0.920497 0.939643 F
0.613301 0.688195 0.597409 F
0.080539 0.386149 0.266900 F
0.946509 0.738673 0.520593 F
0.790501 0.046595 0.191937 F
0.246013 0.193794 0.859422 F
0.055063 0.791046 0.812414 F
0.753681 0.949025 0.473049 F
0.207164 0.254725 0.142771 F
0.623594 0.554643 0.801271 F
0.939584 0.373358 0.460776 F
0.439047 0.065520 0.134872 F
0.380397 0.933844 0.531432 F
0.558513 0.625922 0.199900 F
0.058513 0.432246 0.872548 F
