Ca1 Mn12 F42                            
   1.00000000000000     
     7.3736100000000002   -0.0162810000000000   -0.0708520000000000
    -3.7003230000000000    6.3369119999999999    0.0512770000000000
     0.0601220000000000    0.0377230000000000   17.4880250000000004
   Ca   Mn   F 
     1    12    42
Direct
  0.4282859678358453  0.4823928526198761  0.3283676356074589
  0.2791870830708489  0.9763433180875243  0.3311994373953423
  0.7176147706287758  0.7011029754085683  0.9961327276643351
  1.0107490075513867  0.3043884718317810  0.6727391861879130
  0.3679264691973225  0.0107356677757622  0.8327173524332467
  0.6640229311503697  0.6798445649146504  0.5130536810240955
  0.9812804201223528  0.3210092816553602  0.1598608269414695
  0.6529059336775215  0.1733747812595127  0.5044571580961648
  0.4820633723078335  0.3142968121516821  0.1466140155722182
  0.8687013782247890  0.5107780619145704  0.8329713872002359
  0.3680718044282990  0.5104970424946124  0.8320847538418823
  0.1570414577126631  0.6669388948101731  0.5126721518133113
  0.4790493797638016  0.8191958322840944  0.1622419430676029
  0.5727917796062966  0.7840165544747433  0.0596109010575960
  0.2711792939922873  0.4456333917303041  0.7306518858910654
  0.1834855754439925  0.7665343074489319  0.4112359828176790
  0.4004660711890449  0.2080336890010782  0.2504345326931743
  0.8355292887610498  0.5701372272887256  0.9348402974766896
  0.7732092724770058  0.2090062628542129  0.6134687913423562
  0.8999879946690501  0.0945425481627029  0.7367236767606519
  0.2018913665314855  0.1552582180748702  0.3755138538335905
  0.9231545979773077  0.7873308702747120  0.0613568315213545
  0.1177835282994625  0.1978749196330588  0.6117344685954080
  0.0393189402507133  0.8305143889275252  0.2819290350862984
  0.8275771226140205  0.9269971350218104  0.9398418391848755
  0.1412070470188611  0.5673285500821021  0.6135266850177595
  0.3983868606571562  0.8312575283357282  0.2785564451996694
  0.4620615134775258  0.5728101963094889  0.9332330867733135
  0.9035304896748795  0.4552994235450467  0.7313045485774924
  0.5369187999667318  0.1408818559501564  0.3867374637968266
  0.5666525969634536  0.4253257769151220  0.0478272252676615
  0.3727476932187237  0.5914813695947888  0.4831423877326425
  0.1946788134912806  0.6141749241922143  0.1398687173961336
  0.4431564763995688  0.7965521125717417  0.8140631463466392
  0.6599729694665879  0.2240867367715290  0.8500490836147684
  0.5749818869611881  0.3824360572751732  0.5235450190944183
  0.7625767517284284  0.3960916089635936  0.1810962953771009
  0.6989760502540734  0.6512081974528043  0.4085304140041414
  0.8952857911931301  0.2825894521643267  0.0646094128275072
  0.3965744340910367  0.0733372737153122  0.7340335938316108
  0.3393720979169734  0.9482761723594691  0.9315033935002304
  0.6197355912436120  0.7046302198600067  0.6091891281353480
  0.0846997010094923  0.3650226184129231  0.2586708714589190
  0.9453170918519809  0.7453484737585353  0.5331509041496433
  0.7634865868635369  0.0310035112065950  0.1863801080900385
  0.2918081915988182  0.2242491748476020  0.8506616821615943
  0.0755095378635492  0.7986023999249916  0.8160823888927743
  0.7357985959182453  0.9656527922240552  0.4892953961939771
  0.2000628367187598  0.2533360183749988  0.1307377131336558
  0.6340182695062059  0.5685406745023277  0.8023612103055046
  0.9281186953700897  0.3919057488081627  0.4751156593441081
  0.4254726466864688  0.0242755488627622  0.1240863281306506
  0.3860003950959698  0.9535465777090000  0.5372533724547216
  0.5296786064503817  0.6001574386726616  0.2030244960067900
  0.1023498329800442  0.4528593583090250  0.8626898314526003
 
             NaN             NaN             NaN
             NaN             NaN             NaN
             NaN             NaN             NaN
             NaN             NaN             NaN
             NaN             NaN             NaN
             NaN             NaN             NaN
             NaN             NaN             NaN
             NaN             NaN             NaN
             NaN             NaN             NaN
             NaN             NaN             NaN
             NaN             NaN             NaN
             NaN             NaN             NaN
             NaN             NaN             NaN
             NaN             NaN             NaN
             NaN             NaN             NaN
             NaN             NaN             NaN
             NaN             NaN             NaN
             NaN             NaN             NaN
             NaN             NaN             NaN
             NaN             NaN             NaN
             NaN             NaN             NaN
             NaN             NaN             NaN
             NaN             NaN             NaN
             NaN             NaN             NaN
             NaN             NaN             NaN
             NaN             NaN             NaN
             NaN             NaN             NaN
             NaN             NaN             NaN
             NaN             NaN             NaN
             NaN             NaN             NaN
             NaN             NaN             NaN
             NaN             NaN             NaN
             NaN             NaN             NaN
             NaN             NaN             NaN
             NaN             NaN             NaN
             NaN             NaN             NaN
             NaN             NaN             NaN
             NaN             NaN             NaN
             NaN             NaN             NaN
             NaN             NaN             NaN
             NaN             NaN             NaN
             NaN             NaN             NaN
             NaN             NaN             NaN
             NaN             NaN             NaN
             NaN             NaN             NaN
             NaN             NaN             NaN
             NaN             NaN             NaN
             NaN             NaN             NaN
             NaN             NaN             NaN
             NaN             NaN             NaN
             NaN             NaN             NaN
             NaN             NaN             NaN
             NaN             NaN             NaN
             NaN             NaN             NaN
             NaN             NaN             NaN
