Ca1 Mn12 F42
1.0
7.373610 -0.016281 -0.070852
-3.700323 6.336912 0.051277
0.060122 0.037723 17.488025
Ca Mn F
1 12 42
direct
0.487161 0.501815 0.333856 Ca
0.296550 0.997640 0.333119 Mn
0.711571 0.705653 0.995353 Mn
-0.000295 0.295127 0.671447 Mn
0.352832 0.001026 0.833165 Mn
0.643910 0.653397 0.505773 Mn
0.997384 0.342404 0.160077 Mn
0.643283 0.151932 0.504669 Mn
0.502590 0.347587 0.158102 Mn
0.853615 0.499749 0.833105 Mn
0.354711 0.502370 0.833550 Mn
0.141879 0.650736 0.508098 Mn
0.496928 0.844551 0.162686 Mn
0.579170 0.807159 0.058571 F
0.255142 0.440368 0.731585 F
0.173414 0.749203 0.403998 F
0.440784 0.255884 0.263660 F
0.820278 0.563191 0.935212 F
0.759777 0.190931 0.608684 F
0.888937 0.081070 0.733762 F
0.208403 0.151308 0.385173 F
0.927411 0.804710 0.056552 F
0.113549 0.195426 0.610205 F
0.068627 0.870249 0.275181 F
0.812991 0.920256 0.933427 F
0.120143 0.555876 0.610397 F
0.416081 0.855573 0.278326 F
0.450126 0.563087 0.935788 F
0.883026 0.436448 0.730966 F
0.548096 0.124278 0.393709 F
0.569110 0.443715 0.056108 F
0.352304 0.568593 0.477241 F
0.210958 0.634960 0.142504 F
0.431930 0.789188 0.815716 F
0.644446 0.214240 0.852126 F
0.563388 0.361450 0.521169 F
0.790101 0.428077 0.181835 F
0.673450 0.619762 0.401762 F
0.926299 0.304736 0.063702 F
0.385932 0.065372 0.734612 F
0.319615 0.936569 0.931705 F
0.599763 0.681669 0.601656 F
0.069744 0.383179 0.263377 F
0.928327 0.727423 0.524236 F
0.783394 0.054911 0.185292 F
0.276094 0.214507 0.850687 F
0.061725 0.786420 0.814301 F
0.720908 0.940904 0.484168 F
0.213802 0.269922 0.143695 F
0.621139 0.557794 0.803343 F
0.917753 0.374727 0.470156 F
0.444693 0.060794 0.133426 F
0.371406 0.930081 0.534508 F
0.544010 0.624458 0.203349 F
0.086805 0.445616 0.863576 F
