Ca1 Cr4 P6 O24
1.0
2.670598 6.860478 4.557777
0.393879 0.213784 8.656319
7.374651 0.224975 4.492124
Ca Cr P O
1 4 6 24
direct
0.480349 0.502079 0.509986 Ca
0.644126 0.641229 0.643267 Cr
0.145832 0.143485 0.139927 Cr
0.855808 0.849475 0.851006 Cr
0.350925 0.351074 0.354856 Cr
0.247036 0.528160 0.961794 P
0.032916 0.748864 0.464985 P
0.961088 0.247974 0.527383 P
0.468373 0.031881 0.747519 P
0.529356 0.963921 0.247229 P
0.746860 0.466356 0.033448 P
0.603653 0.755489 0.396819 O
0.317902 0.011270 0.961610 O
0.391740 0.611955 0.755565 O
0.959100 0.318999 0.010416 O
0.750752 0.391590 0.603400 O
0.009617 0.958635 0.314149 O
0.981529 0.033482 0.673246 O
0.601471 0.393103 0.242831 O
0.679938 0.984776 0.037954 O
0.240160 0.600577 0.384393 O
0.034641 0.679856 0.986484 O
0.387531 0.241098 0.602864 O
0.277817 0.335218 0.964661 O
0.876271 0.690106 0.500075 O
0.985812 0.275848 0.323701 O
0.493138 0.877530 0.696201 O
0.330266 0.979911 0.275277 O
0.693020 0.489000 0.878473 O
0.302393 0.492366 0.120846 O
0.030130 0.715054 0.660262 O
0.114767 0.296351 0.508622 O
0.665165 0.017803 0.720401 O
0.501960 0.118778 0.304574 O
0.720959 0.669106 0.008175 O
