Ca1 Mn4 S6 O24                          
   1.00000000000000     
     7.9150390000000002    0.0255880000000000    4.9613940000000003
     2.7810850000000000    7.1091680000000004    4.8170760000000001
     0.5324090000000000    0.0819260000000000    9.0609350000000006
   Ca   Mn   S    O 
     1     4     6    24
Direct
  0.2810854995049917  0.7479584673951476  0.5606365907911385
  0.6626339602126328  0.6369911559869302  0.6460950529441826
  0.1400870970923687  0.1593536101355008  0.1398482432277523
  0.8157976851166969  0.8592919293464476  0.8449456175106067
  0.3591015633312196  0.3505510384082464  0.3565712890306946
  0.9736221074993207  0.2298344367571061  0.5301064318024900
  0.4311840354422564  0.0480832662014700  0.7580945888601431
  0.5537265048554453  0.9579011273674863  0.2394881645992779
  0.7441374125438945  0.4703258380451662  0.0476474871076252
  0.2620309656481996  0.5152840120047495  0.9591488778286489
  0.0306674414964514  0.7627206622717735  0.4468861761213198
  0.4258707244870568  0.5615706735049686  0.7736526284872213
  0.9378815336833285  0.3453393451091380  0.0176999303961964
  0.7951239136705559  0.3559093131043071  0.6190236859683989
  0.0093274250923927  0.9658196322771594  0.3293171107777138
  0.5987181778203288  0.7680541479299234  0.3908234476310794
  0.2884888544820673  0.0221393301472153  0.9664958948811223
  0.7013451670507403  0.9633736860956550  0.0412148660906044
  0.2292686495191123  0.6428863718473341  0.3823697851784627
  0.0955274932255629  0.6657481168491344  0.9202778567356856
  0.3571969915889704  0.2398269304674266  0.6321521949288413
  0.9822071145952698  0.0229590723839392  0.6503962114959497
  0.6106504882753897  0.3962170638788019  0.2426355183591164
  0.9890162937671328  0.2743435460630774  0.3347638141385461
  0.4581846289960198  0.8987260233661070  0.7127452569150949
  0.3716141150760353  0.9808335760407360  0.2591758194702889
  0.6986261445381404  0.5065084999255917  0.8975489898471792
  0.2811424891820491  0.3291992126614609  0.9764967382514653
  0.9074487660312022  0.7092019159963340  0.4495455160672733
  0.1339032906521161  0.2414578090391516  0.5116996833075410
  0.6078913134504047  0.0285470677824997  0.7418201272206246
  0.5396643684565970  0.1075232832098972  0.2717307408723924
  0.7178980781840316  0.6596294127629456  0.0364812096725389
  0.2700838232609430  0.5005532423391548  0.1224571283336823
 -0.0150193933086623  0.7293501761940437  0.6530036594232752
 
             NaN             NaN             NaN
             NaN             NaN             NaN
             NaN             NaN             NaN
             NaN             NaN             NaN
             NaN             NaN             NaN
             NaN             NaN             NaN
             NaN             NaN             NaN
             NaN             NaN             NaN
             NaN             NaN             NaN
             NaN             NaN             NaN
             NaN             NaN             NaN
             NaN             NaN             NaN
             NaN             NaN             NaN
             NaN             NaN             NaN
             NaN             NaN             NaN
             NaN             NaN             NaN
             NaN             NaN             NaN
             NaN             NaN             NaN
             NaN             NaN             NaN
             NaN             NaN             NaN
             NaN             NaN             NaN
             NaN             NaN             NaN
             NaN             NaN             NaN
             NaN             NaN             NaN
             NaN             NaN             NaN
             NaN             NaN             NaN
             NaN             NaN             NaN
             NaN             NaN             NaN
             NaN             NaN             NaN
             NaN             NaN             NaN
             NaN             NaN             NaN
             NaN             NaN             NaN
             NaN             NaN             NaN
             NaN             NaN             NaN
             NaN             NaN             NaN
