Ca1 Mn4 S6 O24
1.0
7.915039 0.025588 4.961394
2.781085 7.109168 4.817076
0.532409 0.081926 9.060935
Ca Mn S O
1 4 6 24
direct
0.348052 0.729229 0.574681 Ca
0.657262 0.642899 0.646313 Mn
0.147046 0.152238 0.142192 Mn
0.824153 0.850336 0.845228 Mn
0.357383 0.351290 0.348400 Mn
0.959359 0.241497 0.530488 S
0.436163 0.045686 0.752487 S
0.547607 0.956047 0.240002 S
0.746159 0.462755 0.047131 S
0.255635 0.523250 0.953960 S
0.040279 0.755408 0.454820 S
0.409095 0.580160 0.763086 O
0.934014 0.327138 0.021224 O
0.784119 0.380212 0.603519 O
0.027489 0.955030 0.322960 O
0.607948 0.769223 0.384158 O
0.300397 0.020003 0.958934 O
0.686779 0.967956 0.038923 O
0.226428 0.622558 0.382159 O
0.080428 0.674377 0.947480 O
0.364320 0.237659 0.624040 O
0.955693 0.044301 0.665278 O
0.606694 0.396382 0.244522 O
0.983459 0.274955 0.337145 O
0.452156 0.899443 0.708741 O
0.364880 0.972894 0.270393 O
0.692539 0.505096 0.900764 O
0.266971 0.345540 0.963081 O
0.893278 0.718456 0.476566 O
0.118602 0.248960 0.517494 O
0.618524 0.018515 0.726928 O
0.530379 0.108878 0.271674 O
0.732518 0.645109 0.034753 O
0.285245 0.489672 0.112154 O
0.012759 0.729411 0.648827 O
