Na128 Ru64 O192
1.0
10.992924 0.000000 0.000000
0.000000 18.976896 0.000000
-3.723876 0.000000 21.437232
Na Ru O
127 64 192
direct
   0.3691060000000000    0.2907930000000000    0.7510070000000000 Na
0.250000 0.293454 0.375000 Na
0.250000 0.293454 0.875000 Na
0.250000 0.793454 0.375000 Na
0.250000 0.793454 0.875000 Na
0.750000 0.293454 0.375000 Na
0.750000 0.293454 0.875000 Na
0.750000 0.793454 0.375000 Na
0.750000 0.793454 0.875000 Na
0.380894 0.459207 0.248994 Na
0.380894 0.959207 0.248994 Na
0.380894 0.959207 0.748994 Na
0.880894 0.459207 0.248994 Na
0.880894 0.459207 0.748994 Na
0.880894 0.959207 0.248994 Na
0.880894 0.959207 0.748994 Na
0.380894 0.040793 0.498993 Na
0.380894 0.040793 0.998993 Na
0.380894 0.540793 0.498993 Na
0.380894 0.540793 0.998993 Na
0.880894 0.040793 0.498993 Na
0.880894 0.040793 0.998993 Na
0.880894 0.540793 0.498993 Na
0.880894 0.540793 0.998993 Na
0.119106 0.459207 0.001007 Na
0.119106 0.459207 0.501006 Na
0.119106 0.959207 0.001007 Na
0.119106 0.959207 0.501006 Na
0.619106 0.459207 0.001007 Na
0.619106 0.459207 0.501006 Na
0.619106 0.959207 0.001007 Na
0.619106 0.959207 0.501006 Na
0.375000 0.375000 0.000000 Na
0.375000 0.375000 0.500000 Na
0.375000 0.875000 0.000000 Na
0.375000 0.875000 0.500000 Na
0.875000 0.375000 0.000000 Na
0.875000 0.375000 0.500000 Na
0.875000 0.875000 0.000000 Na
0.875000 0.875000 0.500000 Na
0.119106 0.040793 0.251007 Na
0.119106 0.040793 0.751007 Na
0.119106 0.540793 0.251007 Na
0.119106 0.540793 0.751007 Na
0.619106 0.040793 0.251007 Na
0.619106 0.040793 0.751007 Na
0.619106 0.540793 0.251007 Na
0.619106 0.540793 0.751007 Na
0.250000 0.206547 0.125000 Na
0.250000 0.206547 0.625000 Na
0.250000 0.706547 0.125000 Na
0.250000 0.706547 0.625000 Na
0.750000 0.206547 0.125000 Na
0.750000 0.206547 0.625000 Na
0.750000 0.706547 0.125000 Na
0.750000 0.706547 0.625000 Na
0.375000 0.125000 0.250000 Na
0.375000 0.125000 0.750000 Na
0.375000 0.625000 0.250000 Na
0.375000 0.625000 0.750000 Na
0.875000 0.125000 0.250000 Na
0.875000 0.125000 0.750000 Na
0.875000 0.625000 0.250000 Na
0.875000 0.625000 0.750000 Na
1.000000 0.043453 0.375000 Na
0.000000 0.043453 0.875000 Na
1.000000 0.543453 0.375000 Na
0.000000 0.543453 0.875000 Na
0.500000 0.043453 0.375000 Na
0.500000 0.043453 0.875000 Na
0.500000 0.543453 0.375000 Na
0.500000 0.543453 0.875000 Na
0.130894 0.209207 0.248994 Na
0.130894 0.209207 0.748994 Na
0.130894 0.709207 0.248994 Na
0.130894 0.709207 0.748994 Na
0.630894 0.209207 0.248994 Na
0.630894 0.209207 0.748994 Na
0.630894 0.709207 0.248994 Na
0.630894 0.709207 0.748994 Na
0.130894 0.290793 0.498993 Na
0.130894 0.290793 0.998993 Na
0.130894 0.790793 0.498993 Na
0.130894 0.790793 0.998993 Na
0.630894 0.290793 0.498993 Na
0.630894 0.290793 0.998993 Na
0.630894 0.790793 0.498993 Na
0.630894 0.790793 0.998993 Na
0.369106 0.209207 0.001007 Na
0.369106 0.209207 0.501006 Na
0.369106 0.709207 0.001007 Na
0.369106 0.709207 0.501006 Na
0.869106 0.209207 0.001007 Na
0.869106 0.209207 0.501006 Na
0.869106 0.709207 0.001007 Na
0.869106 0.709207 0.501006 Na
0.125000 0.125000 0.000000 Na
0.125000 0.125000 0.500000 Na
0.125000 0.625000 0.000000 Na
0.125000 0.625000 0.500000 Na
0.625000 0.125000 0.000000 Na
0.625000 0.125000 0.500000 Na
0.625000 0.625000 0.000000 Na
0.625000 0.625000 0.500000 Na
0.369106 0.290793 0.251007 Na
0.369106 0.790793 0.251007 Na
0.369106 0.790793 0.751007 Na
0.869106 0.290793 0.251007 Na
0.869106 0.290793 0.751007 Na
0.869106 0.790793 0.251007 Na
0.869106 0.790793 0.751007 Na
1.000000 0.456546 0.125000 Na
1.000000 0.456546 0.625000 Na
1.000000 0.956546 0.125000 Na
1.000000 0.956546 0.625000 Na
0.500000 0.456546 0.125000 Na
0.500000 0.456546 0.625000 Na
0.500000 0.956546 0.125000 Na
0.500000 0.956546 0.625000 Na
0.125000 0.375000 0.250000 Na
0.125000 0.375000 0.750000 Na
0.125000 0.875000 0.250000 Na
0.125000 0.875000 0.750000 Na
0.625000 0.375000 0.250000 Na
0.625000 0.375000 0.750000 Na
0.625000 0.875000 0.250000 Na
0.625000 0.875000 0.750000 Na
0.250000 0.040105 0.125000 Ru
0.250000 0.040105 0.625000 Ru
0.250000 0.540105 0.125000 Ru
0.250000 0.540105 0.625000 Ru
0.750000 0.040105 0.125000 Ru
0.750000 0.040105 0.625000 Ru
0.750000 0.540105 0.125000 Ru
0.750000 0.540105 0.625000 Ru
0.250000 0.126897 0.375000 Ru
0.250000 0.126897 0.875000 Ru
0.250000 0.626897 0.375000 Ru
0.250000 0.626897 0.875000 Ru
0.750000 0.126897 0.375000 Ru
0.750000 0.126897 0.875000 Ru
0.750000 0.626897 0.375000 Ru
0.750000 0.626897 0.875000 Ru
0.250000 0.459895 0.375000 Ru
0.250000 0.459895 0.875000 Ru
0.250000 0.959895 0.375000 Ru
0.250000 0.959895 0.875000 Ru
0.750000 0.459895 0.375000 Ru
0.750000 0.459895 0.875000 Ru
0.750000 0.959895 0.375000 Ru
0.750000 0.959895 0.875000 Ru
0.250000 0.373103 0.125000 Ru
0.250000 0.373103 0.625000 Ru
0.250000 0.873103 0.125000 Ru
0.250000 0.873103 0.625000 Ru
0.750000 0.373103 0.125000 Ru
0.750000 0.373103 0.625000 Ru
0.750000 0.873103 0.125000 Ru
0.750000 0.873103 0.625000 Ru
1.000000 0.290105 0.125000 Ru
1.000000 0.290105 0.625000 Ru
1.000000 0.790105 0.125000 Ru
1.000000 0.790105 0.625000 Ru
0.500000 0.290105 0.125000 Ru
0.500000 0.290105 0.625000 Ru
0.500000 0.790105 0.125000 Ru
0.500000 0.790105 0.625000 Ru
1.000000 0.376897 0.375000 Ru
0.000000 0.376897 0.875000 Ru
1.000000 0.876897 0.375000 Ru
0.000000 0.876897 0.875000 Ru
0.500000 0.376897 0.375000 Ru
0.500000 0.376897 0.875000 Ru
0.500000 0.876897 0.375000 Ru
0.500000 0.876897 0.875000 Ru
1.000000 0.209895 0.375000 Ru
0.000000 0.209895 0.875000 Ru
1.000000 0.709895 0.375000 Ru
0.000000 0.709895 0.875000 Ru
0.500000 0.209895 0.375000 Ru
0.500000 0.209895 0.875000 Ru
0.500000 0.709895 0.375000 Ru
0.500000 0.709895 0.875000 Ru
1.000000 0.123103 0.125000 Ru
1.000000 0.123103 0.625000 Ru
1.000000 0.623103 0.125000 Ru
1.000000 0.623103 0.625000 Ru
0.500000 0.123103 0.125000 Ru
0.500000 0.123103 0.625000 Ru
0.500000 0.623103 0.125000 Ru
0.500000 0.623103 0.625000 Ru
0.176670 0.386426 0.426475 O
0.176670 0.386426 0.926475 O
0.176670 0.886426 0.426475 O
0.176670 0.886426 0.926475 O
0.676670 0.386426 0.426475 O
0.676670 0.386426 0.926475 O
0.676670 0.886426 0.426475 O
0.676670 0.886426 0.926475 O
0.201839 0.456428 0.175165 O
0.201839 0.456428 0.675165 O
0.201839 0.956428 0.175165 O
0.201839 0.956428 0.675165 O
0.701839 0.456428 0.175165 O
0.701839 0.456428 0.675165 O
0.701839 0.956428 0.175165 O
0.701839 0.956428 0.675165 O
0.298161 0.043572 0.324835 O
0.298161 0.043572 0.824835 O
0.298161 0.543572 0.324835 O
0.298161 0.543572 0.824835 O
0.798161 0.043572 0.324835 O
0.798161 0.043572 0.824835 O
0.798161 0.543572 0.324835 O
0.798161 0.543572 0.824835 O
0.072939 0.450720 0.322829 O
0.072939 0.450720 0.822829 O
0.072939 0.950720 0.322829 O
0.072939 0.950720 0.822829 O
0.572939 0.450720 0.322829 O
0.572939 0.450720 0.822829 O
0.572939 0.950720 0.322829 O
0.572939 0.950720 0.822829 O
0.298161 0.456428 0.074835 O
0.298161 0.456428 0.574835 O
0.298161 0.956428 0.074835 O
0.298161 0.956428 0.574835 O
0.798161 0.456428 0.074835 O
0.798161 0.456428 0.574835 O
0.798161 0.956428 0.074835 O
0.798161 0.956428 0.574835 O
0.323330 0.113574 0.073525 O
0.323330 0.113574 0.573525 O
0.323330 0.613574 0.073525 O
0.323330 0.613574 0.573525 O
0.823330 0.113574 0.073525 O
0.823330 0.113574 0.573525 O
0.823330 0.613574 0.073525 O
0.823330 0.613574 0.573525 O
0.427061 0.450720 0.427171 O
0.427061 0.450720 0.927171 O
0.427061 0.950720 0.427171 O
0.427061 0.950720 0.927171 O
0.927061 0.450720 0.427171 O
0.927061 0.450720 0.927171 O
0.927061 0.950720 0.427171 O
0.927061 0.950720 0.927171 O
0.176670 0.113574 0.176475 O
0.176670 0.113574 0.676475 O
0.176670 0.613574 0.176475 O
0.176670 0.613574 0.676475 O
0.676670 0.113574 0.176475 O
0.676670 0.113574 0.676475 O
0.676670 0.613574 0.176475 O
0.676670 0.613574 0.676475 O
0.323330 0.386426 0.323525 O
0.323330 0.386426 0.823525 O
0.323330 0.886426 0.323525 O
0.323330 0.886426 0.823525 O
0.823330 0.386426 0.323525 O
0.823330 0.386426 0.823525 O
0.823330 0.886426 0.323525 O
0.823330 0.886426 0.823525 O
0.427061 0.049280 0.177171 O
0.427061 0.049280 0.677171 O
0.427061 0.549280 0.177171 O
0.427061 0.549280 0.677171 O
0.927061 0.049280 0.177171 O
0.927061 0.049280 0.677171 O
0.927061 0.549280 0.177171 O
0.927061 0.549280 0.677171 O
0.201839 0.043572 0.425165 O
0.201839 0.043572 0.925165 O
0.201839 0.543572 0.425165 O
0.201839 0.543572 0.925165 O
0.701839 0.043572 0.425165 O
0.701839 0.043572 0.925165 O
0.701839 0.543572 0.425165 O
0.701839 0.543572 0.925165 O
0.072940 0.049280 0.072829 O
0.072939 0.049280 0.572829 O
0.072940 0.549280 0.072829 O
0.072939 0.549280 0.572829 O
0.572940 0.049280 0.072829 O
0.572939 0.049280 0.572829 O
0.572940 0.549280 0.072829 O
0.572939 0.549280 0.572829 O
0.426670 0.136426 0.426475 O
0.426670 0.136426 0.926475 O
0.426670 0.636426 0.426475 O
0.426670 0.636426 0.926475 O
0.926670 0.136426 0.426475 O
0.926670 0.136426 0.926475 O
0.926670 0.636426 0.426475 O
0.926670 0.636426 0.926475 O
0.451839 0.206428 0.175165 O
0.451839 0.206428 0.675165 O
0.451839 0.706428 0.175165 O
0.451839 0.706428 0.675165 O
0.951839 0.206428 0.175165 O
0.951839 0.206428 0.675165 O
0.951839 0.706428 0.175165 O
0.951839 0.706428 0.675165 O
0.048161 0.293572 0.324835 O
0.048161 0.293572 0.824835 O
0.048161 0.793572 0.324835 O
0.048161 0.793572 0.824835 O
0.548161 0.293572 0.324835 O
0.548161 0.293572 0.824835 O
0.548161 0.793572 0.324835 O
0.548161 0.793572 0.824835 O
0.322939 0.200720 0.322829 O
0.322939 0.200720 0.822829 O
0.322939 0.700720 0.322829 O
0.322939 0.700720 0.822829 O
0.822939 0.200720 0.322829 O
0.822939 0.200720 0.822829 O
0.822939 0.700720 0.322829 O
0.822939 0.700720 0.822829 O
0.048161 0.206428 0.074835 O
0.048161 0.206428 0.574835 O
0.048161 0.706428 0.074835 O
0.048161 0.706428 0.574835 O
0.548161 0.206428 0.074835 O
0.548161 0.206428 0.574835 O
0.548161 0.706428 0.074835 O
0.548161 0.706428 0.574835 O
0.073330 0.363574 0.073525 O
0.073330 0.363574 0.573525 O
0.073330 0.863574 0.073525 O
0.073330 0.863574 0.573525 O
0.573330 0.363574 0.073525 O
0.573330 0.363574 0.573525 O
0.573330 0.863574 0.073525 O
0.573330 0.863574 0.573525 O
0.177061 0.200720 0.427171 O
0.177061 0.200720 0.927171 O
0.177061 0.700720 0.427171 O
0.177061 0.700720 0.927171 O
0.677061 0.200720 0.427171 O
0.677060 0.200720 0.927171 O
0.677061 0.700720 0.427171 O
0.677060 0.700720 0.927171 O
0.426670 0.363574 0.176475 O
0.426670 0.363574 0.676475 O
0.426670 0.863574 0.176475 O
0.426670 0.863574 0.676475 O
0.926670 0.363574 0.176475 O
0.926670 0.363574 0.676475 O
0.926670 0.863574 0.176475 O
0.926670 0.863574 0.676475 O
0.073330 0.136426 0.323525 O
0.073330 0.136426 0.823525 O
0.073330 0.636426 0.323525 O
0.073330 0.636426 0.823525 O
0.573330 0.136426 0.323525 O
0.573330 0.136426 0.823525 O
0.573330 0.636426 0.323525 O
0.573330 0.636426 0.823525 O
0.177061 0.299280 0.177171 O
0.177060 0.299280 0.677171 O
0.177061 0.799280 0.177171 O
0.177060 0.799280 0.677171 O
0.677060 0.299280 0.177171 O
0.677060 0.299280 0.677171 O
0.677060 0.799280 0.177171 O
0.677060 0.799280 0.677171 O
0.451839 0.293572 0.425165 O
0.451839 0.293572 0.925165 O
0.451839 0.793572 0.425165 O
0.451839 0.793572 0.925165 O
0.951839 0.293572 0.425165 O
0.951839 0.293572 0.925165 O
0.951839 0.793572 0.425165 O
0.951839 0.793572 0.925165 O
0.322939 0.299280 0.072829 O
0.322939 0.299280 0.572829 O
0.322939 0.799280 0.072829 O
0.322939 0.799280 0.572829 O
0.822939 0.299280 0.072829 O
0.822939 0.299280 0.572829 O
0.822939 0.799280 0.072829 O
0.822939 0.799280 0.572829 O
