K16 Fe16 P16 O64
1.0
  10.8091840743999992    0.0000000000000000    0.0000000000000000
   0.0000000000000000   13.5260038375999994    0.0000000000000000
   0.0000000000000000    0.0000000000000000   10.4302701950000003
K Fe P O
15 16 16 64
direct
   0.7500000000000000    0.7499999999999999    0.5000000000000000 K
   0.2500000000000000    0.0000000000000000    0.5000000000000000 K
   0.2500000000000000    0.4999999999999999    0.5000000000000000 K
   0.7500000000000000    0.0000000000000000    0.5000000000000000 K
   0.2500000000000000    0.2500000000000000    0.5000000000000000 K
   0.2500000000000000    0.7499999999999999    0.5000000000000000 K
   0.7500000000000000    0.2500000000000000    0.5000000000000000 K
   0.0000000000000000    0.0000000000000000    0.0000000000000000 K
   0.0000000000000000    0.4999999999999999    0.0000000000000000 K
   0.5000000000000000    0.0000000000000000    0.0000000000000000 K
   0.5000000000000000    0.4999999999999999    0.0000000000000000 K
   0.0000000000000000    0.2500000000000000    0.0000000000000000 K
   0.0000000000000000    0.7499999999999999    0.0000000000000000 K
   0.5000000000000000    0.2500000000000000    0.0000000000000000 K
   0.5000000000000000    0.7499999999999999    0.0000000000000000 K
   0.0140295000000000    0.3749999999999999    0.7023209929999999 Fe
   0.0140295000000000    0.8749999999999999    0.7023209929999999 Fe
   0.5140295000000000    0.3749999999999999    0.7023209929999999 Fe
   0.5140295000000000    0.8749999999999999    0.7023209929999999 Fe
   0.2359704970000000    0.3749999999999999    0.2023209930000000 Fe
   0.2359704970000000    0.8749999999999999    0.2023209930000000 Fe
   0.7359704970000001    0.3749999999999999    0.2023209930000000 Fe
   0.7359704970000001    0.8749999999999999    0.2023209930000000 Fe
   0.4859704970000001    0.1250000000000000    0.2976790070000000 Fe
   0.4859704970000001    0.6249999999999999    0.2976790070000000 Fe
   0.9859704970000002    0.1250000000000000    0.2976790070000000 Fe
   0.9859704970000002    0.6249999999999999    0.2976790070000000 Fe
   0.2640295030000000    0.1250000000000000    0.7976790070000001 Fe
   0.2640295030000000    0.6249999999999999    0.7976790070000001 Fe
   0.7640295030000001    0.1250000000000000    0.7976790070000001 Fe
   0.7640295030000001    0.6249999999999999    0.7976790070000001 Fe
   0.2709085045000000    0.3749999999999999    0.8740580080000000 P
   0.2709085045000000    0.8749999999999999    0.8740580080000000 P
   0.7709085045000001    0.3749999999999999    0.8740580080000000 P
   0.7709085045000001    0.8749999999999999    0.8740580080000000 P
   0.4790914955000000    0.3749999999999999    0.3740580080000000 P
   0.4790914955000000    0.8749999999999999    0.3740580080000000 P
   0.9790914955000002    0.3749999999999999    0.3740580080000000 P
   0.9790914955000002    0.8749999999999999    0.3740580080000000 P
   0.2290914955000000    0.1250000000000000    0.1259420070000000 P
   0.2290914955000000    0.6249999999999999    0.1259420070000000 P
   0.7290914955000001    0.1250000000000000    0.1259420070000000 P
   0.7290914955000001    0.6249999999999999    0.1259420070000000 P
   0.0209084990000000    0.1250000000000000    0.6259419920000000 P
   0.0209084990000000    0.6249999999999999    0.6259419920000000 P
   0.5209084990000000    0.1250000000000000    0.6259419920000000 P
   0.5209084990000000    0.6249999999999999    0.6259419920000000 P
   0.3719705045000000    0.1250000000000000    0.1424729970000000 O
   0.3719705045000000    0.6249999999999999    0.1424729970000000 O
   0.8719705045000000    0.1250000000000000    0.1424729970000000 O
   0.8719705045000000    0.6249999999999999    0.1424729970000000 O
   0.0825870035000000    0.2172479930000000    0.6890950200000000 O
   0.0825870035000000    0.7172479930000000    0.6890950200000000 O
   0.5825870035000000    0.2172479930000000    0.6890950200000000 O
   0.5825870035000000    0.7172479930000000    0.6890950200000000 O
   0.3325870035000000    0.2827520070000000    0.8109049800000000 O
   0.3325870035000000    0.7827520070000000    0.8109049800000000 O
   0.8325870035000000    0.2827520070000000    0.8109049800000000 O
   0.8325870035000000    0.7827520070000000    0.8109049800000000 O
   0.4174129965000001    0.4672479929999999    0.3109050100000000 O
   0.4174129965000001    0.9672479930000000    0.3109050100000000 O
   0.9174129965000001    0.4672479929999999    0.3109050100000000 O
   0.9174129965000001    0.9672479930000000    0.3109050100000000 O
   0.1674129965000000    0.0327520000000000    0.1890950050000000 O
   0.1674129965000000    0.5327520000000000    0.1890950050000000 O
   0.6674129965000001    0.0327520000000000    0.1890950050000000 O
   0.6674129965000001    0.5327520000000000    0.1890950050000000 O
   0.4174129965000001    0.2827520070000000    0.3109050100000000 O
   0.4174129965000001    0.7827520070000000    0.3109050100000000 O
   0.9174129965000001    0.2827520070000000    0.3109050100000000 O
   0.9174129965000001    0.7827520070000000    0.3109050100000000 O
   0.1674129965000000    0.2172479930000000    0.1890950050000000 O
   0.1674129965000000    0.7172479930000000    0.1890950050000000 O
   0.6674129965000001    0.2172479930000000    0.1890950050000000 O
   0.6674129965000001    0.7172479930000000    0.1890950050000000 O
   0.0825870035000000    0.0327520000000000    0.6890950200000000 O
   0.0825870035000000    0.5327520000000000    0.6890950200000000 O
   0.5825870035000000    0.0327520000000000    0.6890950200000000 O
   0.5825870035000000    0.5327520000000000    0.6890950200000000 O
   0.1280294955000000    0.3749999999999999    0.8575270180000000 O
   0.1280294955000000    0.8749999999999999    0.8575270180000000 O
   0.6280294955000001    0.3749999999999999    0.8575270180000000 O
   0.6280294955000001    0.8749999999999999    0.8575270180000000 O
   0.3780294955000000    0.1250000000000000    0.6424729820000000 O
   0.3780294955000000    0.6249999999999999    0.6424729820000000 O
   0.8780294955000000    0.1250000000000000    0.6424729820000000 O
   0.8780294955000000    0.6249999999999999    0.6424729820000000 O
   0.3325870035000000    0.4672479929999999    0.8109049800000000 O
   0.3325870035000000    0.9672479930000000    0.8109049800000000 O
   0.8325870035000000    0.4672479929999999    0.8109049800000000 O
   0.8325870035000000    0.9672479930000000    0.8109049800000000 O
   0.1219704970000000    0.3749999999999999    0.3575269880000000 O
   0.1219704970000000    0.8749999999999999    0.3575269880000000 O
   0.6219704970000001    0.3749999999999999    0.3575269880000000 O
   0.6219704970000001    0.8749999999999999    0.3575269880000000 O
   0.3011395035000001    0.3749999999999999    0.0211980010000000 O
   0.3011395035000001    0.8749999999999999    0.0211980010000000 O
   0.8011395035000002    0.3749999999999999    0.0211980010000000 O
   0.8011395035000002    0.8749999999999999    0.0211980010000000 O
   0.1988604965000000    0.1250000000000000    0.9788020250000000 O
   0.1988604965000000    0.6249999999999999    0.9788020250000000 O
   0.6988604965000000    0.1250000000000000    0.9788020250000000 O
   0.6988604965000000    0.6249999999999999    0.9788020250000000 O
   0.0511395000000000    0.1250000000000000    0.4788019960000000 O
   0.0511395000000000    0.6249999999999999    0.4788019960000000 O
   0.5511395000000000    0.1250000000000000    0.4788019960000000 O
   0.5511395000000000    0.6249999999999999    0.4788019960000000 O
   0.4488604965000000    0.3749999999999999    0.5211979750000000 O
   0.4488604965000000    0.8749999999999999    0.5211979750000000 O
   0.9488604964999999    0.3749999999999999    0.5211979750000000 O
   0.9488604964999999    0.8749999999999999    0.5211979750000000 O
