Ca1 Mn12 F42
1.0
7.304195 -0.019651 -0.032317
-3.668044 6.381598 -0.021677
0.147788 -0.110394 17.498853
Ca Mn F
1 12 42
direct
0.487281 0.855484 0.669734 Ca
0.298575 1.010626 0.329848 Mn
0.703597 0.701171 0.004460 Mn
0.000084 0.299815 0.668431 Mn
0.344356 0.989744 0.837429 Mn
0.657091 0.654903 0.494344 Mn
0.998867 0.352639 0.166827 Mn
0.652911 0.158666 0.491414 Mn
0.499942 0.353801 0.166514 Mn
0.846895 0.489303 0.838344 Mn
0.346674 0.486721 0.841707 Mn
0.154693 0.651305 0.497265 Mn
0.497729 0.853051 0.167153 Mn
0.561356 0.814253 0.065421 F
0.263981 0.441385 0.735995 F
0.198092 0.781063 0.394579 F
0.442104 0.261555 0.268380 F
0.811399 0.564399 0.941927 F
0.748362 0.189726 0.595083 F
0.830441 0.052188 0.717909 F
0.202679 0.133091 0.390388 F
0.918387 0.804400 0.066336 F
0.115861 0.190726 0.609781 F
0.081378 0.896169 0.269038 F
0.802803 0.912905 0.942660 F
0.149006 0.566531 0.615181 F
0.435751 0.886631 0.269537 F
0.441594 0.558685 0.944064 F
0.876617 0.426266 0.729824 F
0.560719 0.129476 0.388990 F
0.559290 0.443007 0.064410 F
0.367309 0.578721 0.476645 F
0.211416 0.642723 0.148585 F
0.435943 0.801133 0.806517 F
0.623688 0.188695 0.857316 F
0.568933 0.372399 0.515306 F
0.787097 0.433565 0.183960 F
0.695752 0.617508 0.398263 F
0.935958 0.316352 0.068194 F
0.385762 0.062449 0.734204 F
0.309357 0.902139 0.931629 F
0.617161 0.695747 0.596913 F
0.061596 0.389099 0.265476 F
0.943087 0.724736 0.519835 F
0.785151 0.063218 0.185161 F
0.253471 0.174388 0.858361 F
0.068607 0.788692 0.812565 F
0.735660 0.936199 0.476844 F
0.211936 0.273246 0.149608 F
0.619283 0.544963 0.808982 F
0.952316 0.386832 0.464044 F
0.443920 0.081967 0.137052 F
0.372744 0.913598 0.541318 F
0.553762 0.623571 0.196414 F
0.073441 0.436837 0.867935 F
