Ca2 Mn4 S6 O24                          
   1.00000000000000     
     7.8784900000000002    0.1924090000000000    4.5114489999999998
     2.7677900000000002    7.4584630000000001    4.5233470000000002
     0.1459830000000000    0.1197350000000000    8.9352359999999997
   Ca   Mn   S    O 
     2     4     6    24
Direct
  0.4808826821759553  0.5544122460560041  0.4747398631278717
  0.9912764401710599  0.0086992652865658 -0.0048833307378250
  0.6429775070892112  0.6493361808205168  0.6625297051673275
  0.1527020383951358  0.1727596461431124  0.1368082597360153
  0.8474727985182758  0.8460470339763536  0.8407219235965294
  0.3441472500609766  0.3523969570120155  0.3523667931195164
  0.9437603413230937  0.2623170999081858  0.5376784447139537
  0.4335452281417010  0.0435371637199893  0.7564954558612524
  0.5536137638427356  0.9595832537517786  0.2399075409881305
  0.7436754797282572  0.4485733807254065  0.0600350940638823
  0.2459354413361891  0.5607932416553523  0.9405674311806348
  0.0390151972845471  0.7454479979771713  0.4632941640544551
  0.3936946561802449  0.5915542433740361  0.7550251620767253
  0.9034770751963404  0.2706645123695604  0.0706700897536108
  0.7584794607386823  0.4124759814865057  0.5629905185884854
  0.0126507320951021  0.8912841221038671  0.2887332520229277
  0.5971264745231553  0.7775801013397335  0.3870273279973440
  0.2609137466603066  0.0569978029464580  0.9248053986953596
  0.7208209251327619  0.9561777977338602  0.0697473996844988
  0.2276963383462808  0.6018622384038995  0.4190120701252928
  0.0817497779566031  0.7348219206662306  0.9363935224962638
  0.4080133056449636  0.2257136719263481  0.6100837645492454
  0.9396163073649375  0.1066994575507181  0.7159383929142769
  0.5945281306665938  0.4301869096949786  0.2456595877206851
  0.9786955746153462  0.2049274385855466  0.3912953654503016
  0.4543939928173755  0.9058827674101516  0.6993270561204171
  0.3973363566367212  0.9817191402372027  0.2071048742058359
  0.6769138615930833  0.4825143992297323  0.9217734152788939
  0.2003649664441313  0.4149164685211815  0.9652423515885895
  0.8974167419248459  0.6637870013317761  0.5638331103092923
  0.0865197792158021  0.3266627016843482  0.4885501099831424
  0.5918279539536164  0.9898144910019167  0.8050414594507193
  0.5136119921818844  0.1065414758213864  0.2950198896431258
  0.7984400111730461  0.5951388498409114  0.0177299397239675
  0.3075983149196645  0.5152958493536669  0.0871106644580537
  0.0376384862854136  0.8153227197069353  0.5825230146329500
 
             NaN             NaN             NaN
             NaN             NaN             NaN
             NaN             NaN             NaN
             NaN             NaN             NaN
             NaN             NaN             NaN
             NaN             NaN             NaN
             NaN             NaN             NaN
             NaN             NaN             NaN
             NaN             NaN             NaN
             NaN             NaN             NaN
             NaN             NaN             NaN
             NaN             NaN             NaN
             NaN             NaN             NaN
             NaN             NaN             NaN
             NaN             NaN             NaN
             NaN             NaN             NaN
             NaN             NaN             NaN
             NaN             NaN             NaN
             NaN             NaN             NaN
             NaN             NaN             NaN
             NaN             NaN             NaN
             NaN             NaN             NaN
             NaN             NaN             NaN
             NaN             NaN             NaN
             NaN             NaN             NaN
             NaN             NaN             NaN
             NaN             NaN             NaN
             NaN             NaN             NaN
             NaN             NaN             NaN
             NaN             NaN             NaN
             NaN             NaN             NaN
             NaN             NaN             NaN
             NaN             NaN             NaN
             NaN             NaN             NaN
             NaN             NaN             NaN
             NaN             NaN             NaN
