Ca2 Mn4 S6 O24
1.0
7.878490 0.192409 4.511449
2.767790 7.458463 4.523347
0.145983 0.119735 8.935236
Ca Mn S O
2 4 6 24
direct
0.435074 0.593117 0.511946 Ca
0.990480 1.001197 1.001439 Ca
0.650864 0.643442 0.649078 Mn
0.150871 0.165307 0.135821 Mn
0.841247 0.832408 0.852336 Mn
0.351134 0.349353 0.348759 Mn
0.955504 0.252954 0.540653 S
0.437486 0.040934 0.753111 S
0.554250 0.952497 0.242191 S
0.745374 0.442963 0.055705 S
0.249321 0.554538 0.940686 S
0.043870 0.743096 0.454147 S
0.402082 0.573165 0.758409 O
0.904388 0.264307 0.067085 O
0.772233 0.401917 0.563745 O
0.047344 0.892652 0.274548 O
0.572574 0.774202 0.397504 O
0.260942 0.059240 0.913434 O
0.729681 0.931286 0.082417 O
0.226879 0.592996 0.431937 O
0.092646 0.735504 0.922956 O
0.418087 0.220472 0.601790 O
0.950720 0.098995 0.720565 O
0.594365 0.422705 0.237158 O
0.993777 0.187785 0.399311 O
0.467204 0.900518 0.694620 O
0.400401 0.995686 0.193834 O
0.686758 0.484306 0.907808 O
0.192681 0.412746 0.974418 O
0.899942 0.681246 0.512058 O
0.097615 0.315512 0.491366 O
0.588727 -0.006879 0.807462 O
0.525956 0.095601 0.294421 O
0.801532 0.585196 0.022103 O
0.306317 0.514292 0.088758 O
0.011610 0.808648 0.592569 O
