Na2 Ca2 V4 P2 S4 O24                    
   1.00000000000000     
     8.9678190000000004    0.3679960000000000    0.2012160000000000
     4.2772850000000000    7.9009510000000001    0.2147860000000000
     4.1830650000000000    2.6141070000000002    7.4391559999999997
   Ca   Na   V    P    S    O 
     2     2     4     2     4    24
Direct
  0.4093528778636058  0.5159820899947667  0.6115794494327601
  0.9914701001346414  0.9556747288160103  0.0791855264233364
  0.4065229849089673  0.0768335388057920  0.7550599448255847
  0.5934805970693943  0.8903884701672138  0.2452954829558659
  0.3496227563800849  0.3600281386530734  0.3552193487390046
  0.6579394941023631  0.6723475475329465  0.6309963709491219
  0.1479115653605099  0.1539750167116029  0.1426764808628083
  0.8469018284894378  0.8449112998682566  0.8567479168589732
  0.7515142219837614  0.0484930957578983  0.4428333259031462
  0.4574641046466149  0.7509633233589124  0.0489035051438377
  0.0419688590191414  0.4460842460069808  0.7584288008582059
  0.9546699682828627  0.5512797696619132  0.2553442381864200
  0.2354055823768864  0.9664926429252743  0.5595323652730907
  0.5429621833768217  0.2551269470680667  0.9499329018259333
  0.2187298210387653  0.4342243621620454  0.5963999230135130
  0.7794871995848712  0.5546297624955946  0.4147466353847839
  0.5669887980206434  0.2136295302041927  0.4619269156593552
  0.4155873663552954  0.7985131201281453  0.5485874714101319
  0.4474232332216382  0.5734017006836124  0.2096302227206278
  0.5595625418160836  0.4338255100071662  0.8078315798276230
  0.9027022477368635  0.1106993434131065  0.2648955527730941
  0.0997384801050560  0.9041764585056707  0.7378142421733836
  0.0747752984281871  0.2590607294113828  0.9009153758710523
  0.9105517821690652  0.7342406406627999  0.1038218862593413
  0.2633807774590662  0.9104050421342117  0.0824577029334377
  0.7235654149473667  0.1021078435556207  0.9209697725679016
  0.4814151482242935  0.2484205812299163  0.1394056083232310
  0.4977515212398106  0.7514618061832397  0.8588817262303570
  0.0961354843172815  0.5505540533374756  0.2961482348468585
  0.8895226267797940  0.4902798979620573  0.7084833980414291
  0.2648786651129846  0.1161013819225176  0.5550669861393227
  0.7369174078935025  0.8991182654748838  0.4108021961111951
  0.4019132276193539  0.2334770436017374  0.9231807495024996
  0.5977035491663166  0.8109241557381380  0.0374356003344262
  0.1903025399763351  0.0133627050269463  0.4009557358989606
  0.7960709112172518  0.9680820834790573  0.6172754944783816
  0.0184631070946901  0.4015128009424493  0.1922252047709365
  0.0245699864451886  0.5824313536706487  0.8188026412002167
 
             NaN             NaN             NaN
             NaN             NaN             NaN
             NaN             NaN             NaN
             NaN             NaN             NaN
             NaN             NaN             NaN
             NaN             NaN             NaN
             NaN             NaN             NaN
             NaN             NaN             NaN
             NaN             NaN             NaN
             NaN             NaN             NaN
             NaN             NaN             NaN
             NaN             NaN             NaN
             NaN             NaN             NaN
             NaN             NaN             NaN
             NaN             NaN             NaN
             NaN             NaN             NaN
             NaN             NaN             NaN
             NaN             NaN             NaN
             NaN             NaN             NaN
             NaN             NaN             NaN
             NaN             NaN             NaN
             NaN             NaN             NaN
             NaN             NaN             NaN
             NaN             NaN             NaN
             NaN             NaN             NaN
             NaN             NaN             NaN
             NaN             NaN             NaN
             NaN             NaN             NaN
             NaN             NaN             NaN
             NaN             NaN             NaN
             NaN             NaN             NaN
             NaN             NaN             NaN
             NaN             NaN             NaN
             NaN             NaN             NaN
             NaN             NaN             NaN
             NaN             NaN             NaN
             NaN             NaN             NaN
             NaN             NaN             NaN
