Na2 Ca2 V4 P2 S4 O24
1.0
8.967819 0.367996 0.201216
4.277285 7.900951 0.214786
4.183065 2.614107 7.439156
Ca Na V P S O
2 2 4 2 4 24
direct
0.447112 0.526093 0.581493 Ca
-0.010685 0.994555 0.033241 Ca
0.417885 0.085089 0.750794 Na
0.580144 0.808633 0.295475 Na
0.350842 0.357226 0.356611 V
0.653580 0.659520 0.634354 V
0.146654 0.150997 0.142750 V
0.845250 0.850356 0.859288 V
0.752921 0.044551 0.445608 P
0.454928 0.749769 0.050148 P
0.048810 0.455676 0.749451 S
0.956059 0.550226 0.249781 S
0.242808 0.961406 0.555942 S
0.541937 0.259173 0.941105 S
0.232162 0.431418 0.598837 O
0.772557 0.567878 0.399706 O
0.580095 0.225840 0.443743 O
0.404880 0.781283 0.558210 O
0.427534 0.586731 0.227989 O
0.572331 0.412549 0.764727 O
0.911534 0.087346 0.266841 O
0.092185 0.927175 0.734678 O
0.069132 0.271280 0.900858 O
0.933864 0.734453 0.096313 O
0.268098 0.918580 0.060013 O
0.720160 0.096980 0.941224 O
0.481479 0.311214 0.099480 O
0.502503 0.716660 0.876349 O
0.095543 0.520270 0.311021 O
0.903193 0.496974 0.690169 O
0.295475 0.099671 0.544499 O
0.714375 0.899143 0.438295 O
0.402354 0.208268 0.951282 O
0.600522 0.801285 0.038212 O
0.190884 0.018393 0.398971 O
0.786818 0.985307 0.621625 O
1.002043 0.408697 0.182962 O
0.018667 0.596124 0.810935 O
