Ca8 Ni12 F42                            
   1.00000000000000     
     7.2758690000000001   -0.0068580000000000   -0.0043020000000000
    -3.6679719999999998    6.3098869999999998    0.0026830000000000
    -0.0033820000000000    0.0015890000000000   18.1824410000000007
   Ca   Ni   F 
     8    12    42
Direct
  0.9437505565522669  0.8541027039016630  0.7083741654347591
  0.4797815607620274  0.8580391739479954  0.6548807876175058
  0.1720564818341318  0.6603424199013033  0.9750581759843572
  0.3521139386524238  0.5125682742055720  0.3152507765795944
  0.8393451852246019  0.0148251299602181  0.3490883262713936
  0.1406131699068102  0.1545132034021303  0.0020714243319870
  0.9939606107738678  0.7993305495381177  0.1728425540771255
  0.2020499068963811  0.1828057314198264  0.5142947507270405
  0.3388244779194375  0.0074885069812091  0.3343664839060473
  0.9862099821139777  0.3415867847608496  0.6714410740398075
  0.6640825091227299  0.6552504299712711  0.9982304632845684
  0.3293562204919696  0.0085906639725712  0.8327518296176531
  0.9948033185816632  0.3146296684948728  0.1606169497918277
  0.6840501579401894  0.6825566019066572  0.5003148156636023
  0.4983401620826360  0.8193641561374432  0.1611629046674226
  0.1758607505328075  0.6725244972260105  0.4960754097463010
  0.3323936559433203  0.5063223603523754  0.8283039623713423
  0.8185536403252298  0.4954651331096837  0.8328108699541136
  0.6867748942705636  0.1874451774805198  0.4973997104828952
  0.4940586246258311  0.3122637950911583  0.1606211770321762
  0.7365027869757764  0.1974470724614963  0.6045150514698695
  0.8062399321299325  0.5357716415533597  0.9400956201282751
  0.4373624629397321  0.2593567579071875  0.2698370689069740
  0.2495237731740345  0.7338226395956161  0.3879002498354272
  0.4761022863065780  0.7417090779101096  0.0550005466477787
  0.2680797940218323  0.5259777651260352  0.7237386735918410
  0.8166919592320878  0.9320663552675486  0.9561488855265938
  0.0437487270597238  0.8829727102800372  0.2900597687567599
  0.1049082215460757  0.1665096166356811  0.6288983552026075
  0.9798553487613392  0.7895685830636545  0.0515333387830359
  0.7958542640293192  0.0547379544902938  0.7243996169632095
  0.2085974689048755  0.1816752590617555  0.3900167705775978
  0.5167553418824081  0.3832342834564095  0.0547155520100774
  0.6140674967227352  0.1402984740539017  0.3892609208345275
  0.8740315015759571  0.5016424540088390  0.7243994876665368
  0.3786808792768886  0.4913692791268141  0.9400383839183128
  0.1302801638212609  0.6138236252497916  0.6057675265915372
  0.5125476333539475  0.8821558133806660  0.2757093652344003
  0.7989182951920871  0.4254265614249937  0.1721869624262152
  0.5729661489513291  0.3755719419410437  0.5091885767264560
  0.6193039452816786  0.2042594761335164  0.8334807736671700
  0.4033988543305204  0.7946258008695619  0.8506668374725270
  0.3717440761126591  0.5625239343839358  0.5066558465398355
  0.1966560782025451  0.6202795690868834  0.1849653684494943
  0.0175130866443331  0.2873605211840171  0.2721105438189778
  0.6989246697402189  0.7383276057315357  0.6111058572009721
  0.2999210234065808  1.0040657953070813  0.9438252886508652
  0.3004414451063126  0.9694584542299646  0.7208802688746290
  0.6448193985798248  0.6695862539350261  0.3865628877958671
  0.0290663843603426  0.3718419626246420  0.0509207811224827
  0.1870788834771333  0.1992775423044605  0.1418711159543339
  0.7999259848037560  0.9919313103139074  0.4810773738952362
  0.0304936636903713  0.7999639311351014  0.8299127282628201
  0.2347018440449094  0.2077348761277014  0.8203573795900789
  0.9950026251692200  0.7997376845205705  0.4936707936025941
  0.8044484201398528  0.0009874725471972  0.1538248974239554
  0.0468671375983360  0.4352361606075362  0.8678271325154236
  0.5798567791750611  0.6097811451321391  0.1987463824489525
  0.3880010607535829  0.9688345018171174  0.5334058921784235
  0.3847508598465521  0.0066278985521414  0.1392766054169315
  0.6267823850218710  0.5992754732512449  0.7981808778736512
  0.9823196831267484  0.3792137669409620  0.4649307863163251
 
             NaN             NaN             NaN
             NaN             NaN             NaN
             NaN             NaN             NaN
             NaN             NaN             NaN
             NaN             NaN             NaN
             NaN             NaN             NaN
             NaN             NaN             NaN
             NaN             NaN             NaN
             NaN             NaN             NaN
             NaN             NaN             NaN
             NaN             NaN             NaN
             NaN             NaN             NaN
             NaN             NaN             NaN
             NaN             NaN             NaN
             NaN             NaN             NaN
             NaN             NaN             NaN
             NaN             NaN             NaN
             NaN             NaN             NaN
             NaN             NaN             NaN
             NaN             NaN             NaN
             NaN             NaN             NaN
             NaN             NaN             NaN
             NaN             NaN             NaN
             NaN             NaN             NaN
             NaN             NaN             NaN
             NaN             NaN             NaN
             NaN             NaN             NaN
             NaN             NaN             NaN
             NaN             NaN             NaN
             NaN             NaN             NaN
             NaN             NaN             NaN
             NaN             NaN             NaN
             NaN             NaN             NaN
             NaN             NaN             NaN
             NaN             NaN             NaN
             NaN             NaN             NaN
             NaN             NaN             NaN
             NaN             NaN             NaN
             NaN             NaN             NaN
             NaN             NaN             NaN
             NaN             NaN             NaN
             NaN             NaN             NaN
             NaN             NaN             NaN
             NaN             NaN             NaN
             NaN             NaN             NaN
             NaN             NaN             NaN
             NaN             NaN             NaN
             NaN             NaN             NaN
             NaN             NaN             NaN
             NaN             NaN             NaN
             NaN             NaN             NaN
             NaN             NaN             NaN
             NaN             NaN             NaN
             NaN             NaN             NaN
             NaN             NaN             NaN
             NaN             NaN             NaN
             NaN             NaN             NaN
             NaN             NaN             NaN
             NaN             NaN             NaN
             NaN             NaN             NaN
             NaN             NaN             NaN
             NaN             NaN             NaN
