Ca8 Ni12 F42
1.0
7.275869 -0.006858 -0.004302
-3.667972 6.309887 0.002683
-0.003382 0.001589 18.182441
Ca Ni F
8 12 42
direct
0.948492 0.865133 0.715533 Ca
0.487852 0.847661 0.652893 Ca
0.169591 0.657535 0.974560 Ca
0.347889 0.510380 0.313639 Ca
0.839831 0.009402 0.348069 Ca
0.138133 0.152156 0.001709 Ca
0.993395 0.798183 0.172501 Ca
0.205862 0.186409 0.511814 Ca
0.343320 0.008311 0.333668 Ni
0.987159 0.336074 0.670319 Ni
0.661785 0.653597 -0.002104 Ni
0.331278 0.006956 0.830577 Ni
0.994171 0.313231 0.159842 Ni
0.686865 0.681983 0.497476 Ni
0.498334 0.818865 0.160763 Ni
0.178878 0.675614 0.496369 Ni
0.330493 0.502398 0.827556 Ni
0.818034 0.494373 0.830425 Ni
0.689906 0.187695 0.496123 Ni
0.494850 0.311291 0.159462 Ni
0.739327 0.189397 0.602745 F
0.812083 0.546145 0.937559 F
0.437760 0.258491 0.268387 F
0.256253 0.735120 0.387889 F
0.471257 0.736530 0.055148 F
0.266558 0.522691 0.722448 F
0.810896 0.933693 0.956266 F
0.046520 0.880425 0.289890 F
0.117809 0.176299 0.625488 F
0.977015 0.789505 0.051047 F
0.807420 0.044681 0.720976 F
0.210678 0.184455 0.387899 F
0.519213 0.379458 0.053135 F
0.620804 0.144688 0.387640 F
0.862586 0.482946 0.722877 F
0.374818 0.487938 0.940184 F
0.124444 0.623409 0.606844 F
0.515128 0.883056 0.274869 F
0.799858 0.425145 0.171489 F
0.575685 0.376112 0.506178 F
0.623183 0.202126 0.839204 F
0.406903 0.792035 0.849923 F
0.377801 0.571162 0.512381 F
0.197453 0.617858 0.186473 F
0.014052 0.281057 0.270676 F
0.706004 0.732292 0.606118 F
0.288629 0.996720 0.941197 F
0.327828 -0.020923 0.719930 F
0.639529 0.664531 0.384968 F
0.025653 0.369959 0.050258 F
0.187820 0.199541 0.140322 F
0.800945 0.991062 0.478583 F
0.030033 0.797991 0.821887 F
0.231913 0.205127 0.819588 F
0.997753 0.800777 0.487238 F
0.804238 0.000013 0.151346 F
0.046071 0.433649 0.866267 F
0.583071 0.610612 0.197648 F
0.389195 0.972517 0.531726 F
0.382098 0.003705 0.138470 F
0.621317 0.592386 0.798184 F
0.990881 0.379315 0.467025 F
