Fe8 C24 N24                             
   1.00000000000000     
     9.8941492048783832    0.0402507545513392   -0.0401953098471467
     0.0402509407249888    9.8923309711585397   -0.0402258728087391
    -0.0402086424815380   -0.0402357004193048    9.8945185641082780
   Li   Fe   C    N 
     1     8    24    24
Direct
  0.1532971424040592  0.1533002790972059  0.8466743920703764
  0.9942552092623501  0.9942502419690104  0.0057445151076891
  0.9992679346520600  0.9992715095160659  0.5040087912871584
  0.9998579105687312  0.4997487373290506  0.5002523415084652
  0.9992661692878142  0.4959877259258027  0.0007343280459403
  0.4997442702109188  0.9998571150810014  0.5002528073735153
  0.4959861672354317  0.9992681336314658  0.0007328147498615
  0.4997482973518486  0.4997478929166746  0.0001427181299314
  0.5001014859680148  0.5000997888576589  0.4998960970286822
  0.1852460311452478  0.9927036019285171  0.0072962001245196
  0.3086905192982223  0.9999679397840582  0.5012337365502563
  0.9994627097985447  0.6907485934046719  0.5021809918995697
  0.9999789442672121  0.3087117766074651  0.5012318687743483
  0.9951632992669883  0.9951649018490997  0.1961349657998670
  0.9926933682208468  0.9926977827098310  0.8147479286102017
  0.1910744301779572  0.5000670165226951  0.4999359617614484
  0.3086894258012429  0.4987666078846388  0.0000295507084281
  0.9926993332679199  0.1852267330145991  0.0072990157103624
  0.9951723942827781  0.8038810526824908  0.0048321878325131
  0.9999715250922915  0.4987740055569492  0.6913243371012384
  0.9994585411238047  0.4978235947060313  0.3092233805072704
  0.6907625296981127  0.9994617234192252  0.5021734535446538
  0.8038623789789079  0.9951716163907682  0.0048342165047164
  0.4978211293874503  0.6907541667808693  0.0005350520669809
  0.4987723302907744  0.3087000881895076  0.0000260930235321
  0.4987732054361115  0.9999655333411815  0.6913298763881814
  0.4978173700099512  0.9994534605639277  0.3092162371474041
  0.6907621520467114  0.4978256177490823  0.0005325726156907
  0.8087703604326282  0.5001908731493948  0.4998066227151583
  0.5000623840560449  0.1910581782826753  0.4999351897600374
  0.5001925468254383  0.8087892713519697  0.4998089590615780
  0.5001974717770851  0.5001954884035380  0.1912341930159736
  0.5000655595096367  0.5000605330674438  0.8089210361907274
  0.3033008371222070  0.0008161123594352  0.9991825047325732
  0.1903462872741665  0.9995699773784865  0.5042462139249444
  0.9998722353599584  0.8091084798877211  0.5041408979681504
  0.9995687362458374  0.1903463717816275  0.5042458088971332
  0.9972320875864862  0.9972305001419726  0.3143017114748355
  0.0008122261144763  0.0008154351715266  0.6966972691333878
  0.3093821634788712  0.5004180367679396  0.4995816607884001
  0.1903437169626805  0.4957597558275440  0.0004315673849069
  0.0008157602942957  0.3033014765148485  0.9991826449654736
  0.9972344466121061  0.6856899512208038  0.0027707012195749
  0.9995684015971958  0.4957631146600796  0.8096660953979643
  0.9998737532644753  0.4958642967640901  0.1908872973332132
  0.8091013330766050  0.9998768611639921  0.5041376761928889
  0.6856933470870621  0.9972288851865071  0.0027730481200726
  0.4958594336187876  0.8091139439502990  0.0001243733147459
  0.4957608197104629  0.1903346619544108  0.0004359806607108
  0.4957628452107518  0.9995652180556599  0.8096701853204045
  0.4958590976912350  0.9998699534718012  0.1908821128698077
  0.8091028406111188  0.4958659001383117  0.0001245598746115
  0.6904988656602815  0.4996142963693332  0.5003771785157004
  0.5004176890528010  0.3093871540074905  0.4995782980718376
  0.4996235327081202  0.6904960658427801  0.5003790718006194
  0.4996220822802218  0.4996167625351147  0.3095035828507327
  0.5004229342466887  0.5004152071836604  0.6906171264710403
 
  0.00000000E+00  0.00000000E+00  0.00000000E+00
  0.00000000E+00  0.00000000E+00  0.00000000E+00
  0.00000000E+00  0.00000000E+00  0.00000000E+00
  0.00000000E+00  0.00000000E+00  0.00000000E+00
  0.00000000E+00  0.00000000E+00  0.00000000E+00
  0.00000000E+00  0.00000000E+00  0.00000000E+00
  0.00000000E+00  0.00000000E+00  0.00000000E+00
  0.00000000E+00  0.00000000E+00  0.00000000E+00
  0.00000000E+00  0.00000000E+00  0.00000000E+00
  0.00000000E+00  0.00000000E+00  0.00000000E+00
  0.00000000E+00  0.00000000E+00  0.00000000E+00
  0.00000000E+00  0.00000000E+00  0.00000000E+00
  0.00000000E+00  0.00000000E+00  0.00000000E+00
  0.00000000E+00  0.00000000E+00  0.00000000E+00
  0.00000000E+00  0.00000000E+00  0.00000000E+00
  0.00000000E+00  0.00000000E+00  0.00000000E+00
  0.00000000E+00  0.00000000E+00  0.00000000E+00
  0.00000000E+00  0.00000000E+00  0.00000000E+00
  0.00000000E+00  0.00000000E+00  0.00000000E+00
  0.00000000E+00  0.00000000E+00  0.00000000E+00
  0.00000000E+00  0.00000000E+00  0.00000000E+00
  0.00000000E+00  0.00000000E+00  0.00000000E+00
  0.00000000E+00  0.00000000E+00  0.00000000E+00
  0.00000000E+00  0.00000000E+00  0.00000000E+00
  0.00000000E+00  0.00000000E+00  0.00000000E+00
  0.00000000E+00  0.00000000E+00  0.00000000E+00
  0.00000000E+00  0.00000000E+00  0.00000000E+00
  0.00000000E+00  0.00000000E+00  0.00000000E+00
  0.00000000E+00  0.00000000E+00  0.00000000E+00
  0.00000000E+00  0.00000000E+00  0.00000000E+00
  0.00000000E+00  0.00000000E+00  0.00000000E+00
  0.00000000E+00  0.00000000E+00  0.00000000E+00
  0.00000000E+00  0.00000000E+00  0.00000000E+00
  0.00000000E+00  0.00000000E+00  0.00000000E+00
  0.00000000E+00  0.00000000E+00  0.00000000E+00
  0.00000000E+00  0.00000000E+00  0.00000000E+00
  0.00000000E+00  0.00000000E+00  0.00000000E+00
  0.00000000E+00  0.00000000E+00  0.00000000E+00
  0.00000000E+00  0.00000000E+00  0.00000000E+00
  0.00000000E+00  0.00000000E+00  0.00000000E+00
  0.00000000E+00  0.00000000E+00  0.00000000E+00
  0.00000000E+00  0.00000000E+00  0.00000000E+00
  0.00000000E+00  0.00000000E+00  0.00000000E+00
  0.00000000E+00  0.00000000E+00  0.00000000E+00
  0.00000000E+00  0.00000000E+00  0.00000000E+00
  0.00000000E+00  0.00000000E+00  0.00000000E+00
  0.00000000E+00  0.00000000E+00  0.00000000E+00
  0.00000000E+00  0.00000000E+00  0.00000000E+00
  0.00000000E+00  0.00000000E+00  0.00000000E+00
  0.00000000E+00  0.00000000E+00  0.00000000E+00
  0.00000000E+00  0.00000000E+00  0.00000000E+00
  0.00000000E+00  0.00000000E+00  0.00000000E+00
  0.00000000E+00  0.00000000E+00  0.00000000E+00
  0.00000000E+00  0.00000000E+00  0.00000000E+00
  0.00000000E+00  0.00000000E+00  0.00000000E+00
  0.00000000E+00  0.00000000E+00  0.00000000E+00
  0.00000000E+00  0.00000000E+00  0.00000000E+00
