Ca1 V12 F42
1.0
7.376460 -0.007374 -0.097412
-3.680253 6.392593 0.078225
0.286578 -0.011590 17.561912
Ca V F
1 12 42
direct
0.843970 0.500956 0.324391 Ca
0.295174 0.001296 0.334230 V
0.717357 0.718287 0.997951 V
0.003917 0.284633 0.668682 V
0.353841 0.000262 0.833715 V
0.646433 0.651302 0.506982 V
0.996322 0.344806 0.161148 V
0.650877 0.150297 0.501104 V
0.491299 0.347119 0.161234 V
0.854262 0.500590 0.832547 V
0.354073 0.499951 0.834716 V
0.149595 0.651526 0.505038 V
0.497831 0.848462 0.165327 V
0.581551 0.822641 0.065287 F
0.254581 0.426425 0.729872 F
0.170615 0.738258 0.396811 F
0.449914 0.262807 0.270961 F
0.829022 0.576869 0.936491 F
0.756902 0.171309 0.602453 F
0.880565 0.073793 0.731399 F
0.192851 0.119439 0.394714 F
0.926543 0.802446 0.062024 F
0.129935 0.204811 0.602165 F
0.050611 0.840671 0.277675 F
0.803625 0.927307 0.933373 F
0.104648 0.542311 0.606384 F
0.430264 0.885972 0.268320 F
0.453571 0.567436 0.939260 F
0.883019 0.430568 0.729256 F
0.570756 0.140428 0.390584 F
0.566171 0.450277 0.059865 F
0.353756 0.565812 0.485669 F
0.207674 0.634215 0.145373 F
0.436141 0.791281 0.814807 F
0.644747 0.210671 0.853767 F
0.571615 0.360385 0.521992 F
0.787423 0.438570 0.187971 F
0.682212 0.609506 0.402282 F
0.919231 0.310003 0.065123 F
0.391111 0.070255 0.736452 F
0.315564 0.929603 0.930882 F
0.614941 0.689441 0.603835 F
0.047114 0.390428 0.267473 F
0.941520 0.734839 0.520476 F
0.788917 0.060995 0.188054 F
0.269603 0.207408 0.853502 F
0.062926 0.791582 0.812575 F
0.725393 0.937278 0.478433 F
0.199987 0.256542 0.150313 F
0.627272 0.549940 0.805363 F
0.920118 0.381310 0.460567 F
0.441403 0.070733 0.133254 F
0.373965 0.933683 0.530794 F
0.550393 0.622952 0.198707 F
0.079555 0.450611 0.861939 F
