Ca1 V4 P6 O24
1.0
2.627576 7.069018 4.508791
0.214304 0.158640 8.782012
7.535313 0.158894 4.514299
Ca V P O
1 4 6 24
direct
0.497043 0.496943 0.498569 Ca
0.644594 0.644343 0.644427 V
0.140210 0.140652 0.140005 V
0.854825 0.854783 0.854547 V
0.350607 0.350105 0.350967 V
0.247805 0.529431 0.960388 P
0.034463 0.746991 0.465202 P
0.960672 0.248096 0.529466 P
0.465462 0.034362 0.747357 P
0.529822 0.960713 0.248036 P
0.746873 0.465399 0.034424 P
0.579852 0.763304 0.407531 O
0.299071 0.033420 0.939947 O
0.407131 0.581333 0.763557 O
0.939145 0.298577 0.034782 O
0.763113 0.406786 0.581178 O
0.034457 0.939609 0.298952 O
0.961452 0.054999 0.695257 O
0.587426 0.414788 0.231612 O
0.696477 0.960645 0.055712 O
0.231690 0.587780 0.414146 O
0.055353 0.696038 0.960739 O
0.413855 0.231672 0.588247 O
0.245601 0.344273 0.982009 O
0.873072 0.697734 0.496281 O
0.984623 0.246933 0.342766 O
0.497804 0.872614 0.697850 O
0.343597 -0.013892 0.244765 O
0.697964 0.496379 0.872885 O
0.296510 0.496608 0.122877 O
0.010379 0.749280 0.651385 O
0.121973 0.297050 0.498891 O
0.651102 1.011608 0.749538 O
0.498972 0.121518 0.297998 O
0.749405 0.651529 0.010104 O
