Li8 Sc16 Se32                           
   1.00000000000000     
    11.1166300549696064    0.0000021318980659   -0.0000007873768124
     0.0000021327667402   11.1166293906454623    0.0000001995364914
    -0.0000007906211616    0.0000001971725594   11.1166300006574943
Li   Sc   Li   Se
1    16     6    32
Direct
   0.4999997624876613    0.4999998625456996    0.9999997412070485 Li
  0.1249944232924847  0.8749965129341390  0.3749913215550436
  0.8749948619847316  0.1249935428656386  0.3749918474701843
  0.8749934867988998  0.8749957025996480  0.6249939805791840
  0.1249975623577839  0.1249967585778009  0.6249958383683492
  0.1249993124500861  0.3750036127996950  0.8750082962725116
  0.8749934080362465  0.6250032966315118  0.8750103157060636
  0.8749941301869129  0.3750062064615420  0.1250032292490886
  0.1249963843500765  0.6250030120366574  0.1250036231959299
  0.6250035408585433  0.8749943921927468  0.8750099850756783
  0.3750047576660904  0.1249991315100516  0.8750080258709474
  0.3750072722934732  0.8749948648430816  0.1250039635217846
  0.6250023754720218  0.1249961352481108  0.1250037663588088
  0.6250015468877024  0.3750066419877243  0.3749914991012133
  0.3750084089491708  0.6250018570472875  0.3749910121353821
  0.3750058001414018  0.3750040002258075  0.6249970827727793
  0.6250027247667163  0.6250034592850255  0.6249940569461216
  0.7500000303903889  0.7500000915800271  0.2500002483115509
  0.4999997588576548  0.0000001969686991  0.5000003992732758
  0.2499999686674315  0.7500000948984393  0.7499999373420607
  0.0000002414813238  0.4999998641359085  0.5000003961134851
  0.2499999735861991  0.2499999629023222  0.2500002406332058
  0.0000002372198082  0.0000002062075026  0.9999997364433710
  0.8814222455430638  0.1185773195742357  0.6185775347382645
  0.1185773079110390  0.8814221360374717  0.6185775029124443
  0.1185774558728312  0.1185774450373387  0.3814219107672443
  0.8814219491487094  0.8814218703877401  0.3814217533047781
  0.3685787535361200  0.1314216350118897  0.6314213296676670
  0.1314216929139960  0.3685783679830621  0.6314213501118218
  0.1314215964592265  0.1314215802501835  0.8685789071443963
  0.3685788481329340  0.3685785520203382  0.8685790093287977
  0.8814225042294765  0.6185773386673503  0.1185772229450919
  0.1185771354314369  0.3814233289709463  0.1185770428901662
  0.1185770487054185  0.6185771431879488  0.8814236139691616
  0.8814227258124419  0.3814233477338433  0.8814235969175570
  0.3685777400204060  0.6314235465867242  0.1314240273459575
  0.1314226590841159  0.8685764770599462  0.1314239975758653
  0.1314228163147177  0.6314237499974666  0.3685759257623360
  0.3685775289165321  0.8685763383271663  0.3685759559088382
  0.3814232114465383  0.1185770121973846  0.1185770525069429
  0.6185772076451244  0.8814224434096616  0.1185772236650564
  0.6185770149685581  0.1185769693482257  0.8814236573784768
  0.3814233123360822  0.8814226643961192  0.8814236712531311
  0.8685760307831032  0.1314226925296325  0.1314240987678161
  0.6314236182362336  0.3685773799201328  0.1314241100427225
  0.6314236775519575  0.1314228004704461  0.3685759275458977
  0.8685758575888443  0.3685771101988067  0.3685758287000453
  0.3814231373295058  0.6185772923184274  0.6185773200699671
  0.6185772186414624  0.3814232458458306  0.6185773500980289
  0.6185774667518231  0.6185775465755725  0.3814219523231586
  0.3814230010612363  0.3814231136780108  0.3814222088092833
  0.8685762508177035  0.6314234715246911  0.6314221959553166
  0.6314233172903343  0.8685766897939189  0.6314221828415612
  0.6314233234577316  0.6314233465157670  0.8685780273964667
  0.8685763491633551  0.8685766786916318  0.8685780271288905
 
  0.00000000E+00  0.00000000E+00  0.00000000E+00
  0.00000000E+00  0.00000000E+00  0.00000000E+00
  0.00000000E+00  0.00000000E+00  0.00000000E+00
  0.00000000E+00  0.00000000E+00  0.00000000E+00
  0.00000000E+00  0.00000000E+00  0.00000000E+00
  0.00000000E+00  0.00000000E+00  0.00000000E+00
  0.00000000E+00  0.00000000E+00  0.00000000E+00
  0.00000000E+00  0.00000000E+00  0.00000000E+00
  0.00000000E+00  0.00000000E+00  0.00000000E+00
  0.00000000E+00  0.00000000E+00  0.00000000E+00
  0.00000000E+00  0.00000000E+00  0.00000000E+00
  0.00000000E+00  0.00000000E+00  0.00000000E+00
  0.00000000E+00  0.00000000E+00  0.00000000E+00
  0.00000000E+00  0.00000000E+00  0.00000000E+00
  0.00000000E+00  0.00000000E+00  0.00000000E+00
  0.00000000E+00  0.00000000E+00  0.00000000E+00
  0.00000000E+00  0.00000000E+00  0.00000000E+00
  0.00000000E+00  0.00000000E+00  0.00000000E+00
  0.00000000E+00  0.00000000E+00  0.00000000E+00
  0.00000000E+00  0.00000000E+00  0.00000000E+00
  0.00000000E+00  0.00000000E+00  0.00000000E+00
  0.00000000E+00  0.00000000E+00  0.00000000E+00
  0.00000000E+00  0.00000000E+00  0.00000000E+00
  0.00000000E+00  0.00000000E+00  0.00000000E+00
  0.00000000E+00  0.00000000E+00  0.00000000E+00
  0.00000000E+00  0.00000000E+00  0.00000000E+00
  0.00000000E+00  0.00000000E+00  0.00000000E+00
  0.00000000E+00  0.00000000E+00  0.00000000E+00
  0.00000000E+00  0.00000000E+00  0.00000000E+00
  0.00000000E+00  0.00000000E+00  0.00000000E+00
  0.00000000E+00  0.00000000E+00  0.00000000E+00
  0.00000000E+00  0.00000000E+00  0.00000000E+00
  0.00000000E+00  0.00000000E+00  0.00000000E+00
  0.00000000E+00  0.00000000E+00  0.00000000E+00
  0.00000000E+00  0.00000000E+00  0.00000000E+00
  0.00000000E+00  0.00000000E+00  0.00000000E+00
  0.00000000E+00  0.00000000E+00  0.00000000E+00
  0.00000000E+00  0.00000000E+00  0.00000000E+00
  0.00000000E+00  0.00000000E+00  0.00000000E+00
  0.00000000E+00  0.00000000E+00  0.00000000E+00
  0.00000000E+00  0.00000000E+00  0.00000000E+00
  0.00000000E+00  0.00000000E+00  0.00000000E+00
  0.00000000E+00  0.00000000E+00  0.00000000E+00
  0.00000000E+00  0.00000000E+00  0.00000000E+00
  0.00000000E+00  0.00000000E+00  0.00000000E+00
  0.00000000E+00  0.00000000E+00  0.00000000E+00
  0.00000000E+00  0.00000000E+00  0.00000000E+00
  0.00000000E+00  0.00000000E+00  0.00000000E+00
  0.00000000E+00  0.00000000E+00  0.00000000E+00
  0.00000000E+00  0.00000000E+00  0.00000000E+00
  0.00000000E+00  0.00000000E+00  0.00000000E+00
  0.00000000E+00  0.00000000E+00  0.00000000E+00
  0.00000000E+00  0.00000000E+00  0.00000000E+00
  0.00000000E+00  0.00000000E+00  0.00000000E+00
  0.00000000E+00  0.00000000E+00  0.00000000E+00
  0.00000000E+00  0.00000000E+00  0.00000000E+00
