Ca8 Mn16 S32                            
   1.00000000000000     
     9.6572679280561342   -0.0000080667675167   -0.0000080293201381
    -0.0000080812348713    9.6570613953643107    0.0000049304387018
    -0.0000080257088182    0.0000049292064595    9.6572904119786340
   Zn   Mn   S 
     1    16    32
Direct
  0.4999992912336897  0.5000022492068189  0.4999973382730741
  0.1246689072258006  0.1246591567466858  0.1246657876917958
  0.6254044369115203  0.8799892272563939  0.3745958233459283
  0.3745937327592151  0.1200134900541237  0.3745964579040810
  0.8753328621725159  0.8753417556348342  0.1246673436650381
  0.1200162301587127  0.6254092740940571  0.6254051187589723
  0.6253994011298787  0.3745893703527834  0.8799865316707203
  0.3745958963188862  0.6254086749526980  0.8799852701921134
  0.8799871997518107  0.3745877488432576  0.6254025191483178
  0.6254051935582825  0.1200147022177159  0.6254083226836260
  0.1246714327681179  0.8753417258505739  0.8753286789206106
  0.8753327103277490  0.1246613680684408  0.8753297772921352
  0.3745918919524198  0.8799873594407527  0.6254085457150308
  0.6253996517381492  0.6254076726325388  0.1200102179934242
  0.1200139294114809  0.3745892809202240  0.3746014010365220
  0.8799875169906106  0.6254084077645912  0.3745998146386749
  0.3746002434381721  0.3745899970090681  0.1200094317618743
  0.3629083982296976  0.3629046075515611  0.3629119204585149
  0.8825374517900098  0.1174709968746826  0.1174599149399554
  0.6171686819293869  0.1176947127514738  0.3828347638232604
  0.1174658440102214  0.8825306910610788  0.1174565406081971
  0.1317174866825463  0.1317036927009213  0.3674040556742997
  0.1317191713029823  0.3673931491516263  0.1317148156308069
  0.3828270979283433  0.8823076702251416  0.3828388862139113
  0.3674013434688499  0.1317044878713282  0.1317145655062673
  0.3673984529061631  0.8682858437611096  0.8682753497774776
  0.8823225699747231  0.6171618178879634  0.6171740545102680
  0.6171590785908727  0.6171614653387535  0.8823155627715545
  0.1176850216069680  0.3828391311453218  0.6171753831382755
  0.1317223772672641  0.6326139539764029  0.8682750651304619
  0.1317225746415229  0.8682853507182436  0.6326025205087664
  0.3828310859262387  0.3828410661796192  0.8823146432445199
  0.3629026954960530  0.6371052076741783  0.6370975206765908
  0.8682803675176256  0.3673913539376025  0.8682755718593143
  0.3828305404312670  0.1176880130160545  0.6171742581526385
  0.1174657274881624  0.1174681268728925  0.8825320921599039
  0.6171608535436836  0.8823115562298633  0.6171746320524510
  0.6326006347516693  0.1317073950234184  0.8682769430172680
  0.6370945650365470  0.3629018706516959  0.6370948789417429
  0.8825424816805147  0.8825326798673557  0.8825338555582433
  0.8682798960450329  0.1317078819614338  0.6326022001253662
  0.8682848247063022  0.8682915958216797  0.3674057943075172
  0.3828296422486246  0.6171628159795689  0.1176740210837778
  0.1176879092594499  0.6171663012538734  0.3828390112899410
  0.6171673951837930  0.3828349083624117  0.1176776549970587
  0.6370897302499624  0.6370978211777750  0.3629139605210177
  0.6325969312828579  0.8682909566384523  0.1317131144536813
  0.8823150890185921  0.3828322944411310  0.3828335975611980
  0.8682835519570958  0.6326091228498126  0.1317144706137996
 
  0.00000000E+00  0.00000000E+00  0.00000000E+00
  0.00000000E+00  0.00000000E+00  0.00000000E+00
  0.00000000E+00  0.00000000E+00  0.00000000E+00
  0.00000000E+00  0.00000000E+00  0.00000000E+00
  0.00000000E+00  0.00000000E+00  0.00000000E+00
  0.00000000E+00  0.00000000E+00  0.00000000E+00
  0.00000000E+00  0.00000000E+00  0.00000000E+00
  0.00000000E+00  0.00000000E+00  0.00000000E+00
  0.00000000E+00  0.00000000E+00  0.00000000E+00
  0.00000000E+00  0.00000000E+00  0.00000000E+00
  0.00000000E+00  0.00000000E+00  0.00000000E+00
  0.00000000E+00  0.00000000E+00  0.00000000E+00
  0.00000000E+00  0.00000000E+00  0.00000000E+00
  0.00000000E+00  0.00000000E+00  0.00000000E+00
  0.00000000E+00  0.00000000E+00  0.00000000E+00
  0.00000000E+00  0.00000000E+00  0.00000000E+00
  0.00000000E+00  0.00000000E+00  0.00000000E+00
  0.00000000E+00  0.00000000E+00  0.00000000E+00
  0.00000000E+00  0.00000000E+00  0.00000000E+00
  0.00000000E+00  0.00000000E+00  0.00000000E+00
  0.00000000E+00  0.00000000E+00  0.00000000E+00
  0.00000000E+00  0.00000000E+00  0.00000000E+00
  0.00000000E+00  0.00000000E+00  0.00000000E+00
  0.00000000E+00  0.00000000E+00  0.00000000E+00
  0.00000000E+00  0.00000000E+00  0.00000000E+00
  0.00000000E+00  0.00000000E+00  0.00000000E+00
  0.00000000E+00  0.00000000E+00  0.00000000E+00
  0.00000000E+00  0.00000000E+00  0.00000000E+00
  0.00000000E+00  0.00000000E+00  0.00000000E+00
  0.00000000E+00  0.00000000E+00  0.00000000E+00
  0.00000000E+00  0.00000000E+00  0.00000000E+00
  0.00000000E+00  0.00000000E+00  0.00000000E+00
  0.00000000E+00  0.00000000E+00  0.00000000E+00
  0.00000000E+00  0.00000000E+00  0.00000000E+00
  0.00000000E+00  0.00000000E+00  0.00000000E+00
  0.00000000E+00  0.00000000E+00  0.00000000E+00
  0.00000000E+00  0.00000000E+00  0.00000000E+00
  0.00000000E+00  0.00000000E+00  0.00000000E+00
  0.00000000E+00  0.00000000E+00  0.00000000E+00
  0.00000000E+00  0.00000000E+00  0.00000000E+00
  0.00000000E+00  0.00000000E+00  0.00000000E+00
  0.00000000E+00  0.00000000E+00  0.00000000E+00
  0.00000000E+00  0.00000000E+00  0.00000000E+00
  0.00000000E+00  0.00000000E+00  0.00000000E+00
  0.00000000E+00  0.00000000E+00  0.00000000E+00
  0.00000000E+00  0.00000000E+00  0.00000000E+00
  0.00000000E+00  0.00000000E+00  0.00000000E+00
  0.00000000E+00  0.00000000E+00  0.00000000E+00
  0.00000000E+00  0.00000000E+00  0.00000000E+00
