Li32 V32 S64
1.0
  11.1011069909607887    0.0000059935314440    0.0000001943602792
   0.0000059821347222   11.1010933748814704    0.0000001520972324
   0.0000004094556626    0.0000003188761214   21.4631008348569239
Li V S
31 32 64
direct
   0.4999999960989597    0.2499999960567871    0.6250001047772076 Li
   0.4999999960989597    0.2499999960567872    0.1250001047772075 Li
   0.4999999960989598    0.7499999960567870    0.1250001047772075 Li
   0.4999999960989597    0.7499999960567871    0.6250001047772076 Li
   0.9999999960989598    0.2499999960567872    0.1250001047772075 Li
   0.9999999960989596    0.2499999960567872    0.6250001047772076 Li
   0.9999999960989597    0.7499999960567871    0.1250001047772075 Li
   0.9999999960989595    0.7499999960567872    0.6250001047772076 Li
   0.5000000028880203    0.9999999966156226    0.0000003830177680 Li
   0.5000000028880203    0.9999999966156226    0.5000003830177679 Li
   0.5000000028880203    0.4999999966156226    0.0000003830177680 Li
   0.0000000028880203    0.9999999966156226    0.0000003830177680 Li
   0.0000000028880203    0.9999999966156226    0.5000003830177679 Li
   0.0000000028880200    0.4999999966156226    0.0000003830177680 Li
   0.0000000028880200    0.4999999966156226    0.5000003830177679 Li
   0.2499999985401271    0.0000000105836577    0.3750000479584847 Li
   0.2499999985401270    0.0000000105836577    0.8750000479584847 Li
   0.2499999985401270    0.5000000105836577    0.3750000479584847 Li
   0.2499999985401271    0.5000000105836576    0.8750000479584847 Li
   0.7499999985401271    0.0000000105836577    0.3750000479584847 Li
   0.7499999985401270    0.0000000105836577    0.8750000479584847 Li
   0.7499999985401270    0.5000000105836576    0.3750000479584847 Li
   0.7499999985401271    0.5000000105836576    0.8750000479584847 Li
   0.2499999995148589    0.2500000060189195    0.2499997852730908 Li
   0.2499999995148589    0.2500000060189195    0.7499997852730907 Li
   0.2499999995148589    0.7500000060189195    0.2499997852730908 Li
   0.2499999995148590    0.7500000060189195    0.7499997852730909 Li
   0.7499999995148590    0.2500000060189195    0.2499997852730908 Li
   0.7499999995148590    0.2500000060189195    0.7499997852730907 Li
   0.7499999995148590    0.7500000060189196    0.2499997852730908 Li
   0.7499999995148589    0.7500000060189194    0.7499997852730907 Li
   0.0000000011675095    0.9999999982905318    0.2499997671957488 V
   0.0000000011675095    0.9999999982905318    0.7499997671957487 V
   0.0000000011675095    0.4999999982905318    0.2499997671957488 V
   0.0000000011675095    0.4999999982905318    0.7499997671957488 V
   0.5000000011675094    0.9999999982905318    0.2499997671957487 V
   0.5000000011675094    0.9999999982905318    0.7499997671957488 V
   0.5000000011675094    0.4999999982905318    0.2499997671957488 V
   0.5000000011675094    0.4999999982905318    0.7499997671957487 V
   0.9999999983011197    0.2500000054716655    0.3749991021346325 V
   0.9999999983011197    0.2500000054716654    0.8749991021346325 V
   0.9999999983011197    0.7500000054716653    0.3749991021346325 V
   0.9999999983011197    0.7500000054716655    0.8749991021346324 V
   0.4999999983011197    0.2500000054716654    0.3749991021346325 V
   0.4999999983011199    0.2500000054716654    0.8749991021346326 V
   0.4999999983011197    0.7500000054716655    0.3749991021346325 V
   0.4999999983011197    0.7500000054716653    0.8749991021346325 V
   0.2499999989262538    0.0000000055950061    0.1250007932747379 V
   0.2499999989262538    0.0000000055950061    0.6250007932747379 V
   0.2499999989262538    0.5000000055950060    0.1250007932747379 V
   0.2499999989262539    0.5000000055950061    0.6250007932747379 V
   0.7499999989262538    0.0000000055950061    0.1250007932747379 V
   0.7499999989262538    0.0000000055950061    0.6250007932747379 V
   0.7499999989262539    0.5000000055950060    0.1250007932747379 V
   0.7499999989262538    0.5000000055950061    0.6250007932747379 V
   0.2499999997346621    0.2500000006494327    0.9999999602585670 V
   0.2499999997346621    0.2500000006494328    0.4999999602585670 V
   0.2499999997346621    0.7500000006494327    0.9999999602585670 V
   0.2499999997346621    0.7500000006494327    0.4999999602585670 V
   0.7499999997346621    0.2500000006494327    0.9999999602585670 V
   0.7499999997346620    0.2500000006494328    0.4999999602585670 V
   0.7499999997346621    0.7500000006494327    0.9999999602585670 V
   0.7499999997346620    0.7500000006494328    0.4999999602585670 V
   0.1249994401441046    0.3890912110193721    0.1875003453836216 S
   0.1249994401441046    0.3890912110193721    0.6875003453836216 S
   0.1249994401441046    0.8890912110193721    0.1875003453836216 S
   0.1249994401441046    0.8890912110193721    0.6875003453836217 S
   0.6249994401441046    0.3890912110193721    0.1875003453836216 S
   0.6249994401441047    0.3890912110193721    0.6875003453836217 S
   0.6249994401441046    0.8890912110193722    0.1875003453836216 S
   0.6249994401441045    0.8890912110193719    0.6875003453836216 S
   0.1250007259563337    0.3609095914970694    0.4375002699420032 S
   0.1250007259563337    0.3609095914970694    0.9375002699420033 S
   0.1250007259563337    0.8609095914970695    0.4375002699420032 S
   0.1250007259563337    0.8609095914970692    0.9375002699420032 S
   0.6250007259563337    0.3609095914970694    0.4375002699420032 S
   0.6250007259563336    0.3609095914970694    0.9375002699420032 S
   0.6250007259563336    0.8609095914970695    0.4375002699420032 S
   0.6250007259563336    0.8609095914970694    0.9375002699420033 S
   0.1390905383591866    0.1249996879455323    0.0625001448847205 S
   0.1390905383591866    0.1249996879455324    0.5625001448847206 S
   0.1390905383591866    0.6249996879455323    0.0625001448847205 S
   0.1390905383591866    0.6249996879455324    0.5625001448847206 S
   0.6390905383591866    0.1249996879455323    0.0625001448847205 S
   0.6390905383591866    0.1249996879455323    0.5625001448847206 S
   0.6390905383591866    0.6249996879455323    0.0625001448847205 S
   0.6390905383591865    0.6249996879455323    0.5625001448847206 S
   0.1109093596110134    0.1249983228470944    0.3124992765581033 S
   0.1109093596110134    0.1249983228470944    0.8124992765581032 S
   0.1109093596110135    0.6249983228470943    0.3124992765581033 S
   0.1109093596110135    0.6249983228470944    0.8124992765581033 S
   0.6109093596110134    0.1249983228470944    0.3124992765581033 S
   0.6109093596110134    0.1249983228470944    0.8124992765581033 S
   0.6109093596110133    0.6249983228470944    0.3124992765581033 S
   0.6109093596110134    0.6249983228470944    0.8124992765581032 S
   0.3609094505547863    0.3750003170605554    0.0625001387524244 S
   0.3609094505547864    0.3750003170605554    0.5625001387524243 S
   0.3609094505547864    0.8750003170605555    0.0625001387524244 S
   0.3609094505547864    0.8750003170605554    0.5625001387524243 S
   0.8609094505547865    0.3750003170605554    0.0625001387524244 S
   0.8609094505547864    0.3750003170605554    0.5625001387524243 S
   0.8609094505547865    0.8750003170605555    0.0625001387524244 S
   0.8609094505547863    0.8750003170605554    0.5625001387524243 S
   0.3890906436644814    0.3750016766704944    0.3124992739094403 S
   0.3890906436644814    0.3750016766704944    0.8124992739094402 S
   0.3890906436644814    0.8750016766704944    0.3124992739094403 S
   0.3890906436644814    0.8750016766704943    0.8124992739094403 S
   0.8890906436644814    0.3750016766704944    0.3124992739094403 S
   0.8890906436644813    0.3750016766704944    0.8124992739094403 S
   0.8890906436644815    0.8750016766704944    0.3124992739094403 S
   0.8890906436644813    0.8750016766704943    0.8124992739094402 S
   0.3750005731355763    0.1109087730178706    0.1875003413868417 S
   0.3750005731355763    0.1109087730178706    0.6875003413868417 S
   0.3750005731355763    0.6109087730178706    0.1875003413868417 S
   0.3750005731355762    0.6109087730178706    0.6875003413868417 S
   0.8750005731355762    0.1109087730178706    0.1875003413868417 S
   0.8750005731355763    0.1109087730178706    0.6875003413868417 S
   0.8750005731355762    0.6109087730178705    0.1875003413868417 S
   0.8750005731355762    0.6109087730178705    0.6875003413868417 S
   0.3749992734030136    0.1390904006603882    0.4375002652926048 S
   0.3749992734030136    0.1390904006603882    0.9375002652926049 S
   0.3749992734030135    0.6390904006603882    0.4375002652926048 S
   0.3749992734030136    0.6390904006603882    0.9375002652926048 S
   0.8749992734030136    0.1390904006603882    0.4375002652926048 S
   0.8749992734030135    0.1390904006603882    0.9375002652926048 S
   0.8749992734030138    0.6390904006603882    0.4375002652926048 S
   0.8749992734030135    0.6390904006603881    0.9375002652926049 S
