Ca4 V4 P6 O24
1.0
2.590503 7.398964 4.440063
-0.023772 0.119271 8.836068
7.706881 0.121081 4.322601
Ca V P O
4 4 6 24
direct
0.539143 0.469992 0.497491 Ca
0.956483 -0.001434 0.026075 Ca
0.388183 0.746917 0.094029 Ca
0.107648 0.401723 0.749219 Ca
0.648180 0.641865 0.633697 V
0.149971 0.145456 0.151509 V
0.847797 0.862397 0.853916 V
0.345929 0.344522 0.350488 V
0.247997 0.552193 0.943797 P
0.034412 0.752076 0.450097 P
0.962936 0.242708 0.556250 P
0.461677 0.046004 0.743695 P
0.532922 0.939641 0.253286 P
0.748013 0.456746 0.039129 P
0.563705 0.754415 0.410563 O
0.268317 0.070329 0.908657 O
0.413906 0.564668 0.760675 O
0.918466 0.278119 0.061362 O
0.779429 0.407764 0.560383 O
0.072963 0.908988 0.262287 O
0.931719 0.085800 0.741720 O
0.577287 0.435148 0.217611 O
0.716541 0.935026 0.088403 O
0.227840 0.587174 0.425914 O
0.082349 0.735526 0.931002 O
0.422980 0.233690 0.586739 O
0.197766 0.392711 0.973479 O
0.882684 0.706964 0.468147 O
0.021713 0.185116 0.392248 O
0.496234 0.868792 0.720664 O
0.389413 0.951163 0.195238 O
0.729305 0.479529 0.865070 O
0.298113 0.522471 0.103385 O
-0.000171 0.775451 0.627110 O
0.106465 0.300702 0.544729 O
0.613515 1.028185 0.788442 O
0.474340 0.103907 0.310427 O
0.767111 0.630876 0.015603 O
