Li16 Ru32 O64
1.0
  12.4975242360476546   -0.0000054290220082   -0.0000000175409410
   0.0000025922102908    9.2361974809906346    0.0022921576689612
  -0.0000008426264962   -0.0012979765877346    9.2378473399636842
Li Ru O
1 32 64
direct
   0.3130443588096981    0.2500000042943815    0.4999999997375900 Li
   0.1210099088562652    0.2499999335802658    0.2499999053890209 Ru
   0.1210099088562652    0.2499999335802659    0.7499999053890209 Ru
   0.1210099088562652    0.7499999335802658    0.2499999053890209 Ru
   0.1210099088562652    0.7499999335802660    0.7499999053890209 Ru
   0.6210099088562652    0.2499999335802658    0.2499999053890209 Ru
   0.6210099088562652    0.2499999335802658    0.7499999053890209 Ru
   0.6210099088562652    0.7499999335802660    0.2499999053890209 Ru
   0.6210099088562652    0.7499999335802658    0.7499999053890209 Ru
   0.3761651352359599    0.2499999934550164    0.2500000160629487 Ru
   0.3761651352359598    0.2499999934550164    0.7500000160629487 Ru
   0.3761651352359599    0.7499999934550164    0.2500000160629487 Ru
   0.3761651352359599    0.7499999934550164    0.7500000160629487 Ru
   0.8761651352359600    0.2499999934550164    0.2500000160629487 Ru
   0.8761651352359598    0.2499999934550164    0.7500000160629487 Ru
   0.8761651352359597    0.7499999934550163    0.2500000160629487 Ru
   0.8761651352359598    0.7499999934550164    0.7500000160629486 Ru
   0.4988553390141049    0.0000000006342092    0.9999999261318328 Ru
   0.4988553390141049    0.0000000006342092    0.4999999261318328 Ru
   0.4988553390141049    0.5000000006342092    0.9999999261318328 Ru
   0.4988553390141050    0.5000000006342092    0.4999999261318328 Ru
   0.9988553390141049    0.0000000006342092    0.9999999261318328 Ru
   0.9988553390141049    0.0000000006342092    0.4999999261318328 Ru
   0.9988553390141049    0.5000000006342091    0.9999999261318328 Ru
   0.9988553390141051    0.5000000006342092    0.4999999261318328 Ru
   0.2540521952938981    0.0000000582452607    0.9999999707563312 Ru
   0.2540521952938981    0.0000000582452607    0.4999999707563311 Ru
   0.2540521952938981    0.5000000582452607    0.9999999707563312 Ru
   0.2540521952938981    0.5000000582452607    0.4999999707563311 Ru
   0.7540521952938980    0.0000000582452607    0.9999999707563312 Ru
   0.7540521952938981    0.0000000582452607    0.4999999707563311 Ru
   0.7540521952938981    0.5000000582452608    0.9999999707563312 Ru
   0.7540521952938981    0.5000000582452607    0.4999999707563311 Ru
   0.4992440050097133    0.3488375811569159    0.3486009787385458 O
   0.4992440050097133    0.3488375811569159    0.8486009787385459 O
   0.4992440050097133    0.8488375811569160    0.3486009787385458 O
   0.4992440050097133    0.8488375811569160    0.8486009787385459 O
   0.9992440050097132    0.3488375811569159    0.3486009787385458 O
   0.9992440050097133    0.3488375811569159    0.8486009787385459 O
   0.9992440050097133    0.8488375811569159    0.3486009787385458 O
   0.9992440050097133    0.8488375811569160    0.8486009787385459 O
   0.2496354055661508    0.3469950234429632    0.3458893407187734 O
   0.2496354055661507    0.3469950234429632    0.8458893407187734 O
   0.2496354055661508    0.8469950234429633    0.3458893407187734 O
   0.2496354055661508    0.8469950234429633    0.8458893407187734 O
   0.7496354055661508    0.3469950234429632    0.3458893407187734 O
   0.7496354055661507    0.3469950234429632    0.8458893407187733 O
   0.7496354055661508    0.8469950234429633    0.3458893407187734 O
   0.7496354055661507    0.8469950234429632    0.8458893407187733 O
   0.4992438813235618    0.1511624428229337    0.1513989475960749 O
   0.4992438813235618    0.1511624428229336    0.6513989475960750 O
   0.4992438813235618    0.6511624428229338    0.1513989475960749 O
   0.4992438813235618    0.6511624428229337    0.6513989475960750 O
   0.9992438813235620    0.1511624428229336    0.1513989475960749 O
   0.9992438813235618    0.1511624428229336    0.6513989475960750 O
   0.9992438813235618    0.6511624428229337    0.1513989475960749 O
   0.9992438813235618    0.6511624428229338    0.6513989475960750 O
   0.2496355874053352    0.1530050691820154    0.1541107302106955 O
   0.2496355874053352    0.1530050691820154    0.6541107302106955 O
   0.2496355874053352    0.6530050691820154    0.1541107302106955 O
   0.2496355874053352    0.6530050691820155    0.6541107302106955 O
   0.7496355874053351    0.1530050691820154    0.1541107302106955 O
   0.7496355874053352    0.1530050691820154    0.6541107302106955 O
   0.7496355874053353    0.6530050691820154    0.1541107302106955 O
   0.7496355874053352    0.6530050691820154    0.6541107302106955 O
   0.1254004996660865    0.0957734694624571    0.4029481604390544 O
   0.1254004996660865    0.0957734694624571    0.9029481604390543 O
   0.1254004996660865    0.5957734694624572    0.4029481604390544 O
   0.1254004996660865    0.5957734694624571    0.9029481604390543 O
   0.6254004996660866    0.0957734694624571    0.4029481604390544 O
   0.6254004996660867    0.0957734694624571    0.9029481604390543 O
   0.6254004996660865    0.5957734694624571    0.4029481604390544 O
   0.6254004996660866    0.5957734694624572    0.9029481604390543 O
   0.3758063496066431    0.0985866420282058    0.4011596956140708 O
   0.3758063496066431    0.0985866420282058    0.9011596956140708 O
   0.3758063496066429    0.5985866420282059    0.4011596956140708 O
   0.3758063496066431    0.5985866420282059    0.9011596956140708 O
   0.8758063496066431    0.0985866420282058    0.4011596956140708 O
   0.8758063496066429    0.0985866420282058    0.9011596956140708 O
   0.8758063496066432    0.5985866420282059    0.4011596956140708 O
   0.8758063496066429    0.5985866420282058    0.9011596956140708 O
   0.1254005099727897    0.4042265155114990    0.0970518892334472 O
   0.1254005099727897    0.4042265155114990    0.5970518892334472 O
   0.1254005099727897    0.9042265155114989    0.0970518892334472 O
   0.1254005099727897    0.9042265155114991    0.5970518892334472 O
   0.6254005099727897    0.4042265155114990    0.0970518892334472 O
   0.6254005099727897    0.4042265155114990    0.5970518892334471 O
   0.6254005099727897    0.9042265155114990    0.0970518892334472 O
   0.6254005099727897    0.9042265155114989    0.5970518892334471 O
   0.3758063450507623    0.4014132636492674    0.0988403479300144 O
   0.3758063450507623    0.4014132636492675    0.5988403479300144 O
   0.3758063450507623    0.9014132636492674    0.0988403479300144 O
   0.3758063450507623    0.9014132636492674    0.5988403479300144 O
   0.8758063450507623    0.4014132636492675    0.0988403479300144 O
   0.8758063450507622    0.4014132636492674    0.5988403479300144 O
   0.8758063450507623    0.9014132636492674    0.0988403479300144 O
   0.8758063450507624    0.9014132636492674    0.5988403479300144 O
