Co16 P16 O64
1.0
   9.4818746620333396   -0.0540168042376108    0.1225345260246138
  -0.0447105999820186   11.5274310228670842    0.0017755235921758
   0.1575855746872235    0.0423625107403436    9.7547977459252220
Li Co P O
1 16 16 64
direct
   0.4897300000000000    0.4950600000000000    0.5035500000000001 Li
   0.4950077271014459    0.1231427450556381    0.7746801839878725 Co
   0.4950077271014458    0.6231427450556382    0.7746801839878725 Co
   0.9950077271014459    0.1231427450556381    0.7746801839878725 Co
   0.9950077271014457    0.6231427450556380    0.7746801839878725 Co
   0.2820118053051430    0.1258007110639252    0.2724392262717977 Co
   0.2820118053051430    0.6258007110639251    0.2724392262717977 Co
   0.7820118053051431    0.1258007110639252    0.2724392262717977 Co
   0.7820118053051431    0.6258007110639252    0.2724392262717976 Co
   0.2500137671963678    0.3765931978379458    0.7384014033678761 Co
   0.2500137671963678    0.8765931978379459    0.7384014033678762 Co
   0.7500137671963678    0.3765931978379458    0.7384014033678761 Co
   0.7500137671963679    0.8765931978379459    0.7384014033678762 Co
   0.0399574900752599    0.3736192168059623    0.2142935752284237 Co
   0.0399574900752599    0.8736192168059622    0.2142935752284237 Co
   0.5399574900752601    0.3736192168059623    0.2142935752284237 Co
   0.5399574900752599    0.8736192168059623    0.2142935752284237 Co
   0.4659088383654487    0.3727213011028408    0.9097264158199160 P
   0.4659088383654488    0.8727213011028409    0.9097264158199161 P
   0.9659088383654489    0.3727213011028409    0.9097264158199160 P
   0.9659088383654488    0.8727213011028407    0.9097264158199160 P
   0.2995618832183226    0.3796456853483690    0.4004107182610693 P
   0.2995618832183226    0.8796456853483690    0.4004107182610694 P
   0.7995618832183226    0.3796456853483691    0.4004107182610694 P
   0.7995618832183227    0.8796456853483690    0.4004107182610694 P
   0.2167667325104830    0.1248175626092159    0.5981135869697760 P
   0.2167667325104830    0.6248175626092159    0.5981135869697760 P
   0.7167667325104831    0.1248175626092159    0.5981135869697760 P
   0.7167667325104831    0.6248175626092158    0.5981135869697760 P
   0.0543787952372465    0.1221118452260109    0.0906921509464866 P
   0.0543787952372465    0.6221118452260108    0.0906921509464866 P
   0.5543787952372464    0.1221118452260109    0.0906921509464866 P
   0.5543787952372464    0.6221118452260109    0.0906921509464866 P
   0.1251917789096010    0.3727621926312319    0.8926476941892018 O
   0.1251917789096011    0.8727621926312319    0.8926476941892018 O
   0.6251917789096011    0.3727621926312319    0.8926476941892016 O
   0.6251917789096011    0.8727621926312319    0.8926476941892016 O
   0.1389704030587763    0.3714447372721694    0.3854645828583314 O
   0.1389704030587763    0.8714447372721694    0.3854645828583314 O
   0.6389704030587763    0.3714447372721695    0.3854645828583314 O
   0.6389704030587764    0.8714447372721694    0.3854645828583314 O
   0.3777179052951147    0.1292573555315025    0.6116617148055953 O
   0.3777179052951147    0.6292573555315024    0.6116617148055953 O
   0.8777179052951147    0.1292573555315025    0.6116617148055953 O
   0.8777179052951148    0.6292573555315024    0.6116617148055953 O
   0.3936805004353142    0.1245906251501111    0.1092558237490182 O
   0.3936805004353142    0.6245906251501110    0.1092558237490182 O
   0.8936805004353141    0.1245906251501111    0.1092558237490182 O
   0.8936805004353142    0.6245906251501111    0.1092558237490182 O
   0.3386430977923643    0.3725473614431143    0.5517930872067232 O
   0.3386430977923642    0.8725473614431144    0.5517930872067232 O
   0.8386430977923642    0.3725473614431144    0.5517930872067232 O
   0.8386430977923643    0.8725473614431144    0.5517930872067233 O
   0.4221741070177698    0.3734875040511776    0.0624651373679262 O
   0.4221741070177697    0.8734875040511776    0.0624651373679262 O
   0.9221741070177697    0.3734875040511776    0.0624651373679262 O
   0.9221741070177697    0.8734875040511775    0.0624651373679262 O
   0.1759585748781439    0.1300951691406259    0.4460963506096642 O
   0.1759585748781438    0.6300951691406258    0.4460963506096642 O
   0.6759585748781438    0.1300951691406258    0.4460963506096642 O
   0.6759585748781438    0.6300951691406259    0.4460963506096642 O
   0.0982639623875884    0.1235729240749876    0.9383383159256989 O
   0.0982639623875884    0.6235729240749875    0.9383383159256989 O
   0.5982639623875885    0.1235729240749876    0.9383383159256988 O
   0.5982639623875884    0.6235729240749875    0.9383383159256988 O
   0.3927111560681445    0.2673928437447891    0.8335424580842259 O
   0.3927111560681445    0.7673928437447892    0.8335424580842260 O
   0.8927111560681447    0.2673928437447891    0.8335424580842259 O
   0.8927111560681446    0.7673928437447891    0.8335424580842259 O
   0.3823247198764222    0.2767149837092976    0.3273100304742576 O
   0.3823247198764222    0.7767149837092976    0.3273100304742576 O
   0.8823247198764222    0.2767149837092976    0.3273100304742576 O
   0.8823247198764221    0.7767149837092976    0.3273100304742576 O
   0.3947784689843948    0.4790610569867348    0.8324262948370235 O
   0.3947784689843948    0.9790610569867347    0.8324262948370235 O
   0.8947784689843948    0.4790610569867348    0.8324262948370234 O
   0.8947784689843948    0.9790610569867347    0.8324262948370234 O
   0.3705105381275128    0.4868867913550019    0.3271113516435342 O
   0.3705105381275128    0.9868867913550019    0.3271113516435342 O
   0.8705105381275129    0.4868867913550020    0.3271113516435342 O
   0.8705105381275128    0.9868867913550019    0.3271113516435342 O
   0.1257728904160680    0.0168171867949581    0.1680352570435853 O
   0.1257728904160680    0.5168171867949581    0.1680352570435853 O
   0.6257728904160680    0.0168171867949581    0.1680352570435853 O
   0.6257728904160681    0.5168171867949581    0.1680352570435853 O
   0.1387153637490621    0.0222757801957718    0.6764498187556085 O
   0.1387153637490621    0.5222757801957718    0.6764498187556085 O
   0.6387153637490621    0.0222757801957718    0.6764498187556085 O
   0.6387153637490620    0.5222757801957718    0.6764498187556085 O
   0.1314939704082320    0.2280893062275229    0.6698437776016714 O
   0.1314939704082320    0.7280893062275230    0.6698437776016714 O
   0.6314939704082321    0.2280893062275229    0.6698437776016714 O
   0.6314939704082320    0.7280893062275229    0.6698437776016714 O
   0.1309176789379325    0.2236171019990811    0.1703043384147308 O
   0.1309176789379325    0.7236171019990811    0.1703043384147308 O
   0.6309176789379326    0.2236171019990812    0.1703043384147308 O
   0.6309176789379326    0.7236171019990811    0.1703043384147308 O
