Ca1 V12 F42
1.0
7.381908 -0.006067 -0.117040
-3.682168 6.375904 0.078560
0.240962 -0.037623 17.602233
Ca V F
1 12 42
direct
0.343515 0.499706 0.342427 Ca
0.294385 -0.002162 0.332888 V
0.715724 0.715705 0.998170 V
-0.000200 0.285709 0.668327 V
0.352140 0.999125 0.833251 V
0.652891 0.653931 0.505845 V
0.992097 0.345311 0.159728 V
0.650430 0.150247 0.501685 V
0.496795 0.346787 0.161208 V
0.852229 0.499092 0.832951 V
0.352375 0.499194 0.833785 V
0.145895 0.651794 0.505682 V
0.496011 0.846440 0.164721 V
0.577730 0.821356 0.063274 F
0.247447 0.425315 0.731077 F
0.188837 0.735342 0.395919 F
0.430513 0.262673 0.270627 F
0.823661 0.576751 0.935402 F
0.751311 0.180675 0.605066 F
0.880974 0.067399 0.729145 F
0.213260 0.158639 0.390400 F
0.930756 0.809094 0.060868 F
0.121197 0.197654 0.603415 F
0.074979 0.877434 0.272088 F
0.809745 0.932136 0.936541 F
0.109552 0.548717 0.607824 F
0.425921 0.853032 0.275237 F
0.455992 0.569218 0.936477 F
0.884745 0.428088 0.730519 F
0.550935 0.112364 0.395390 F
0.569050 0.457445 0.060211 F
0.351529 0.561960 0.479243 F
0.206408 0.638099 0.143355 F
0.435249 0.790441 0.814041 F
0.643444 0.208566 0.853640 F
0.573724 0.362311 0.517777 F
0.789741 0.431542 0.182861 F
0.656547 0.617078 0.398475 F
0.919295 0.305095 0.063644 F
0.388649 0.069138 0.736382 F
0.316445 0.929419 0.930207 F
0.600987 0.681237 0.601670 F
0.073854 0.387422 0.263314 F
0.941611 0.740767 0.516834 F
0.785354 0.056704 0.187488 F
0.268684 0.207126 0.853025 F
0.061345 0.790682 0.812582 F
0.733411 0.943555 0.483240 F
0.202514 0.264116 0.144448 F
0.625655 0.546416 0.802695 F
0.927134 0.376015 0.471188 F
0.444474 0.070993 0.137344 F
0.373761 0.927712 0.531932 F
0.536820 0.614642 0.202772 F
0.078476 0.451753 0.863761 F
