Ca1 Ti12 F42
1.0
7.497930 -0.004074 0.014446
-3.742129 6.512807 -0.025006
-0.088523 -0.065041 17.685042
Ca Ti F
1 12 42
direct
0.636355 0.135782 0.997196 Ca
0.264745 0.999349 0.335324 Ti
0.720168 0.714268 0.001715 Ti
0.001112 0.272126 0.664017 Ti
0.355088 0.010660 0.826210 Ti
0.641743 0.643927 0.499287 Ti
0.008839 0.348590 0.172934 Ti
0.640799 0.143636 0.498165 Ti
0.506254 0.348119 0.166407 Ti
0.859453 0.513066 0.826266 Ti
0.354683 0.507399 0.831969 Ti
0.141643 0.642894 0.500960 Ti
0.500183 0.844974 0.174659 Ti
0.563312 0.820745 0.064898 F
0.246605 0.430503 0.727889 F
0.168778 0.753112 0.396929 F
0.416641 0.236063 0.268605 F
0.845124 0.602696 0.931478 F
0.752321 0.170679 0.602129 F
0.890076 0.070029 0.731150 F
0.174370 0.120599 0.398090 F
0.922391 0.804590 0.070006 F
0.120960 0.181607 0.600324 F
0.059232 0.878676 0.268856 F
0.785775 0.957494 0.947175 F
0.110297 0.537833 0.603105 F
0.422552 0.885314 0.272772 F
0.461042 0.567855 0.937667 F
0.883916 0.424088 0.727237 F
0.532398 0.112343 0.396039 F
0.585289 0.425491 0.055381 F
0.349204 0.567802 0.477935 F
0.213501 0.639322 0.149571 F
0.433223 0.793064 0.814283 F
0.653225 0.230427 0.865414 F
0.567437 0.352964 0.521113 F
0.787820 0.420368 0.189938 F
0.677793 0.602886 0.400508 F
0.916682 0.304004 0.068262 F
0.438049 0.109630 0.733461 F
0.337947 0.955952 0.933754 F
0.604590 0.684315 0.597916 F
0.085959 0.382096 0.269999 F
0.934394 0.721787 0.520890 F
0.788243 0.056371 0.189297 F
0.271490 0.218785 0.849779 F
0.072011 0.798093 0.804724 F
0.717354 0.935025 0.477334 F
0.221334 0.273739 0.143012 F
0.628065 0.553576 0.802406 F
0.916057 0.369379 0.469854 F
0.465240 0.074079 0.125977 F
0.368098 0.919010 0.529683 F
0.552445 0.620921 0.194282 F
0.079041 0.459968 0.863346 F
