Nd16 Mg8 S32
1.0
       11.4918956757         0.0000000000         0.0000000000
        0.0000000000        11.4918956757         0.0000000000
        0.0000000000         0.0000000000        11.4918956757
   Nd   Mg    S
   16    8   32
Direct
     0.375000000         0.125000000         0.375000000
     0.875000000         0.875000000         0.125000000
     0.625000000         0.875000000         0.375000000
     0.125000000         0.125000000         0.125000000
     0.375000000         0.625000000         0.875000000
     0.875000000         0.375000000         0.625000000
     0.625000000         0.375000000         0.875000000
     0.125000000         0.625000000         0.625000000
     0.875000000         0.125000000         0.875000000
     0.375000000         0.875000000         0.625000000
     0.125000000         0.875000000         0.875000000
     0.625000000         0.125000000         0.625000000
     0.875000000         0.625000000         0.375000000
     0.375000000         0.375000000         0.125000000
     0.125000000         0.375000000         0.375000000
     0.625000000         0.625000000         0.125000000
     0.000000000         0.000000000         0.500000000
     0.250000000         0.750000000         0.250000000
     0.000000000         0.500000000         0.000000000
     0.250000000         0.250000000         0.750000000
     0.500000000         0.000000000         0.000000000
     0.750000000         0.750000000         0.750000000
     0.500000000         0.500000000         0.500000000
     0.750000000         0.250000000         0.250000000
     0.377664000         0.877664030         0.377664000
     0.877664030         0.122336000         0.122336000
     0.122336000         0.877664030         0.122336000
     0.622335970         0.122336000         0.377664000
     0.127664000         0.127664000         0.372336000
     0.127664000         0.372336000         0.127664000
     0.372336000         0.127664000         0.127664000
     0.372336000         0.372336000         0.372336000
     0.377664000         0.377664000         0.877664030
     0.877664030         0.622335970         0.622335970
     0.122336000         0.377664000         0.622335970
     0.622335970         0.622335970         0.877664030
     0.127664000         0.627664030         0.872335970
     0.127664000         0.872335970         0.627664030
     0.372336000         0.627664030         0.627664030
     0.372336000         0.872335970         0.872335970
     0.877664030         0.877664030         0.877664030
     0.377664000         0.122336000         0.622335970
     0.622335970         0.877664030         0.622335970
     0.122336000         0.122336000         0.877664030
     0.627664030         0.127664000         0.872335970
     0.627664030         0.372336000         0.627664030
     0.872335970         0.127664000         0.627664030
     0.872335970         0.372336000         0.872335970
     0.877664030         0.377664000         0.377664000
     0.377664000         0.622335970         0.122336000
     0.622335970         0.377664000         0.122336000
     0.122336000         0.622335970         0.377664000
     0.627664030         0.627664030         0.372336000
     0.627664030         0.872335970         0.127664000
     0.872335970         0.627664030         0.127664000
     0.872335970         0.872335970         0.372336000
