Ca1 Fe4 S6 O24                          
   1.00000000000000     
     7.6786250000000003    0.1735340000000000    4.6025330000000002
     2.6852339999999999    7.1966890000000001    4.6141579999999998
     0.2397270000000000    0.1849280000000000    8.9493609999999997
   Ca   Fe   S    O 
     1     4     6    24
Direct
  0.3220891788926536  0.6948363507946524  0.5327496318680929
  0.6590326058450842  0.6349551111647926  0.6542776733522402
  0.1410090333873484  0.1531752674408509  0.1383692587719096
  0.8350919325749828  0.8590265414187002  0.8501801511071747
  0.3537353039812245  0.3491548191994127  0.3580813901863706
  0.9667625934800839  0.2419381909067155  0.5307296757764419
  0.4533784132288972  0.0461848230844097  0.7500025079274977
  0.5424375838258584  0.9579438763883914  0.2512125423269183
  0.7394752362707706  0.4644312026011193  0.0506719444821897
  0.2546026271862800  0.5299069198967743  0.9606927156941012
  0.0269451308122939  0.7545489621893466  0.4436797707883571
  0.4138933032662564  0.5803078549228502  0.7774068291780480
  0.9292893216243669  0.3180954367792381  0.0340652755559532
  0.7821619679593113  0.3728219105975583  0.6110472981213775
  0.0092034028377697  0.9480221837071667  0.3077151900513542
  0.5902209785071477  0.7682903993918231  0.4041124253618236
  0.3065600044007724  0.0258179360679947  0.9427101956266952
  0.6920374163081817  0.9567751928517794  0.0670741284237764
  0.2278942222076878  0.6230825718246038  0.3845178920182661
  0.0797027479777412  0.6853755600834361  0.9300055202201420
  0.3824098365450794  0.2368121876524114  0.6145824075437289
  0.9878676150579224  0.0405338592585096  0.6600004529219490
  0.5977210284744743  0.4027996161272895  0.2386655713198280
  0.9829476547639189  0.2666478971095287  0.3445657355597973
  0.4978551634453297  0.8947787282971404  0.6937631979668168
  0.3583854874223462  0.9743157088133430  0.2635772413415154
  0.6882487686114587  0.4961357832955215  0.9008518658648654
  0.2666361155308081  0.3501143653794685  0.9779178453831818
  0.8967638670957427  0.6892998899434986  0.4624279553593595
  0.1225021770260852  0.2794921455538102  0.5069754676998031
  0.6259801768772064  0.0357524872141894  0.7486642170951612
  0.5170369763734755  0.1088388897957344  0.2926251325385039
  0.7365886279474765  0.6429403785250187  0.0283703520656431
  0.2795202879170944  0.5128894870443474  0.1184810002807453
  0.9981653188871675  0.7399077085801977  0.6331424535507040
 
             NaN             NaN             NaN
             NaN             NaN             NaN
             NaN             NaN             NaN
             NaN             NaN             NaN
             NaN             NaN             NaN
             NaN             NaN             NaN
             NaN             NaN             NaN
             NaN             NaN             NaN
             NaN             NaN             NaN
             NaN             NaN             NaN
             NaN             NaN             NaN
             NaN             NaN             NaN
             NaN             NaN             NaN
             NaN             NaN             NaN
             NaN             NaN             NaN
             NaN             NaN             NaN
             NaN             NaN             NaN
             NaN             NaN             NaN
             NaN             NaN             NaN
             NaN             NaN             NaN
             NaN             NaN             NaN
             NaN             NaN             NaN
             NaN             NaN             NaN
             NaN             NaN             NaN
             NaN             NaN             NaN
             NaN             NaN             NaN
             NaN             NaN             NaN
             NaN             NaN             NaN
             NaN             NaN             NaN
             NaN             NaN             NaN
             NaN             NaN             NaN
             NaN             NaN             NaN
             NaN             NaN             NaN
             NaN             NaN             NaN
             NaN             NaN             NaN
