Ca1 Fe4 S6 O24                          
   1.00000000000000     
     7.6786250000000003    0.1735340000000000    4.6025330000000002
     2.6852339999999999    7.1966890000000001    4.6141579999999998
     0.2397270000000000    0.1849280000000000    8.9493609999999997
   Ca   Fe   S    O 
     1     4     6    24
Direct
  0.3220891788926513  0.6948363507946519  0.5327496318680945
  0.6590326058450852  0.6349551111647942  0.6542776733522427
  0.1410090333873466  0.1531752674408488  0.1383692587719099
  0.8350919325749845  0.8590265414186972  0.8501801511071754
  0.3537353039812236  0.3491548191994099  0.3580813901863728
  0.9667625934800805  0.2419381909067164  0.5307296757764403
  0.4533784132288973  0.0461848230844115  0.7500025079274998
  0.5424375838258567  0.9579438763883906  0.2512125423269193
  0.7394752362707679  0.4644312026011186  0.0506719444821885
  0.2546026271862811  0.5299069198967710  0.9606927156941019
  0.0269451308122919  0.7545489621893480  0.4436797707883596
  0.4138933032662553  0.5803078549228510  0.7774068291780505
  0.9292893216243668  0.3180954367792359  0.0340652755559524
  0.7821619679593078  0.3728219105975607  0.6110472981213794
  0.0092034028377688  0.9480221837071701  0.3077151900513561
  0.5902209785071468  0.7682903993918265  0.4041124253618201
  0.3065600044007700  0.0258179360679953  0.9427101956266968
  0.6920374163081837  0.9567751928517784  0.0670741284237759
  0.2278942222076846  0.6230825718246028  0.3845178920182629
  0.0797027479777393  0.6853755600834394  0.9300055202201428
  0.3824098365450814  0.2368121876524143  0.6145824075437314
  0.9878676150579220  0.0405338592585085  0.6600004529219463
  0.5977210284744754  0.4027996161272885  0.2386655713198315
  0.9829476547639200  0.2666478971095285  0.3445657355597963
  0.4978551634453301  0.8947787282971376  0.6937631979668145
  0.3583854874223485  0.9743157088133462  0.2635772413415128
  0.6882487686114598  0.4961357832955249  0.9008518658648631
  0.2666361155308055  0.3501143653794719  0.9779178453831834
  0.8967638670957463  0.6892998899434998  0.4624279553593623
  0.1225021770260830  0.2794921455538071  0.5069754676998017
  0.6259801768772030  0.0357524872141889  0.7486642170951611
  0.5170369763734721  0.1088388897957341  0.2926251325385019
  0.7365886279474751  0.6429403785250165  0.0283703520656397
  0.2795202879170957  0.5128894870443443  0.1184810002807451
 -0.0018346811128294  0.7399077085801968  0.6331424535507019
 
             NaN             NaN             NaN
             NaN             NaN             NaN
             NaN             NaN             NaN
             NaN             NaN             NaN
             NaN             NaN             NaN
             NaN             NaN             NaN
             NaN             NaN             NaN
             NaN             NaN             NaN
             NaN             NaN             NaN
             NaN             NaN             NaN
             NaN             NaN             NaN
             NaN             NaN             NaN
             NaN             NaN             NaN
             NaN             NaN             NaN
             NaN             NaN             NaN
             NaN             NaN             NaN
             NaN             NaN             NaN
             NaN             NaN             NaN
             NaN             NaN             NaN
             NaN             NaN             NaN
             NaN             NaN             NaN
             NaN             NaN             NaN
             NaN             NaN             NaN
             NaN             NaN             NaN
             NaN             NaN             NaN
             NaN             NaN             NaN
             NaN             NaN             NaN
             NaN             NaN             NaN
             NaN             NaN             NaN
             NaN             NaN             NaN
             NaN             NaN             NaN
             NaN             NaN             NaN
             NaN             NaN             NaN
             NaN             NaN             NaN
             NaN             NaN             NaN
