Ca16 Ti16 S32
1.0
   3.5391346892122888   -6.1299172813640652   -0.0002854065102802
   6.7271716700211321   12.0572728612505014   -0.0167617354088696
  -0.0158446345127454   -0.0090997645671400   13.6072321122296191
Ca Ti S
1 16 32
direct
   0.4999999964020747    0.2500000103183535    0.7500000016459037 Ca
   0.9999999880841413    0.9999999819295257    0.0000000005604253 Ti
   0.9999999880841413    0.9999999819295257    0.5000000005604253 Ti
   0.9999999880841414    0.4999999819295257    0.0000000005604252 Ti
   0.9999999880841414    0.4999999819295257    0.5000000005604253 Ti
   0.4999999880841414    0.9999999819295255    0.0000000005604252 Ti
   0.4999999880841413    0.9999999819295255    0.5000000005604253 Ti
   0.4999999880841413    0.4999999819295256    0.0000000005604252 Ti
   0.4999999880841413    0.4999999819295255    0.5000000005604253 Ti
   0.0000000257905711    0.2500000111999197    0.4999999912220092 Ti
   0.0000000257905711    0.2500000111999197    0.9999999912220091 Ti
   0.0000000257905710    0.7500000111999197    0.4999999912220093 Ti
   0.0000000257905711    0.7500000111999197    0.9999999912220092 Ti
   0.5000000257905711    0.2500000111999196    0.4999999912220092 Ti
   0.5000000257905711    0.2500000111999196    0.9999999912220092 Ti
   0.5000000257905712    0.7500000111999195    0.4999999912220092 Ti
   0.5000000257905712    0.7500000111999195    0.9999999912220091 Ti
   0.1673878687737125    0.1673752603790959    0.3914496889088825 S
   0.1673878687737125    0.1673752603790959    0.8914496889088825 S
   0.1673878687737126    0.6673752603790960    0.3914496889088825 S
   0.1673878687737126    0.6673752603790959    0.8914496889088824 S
   0.6673878687737126    0.1673752603790959    0.3914496889088825 S
   0.6673878687737125    0.1673752603790959    0.8914496889088825 S
   0.6673878687737128    0.6673752603790959    0.3914496889088825 S
   0.6673878687737128    0.6673752603790959    0.8914496889088824 S
   0.1685014554846586    0.4185401863056123    0.3953546675140503 S
   0.1685014554846586    0.4185401863056123    0.8953546675140504 S
   0.1685014554846585    0.9185401863056123    0.3953546675140504 S
   0.1685014554846586    0.9185401863056123    0.8953546675140504 S
   0.6685014554846587    0.4185401863056123    0.3953546675140503 S
   0.6685014554846587    0.4185401863056123    0.8953546675140504 S
   0.6685014554846586    0.9185401863056122    0.3953546675140503 S
   0.6685014554846587    0.9185401863056123    0.8953546675140504 S
   0.3314985646873329    0.0814598133921864    0.1046453418662070 S
   0.3314985646873328    0.0814598133921864    0.6046453418662070 S
   0.3314985646873329    0.5814598133921864    0.1046453418662070 S
   0.3314985646873327    0.5814598133921863    0.6046453418662070 S
   0.8314985646873329    0.0814598133921864    0.1046453418662069 S
   0.8314985646873330    0.0814598133921864    0.6046453418662070 S
   0.8314985646873330    0.5814598133921863    0.1046453418662069 S
   0.8314985646873330    0.5814598133921863    0.6046453418662070 S
   0.3326121007775092    0.3326247364753064    0.1085503082825222 S
   0.3326121007775092    0.3326247364753065    0.6085503082825222 S
   0.3326121007775092    0.8326247364753064    0.1085503082825222 S
   0.3326121007775092    0.8326247364753064    0.6085503082825222 S
   0.8326121007775091    0.3326247364753064    0.1085503082825222 S
   0.8326121007775092    0.3326247364753064    0.6085503082825222 S
   0.8326121007775095    0.8326247364753064    0.1085503082825222 S
   0.8326121007775094    0.8326247364753064    0.6085503082825222 S
