Li24 Se8 Cl8
1.0
   9.6153634741429936   -0.0000000618257362    0.0000001277872486
  -0.0000000627339500    9.6153641806600110   -0.0000001712550738
   0.0000001272714118   -0.0000001711334436    9.6153659190186911
Li Cl Se
23 8 8
direct
   0.4999999970426609    0.7500000014058549    0.7499999999743352 Li
   0.4999999970426610    0.7500000014058549    0.2499999999743352 Li
   0.4999999970426609    0.2500000014058548    0.2499999999743352 Li
   0.9999999970426611    0.2500000014058549    0.2499999999743352 Li
   0.9999999970426612    0.2500000014058549    0.7499999999743353 Li
   0.9999999970426610    0.7500000014058550    0.2499999999743352 Li
   0.9999999970426608    0.7500000014058550    0.7499999999743352 Li
   0.2499999992541823    0.0000000173263998    0.2500000002590888 Li
   0.2499999992541823    0.0000000173263998    0.7500000002590888 Li
   0.2499999992541823    0.5000000173263999    0.2500000002590888 Li
   0.2499999992541823    0.5000000173263999    0.7500000002590888 Li
   0.7499999992541823    0.0000000173263998    0.2500000002590888 Li
   0.7499999992541824    0.0000000173263998    0.7500000002590888 Li
   0.7499999992541824    0.5000000173263999    0.2500000002590888 Li
   0.7499999992541824    0.5000000173263999    0.7500000002590888 Li
   0.2499999992607904    0.2500000016901076    0.0000000076083033 Li
   0.2499999992607904    0.2500000016901076    0.5000000076083033 Li
   0.2499999992607904    0.7500000016901075    0.0000000076083033 Li
   0.2499999992607904    0.7500000016901075    0.5000000076083033 Li
   0.7499999992607903    0.2500000016901076    0.0000000076083033 Li
   0.7499999992607904    0.2500000016901076    0.5000000076083033 Li
   0.7499999992607905    0.7500000016901075    0.0000000076083033 Li
   0.7499999992607905    0.7500000016901075    0.5000000076083033 Li
   0.0000000020950175    0.0000000018401458    0.0000000021187425 Cl
   0.0000000020950175    0.0000000018401458    0.5000000021187425 Cl
   0.0000000020950175    0.5000000018401457    0.0000000021187425 Cl
   0.0000000020950175    0.5000000018401457    0.5000000021187425 Cl
   0.5000000020950175    0.0000000018401458    0.0000000021187425 Cl
   0.5000000020950174    0.0000000018401458    0.5000000021187425 Cl
   0.5000000020950175    0.5000000018401457    0.0000000021187425 Cl
   0.5000000020950175    0.5000000018401457    0.5000000021187425 Cl
   0.2500000023473490    0.2499999777374916    0.2499999900395302 Se
   0.2500000023473490    0.2499999777374916    0.7499999900395302 Se
   0.2500000023473490    0.7499999777374914    0.2499999900395302 Se
   0.2500000023473490    0.7499999777374915    0.7499999900395302 Se
   0.7500000023473490    0.2499999777374916    0.2499999900395302 Se
   0.7500000023473489    0.2499999777374916    0.7499999900395302 Se
   0.7500000023473490    0.7499999777374916    0.2499999900395302 Se
   0.7500000023473490    0.7499999777374916    0.7499999900395303 Se
