Ca16 Ni16 N16
1.0
7.073159 0.000000 0.000000
0.000000 7.073159 0.000000
0.000000 0.000000 14.093401
Ca Ni N
15 16 16
direct
0.500000 0.500000 0.625000 Ca
0.000000 0.000000 0.375000 Ca
0.000000 0.000000 0.875000 Ca
0.000000 0.500000 0.375000 Ca
0.000000 0.500000 0.875000 Ca
0.500000 0.000000 0.375000 Ca
0.500000 0.000000 0.875000 Ca
0.500000 0.500000 0.375000 Ca
0.500000 0.500000 0.875000 Ca
0.000000 0.000000 0.125000 Ca
0.000000 0.000000 0.625000 Ca
0.000000 0.500000 0.125000 Ca
0.000000 0.500000 0.625000 Ca
0.500000 0.000000 0.125000 Ca
0.500000 0.500000 0.125000 Ca
0.250000 0.250000 0.000000 Ni
0.250000 0.250000 0.500000 Ni
0.250000 0.750000 0.000000 Ni
0.250000 0.750000 0.500000 Ni
0.750000 0.250000 0.000000 Ni
0.750000 0.250000 0.500000 Ni
0.750000 0.750000 0.000000 Ni
0.750000 0.750000 0.500000 Ni
0.250000 0.250000 0.250000 Ni
0.250000 0.250000 0.750000 Ni
0.250000 0.750000 0.250000 Ni
0.250000 0.750000 0.750000 Ni
0.750000 0.250000 0.250000 Ni
0.750000 0.250000 0.750000 Ni
0.750000 0.750000 0.250000 Ni
0.750000 0.750000 0.750000 Ni
0.250000 0.000000 0.250000 N
0.250000 0.000000 0.750000 N
0.250000 0.500000 0.250000 N
0.250000 0.500000 0.750000 N
0.750000 0.000000 0.250000 N
0.750000 0.000000 0.750000 N
0.750000 0.500000 0.250000 N
0.750000 0.500000 0.750000 N
0.000000 0.250000 0.000000 N
0.000000 0.250000 0.500000 N
0.000000 0.750000 0.000000 N
0.000000 0.750000 0.500000 N
0.500000 0.250000 0.000000 N
0.500000 0.250000 0.500000 N
0.500000 0.750000 0.000000 N
0.500000 0.750000 0.500000 N
