Ca1 Ni12 F42                            
   1.00000000000000     
     7.0151579999999996   -0.0298050000000000    0.0065590000000000
    -3.5295459999999999    6.1096849999999998   -0.0256200000000000
    -0.1002460000000000   -0.0293030000000000   16.9181069999999991
   Ca   Ni   F 
     1    12    42
Direct
  0.7605793465277799  0.6235454322600059  0.6709939555158899
  0.2902126280759468  1.0038024625968271  0.3298894416733807
  0.7001505054850735  0.7015082376831483  0.0071208020241204
  0.0067871162791065  0.2932186750109168  0.6607102374150834
  0.3462533769029727  0.9917258321546009  0.8352574810629483
  0.6365377263986568  0.6607281649716508  0.4922009172499155
  0.9964368731939531  0.3509447714537719  0.1686437636422657
  0.6443419650555764  0.1584210370134889  0.4959033087077420
  0.4959968085935774  0.3507936557463044  0.1687793878764945
  0.8482742387074489  0.4863320655715262  0.8449398082274442
  0.3407259143930468  0.4895718450914264  0.8378309417002727
  0.1438598070174484  0.6616528547901970  0.4967712558112876
  0.4965159299805876  0.8511325706055520  0.1684630803074030
  0.5538895919247927  0.8214152816470136  0.0624452059173589
  0.2560102886425970  0.4231284009628082  0.7253945708961482
  0.1620310168674473  0.7508719001531194  0.3876637079430518
  0.4265226525400165  0.2675422396263649  0.2740453376437409
  0.8350256500888502  0.5811730805399549  0.9502081523159860
  0.7423462035377670  0.1787754677365667  0.6022866455733575
  0.9096909702972927  0.0274142156831977  0.7051830048449969
  0.1700206330202270  0.1137936837251051  0.3911267774075769
  0.9242173989299762  0.8219836781993469  0.0726418453331705
  0.1460512492630792  0.2308211052138085  0.5890641236184756
  0.0677597932028707  0.8890570639101084  0.2640627252261515
  0.8119080384106305  0.9290095698299695  0.9446419730619677
  0.0911727699472192  0.5648922965185093  0.6124755410584537
  0.4378702592153239  0.8819978202119508  0.2736904596484452
  0.4455853146809410  0.5574057090957658  0.9445569960744798
  0.8597906713626396  0.3849185292700658  0.7329865608692134
  0.5516261888065588  0.1410895108645574  0.3910475004321123
  0.5643216620236886  0.4351333364706464  0.0644100379779545
  0.3512135673710962  0.5696470938146155  0.4641515067844929
  0.2032160463140483  0.6509458383785679  0.1458175870227723
  0.4403837360283496  0.7952478386383747  0.8107490653305216
  0.6265623832840618  0.1944212316300034  0.8707077521108872
  0.5680476884588841  0.3835638858019420  0.5296546052023908
  0.7862517230620966  0.4392215637099491  0.1944584799587349
  0.6954300753343995  0.6072077159854831  0.3971509988212668
  0.9161675863320948  0.3128324341855516  0.0690224386725673
  0.4056283262495440  0.0951670146224872  0.7364480339364334
  0.2856670100012059  0.8890597922423018  0.9326820358743290
  0.5725832903504139  0.7127617734612599  0.5924345838144380
  0.0766913078119680  0.3893202725961284  0.2682464474748072
  0.9220717538674911  0.7468032396709593  0.5296879870511434
  0.7895957886809970  0.0511966586292404  0.1912489847644867
  0.2475984871985859  0.1826844714158282  0.8581808951011766
  0.0606457143557187  0.7741993851285737  0.8027870853478705
  0.7269653827955280  0.9437350786467489  0.4643652913795864
  0.2058094223276381  0.2620455813152645  0.1432118900111559
  0.6360901745809645  0.5548875944593576  0.7989749568493058
  0.9200318988233366  0.3718235566688442  0.4641711159521252
  0.4378124290114797  0.0686004328140248  0.1355223854319253
  0.3679438124756824  0.9491661921633077  0.5301980881841539
  0.5550502617239541  0.6336159528098074  0.2016650486738203
  0.0593106317487513  0.4172512718797701  0.8772591156639681
 
             NaN             NaN             NaN
             NaN             NaN             NaN
             NaN             NaN             NaN
             NaN             NaN             NaN
             NaN             NaN             NaN
             NaN             NaN             NaN
             NaN             NaN             NaN
             NaN             NaN             NaN
             NaN             NaN             NaN
             NaN             NaN             NaN
             NaN             NaN             NaN
             NaN             NaN             NaN
             NaN             NaN             NaN
             NaN             NaN             NaN
             NaN             NaN             NaN
             NaN             NaN             NaN
             NaN             NaN             NaN
             NaN             NaN             NaN
             NaN             NaN             NaN
             NaN             NaN             NaN
             NaN             NaN             NaN
             NaN             NaN             NaN
             NaN             NaN             NaN
             NaN             NaN             NaN
             NaN             NaN             NaN
             NaN             NaN             NaN
             NaN             NaN             NaN
             NaN             NaN             NaN
             NaN             NaN             NaN
             NaN             NaN             NaN
             NaN             NaN             NaN
             NaN             NaN             NaN
             NaN             NaN             NaN
             NaN             NaN             NaN
             NaN             NaN             NaN
             NaN             NaN             NaN
             NaN             NaN             NaN
             NaN             NaN             NaN
             NaN             NaN             NaN
             NaN             NaN             NaN
             NaN             NaN             NaN
             NaN             NaN             NaN
             NaN             NaN             NaN
             NaN             NaN             NaN
             NaN             NaN             NaN
             NaN             NaN             NaN
             NaN             NaN             NaN
             NaN             NaN             NaN
             NaN             NaN             NaN
             NaN             NaN             NaN
             NaN             NaN             NaN
             NaN             NaN             NaN
             NaN             NaN             NaN
             NaN             NaN             NaN
             NaN             NaN             NaN
