Ca1 Ni12 F42
1.0
7.015158 -0.029805 0.006559
-3.529546 6.109685 -0.025620
-0.100246 -0.029303 16.918107
Ca Ni F
1 12 42
direct
0.506694 0.489225 0.663090 Ca
0.299038 0.997690 0.329336 Ni
0.701410 0.698330 0.006237 Ni
0.002859 0.311570 0.665029 Ni
0.342493 0.997850 0.839608 Ni
0.658816 0.658037 0.492556 Ni
0.998873 0.344893 0.167632 Ni
0.657797 0.152259 0.491472 Ni
0.499050 0.345736 0.167931 Ni
0.844640 0.498894 0.838987 Ni
0.342203 0.498806 0.842020 Ni
0.156061 0.654924 0.494695 Ni
0.498980 0.845495 0.167135 Ni
0.566341 0.828057 0.062214 F
0.257945 0.446400 0.729819 F
0.175261 0.743006 0.387547 F
0.432174 0.261358 0.272987 F
0.824220 0.569101 0.947122 F
0.745884 0.190784 0.600991 F
0.878457 0.072734 0.723746 F
0.191637 0.112612 0.394399 F
0.931146 0.816104 0.069201 F
0.142276 0.208453 0.606283 F
0.067686 0.885937 0.267275 F
0.812272 0.923087 0.942422 F
0.135332 0.571482 0.606074 F
0.430940 0.864554 0.271238 F
0.437122 0.558816 0.948138 F
0.861533 0.429848 0.724585 F
0.567921 0.123116 0.385616 F
0.565678 0.432275 0.063503 F
0.366410 0.569885 0.469273 F
0.207221 0.643440 0.142313 F
0.437214 0.800809 0.816766 F
0.634485 0.203831 0.862860 F
0.565863 0.363372 0.517481 F
0.790791 0.435818 0.192652 F
0.700510 0.618662 0.393158 F
0.916643 0.302683 0.068285 F
0.384770 0.074962 0.734859 F
0.301827 0.918554 0.939131 F
0.613357 0.688906 0.597491 F
0.080805 0.386810 0.267011 F
0.946473 0.738909 0.520755 F
0.790453 0.046727 0.192469 F
0.246922 0.193596 0.859399 F
0.054048 0.789793 0.812302 F
0.755802 0.949442 0.472544 F
0.207118 0.254617 0.143071 F
0.622299 0.550425 0.799205 F
0.940889 0.374304 0.461080 F
0.439220 0.066040 0.135099 F
0.378344 0.935056 0.529957 F
0.558730 0.625479 0.200112 F
0.055439 0.430834 0.872917 F
