Ca1 V12 F42                             
   1.00000000000000     
     7.3834460000000002   -0.0051020000000000   -0.1059500000000000
    -3.6818550000000001    6.3756610000000000    0.0776150000000000
     0.2671710000000000   -0.0248290000000000   17.6070160000000016
   Ca   V    F 
     1    12    42
Direct
  0.0882305922079837  0.4689546581712710  0.3571273111640763
  0.2965686455742599  1.0166564454400167  0.3326235718817045
  0.7152100990436090  0.7154449340092357  0.9974560626331097
  0.0008498879050636  0.2795686163356979  0.6708468083698437
  0.3568064635373557  0.9949079275759432  0.8346382173475545
  0.6506589729755408  0.6672841914686375  0.5065756046775652
  0.9902544126476832  0.3340788366254608  0.1436288543689956
  0.6427735656940854  0.1635568839594925  0.5053396433106714
  0.4935927319555241  0.3390532027584177  0.1551984564509780
  0.8564924432326452  0.4967844711303215  0.8353809359272769
  0.3556965806238799  0.4935479035510091  0.8347619980425529
  0.1565081782811540  0.6794881758701212  0.5205369112908981
  0.4910422973553569  0.8387947088478821  0.1631072329953312
  0.5532470035797648  0.8012562377187049  0.0588103059538940
  0.2505656327205312  0.4085110293292554  0.7317136263061499
  0.2023762340916701  0.7865665876513342  0.4135078897688931
  0.4155103865776875  0.2388428613435218  0.2588153066636771
  0.8346567322513103  0.5844746669266614  0.9359464082727093
  0.7601987436512271  0.1915129931970509  0.6064141245657305
  0.8759378060442615  0.0640479050975513  0.7311941854420131
  0.1738153038824354  0.1590535737314217  0.3765362529540311
  0.9208871431893217  0.8104061228300364  0.0639394866706963
  0.1237456381679188  0.2093915094914671  0.6005257202006031
  0.0701811023256459  0.7969160345531265  0.2869332534191230
  0.8077541957919570  0.9322457426889371  0.9360406634082423
  0.1192533759093172  0.5565248860733480  0.6187783220137312
  0.4440138296802775  0.8826099562558166  0.2715713411959069
  0.4591062763076417  0.5641425922162682  0.9366498861898571
  0.8844773766788416  0.4219003169339309  0.7333342024634728
  0.5517339604552621  0.1482342673146118  0.3964425374567316
  0.5740502825068896  0.4456001801372159  0.0545473669436079
  0.3500934249558613  0.5832962855187092  0.4825996596687906
  0.2000025072325276  0.6290094867972403  0.1441571955090889
  0.4351686078239634  0.7827754885916879  0.8141174724020001
  0.6474986818003780  0.2071515066202522  0.8558407040394280
  0.5687688442320405  0.3771892355535446  0.5262169075698838
  0.7832624433405214  0.4123000514124240  0.1755166666288857
  0.6870877926866572  0.6247341478742308  0.4080742805541921
  0.9250447471748078  0.3151673009321317  0.0469696251061939
  0.3950677361807618  0.0682111291104473  0.7374052965045867
  0.3190760541876786  0.9213785243480923  0.9316813851078283
  0.5981050290217846  0.7048887307659845  0.6019881439178345
  0.0587131249945832  0.3432258859848667  0.2496493154497142
  0.9387053953404447  0.7523857700647303  0.5308196030807393
  0.7867668155097938  0.0459072857083940  0.1693372422104802
  0.2743452359628232  0.2032483856676718  0.8548378983005850
  0.0660496799160102  0.7863917568930414  0.8133635234644281
  0.7264103281246042  0.9571248547585787  0.4813574677418191
  0.2077147235217418  0.2617096694296713  0.1295184278224772
  0.6300089297280089  0.5452503847212715  0.8047935295850246
  0.9297781128882328  0.3991364087251208  0.4721546313548552
  0.4373223786344975  0.0588208127563292  0.1306992176492627
  0.3785071038611271  0.9526939925114852  0.5468518758116697
  0.5418562489057869  0.6119092214165578  0.1910750577600502
  0.0820243009068748  0.4448919903352869  0.8648677693501386
 
             NaN             NaN             NaN
             NaN             NaN             NaN
             NaN             NaN             NaN
             NaN             NaN             NaN
             NaN             NaN             NaN
             NaN             NaN             NaN
             NaN             NaN             NaN
             NaN             NaN             NaN
             NaN             NaN             NaN
             NaN             NaN             NaN
             NaN             NaN             NaN
             NaN             NaN             NaN
             NaN             NaN             NaN
             NaN             NaN             NaN
             NaN             NaN             NaN
             NaN             NaN             NaN
             NaN             NaN             NaN
             NaN             NaN             NaN
             NaN             NaN             NaN
             NaN             NaN             NaN
             NaN             NaN             NaN
             NaN             NaN             NaN
             NaN             NaN             NaN
             NaN             NaN             NaN
             NaN             NaN             NaN
             NaN             NaN             NaN
             NaN             NaN             NaN
             NaN             NaN             NaN
             NaN             NaN             NaN
             NaN             NaN             NaN
             NaN             NaN             NaN
             NaN             NaN             NaN
             NaN             NaN             NaN
             NaN             NaN             NaN
             NaN             NaN             NaN
             NaN             NaN             NaN
             NaN             NaN             NaN
             NaN             NaN             NaN
             NaN             NaN             NaN
             NaN             NaN             NaN
             NaN             NaN             NaN
             NaN             NaN             NaN
             NaN             NaN             NaN
             NaN             NaN             NaN
             NaN             NaN             NaN
             NaN             NaN             NaN
             NaN             NaN             NaN
             NaN             NaN             NaN
             NaN             NaN             NaN
             NaN             NaN             NaN
             NaN             NaN             NaN
             NaN             NaN             NaN
             NaN             NaN             NaN
             NaN             NaN             NaN
             NaN             NaN             NaN
