Ca1 V12 F42
1.0
7.383446 -0.005102 -0.105950
-3.681855 6.375661 0.077615
0.267171 -0.024829 17.607016
Ca V F
1 12 42
direct
1.094055 0.503323 0.333121 Ca
0.296663 -0.000081 0.333738 V
0.714950 0.714857 0.997914 V
0.000176 0.285197 0.668231 V
0.352177 0.998923 0.833071 V
0.650407 0.653204 0.506735 V
0.994638 0.344430 0.160271 V
0.650449 0.150927 0.501846 V
0.495160 0.346251 0.161143 V
0.852218 0.499056 0.832933 V
0.352385 0.498948 0.833730 V
0.148361 0.651967 0.505669 V
0.497159 0.846508 0.165172 V
0.573455 0.819650 0.062335 F
0.248787 0.425236 0.730232 F
0.180566 0.735756 0.396039 F
0.442407 0.261369 0.270665 F
0.826238 0.579557 0.934795 F
0.753539 0.179764 0.604250 F
0.879624 0.069635 0.729919 F
0.203870 0.139576 0.392229 F
0.926475 0.804774 0.061966 F
0.122463 0.198371 0.603106 F
0.064041 0.860280 0.274863 F
0.811481 0.933861 0.937327 F
0.108390 0.547216 0.607889 F
0.428289 0.868444 0.272647 F
0.458146 0.570209 0.936251 F
0.883864 0.429854 0.730331 F
0.562007 0.128252 0.393663 F
0.565075 0.452490 0.059081 F
0.354867 0.565520 0.483225 F
0.206869 0.635349 0.145191 F
0.434721 0.790143 0.813685 F
0.643999 0.208920 0.853635 F
0.572405 0.361600 0.519716 F
0.790356 0.435180 0.185489 F
0.669960 0.614172 0.400266 F
0.916959 0.311228 0.065130 F
0.390397 0.070428 0.736332 F
0.316252 0.929003 0.930005 F
0.610262 0.686237 0.603245 F
0.057182 0.385332 0.264744 F
0.941097 0.737354 0.518306 F
0.788227 0.056679 0.185898 F
0.268421 0.206551 0.853014 F
0.061824 0.790556 0.812217 F
0.730408 0.942020 0.482083 F
0.200472 0.261231 0.146445 F
0.624618 0.546125 0.803057 F
0.925497 0.379230 0.468080 F
0.446181 0.071099 0.136560 F
0.373664 0.928661 0.531532 F
0.542960 0.617719 0.199904 F
0.079229 0.451009 0.863892 F
