Ca1 Cr12 F42                            
   1.00000000000000     
     7.2526299999999999   -0.0327340000000000   -0.0201310000000000
    -3.6050249999999999    6.2710249999999998    0.0144420000000000
     0.0302110000000000    0.0852680000000000   17.3445689999999999
   Ca   Cr   F 
     1    12    42
Direct
  0.9345502443543691  0.1140120927244010  0.3537349954782021
  0.3191637737537116  0.0159958285682354  0.3350551505121960
  0.7057389361369799  0.7110884050725519  0.9975248136682098
  0.0041919305294603  0.2991753601992551  0.6680963206105364
  0.3508270687829917  0.0015882721166678  0.8328713187291308
  0.6620235000815973  0.6621114219646507  0.5016831320280239
  0.9909960750810365  0.3517711917564143  0.1606238680608148
  0.6609414899769025  0.1630427437226291  0.5031672295248858
  0.4934931545546485  0.3532806651176727  0.1630569595783060
  0.8512243881340541  0.5025489058739452  0.8331732714525606
  0.3506814814945603  0.5011204873695314  0.8332808851590509
  0.1630143178825484  0.6637073106431058  0.5026016841732813
  0.4902274579483436  0.8508475899940234  0.1612577253477718
  0.5675460205606639  0.8321997598869371  0.0574790652257810
  0.2607995489817082  0.4437988396934120  0.7278210785171965
  0.2000294323857510  0.7566977080946455  0.3970892428302894
  0.4504192188632631  0.2682677957183954  0.2704725708601583
  0.8178473844219075  0.5644336146099724  0.9378911127476929
  0.7443308720931215  0.1861487911084983  0.6075264986214877
  0.8920310201085049  0.0776979971816104  0.7288449375490443
  0.2340570234306961  0.1529408715256201  0.4063786323750399
  0.9168104299629929  0.8031923280694324  0.0619844656565142
  0.1229270004945594  0.2112826717955117  0.6014263364972962
  0.0589395162581060  0.9321192512704115  0.2874986301591792
  0.8082430631339557  0.9257184098449732  0.9338130098853911
  0.1177949989405993  0.5665477889057798  0.6066906121260975
  0.4189254845901887  0.8714299079502456  0.2667524060243378
  0.4432237591902840  0.5676630467673593  0.9375401601145607
  0.8795076029054524  0.4338958834256160  0.7291106993042661
  0.5985187508948503  0.1231454422525133  0.3910809342014543
  0.5506243263334513  0.4461147243609685  0.0585811262057098
  0.3687182188702454  0.5765102202473177  0.4840157132259156
  0.1998247022919647  0.6437564338583996  0.1393692708339344
  0.4378702562255146  0.7963416042588690  0.8141463607672204
  0.6424547548666881  0.2080206484577997  0.8532850845726362
  0.5734488684416762  0.3670940750113876  0.5178388717912558
  0.7889083770442530  0.4433581294693210  0.1791781677917184
  0.7018640881371598  0.6577769439230994  0.3978223957609547
  0.9200924117045527  0.3025294392287247  0.0625592901265862
  0.3856729723956411  0.0727071411713510  0.7341964449926294
  0.3096577173143089  0.9299324690881590  0.9314125133480754
  0.6334132447940104  0.6972747372706677  0.6010654596044226
  0.0521273190666489  0.3802027090027147  0.2688783014639588
  0.9561396428575009  0.7505102365548779  0.5166791774629775
  0.7792780030914755  0.0595640189314520  0.1903775887951719
  0.2627640889471271  0.2073064385530518  0.8518818377399168
  0.0576876571385910  0.7947436759509205  0.8123487883692755
  0.7616320247809512  0.9667589515130063  0.4810099506868071
  0.1970225673355059  0.2610608509814282  0.1496768486866655
  0.6294183645413765  0.5591915044987704  0.8013271607547179
  0.9442654432593603  0.3785101076164185  0.4664121715480926
  0.4329795780113136  0.0738952941242276  0.1313036144290494
  0.3824263049690991  0.9419280692864070  0.5339133212154480
  0.5493943000019991  0.6314739875894007  0.1950551265468561
  0.0717030480793709  0.4437777399749084  0.8648574955394416
 
             NaN             NaN             NaN
             NaN             NaN             NaN
             NaN             NaN             NaN
             NaN             NaN             NaN
             NaN             NaN             NaN
             NaN             NaN             NaN
             NaN             NaN             NaN
             NaN             NaN             NaN
             NaN             NaN             NaN
             NaN             NaN             NaN
             NaN             NaN             NaN
             NaN             NaN             NaN
             NaN             NaN             NaN
             NaN             NaN             NaN
             NaN             NaN             NaN
             NaN             NaN             NaN
             NaN             NaN             NaN
             NaN             NaN             NaN
             NaN             NaN             NaN
             NaN             NaN             NaN
             NaN             NaN             NaN
             NaN             NaN             NaN
             NaN             NaN             NaN
             NaN             NaN             NaN
             NaN             NaN             NaN
             NaN             NaN             NaN
             NaN             NaN             NaN
             NaN             NaN             NaN
             NaN             NaN             NaN
             NaN             NaN             NaN
             NaN             NaN             NaN
             NaN             NaN             NaN
             NaN             NaN             NaN
             NaN             NaN             NaN
             NaN             NaN             NaN
             NaN             NaN             NaN
             NaN             NaN             NaN
             NaN             NaN             NaN
             NaN             NaN             NaN
             NaN             NaN             NaN
             NaN             NaN             NaN
             NaN             NaN             NaN
             NaN             NaN             NaN
             NaN             NaN             NaN
             NaN             NaN             NaN
             NaN             NaN             NaN
             NaN             NaN             NaN
             NaN             NaN             NaN
             NaN             NaN             NaN
             NaN             NaN             NaN
             NaN             NaN             NaN
             NaN             NaN             NaN
             NaN             NaN             NaN
             NaN             NaN             NaN
             NaN             NaN             NaN
