Ca1 Cr12 F42                            
   1.00000000000000     
     7.2526299999999999   -0.0327340000000000   -0.0201310000000000
    -3.6050249999999999    6.2710249999999998    0.0144420000000000
     0.0302110000000000    0.0852680000000000   17.3445689999999999
   Ca   Cr   F 
     1    12    42
Direct
 -0.0514761639604559  0.1851915158299938  0.3633210927916560
  0.3070221105421309  1.0015124550845866  0.3303260675782309
  0.7147671811666063  0.7124026667105150  0.9971566688503958
  1.0025820830937564  0.2981733810563490  0.6688675367541626
  0.3586698866670899  1.0006774060348833  0.8342707739827836
  0.6480607681874626  0.6658425985174877  0.5053746220675869
  0.9984444930374589  0.3487708208533057  0.1541645532251833
  0.6432474897782817  0.1664608056160835  0.5071594489354345
  0.4984039262801612  0.3469871361972450  0.1598001298051583
  0.8586524971985676  0.5025302586099998  0.8348284245216711
  0.3565690389005159  0.4987996556475945  0.8334471788741529
  0.1511705103200617  0.6716818442894800  0.5067389352785947
  0.4985586266629942  0.8471704163873532  0.1604548666291698
  0.5662177862205372  0.8233250782664016  0.0560927572176030
  0.2614686643894030  0.4391454052549008  0.7281066668761167
  0.1878128982564971  0.7524529814645409  0.3987738654224646
  0.4402226135449164  0.2549435488750201  0.2662802350252328
  0.8352308652871965  0.5727791156281993  0.9388053892295565
  0.7383142002248194  0.1875239334375455  0.6098627821135942
  0.8945652529422400  0.0733138485001721  0.7279094960925890
  0.2060278398167630  0.1345442526294046  0.3981760628683953
  0.9255611710871947  0.8122489590560302  0.0618758005878988
  0.1181871029176207  0.2159083231169099  0.5985622848486575
  0.0634130327658422  0.8961278506581873  0.2761460816777744
  0.8108471462010329  0.9260047734741258  0.9331358304986970
  0.1124606050466154  0.5716725176740685  0.6099227472555819
  0.4410292656619513  0.8769781723461568  0.2679709659901665
  0.4514179720057379  0.5626005969576475  0.9374266338006304
  0.8790713907492980  0.4284625483435191  0.7313495101769053
  0.5826485465927120  0.1370553811929762  0.3949797273899819
  0.5692011880011721  0.4451527767409835  0.0564996008813125
  0.3531584425384250  0.5800921212195506  0.4846431823215220
  0.2061459539461186  0.6434601756241881  0.1391321432916084
  0.4454451338488977  0.7952662770723594  0.8155313851830024
  0.6490891612205514  0.2096820691132654  0.8570525623742026
  0.5597628654186073  0.3721477263933621  0.5275993956639876
  0.7910381580528817  0.4309106783633074  0.1791742276672934
  0.6845577906501035  0.6331160796280684  0.4043840673265488
  0.9256605967952356  0.3086626956032778  0.0562425041825601
  0.3983318543481019  0.0746810574544160  0.7358224141592244
  0.3147234980472529  0.9271751149956294  0.9325568309108238
  0.6110291031529426  0.7142842287217975  0.6027318363306868
  0.0699551940721529  0.3829778633164411  0.2624443255470979
  0.9420988689177003  0.7561813485511132  0.5235534529144773
  0.7914426425639722  0.0559385647122463  0.1826421676497482
  0.2682372632133463  0.2045955449660933  0.8521699094073596
  0.0664971872493520  0.7929418966589519  0.8118356612385479
  0.7420367840129627  0.9689932699948155  0.4789702626454722
  0.2064618045967072  0.2616706817847990  0.1397941194092193
  0.6363798855321069  0.5583326874250384  0.8023172841501084
  0.9291784201376642  0.3856722280562249  0.4705112151479026
  0.4391160781478052  0.0676386603684983  0.1291311058573435
  0.3655914375484003  0.9497218324513889  0.5381184632062577
  0.5548658517976753  0.6249562523442078  0.1928086450869830
  0.0786337359490028  0.4422529855909516  0.8657605374592249
 
             NaN             NaN             NaN
             NaN             NaN             NaN
             NaN             NaN             NaN
             NaN             NaN             NaN
             NaN             NaN             NaN
             NaN             NaN             NaN
             NaN             NaN             NaN
             NaN             NaN             NaN
             NaN             NaN             NaN
             NaN             NaN             NaN
             NaN             NaN             NaN
             NaN             NaN             NaN
             NaN             NaN             NaN
             NaN             NaN             NaN
             NaN             NaN             NaN
             NaN             NaN             NaN
             NaN             NaN             NaN
             NaN             NaN             NaN
             NaN             NaN             NaN
             NaN             NaN             NaN
             NaN             NaN             NaN
             NaN             NaN             NaN
             NaN             NaN             NaN
             NaN             NaN             NaN
             NaN             NaN             NaN
             NaN             NaN             NaN
             NaN             NaN             NaN
             NaN             NaN             NaN
             NaN             NaN             NaN
             NaN             NaN             NaN
             NaN             NaN             NaN
             NaN             NaN             NaN
             NaN             NaN             NaN
             NaN             NaN             NaN
             NaN             NaN             NaN
             NaN             NaN             NaN
             NaN             NaN             NaN
             NaN             NaN             NaN
             NaN             NaN             NaN
             NaN             NaN             NaN
             NaN             NaN             NaN
             NaN             NaN             NaN
             NaN             NaN             NaN
             NaN             NaN             NaN
             NaN             NaN             NaN
             NaN             NaN             NaN
             NaN             NaN             NaN
             NaN             NaN             NaN
             NaN             NaN             NaN
             NaN             NaN             NaN
             NaN             NaN             NaN
             NaN             NaN             NaN
             NaN             NaN             NaN
             NaN             NaN             NaN
             NaN             NaN             NaN
