Ca8 Ni12 F42                            
   1.00000000000000     
     7.2750459999999997    0.0022800000000000   -0.0137440000000000
    -3.6596869999999999    6.3596130000000004    0.0060790000000000
    -0.0271490000000000   -0.0016160000000000   18.2972010000000012
   Ca   Ni   F 
     8    12    42
Direct
  0.2311174213293576  0.7899044680442937  0.6956844577815702
  0.1478297052592182  0.6428986835674868  0.9861960838813052
  0.3532076753825026  0.5053967521618012  0.3209057853452017
  0.8393868340946081  0.0173092875364407  0.3469850287433564
  0.1782105792241542  0.1658372966900379  0.0038849714699752
  0.9816834659313385  0.7924739926066484  0.1744396563845204
  0.8032902278794563  0.9732756633261690  0.8339223520440509
  0.2036583903988960  0.1635148987125063  0.5097126571648333
  0.3342472995092960  0.0004948645713744  0.3327985132582016
  0.9757022735505191  0.3146617300190832  0.6625666446452976
  0.6682090773573104  0.6709338456883323  0.0015768331719029
  0.3432581138931207  0.0387041013672889  0.8376238441098719
  0.9935493293636354  0.3107512300728409  0.1617263503948833
  0.6789059961537723  0.6702269944098360  0.4963596914857903
  0.4952354083188286  0.8190828415583212  0.1639957476306284
  0.1717845349854773  0.6584209014895535  0.4903458547862161
  0.3245826547106221  0.5050997891078717  0.8299283292840497
  0.8306273897403951  0.5112011452694117  0.8281936982124651
  0.6810119632007419  0.1708736126047275  0.4974957508901991
  0.4917518522728059  0.3104062179338417  0.1618975301853342
  0.7311438194161787  0.1945112437072458  0.6007012760327035
  0.8212630449015029  0.5749472494604890  0.9366207771875731
  0.4384339080144614  0.2557527321428363  0.2701314307826322
  0.2379992913561128  0.7240733400298013  0.3833460841858282
  0.4819881924965413  0.7518820322136407  0.0585020183548241
  0.2431231520530572  0.4866352536469863  0.7256170040180915
  0.8319486529634854  0.9571456799600839  0.9554423328660577
  0.0426861606138360  0.8832010033471026  0.2883022366722568
  0.1153725824252932  0.1818131535580100  0.6181564216974350
  0.9759431549721689  0.7991122485145291  0.0532992100836062
  0.8346567380645661  0.0818622950141485  0.7265120249353413
  0.2037023914855298  0.1723262872271892  0.3864636865077876
  0.5197892315695548  0.3879678495544420  0.0531507506406778
  0.6049422932178400  0.1228291730534394  0.3887819422839378
  0.8933619131569071  0.4972722512071856  0.7228246166663138
  0.3921866466317571  0.5394585560614810  0.9417343054081012
  0.1169132353909794  0.5839991838335061  0.5968613204317046
  0.5012024540130398  0.8721990637372703  0.2752763626785135
  0.7964072360088594  0.4225801945184191  0.1704459258366010
  0.5716170288701705  0.3638781662876059  0.4985081737684470
  0.6502232515161412  0.2114522371591672  0.8529531413923325
  0.4241440932774478  0.8158572240701549  0.8142535841678489
  0.3653701584200920  0.5447094431496804  0.4867931632403052
  0.1883544001572157  0.6210084095701084  0.1755449017118820
  0.0231062764611759  0.2968328765912051  0.2720650337068298
  0.6772888241661684  0.7029938789820362  0.5948873307551125
  0.2991757649095949  0.9717431845139488  0.9449138664866858
  0.3766477798477352  0.1084978732077209  0.7355175576418763
  0.6579649005005930  0.6736843558123176  0.3817689864953569
  0.0201217522617856  0.3464606787054841  0.0502133698809529
  0.1866406696364251  0.1977034535785112  0.1414416733590146
  0.7978831183856983  0.9813183409404623  0.4775595197644710
  0.0401474057178497  0.8218868161775947  0.8110706495147038
  0.1975281084039386  0.2040000339678463  0.8610523213331361
  0.9851744998414607  0.7791752548371871  0.4870399552712457
  0.8031664957012963 -0.0007998650579064  0.1627538355957485
  0.0564560775100788  0.4647749947550204  0.8705189018749719
  0.5746958688773486  0.6051994370102357  0.1990846117661412
  0.3747368983424311  0.9582905802733620  0.5244178724766355
  0.3874764488155094  0.0098673799683171  0.1385273009800837
  0.6241485690311422  0.6044971310932498  0.8088188118972200
  0.9695506021728769  0.3669424947799921  0.4603554837773071
 
             NaN             NaN             NaN
             NaN             NaN             NaN
             NaN             NaN             NaN
             NaN             NaN             NaN
             NaN             NaN             NaN
             NaN             NaN             NaN
             NaN             NaN             NaN
             NaN             NaN             NaN
             NaN             NaN             NaN
             NaN             NaN             NaN
             NaN             NaN             NaN
             NaN             NaN             NaN
             NaN             NaN             NaN
             NaN             NaN             NaN
             NaN             NaN             NaN
             NaN             NaN             NaN
             NaN             NaN             NaN
             NaN             NaN             NaN
             NaN             NaN             NaN
             NaN             NaN             NaN
             NaN             NaN             NaN
             NaN             NaN             NaN
             NaN             NaN             NaN
             NaN             NaN             NaN
             NaN             NaN             NaN
             NaN             NaN             NaN
             NaN             NaN             NaN
             NaN             NaN             NaN
             NaN             NaN             NaN
             NaN             NaN             NaN
             NaN             NaN             NaN
             NaN             NaN             NaN
             NaN             NaN             NaN
             NaN             NaN             NaN
             NaN             NaN             NaN
             NaN             NaN             NaN
             NaN             NaN             NaN
             NaN             NaN             NaN
             NaN             NaN             NaN
             NaN             NaN             NaN
             NaN             NaN             NaN
             NaN             NaN             NaN
             NaN             NaN             NaN
             NaN             NaN             NaN
             NaN             NaN             NaN
             NaN             NaN             NaN
             NaN             NaN             NaN
             NaN             NaN             NaN
             NaN             NaN             NaN
             NaN             NaN             NaN
             NaN             NaN             NaN
             NaN             NaN             NaN
             NaN             NaN             NaN
             NaN             NaN             NaN
             NaN             NaN             NaN
             NaN             NaN             NaN
             NaN             NaN             NaN
             NaN             NaN             NaN
             NaN             NaN             NaN
             NaN             NaN             NaN
             NaN             NaN             NaN
             NaN             NaN             NaN
