Ca8 Ni12 F42
1.0
7.275046 0.002280 -0.013744
-3.659687 6.359613 0.006079
-0.027149 -0.001616 18.297201
Ca Ni F
8 12 42
direct
0.244740 0.845505 0.664772 Ca
0.151710 0.645510 0.979909 Ca
0.350459 0.510833 0.323252 Ca
0.843426 0.017047 0.346292 Ca
0.170602 0.163015 0.009298 Ca
0.984388 0.791212 0.174425 Ca
0.797491 0.980524 0.835089 Ca
0.212861 0.175662 0.511376 Ca
0.341971 0.008125 0.333809 Ni
0.991352 0.340624 0.666858 Ni
0.661624 0.659437 0.001092 Ni
0.319127 0.006938 0.831631 Ni
0.995391 0.313266 0.162220 Ni
0.687791 0.679426 0.493557 Ni
0.497435 0.819532 0.162849 Ni
0.180733 0.670339 0.495274 Ni
0.313936 0.496162 0.829534 Ni
0.814293 0.498901 0.828325 Ni
0.692702 0.183879 0.496477 Ni
0.494342 0.311485 0.163334 Ni
0.747404 0.200919 0.600524 F
0.808193 0.554336 0.937608 F
0.440160 0.262037 0.271025 F
0.247429 0.735713 0.386617 F
0.478358 0.747959 0.056447 F
0.250291 0.502967 0.727501 F
0.828696 0.949586 0.955535 F
0.050762 0.888456 0.288146 F
0.127008 0.199066 0.619099 F
0.972529 0.791409 0.053096 F
0.840961 0.065469 0.722597 F
0.208549 0.177808 0.387815 F
0.521746 0.383036 0.055616 F
0.616804 0.135900 0.387554 F
0.860086 0.475960 0.723856 F
0.371995 0.498455 0.944153 F
0.127067 0.608826 0.601897 F
0.507155 0.875746 0.275455 F
0.798563 0.422702 0.173468 F
0.579928 0.374094 0.500200 F
0.626486 0.199437 0.843747 F
0.420591 0.799762 0.848018 F
0.376287 0.559715 0.490453 F
0.193407 0.621139 0.179611 F
0.025243 0.295813 0.272355 F
0.691792 0.718309 0.594751 F
0.282993 0.981025 0.943311 F
0.341250 0.008491 0.728414 F
0.661678 0.674325 0.380862 F
0.021593 0.357014 0.051505 F
0.188555 0.199943 0.142227 F
0.806591 0.990963 0.475985 F
0.009525 0.805725 0.820256 F
0.192492 0.193313 0.840193 F
0.994974 0.789684 0.489301 F
0.804765 0.001733 0.159568 F
0.032490 0.430778 0.869660 F
0.583328 0.610487 0.197247 F
0.389181 0.971528 0.524672 F
0.385873 0.008641 0.139725 F
0.614936 0.604679 0.806514 F
0.983607 0.380643 0.462859 F
