V4 P4 O20                               
   1.00000000000000     
     6.4074689713884423    0.0002902854680620   -3.4487104279997616
     0.0001561044495866    7.1571349167249254   -0.0002514343239076
    -0.4684869514711241   -0.0003362650146301    7.8962235912042118
Na V P O 
1 4 4 20
Direct
   0.0000000000000000   -0.5000000000000000    0.5000000000000000 Na
  0.2507792309515224  0.7705217671957456  0.9551384469568163
  0.7492200134400164  0.2704883442003023  0.5448227202290923
  0.7492164029579413  0.2294750480854617  0.0448636746706299
  0.2507766710978885  0.7295026464468819  0.4551770879409602
  0.2516479694440577  0.1135587021922575  0.2461781448479812
  0.7483583866119474  0.6135565621537324  0.2538146558169032
  0.7483494980498264  0.8864454594384554  0.7538042872363704
  0.2516476169314004  0.3864514350071744  0.7461911384722484
  0.2424761302996004  0.9855732318431620  0.4012153676582173
  0.7575567337760347  0.4855455831923692  0.0988172180207059
  0.7575268900094727  0.0144063570435407  0.5987985283019626
  0.2424480854052504  0.5144382663410170  0.9011873397929620
  0.7465618536128957  0.3509545163074321  0.7309809667873566
  0.2534406554023647  0.8509754126364015  0.7689742496037297
  0.2534345301270164  0.6490447505955288  0.2690135088293744
  0.7465574814560796  0.1490231667861650  0.2310224142777670
  0.5515245041514376  0.7430678879097528  0.1482501101588980
  0.4484597872883072  0.2430964640642728  0.3516821956886957
  0.4484750763702721  0.2569406250086175  0.8517481496074382
  0.5515521812851958  0.7569108316758246  0.6483209569486306
  0.2611668911036134  0.5040993848075104  0.5876157281587098
  0.7388227222415154  0.0040801582120906  0.9124075894124317
  0.7388317384450787  0.4959133522105716  0.4123852115116762
  0.2611720602517451  0.9959247392576529  0.0875902559331152
  0.9504447585144078  0.7398255228553765  0.3554752935444867
  0.0495315861063830  0.2397946337884704  0.1445052933400106
  0.0495644192578695  0.2601810714777884  0.6445286011789122
  0.9504561254108737  0.7602040792664297  0.8554898650738920
 

