Ca1 Mn12 F42
1.0
7.370713 0.011055 -0.019747
-3.675040 6.319725 0.023302
0.182461 0.032794 17.453230
Ca Mn F
1 12 42
direct
0.852348 0.490708 0.330432 Ca
0.294413 0.999864 0.332927 Mn
0.709053 0.709910 0.995799 Mn
0.006036 0.291427 0.671638 Mn
0.355574 0.002815 0.833016 Mn
0.648693 0.650440 0.506966 Mn
0.992280 0.346728 0.161280 Mn
0.647663 0.149438 0.504318 Mn
0.491144 0.349880 0.158513 Mn
0.856436 0.501288 0.833094 Mn
0.357569 0.504213 0.833296 Mn
0.150940 0.646228 0.508128 Mn
0.492698 0.848842 0.162306 Mn
0.570574 0.813272 0.058136 F
0.259788 0.439533 0.731471 F
0.177312 0.736814 0.402489 F
0.427009 0.250163 0.262512 F
0.821473 0.568971 0.935003 F
0.773099 0.187605 0.607637 F
0.895335 0.077946 0.734271 F
0.185793 0.114158 0.392412 F
0.920338 0.808418 0.058253 F
0.124990 0.193005 0.610915 F
0.046262 0.833395 0.282266 F
0.813353 0.926199 0.934365 F
0.121826 0.552126 0.610178 F
0.423470 0.880369 0.270645 F
0.451242 0.568100 0.935275 F
0.886642 0.433142 0.730935 F
0.558627 0.146095 0.387271 F
0.567316 0.446728 0.056227 F
0.356678 0.566311 0.486978 F
0.203811 0.637658 0.145009 F
0.435546 0.790731 0.814259 F
0.645805 0.216110 0.852678 F
0.571125 0.358092 0.525780 F
0.785784 0.433889 0.190912 F
0.684375 0.607731 0.404110 F
0.919123 0.317874 0.065212 F
0.392038 0.070245 0.734577 F
0.319135 0.935683 0.931474 F
0.618248 0.691424 0.603494 F
0.049217 0.381650 0.265969 F
0.939253 0.722468 0.523250 F
0.781202 0.060380 0.183527 F
0.278054 0.216710 0.851739 F
0.065937 0.787827 0.813578 F
0.721785 0.938271 0.480677 F
0.199757 0.270087 0.143260 F
0.624882 0.558077 0.802985 F
0.911810 0.370268 0.460245 F
0.443927 0.072639 0.131661 F
0.379427 0.934638 0.532920 F
0.547769 0.626060 0.193818 F
0.088695 0.448654 0.863475 F
