K32 Fe32 O64
1.0
  11.2004003524000009    0.0000000000000000    0.0000000000000000
   0.0000000000000000   11.2601995467999991    0.0000000000000000
   0.0000000000000000    0.0000000000000000   15.9413995743000001
K Fe O
31 32 64
direct
   0.6274999975000001    0.4904999730000000    0.5643000010000000 K
   0.8725000024999999    0.5095000270000000    0.4356999990000001 K
   0.1274999975000000    0.4904999730000000    0.5643000010000000 K
   0.3774999975000000    0.4904999730000000    0.9356999990000001 K
   0.8774999975000000    0.4904999730000000    0.9356999990000001 K
   0.1225000025000000    0.5095000270000000    0.0643000010000000 K
   0.6225000025000000    0.5095000270000000    0.0643000010000000 K
   0.1274999975000000    0.0095000270000000    0.0643000010000000 K
   0.6274999975000001    0.0095000270000000    0.0643000010000000 K
   0.3725000025000000    0.9904999730000000    0.9356999990000001 K
   0.8725000024999999    0.9904999730000000    0.9356999990000001 K
   0.1225000025000000    0.9904999730000000    0.5643000010000000 K
   0.6225000025000000    0.9904999730000000    0.5643000010000000 K
   0.3774999975000000    0.0095000270000000    0.4356999990000001 K
   0.8774999975000000    0.0095000270000000    0.4356999990000001 K
   0.1519500015000000    0.2370000030000000    0.6840000150000000 K
   0.6519500015000000    0.2370000030000000    0.6840000150000000 K
   0.3480499985000000    0.7630000109999999    0.3159999850000000 K
   0.8480499985000001    0.7630000109999999    0.3159999850000000 K
   0.0980499985000000    0.7630000109999999    0.1840000150000000 K
   0.5980499985000001    0.7630000109999999    0.1840000150000000 K
   0.4019500015000000    0.2370000030000000    0.8159999850000000 K
   0.9019500014999999    0.2370000030000000    0.8159999850000000 K
   0.3480499985000000    0.7369999890000000    0.8159999850000000 K
   0.8480499985000001    0.7369999890000000    0.8159999850000000 K
   0.1519500015000000    0.2630000109999999    0.1840000150000000 K
   0.6519500015000000    0.2630000109999999    0.1840000150000000 K
   0.4019500015000000    0.2630000109999999    0.3159999850000000 K
   0.9019500014999999    0.2630000109999999    0.3159999850000000 K
   0.0980499985000000    0.7369999890000000    0.6840000150000000 K
   0.5980499985000001    0.7369999890000000    0.6840000150000000 K
   0.3768500090000000    0.0084000000000000    0.1884000000000000 Fe
   0.8768500090000000    0.0084000000000000    0.1884000000000000 Fe
   0.1231499910000000    0.9915999769999999    0.8115999699999999 Fe
   0.6231499910000000    0.9915999769999999    0.8115999699999999 Fe
   0.3731499910000001    0.9915999769999999    0.6884000300000001 Fe
   0.8731499910000001    0.9915999769999999    0.6884000300000001 Fe
   0.1268500090000000    0.0084000000000000    0.3116000000000000 Fe
   0.6268500090000001    0.0084000000000000    0.3116000000000000 Fe
   0.1231499910000000    0.5084000230000000    0.3116000000000000 Fe
   0.6231499910000000    0.5084000230000000    0.3116000000000000 Fe
   0.3768500090000000    0.4916000070000000    0.6884000300000001 Fe
   0.8768500090000000    0.4916000070000000    0.6884000300000001 Fe
   0.1268500090000000    0.4916000070000000    0.8115999699999999 Fe
   0.6268500090000001    0.4916000070000000    0.8115999699999999 Fe
   0.3731499910000001    0.5084000230000000    0.1884000000000000 Fe
   0.8731499910000001    0.5084000230000000    0.1884000000000000 Fe
   0.3921000065000000    0.2352000030000000    0.5648000240000001 Fe
   0.8921000065000000    0.2352000030000000    0.5648000240000001 Fe
   0.1078999935000000    0.7648000119999999    0.4351999760000000 Fe
   0.6078999935000000    0.7648000119999999    0.4351999760000000 Fe
   0.3578999935000000    0.7648000119999999    0.0648000240000000 Fe
   0.8578999935000000    0.7648000119999999    0.0648000240000000 Fe
   0.1421000065000000    0.2352000030000000    0.9351999760000000 Fe
   0.6421000065000000    0.2352000030000000    0.9351999760000000 Fe
   0.1078999935000000    0.7351999880000000    0.9351999760000000 Fe
   0.6078999935000000    0.7351999880000000    0.9351999760000000 Fe
   0.3921000065000000    0.2648000120000000    0.0648000240000000 Fe
   0.8921000065000000    0.2648000120000000    0.0648000240000000 Fe
   0.1421000065000000    0.2648000120000000    0.4351999760000000 Fe
   0.6421000065000000    0.2648000120000000    0.4351999760000000 Fe
   0.3578999935000000    0.7351999880000000    0.5648000240000001 Fe
   0.8578999935000000    0.7351999880000000    0.5648000240000001 Fe
   0.2162500025000000    0.9804999829999999    0.2178999930000000 O
   0.7162500025000000    0.9804999829999999    0.2178999930000000 O
   0.2837499975000001    0.0195000170000000    0.7821000220000001 O
   0.7837499975000001    0.0195000170000000    0.7821000220000001 O
   0.0337499975000000    0.0195000170000000    0.7178999780000000 O
   0.5337499975000001    0.0195000170000000    0.7178999780000000 O
   0.4662500025000000    0.9804999829999999    0.2821000220000000 O
   0.9662500024999999    0.9804999829999999    0.2821000220000000 O
   0.2837499975000001    0.4804999830000000    0.2821000220000000 O
   0.7837499975000001    0.4804999830000000    0.2821000220000000 O
   0.2162500025000000    0.5195000170000000    0.7178999780000000 O
   0.7162500025000000    0.5195000170000000    0.7178999780000000 O
   0.4662500025000000    0.5195000170000000    0.7821000220000001 O
   0.9662500024999999    0.5195000170000000    0.7821000220000001 O
   0.0337499975000000    0.4804999830000000    0.2178999930000000 O
   0.5337499975000001    0.4804999830000000    0.2178999930000000 O
   0.4205499885000000    0.9082000260000000    0.1008000000000000 O
   0.9205499885000000    0.9082000260000000    0.1008000000000000 O
   0.0794500115000000    0.0917999740000000    0.8992000220000002 O
   0.5794500115000000    0.0917999740000000    0.8992000220000002 O
   0.3294500115000000    0.0917999740000000    0.6007999780000000 O
   0.8294500115000000    0.0917999740000000    0.6007999780000000 O
   0.1705499885000000    0.9082000260000000    0.3991999920000001 O
   0.6705499885000000    0.9082000260000000    0.3991999920000001 O
   0.0794500115000000    0.4082000260000000    0.3991999920000001 O
   0.5794500115000000    0.4082000260000000    0.3991999920000001 O
   0.4205499885000000    0.5917999740000000    0.6007999780000000 O
   0.9205499885000000    0.5917999740000000    0.6007999780000000 O
   0.1705499885000000    0.5917999740000000    0.8992000220000002 O
   0.6705499885000000    0.5917999740000000    0.8992000220000002 O
   0.3294500115000000    0.4082000260000000    0.1008000000000000 O
   0.8294500115000000    0.4082000260000000    0.1008000000000000 O
   0.3992500005000000    0.1649000050000000    0.1572999950000000 O
   0.8992500005000000    0.1649000050000000    0.1572999950000000 O
   0.1007499995000000    0.8350999950000000    0.8427000050000001 O
   0.6007499995000001    0.8350999950000000    0.8427000050000001 O
   0.3507499995000000    0.8350999950000000    0.6572999950000000 O
   0.8507499995000000    0.8350999950000000    0.6572999950000000 O
   0.1492500005000000    0.1649000050000000    0.3427000050000000 O
   0.6492500005000000    0.1649000050000000    0.3427000050000000 O
   0.1007499995000000    0.6649000050000000    0.3427000050000000 O
   0.6007499995000001    0.6649000050000000    0.3427000050000000 O
   0.3992500005000000    0.3350999950000000    0.6572999950000000 O
   0.8992500005000000    0.3350999950000000    0.6572999950000000 O
   0.1492500005000000    0.3350999950000000    0.8427000050000001 O
   0.6492500005000000    0.3350999950000000    0.8427000050000001 O
   0.3507499995000000    0.6649000050000000    0.1572999950000000 O
   0.8507499995000000    0.6649000050000000    0.1572999950000000 O
   0.2887000145000000    0.2933999900000000    0.4803999960000001 O
   0.7887000145000000    0.2933999900000000    0.4803999960000001 O
   0.2112999855000000    0.7066000099999998    0.5196000340000000 O
   0.7112999855000001    0.7066000099999998    0.5196000340000000 O
   0.4612999855000001    0.7066000099999998    0.9803999660000000 O
   0.9612999855000000    0.7066000099999998    0.9803999660000000 O
   0.0387000145000000    0.2933999900000000    0.0196000040000000 O
   0.5387000145000000    0.2933999900000000    0.0196000040000000 O
   0.2112999855000000    0.7933999900000001    0.0196000040000000 O
   0.7112999855000001    0.7933999900000001    0.0196000040000000 O
   0.2887000145000000    0.2066000100000000    0.9803999660000000 O
   0.7887000145000000    0.2066000100000000    0.9803999660000000 O
   0.0387000145000000    0.2066000100000000    0.5196000340000000 O
   0.5387000145000000    0.2066000100000000    0.5196000340000000 O
   0.4612999855000001    0.7933999900000001    0.4803999960000001 O
   0.9612999855000000    0.7933999900000001    0.4803999960000001 O
