Li16 Fe16 S16 O64 F16                   
   1.00000000000000     
    10.4710053510789365    0.1654946874940423   -0.1102194042439269
    -1.1923336913213867   10.4941696612339204   -0.1240948244084961
    -4.6108994739452287   -4.9269339852370893   13.1953690118468767
   Li   Fe   S    O    F 
     1    16    16    64    16
Direct
  0.3702474621754135  0.6892027362625015  0.1129923687232832
  0.9985248705021519  0.0007406361399305  0.2508415153081955
  0.9998325366822556  0.0002951363289725  0.7502951299945479
  0.0013992091859265  0.5010914835455580  0.2512976971996181
  0.9989462291698317  0.4981771426527644  0.7503474140518591
  0.5044404609359106  0.0109081495302306  0.2523480910071498
  0.4985339733222318  0.9992108236653010  0.7482609066684560
  0.5023467205990357  0.4950924808159840  0.2519452567920908
  0.4986266258982965  0.4996110800544500  0.7484340944931134
  0.9958369690011253  0.0011878043931546  0.9988939488084299
  0.0001568103829044  0.9993193358720163  0.5004466250104471
  0.9928131171129166  0.4966692895227638  0.9981414717396788
  0.0011041156951777  0.5013998192580758  0.5012008324296886
  0.5005815208686357  0.0001625019868285  0.9987475594328217
  0.5014600807193048  0.0002382751192869  0.4994040471106089
  0.5090491093451490  0.4935645548426351  0.9975846661429770
  0.5001446438795369  0.5011934771129560  0.5010475928007310
  0.1668529989373724  0.3223034447343593  0.1282414726313590
  0.1672272155216206  0.3216135697339766  0.6288835584778454
  0.1668416072095269  0.8229393953869817  0.1278818179054468
  0.1677611980589404  0.8221066919349198  0.6294669922715812
  0.6707204778844016  0.3197162011597499  0.1298629971693046
  0.6667912366270059  0.3220576988127419  0.6283171357463146
  0.6664122751635091  0.8202137463993537  0.1269609793611224
  0.6677297652744514  0.8221061136219063  0.6282365787508581
  0.3303317306000295  0.1789125839751478  0.3714745049012222
  0.3329986000591134  0.1788521343939706  0.8710858311819436
  0.3326482057873221  0.6780946545473441  0.3684760123495110
  0.3340771694356448  0.6793586794825757  0.8766598672464951
  0.8344458125851233  0.1796395479679589  0.3725773482980372
  0.8296622086530121  0.1771246490323364  0.8698271620608509
  0.8318340869168708  0.6776901871640533  0.3713750949684282
  0.8315162553292694  0.6783511826917135  0.8705376646475713
  0.3130064942528037  0.3741706864518406  0.2005475094981151
  0.3123062318405232  0.3764440918799465  0.7027690791928976
  0.3164655746470828  0.8702187990887822  0.1967006515365455
  0.3129383610108647  0.8763688517776416  0.7030294831116777
  0.8141493313346615  0.3750074565404304  0.2050829839547532
  0.8115525566652693  0.3761428147741057  0.7027702246913492
  0.8076964300976215  0.8792263937023108  0.2055255237448321
  0.8125308546047236  0.8768111355883761  0.7023051636466207
  0.1856571211078375  0.1239621439526388  0.2973679300779182
  0.1871923294797995  0.1263092694092904  0.7991862086922055
  0.1867690210710222  0.6246107498058251  0.2960473271796431
  0.1900760926143477  0.6199139666606044  0.8035977118665656
  0.6895229495779418  0.1248918621111557  0.2965392013945660
  0.6854061283541739  0.1233142184885594  0.7952123745982220
  0.6864587826592228  0.6222588472822324  0.2976264439049032
  0.6867702781756293  0.6229575843470485  0.7967258331606004
  0.0729915917533930  0.3406700088828316  0.1859860255329977
  0.0716018621838614  0.3390957533219279  0.6852734985353450
  0.0758343515717783  0.8393939150804499  0.1869000657408009
  0.0726780130000932  0.8403109283027135  0.6861993147724732
  0.5713362611193844  0.3373371981577549  0.1831334270812164
  0.5700900092348107  0.3389597998870784  0.6837811696951235
  0.5620486529431759  0.8332887548146601  0.1776127932638332
  0.5715055325700149  0.8394945565652350  0.6840911077337566
  0.4250082839734475  0.1616220019252310  0.3135931084223174
  0.4270504717728656  0.1602868096106960  0.8135799745218719
  0.4253078336558715  0.6580961376547734  0.3090896984660390
  0.4308455427848799  0.6588163406904641  0.8218746929923029
  0.9305688859030781  0.1624295438652652  0.3166811868073580
  0.9271824187787701  0.1610966370915392  0.8153194475486956
  0.9268514315015821  0.6599069364860100  0.3144982982011086
  0.9279609505438842  0.6600537240659108  0.8150050816067491
  0.1480148080159864  0.1751664647207747  0.0717254428568168
  0.1512915661364289  0.1745538292106374  0.5736957943219423
  0.1543455213539389  0.6744668240032112  0.0724381360972544
  0.1521055554094630  0.6749444010785908  0.5747754381738943
  0.6549708299421795  0.1732032011366371  0.0743522367189158
  0.6512569162381894  0.1751765012787132  0.5727095521998322
  0.6556119874354209  0.6736670799504125  0.0736630856867961
  0.6520050084818720  0.6749869714324035  0.5732300992535642
  0.3471019251256990  0.3258126909378234  0.4266023905401610
  0.3515582220660391  0.3268938895726592  0.9269498259936242
  0.3502500852563841  0.8254200370983327  0.4228472324914776
  0.3470565692324357  0.8271023546403029  0.9279430980926762
  0.8483773446840601  0.3260716736091211  0.4270580456802335
  0.8446618433826742  0.3241860736482565  0.9258577841435383
  0.8473113865721160  0.8247962789584591  0.4259754634230219
  0.8469118822641803  0.8254553528206685  0.9251101355405282
  0.1370418289319133  0.3971419091712249  0.0556183013862181
  0.1368469299702539  0.3941484211707760  0.5549005309786068
  0.1352016416061090  0.8953021975763562  0.0547022882480803
  0.1371336489110462  0.8939736416272268  0.5550442931064197
  0.6423825394342728  0.3931005017815608  0.0559045536031064
  0.6371965458874413  0.3953769648293175  0.5548295730074670
  0.6375608122903742  0.8923390066508645  0.0529574022583361
  0.6375414692816364  0.8943875066641169  0.5539599879418802
  0.3624352090313394  0.1055627577071192  0.4445204566348337
  0.3645716987768921  0.1071609194390035  0.9456031586308598
  0.3647165648104931  0.6061032070749732  0.4424696433831414
  0.3684032275806786  0.6148773315235658  0.9571659394182532
  0.8621609785853508  0.1057862943760526  0.4453329847136018
  0.8584572419586891  0.1045305099934666  0.9438764200682925
  0.8629433974795475  0.6057223629135891  0.4456903066532476
  0.8623066310789156  0.6074356073362068  0.9459250750937684
  0.0526022214682840  0.4674054116300468  0.3807261850595083
  0.0488015313470740  0.4641682265568576  0.8802126428347208
  0.0498436822769577  0.9646148650423712  0.3790809005222187
  0.0499551775021345  0.9663013873748625  0.8797496435062016
  0.5522503870698898  0.4634409074773771  0.3800381272069941
  0.5543006221047619  0.4621553829129041  0.8778733430536931
  0.5513099885737773  0.9674716727125627  0.3773939192348479
  0.5508026004100586  0.9656411067674497  0.8785709819772478
  0.4505993779286257  0.0368607899393254  0.1203308988913179
  0.4476827989755208  0.0327088263273794  0.6184722414718493
  0.4489806514248613  0.5388362811023413  0.1202675632642496
  0.4472060174724106  0.5364957543599971  0.6205852969461745
  0.9469419863190112  0.0316274238236147  0.1204518647152000
  0.9491237017640728  0.0343182653302776  0.6207775354795118
  0.9477195709531969  0.5346748731917472  0.1208327700048457
  0.9510344368938135  0.5352279351127009  0.6222236326360218
 
  0.00000000E+00  0.00000000E+00  0.00000000E+00
  0.00000000E+00  0.00000000E+00  0.00000000E+00
  0.00000000E+00  0.00000000E+00  0.00000000E+00
  0.00000000E+00  0.00000000E+00  0.00000000E+00
  0.00000000E+00  0.00000000E+00  0.00000000E+00
  0.00000000E+00  0.00000000E+00  0.00000000E+00
  0.00000000E+00  0.00000000E+00  0.00000000E+00
  0.00000000E+00  0.00000000E+00  0.00000000E+00
  0.00000000E+00  0.00000000E+00  0.00000000E+00
  0.00000000E+00  0.00000000E+00  0.00000000E+00
  0.00000000E+00  0.00000000E+00  0.00000000E+00
  0.00000000E+00  0.00000000E+00  0.00000000E+00
  0.00000000E+00  0.00000000E+00  0.00000000E+00
  0.00000000E+00  0.00000000E+00  0.00000000E+00
  0.00000000E+00  0.00000000E+00  0.00000000E+00
  0.00000000E+00  0.00000000E+00  0.00000000E+00
  0.00000000E+00  0.00000000E+00  0.00000000E+00
  0.00000000E+00  0.00000000E+00  0.00000000E+00
  0.00000000E+00  0.00000000E+00  0.00000000E+00
  0.00000000E+00  0.00000000E+00  0.00000000E+00
  0.00000000E+00  0.00000000E+00  0.00000000E+00
  0.00000000E+00  0.00000000E+00  0.00000000E+00
  0.00000000E+00  0.00000000E+00  0.00000000E+00
  0.00000000E+00  0.00000000E+00  0.00000000E+00
  0.00000000E+00  0.00000000E+00  0.00000000E+00
  0.00000000E+00  0.00000000E+00  0.00000000E+00
  0.00000000E+00  0.00000000E+00  0.00000000E+00
  0.00000000E+00  0.00000000E+00  0.00000000E+00
  0.00000000E+00  0.00000000E+00  0.00000000E+00
  0.00000000E+00  0.00000000E+00  0.00000000E+00
  0.00000000E+00  0.00000000E+00  0.00000000E+00
  0.00000000E+00  0.00000000E+00  0.00000000E+00
  0.00000000E+00  0.00000000E+00  0.00000000E+00
  0.00000000E+00  0.00000000E+00  0.00000000E+00
  0.00000000E+00  0.00000000E+00  0.00000000E+00
  0.00000000E+00  0.00000000E+00  0.00000000E+00
  0.00000000E+00  0.00000000E+00  0.00000000E+00
  0.00000000E+00  0.00000000E+00  0.00000000E+00
  0.00000000E+00  0.00000000E+00  0.00000000E+00
  0.00000000E+00  0.00000000E+00  0.00000000E+00
  0.00000000E+00  0.00000000E+00  0.00000000E+00
  0.00000000E+00  0.00000000E+00  0.00000000E+00
  0.00000000E+00  0.00000000E+00  0.00000000E+00
  0.00000000E+00  0.00000000E+00  0.00000000E+00
  0.00000000E+00  0.00000000E+00  0.00000000E+00
  0.00000000E+00  0.00000000E+00  0.00000000E+00
  0.00000000E+00  0.00000000E+00  0.00000000E+00
  0.00000000E+00  0.00000000E+00  0.00000000E+00
  0.00000000E+00  0.00000000E+00  0.00000000E+00
  0.00000000E+00  0.00000000E+00  0.00000000E+00
  0.00000000E+00  0.00000000E+00  0.00000000E+00
  0.00000000E+00  0.00000000E+00  0.00000000E+00
  0.00000000E+00  0.00000000E+00  0.00000000E+00
  0.00000000E+00  0.00000000E+00  0.00000000E+00
  0.00000000E+00  0.00000000E+00  0.00000000E+00
  0.00000000E+00  0.00000000E+00  0.00000000E+00
  0.00000000E+00  0.00000000E+00  0.00000000E+00
  0.00000000E+00  0.00000000E+00  0.00000000E+00
  0.00000000E+00  0.00000000E+00  0.00000000E+00
  0.00000000E+00  0.00000000E+00  0.00000000E+00
  0.00000000E+00  0.00000000E+00  0.00000000E+00
  0.00000000E+00  0.00000000E+00  0.00000000E+00
  0.00000000E+00  0.00000000E+00  0.00000000E+00
  0.00000000E+00  0.00000000E+00  0.00000000E+00
  0.00000000E+00  0.00000000E+00  0.00000000E+00
  0.00000000E+00  0.00000000E+00  0.00000000E+00
  0.00000000E+00  0.00000000E+00  0.00000000E+00
  0.00000000E+00  0.00000000E+00  0.00000000E+00
  0.00000000E+00  0.00000000E+00  0.00000000E+00
  0.00000000E+00  0.00000000E+00  0.00000000E+00
  0.00000000E+00  0.00000000E+00  0.00000000E+00
  0.00000000E+00  0.00000000E+00  0.00000000E+00
  0.00000000E+00  0.00000000E+00  0.00000000E+00
  0.00000000E+00  0.00000000E+00  0.00000000E+00
  0.00000000E+00  0.00000000E+00  0.00000000E+00
  0.00000000E+00  0.00000000E+00  0.00000000E+00
  0.00000000E+00  0.00000000E+00  0.00000000E+00
  0.00000000E+00  0.00000000E+00  0.00000000E+00
  0.00000000E+00  0.00000000E+00  0.00000000E+00
  0.00000000E+00  0.00000000E+00  0.00000000E+00
  0.00000000E+00  0.00000000E+00  0.00000000E+00
  0.00000000E+00  0.00000000E+00  0.00000000E+00
  0.00000000E+00  0.00000000E+00  0.00000000E+00
  0.00000000E+00  0.00000000E+00  0.00000000E+00
  0.00000000E+00  0.00000000E+00  0.00000000E+00
  0.00000000E+00  0.00000000E+00  0.00000000E+00
  0.00000000E+00  0.00000000E+00  0.00000000E+00
  0.00000000E+00  0.00000000E+00  0.00000000E+00
  0.00000000E+00  0.00000000E+00  0.00000000E+00
  0.00000000E+00  0.00000000E+00  0.00000000E+00
  0.00000000E+00  0.00000000E+00  0.00000000E+00
  0.00000000E+00  0.00000000E+00  0.00000000E+00
  0.00000000E+00  0.00000000E+00  0.00000000E+00
  0.00000000E+00  0.00000000E+00  0.00000000E+00
  0.00000000E+00  0.00000000E+00  0.00000000E+00
  0.00000000E+00  0.00000000E+00  0.00000000E+00
  0.00000000E+00  0.00000000E+00  0.00000000E+00
  0.00000000E+00  0.00000000E+00  0.00000000E+00
  0.00000000E+00  0.00000000E+00  0.00000000E+00
  0.00000000E+00  0.00000000E+00  0.00000000E+00
  0.00000000E+00  0.00000000E+00  0.00000000E+00
  0.00000000E+00  0.00000000E+00  0.00000000E+00
  0.00000000E+00  0.00000000E+00  0.00000000E+00
  0.00000000E+00  0.00000000E+00  0.00000000E+00
  0.00000000E+00  0.00000000E+00  0.00000000E+00
  0.00000000E+00  0.00000000E+00  0.00000000E+00
  0.00000000E+00  0.00000000E+00  0.00000000E+00
  0.00000000E+00  0.00000000E+00  0.00000000E+00
  0.00000000E+00  0.00000000E+00  0.00000000E+00
  0.00000000E+00  0.00000000E+00  0.00000000E+00
  0.00000000E+00  0.00000000E+00  0.00000000E+00
  0.00000000E+00  0.00000000E+00  0.00000000E+00
  0.00000000E+00  0.00000000E+00  0.00000000E+00
