Li6 Sn12 P18 O72
1.0
        8.6587524414         0.0000000000         0.0000000000
       -4.3293762207         7.4986995793         0.0000000000
        0.0000000000         0.0000000000        21.3155765533
   Li   Sn    P    O
    5   12   18   72
Direct
     0.000000000         0.000000000         0.500000000
     0.666666687         0.333333343         0.333333343
     0.666666687         0.333333343         0.833333313
     0.333333343         0.666666687         0.166666672
     0.000000000         0.000000000         0.000000000
     0.333333343         0.666666687         0.308640957
     0.666666687         0.333333343         0.475307643
     0.000000000         0.000000000         0.358025700
     0.666666687         0.333333343         0.191359028
     0.000000000         0.000000000         0.641974270
     0.333333343         0.666666687         0.808640957
     0.666666687         0.333333343         0.691359043
     0.333333343         0.666666687         0.524692357
     0.666666687         0.333333343         0.975307643
     0.000000000         0.000000000         0.141974300
     0.333333343         0.666666687         0.024692370
     0.000000000         0.000000000         0.858025730
     0.038724162         0.372057498         0.416666657
     0.000000000         0.705390811         0.250000000
     0.294609159         0.294609159         0.250000000
     0.627942502         0.666666687         0.416666657
     0.705390811         0.000000000         0.250000000
     0.333333343         0.961275816         0.416666657
     0.705390811         0.705390811         0.750000000
     0.666666687         0.038724162         0.583333313
     0.961275816         0.627942502         0.583333313
     0.294609159         0.000000000         0.750000000
     0.372057498         0.333333343         0.583333313
     0.000000000         0.294609159         0.750000000
     0.372057498         0.038724162         0.083333328
     0.333333343         0.372057498         0.916666687
     0.627942502         0.961275816         0.916666687
     0.961275816         0.333333343         0.083333328
     0.038724162         0.666666687         0.916666687
     0.666666687         0.627942502         0.083333328
     0.136231571         0.468755573         0.475814760
     0.647371769         0.500313997         0.412337661
     0.019294880         0.186275527         0.420995682
     0.852942169         0.352628201         0.412337661
     0.685961545         0.166352689         0.254328996
     0.999190688         0.802088916         0.309148103
     0.197101772         0.197911099         0.190851897
     0.802088916         0.999190688         0.190851897
     0.197911099         0.197101772         0.309148103
     0.833647311         0.519608855         0.254328996
     0.332524002         0.863768458         0.475814760
     0.334142655         0.864577770         0.357518584
     0.499686033         0.147057816         0.412337661
     0.531244457         0.667475998         0.475814760
     0.519608855         0.833647311         0.245670989
     0.166980639         0.980705142         0.420995682
     0.530435085         0.665857315         0.357518584
     0.480391145         0.314038455         0.254328996
     0.000809340         0.802898228         0.190851897
     0.135422230         0.469564915         0.357518584
     0.314038455         0.480391145         0.245670989
     0.813724458         0.833019376         0.420995682
     0.166352689         0.685961545         0.245670989
     0.802898228         0.000809340         0.309148103
     0.802898228         0.802088916         0.809148073
     0.314038455         0.833647311         0.745670974
     0.685961545         0.519608855         0.754329026
     0.519608855         0.685961545         0.745670974
     0.352628201         0.499686033         0.587662339
     0.665857315         0.135422230         0.642481446
     0.863768458         0.531244457         0.524185240
     0.468755573         0.332524002         0.524185240
     0.864577770         0.530435085         0.642481446
     0.500313997         0.852942169         0.587662339
     0.999190688         0.197101772         0.809148073
     0.000809340         0.197911099         0.690851927
     0.166352689         0.480391145         0.745670974
     0.197911099         0.000809340         0.809148073
     0.186275527         0.166980639         0.579004347
     0.833647311         0.314038455         0.754329026
     0.197101772         0.999190688         0.690851927
     0.147057816         0.647371769         0.587662339
     0.667475998         0.136231571         0.524185240
     0.802088916         0.802898228         0.690851927
     0.980705142         0.813724458         0.579004347
     0.480391145         0.166352689         0.754329026
     0.833019376         0.019294880         0.579004347
     0.469564915         0.334142655         0.642481446
     0.469564915         0.135422230         0.142481431
     0.980705142         0.166980639         0.079004318
     0.352628201         0.852942169         0.087662347
     0.186275527         0.019294880         0.079004318
     0.019294880         0.833019376         0.920995653
     0.332524002         0.468755573         0.975814760
     0.530435085         0.864577770         0.857518554
     0.135422230         0.665857315         0.857518554
     0.531244457         0.863768458         0.975814760
     0.166980639         0.186275527         0.920995653
     0.665857315         0.530435085         0.142481431
     0.667475998         0.531244457         0.024185240
     0.833019376         0.813724458         0.079004318
     0.864577770         0.334142655         0.142481431
     0.852942169         0.500313997         0.912337661
     0.500313997         0.647371769         0.087662347
     0.863768458         0.332524002         0.024185240
     0.813724458         0.980705142         0.920995653
     0.334142655         0.469564915         0.857518554
     0.468755573         0.136231571         0.024185240
     0.647371769         0.147057816         0.912337661
     0.147057816         0.499686033         0.087662347
     0.499686033         0.352628201         0.912337661
     0.136231571         0.667475998         0.975814760
