Na2 Ca2 V4 P2 S4 O24                    
   1.00000000000000     
     8.9609950000000005    0.3490990000000000    0.2389570000000000
     4.2561130000000000    7.9192619999999998    0.2641810000000000
     4.2044819999999996    2.6439189999999999    7.4791109999999996
   Ca   Na   V    P    S    O 
     2     2     4     2     4    24
Direct
  0.2680714582140932  0.5742239293888474  0.8022790551130362
  0.9638303273974232 -0.0238388431618364  0.0797378231576269
  0.4122231915245024  0.0959354238599298  0.7544197355834907
  0.5775840625428871  0.7600496583694712  0.2730540715647863
  0.3582823020063662  0.3699464969112075  0.3566453698747207
  0.6664141207919994  0.6652705251800004  0.6220146247141884
  0.1507247500396524  0.1491716761486493  0.1405581230797484
  0.8392157787778050  0.8585393488986059  0.8479869655887056
  0.7542764872835274  0.0463856819680629  0.4385213932543778
  0.4465496219200437  0.7581772164694590  0.0311964089939204
  0.0434743841878470  0.4484770311141240  0.7520915845987045
  0.9768901074771547  0.5518621429348358  0.2432737332870732
  0.2455374020651137  0.9669674485585313  0.5493052980165293
  0.5520347989655213  0.2502237900540055  0.9580661628892143
  0.2266803917343765  0.4534107879269734  0.6066658356258912
  0.8089212042937234  0.5362792659479206  0.4039004691283662
  0.5687165878487731  0.2026605710376486  0.4591328969580938
  0.4165888404997102  0.7928843250564734  0.5521463540319497
  0.4563801692740372  0.5839353771167467  0.1982871388745379
  0.5687457021180514  0.4253731285237168  0.8047343496149779
  0.9002269951277588  0.1203875168699681  0.2597256986924113
  0.1041204939448383  0.9001725065741776  0.7285066056637537
  0.0748926761417405  0.2611431471282294  0.8951868714619857
  0.9201786808897034  0.7324966287759633  0.0932580383863220
  0.2522188623267871  0.9126265389001573  0.0708354777868409
  0.7294527169275465  0.0966897471563623  0.9264710291303726
  0.5015635222993156  0.2573815192528578  0.1373393723260174
  0.4779548091725484  0.7424829118207175  0.8529311035766949
  0.1128161482035039  0.5653374290591829  0.2787240903549254
  0.9081805729287220  0.4837317584258423  0.6835901615523728
  0.2682480040591000  0.1165430016789879  0.5503457144815257
  0.7509500327811262  0.8905295421334697  0.4070828254287063
  0.4008367490489780  0.2277298115881346  0.9482703064580899
  0.5853527858022465  0.8371811606120217 -0.0053464446636580
  0.2037321579421520  0.0118672137372554  0.3905563642992489
  0.8045750960800733  0.9699113494499171  0.6079526518137293
  0.0626953726386954  0.4054571140235008  0.1655667794650509
 -0.0138373009191360  0.5856275784560571  0.8354209185814757
 
             NaN             NaN             NaN
             NaN             NaN             NaN
             NaN             NaN             NaN
             NaN             NaN             NaN
             NaN             NaN             NaN
             NaN             NaN             NaN
             NaN             NaN             NaN
             NaN             NaN             NaN
             NaN             NaN             NaN
             NaN             NaN             NaN
             NaN             NaN             NaN
             NaN             NaN             NaN
             NaN             NaN             NaN
             NaN             NaN             NaN
             NaN             NaN             NaN
             NaN             NaN             NaN
             NaN             NaN             NaN
             NaN             NaN             NaN
             NaN             NaN             NaN
             NaN             NaN             NaN
             NaN             NaN             NaN
             NaN             NaN             NaN
             NaN             NaN             NaN
             NaN             NaN             NaN
             NaN             NaN             NaN
             NaN             NaN             NaN
             NaN             NaN             NaN
             NaN             NaN             NaN
             NaN             NaN             NaN
             NaN             NaN             NaN
             NaN             NaN             NaN
             NaN             NaN             NaN
             NaN             NaN             NaN
             NaN             NaN             NaN
             NaN             NaN             NaN
             NaN             NaN             NaN
             NaN             NaN             NaN
             NaN             NaN             NaN
