Na2 Ca2 V4 P2 S4 O24
1.0
8.960995 0.349099 0.238957
4.256113 7.919262 0.264181
4.204482 2.643919 7.479111
Ca Na V P S O
2 2 4 2 4 24
direct
0.353955 0.570710 0.731256 Ca
-0.032042 1.000147 0.055395 Ca
0.411729 0.095769 0.752208 Na
0.560287 0.661732 0.363647 Na
0.352937 0.360187 0.355835 V
0.655389 0.667196 0.627940 V
0.149545 0.151546 0.142639 V
0.844590 0.854588 0.856025 V
0.752260 0.051366 0.445748 P
0.447382 0.754373 0.043557 P
0.050539 0.460353 0.748659 S
0.962081 0.553828 0.249336 S
0.246240 0.962602 0.551556 S
0.545819 0.258762 0.941077 S
0.231008 0.435153 0.597265 O
0.781721 0.564665 0.398905 O
0.575807 0.225182 0.448594 O
0.405552 0.781158 0.560431 O
0.430687 0.589185 0.220175 O
0.572556 0.416305 0.765718 O
0.906200 0.106899 0.266657 O
0.095798 0.925665 0.732879 O
0.066894 0.277114 0.901722 O
0.939483 0.735996 0.090998 O
0.259588 0.920586 0.061115 O
0.722710 0.099352 0.937604 O
0.484990 0.311943 0.098086 O
0.480404 0.719336 0.875270 O
0.100448 0.534936 0.305139 O
0.898750 0.509420 0.694745 O
0.297397 0.102401 0.538215 O
0.726899 0.902029 0.429781 O
0.402646 0.211778 0.951739 O
0.597073 0.812345 0.011348 O
0.193155 0.015241 0.398053 O
0.789509 0.989068 0.619466 O
1.021566 0.410170 0.179426 O
0.028353 0.599404 0.808464 O
