Na2 Ca2 V4 Si4 P2 O24
1.0
8.845605 0.099566 0.089667
4.250549 7.641667 0.057100
4.423596 2.505326 7.239507
Ca Na V Si P O
2 2 4 4 2 24
direct
0.497878 0.502482 0.498640 Ca
0.001342 0.997546 0.002127 Ca
0.108459 0.749989 0.391562 Na
0.898240 0.249980 0.601765 Na
0.364858 0.354805 0.348990 V
0.646949 0.642209 0.653950 V
0.151021 0.145190 0.135155 V
0.846012 0.857772 0.853090 V
0.033105 0.457185 0.754786 Si
0.745233 0.042793 0.466889 Si
0.460180 0.750005 0.039811 Si
0.542210 0.250032 0.957751 Si
0.967231 0.543472 0.244519 P
0.255560 0.956491 0.532735 P
0.225467 0.444277 0.573075 O
0.778023 0.558150 0.412676 O
0.567567 0.229788 0.441488 O
0.425631 0.778721 0.555071 O
0.438549 0.581200 0.237497 O
0.563246 0.418839 0.757852 O
0.926965 0.055704 0.274569 O
0.087365 0.941808 0.721945 O
0.058459 0.270235 0.932459 O
0.944918 0.721263 0.074407 O
0.262517 0.918814 0.061416 O
0.742091 0.081211 0.936768 O
0.490645 0.310712 0.131791 O
0.505050 0.692116 0.867194 O
0.120404 0.528945 0.292858 O
0.862538 0.477304 0.711133 O
0.282478 0.137802 0.487985 O
0.720898 0.846886 0.514302 O
0.368192 0.189349 0.009268 O
0.632744 0.807924 0.995004 O
0.207252 0.971025 0.379544 O
0.788860 0.022682 0.637459 O
0.012012 0.362194 0.217551 O
0.985640 0.653083 0.779157 O
