Ca1 Mn4 S6 O24                          
   1.00000000000000     
     7.9592029999999996    0.0028420000000000    4.9401320000000002
     2.7750050000000002    7.1547830000000001    4.7853329999999996
     0.5179850000000000    0.0629880000000000    9.0440020000000008
   Ca   Mn   S    O 
     1     4     6    24
Direct
  0.2615897200882631  0.8282524247311435  0.5975385314472503
  0.6622141512396569  0.6386232472547742  0.6465837889918741
  0.1402722416938583  0.1559536421685402  0.1377178095687112
  0.8133721242533026  0.8548590466856041  0.8430803018531042
  0.3628726008377620  0.3492555180488204  0.3537577697815637
  0.9690409990243195  0.2377239833564619  0.5259878817946713
  0.4275769380343945  0.0370535038305865  0.7554956799161551
  0.5535164934762141  0.9630566455447324  0.2350608596718801
  0.7434881379075819  0.4654711676388832  0.0502688603939501
  0.2655839050625862  0.5113406423681375  0.9574835187024245
  0.0406423587938206  0.7559535675839812  0.4506468501949085
  0.4298138078070994  0.5555231273461878  0.7732528054127666
  0.9307925513464489  0.3293759987604563  0.0223989072131066
  0.8039499596685624  0.3772692557024983  0.6041821584782321
  0.0255290471233127  0.9557294581141530  0.3257351917793204
  0.5960375397900437  0.7793253651890170  0.3904007580921620
  0.2908212093388646  0.0169788511955923  0.9608406863572356
  0.6975733641181989  0.9628717855579257  0.0394463088283428
  0.2249635108075358  0.6273654780088765  0.3755885584437776
  0.1012515979407771  0.6739731348129963  0.9276473762901217
  0.3619558638944966  0.2280156600726590  0.6272891081770283
  0.9553377069988642  0.0415448191375811  0.6590603705635455
  0.6049851037508890  0.3991029182702223  0.2436900214112519
  0.9850472870909930  0.2760367888084740  0.3344039247365175
  0.4386765578844302  0.8929434399836627  0.7117305496852473
  0.3703292501237605  0.9876273576564183  0.2579596341412223
  0.6914053905888490  0.5133878816854481  0.8995557423893097
  0.2681213677147653  0.3389739315301058  0.9664984989745061
  0.8929168727117516  0.7188061744407767  0.4743847921574110
  0.1412329655964322  0.2241203732249068  0.5115724500751971
  0.6114673069202321  0.0008191501889935  0.7351161751741323
  0.5428681596186562  0.1154584964894643  0.2618801390960458
  0.7351766616983313  0.6441807803155715  0.0401408775957633
  0.2812025905342154  0.4808941262760081  0.1238929801897651
  0.0155967786900352  0.7294376286193184  0.6455994730985899
 
             NaN             NaN             NaN
             NaN             NaN             NaN
             NaN             NaN             NaN
             NaN             NaN             NaN
             NaN             NaN             NaN
             NaN             NaN             NaN
             NaN             NaN             NaN
             NaN             NaN             NaN
             NaN             NaN             NaN
             NaN             NaN             NaN
             NaN             NaN             NaN
             NaN             NaN             NaN
             NaN             NaN             NaN
             NaN             NaN             NaN
             NaN             NaN             NaN
             NaN             NaN             NaN
             NaN             NaN             NaN
             NaN             NaN             NaN
             NaN             NaN             NaN
             NaN             NaN             NaN
             NaN             NaN             NaN
             NaN             NaN             NaN
             NaN             NaN             NaN
             NaN             NaN             NaN
             NaN             NaN             NaN
             NaN             NaN             NaN
             NaN             NaN             NaN
             NaN             NaN             NaN
             NaN             NaN             NaN
             NaN             NaN             NaN
             NaN             NaN             NaN
             NaN             NaN             NaN
             NaN             NaN             NaN
             NaN             NaN             NaN
             NaN             NaN             NaN
