Ca1 Mn4 S6 O24
1.0
7.959203 0.002842 4.940132
2.775005 7.154783 4.785333
0.517985 0.062988 9.044002
Ca Mn S O
1 4 6 24
direct
0.287814 0.823272 0.604732 Ca
0.660934 0.640345 0.646183 Mn
0.143212 0.154780 0.140044 Mn
0.818714 0.850747 0.844403 Mn
0.361328 0.353571 0.348839 Mn
0.961975 0.241487 0.527840 S
0.431988 0.041742 0.753469 S
0.547454 0.962697 0.238009 S
0.745321 0.462325 0.049197 S
0.259359 0.519954 0.954516 S
0.039446 0.756314 0.453676 S
0.419669 0.568969 0.769231 O
0.929683 0.322089 0.023677 O
0.796013 0.383554 0.600577 O
0.029833 0.953648 0.322095 O
0.598602 0.780634 0.389121 O
0.297655 0.019888 0.958816 O
0.686459 0.965396 0.040209 O
0.220663 0.622489 0.381069 O
0.092664 0.681704 0.934671 O
0.365171 0.231313 0.624349 O
0.948590 0.047530 0.663604 O
0.604448 0.400156 0.243505 O
0.982451 0.276350 0.335945 O
0.440861 0.896921 0.711731 O
0.362832 0.984049 0.268796 O
0.690302 0.511843 0.900126 O
0.259786 0.349769 0.961784 O
0.888156 0.723914 0.477898 O
0.130185 0.232728 0.516140 O
0.616492 0.004677 0.729765 O
0.535932 0.117284 0.262703 O
0.741906 0.638782 0.037705 O
0.280701 0.483126 0.119968 O
0.014796 0.731602 0.646375 O
