Mg8 Co16 O32
1.0
        8.0839262009         0.0000000000         0.0000000000
        0.0000000000         8.0839262009         0.0000000000
        0.0000000000         0.0000000000         8.0839262009
   Mg   Co    O
    7   16   32
Direct
   0.5000000000000000    0.5000000000000000    1.0000000000000000 Mg
     0.500000000         0.000000000         0.500000000
     0.250000000         0.250000000         0.250000000
     0.000000000         0.000000000         0.000000000
     0.750000000         0.250000000         0.750000000
     0.000000000         0.500000000         0.500000000
     0.750000000         0.750000000         0.250000000
     0.125000000         0.625000000         0.125000000
     0.125000000         0.875000000         0.375000000
     0.375000000         0.625000000         0.375000000
     0.375000000         0.875000000         0.125000000
     0.125000000         0.125000000         0.625000000
     0.125000000         0.375000000         0.875000000
     0.375000000         0.125000000         0.875000000
     0.375000000         0.375000000         0.625000000
     0.625000000         0.625000000         0.625000000
     0.625000000         0.875000000         0.875000000
     0.875000000         0.625000000         0.875000000
     0.875000000         0.875000000         0.625000000
     0.625000000         0.125000000         0.125000000
     0.625000000         0.375000000         0.375000000
     0.875000000         0.125000000         0.375000000
     0.875000000         0.375000000         0.125000000
     0.388897508         0.388897508         0.388897508
     0.861102462         0.138897523         0.138897523
     0.138897523         0.861102462         0.138897523
     0.638897538         0.138897523         0.361102492
     0.111102477         0.388897508         0.111102477
     0.111102477         0.111102477         0.388897508
     0.388897508         0.111102477         0.111102477
     0.361102492         0.861102462         0.361102492
     0.388897508         0.888897538         0.888897538
     0.861102462         0.638897538         0.638897538
     0.138897523         0.361102492         0.638897538
     0.638897538         0.638897538         0.861102462
     0.111102477         0.888897538         0.611102462
     0.111102477         0.611102462         0.888897538
     0.388897508         0.611102462         0.611102462
     0.361102492         0.361102492         0.861102462
     0.888897538         0.388897508         0.888897538
     0.361102492         0.138897523         0.638897538
     0.638897538         0.861102462         0.638897538
     0.138897523         0.138897523         0.861102462
     0.611102462         0.388897508         0.611102462
     0.611102462         0.111102477         0.888897538
     0.888897538         0.111102477         0.611102462
     0.861102462         0.861102462         0.861102462
     0.888897538         0.888897538         0.388897508
     0.361102492         0.638897538         0.138897523
     0.638897538         0.361102492         0.138897523
     0.138897523         0.638897538         0.361102492
     0.611102462         0.888897538         0.111102477
     0.611102462         0.611102462         0.388897508
     0.888897538         0.611102462         0.111102477
     0.861102462         0.361102492         0.361102492
