Na2 Ca2 V4 P2 S4 O24                    
   1.00000000000000     
     8.9723687445761140    0.3805943883613714    0.1760557480786670
     4.2913996270462649    7.8887441869140185    0.1818557853193090
     4.1687864764632305    2.5942320816869122    7.4125184378065239
   Ca   Na   V    P    S    O 
     2     2     4     2     4    24
Direct
   0.7300804989107306    0.4106676812541963    0.1487056786651024 Ca
  0.0035532868643386  0.9908279050117983  0.0184709291634491
  0.4219895197948134  0.0779691830718718  0.7498512477233774
  0.5933828748350294  0.9065667054718674  0.2500266778883642
  0.3494446159693538  0.3552513345799113  0.3571292554619561
  0.6523741086961721  0.6544022595524197  0.6386295053802584
  0.1447258975519929  0.1506307188398068  0.1428234941804405
  0.8456901286493306  0.8475351419597956  0.8614634657968807
  0.7533615248923766  0.0400071924504886  0.4455147874906729
  0.4599581641722352  0.7466993614777806  0.0545421844285983
  0.0476577815906083  0.4525579525271510  0.7499778708290492
  0.9520432813336370  0.5478255974155744  0.2500771069167840
  0.2405203276348260  0.9606075990916239  0.5588650837052072
  0.5393493928934845  0.2594461791977309  0.9411240645300509
  0.2329315132591816  0.4289279738069567  0.5998844114778805
  0.7664475276040221  0.5700199057678859  0.4002393121941168
  0.5829535271096447  0.2262785216351517  0.4405094504305609
  0.4044321603014467  0.7813662663146062  0.5567296786459721
  0.4254325671798469  0.5850948529409052  0.2331983724582045
  0.5721820765383399  0.4100453919954390  0.7640657079848907
  0.9150895321025345  0.0743100746867142  0.2669638369953233
  0.0897761953224077  0.9281812143520725  0.7358773718287139
  0.0706238341991678  0.2673904346101637  0.9002812857665816
  0.9301180754266412  0.7334247814063630  0.0998567038342557
  0.2737724107453730  0.9172429369823831  0.0592793924855641
  0.7184606433906424  0.0953985457084983  0.9436373495063677
  0.4791384890221124  0.3107279619286984  0.1004092787637205
  0.5172367583449926  0.7148764941597605  0.8770688438481358
  0.0922735512221635  0.5104921242799634  0.3149425407545294
  0.9061547897285536  0.4886759149235047  0.6871190079978717
  0.2941941805618029  0.0978507052393951  0.5486888312718463
  0.7060251655013587  0.8972198256449175  0.4439706655883811
  0.4021603058252623  0.2059284184162351  0.9509777890750328
  0.6028209683473662  0.7939119872027192  0.0561208902981534
  0.1893704955299143  0.0204950763519918  0.3995826030471719
  0.7850241533440041  0.9828004775632095  0.6230651019881464
  0.9890266536973158  0.4077151619127548  0.1853201900761050
  0.0122100733759183  0.5939373381234603  0.8125816801457972
 
  0.00000000E+00  0.00000000E+00  0.00000000E+00
  0.00000000E+00  0.00000000E+00  0.00000000E+00
  0.00000000E+00  0.00000000E+00  0.00000000E+00
  0.00000000E+00  0.00000000E+00  0.00000000E+00
  0.00000000E+00  0.00000000E+00  0.00000000E+00
  0.00000000E+00  0.00000000E+00  0.00000000E+00
  0.00000000E+00  0.00000000E+00  0.00000000E+00
  0.00000000E+00  0.00000000E+00  0.00000000E+00
  0.00000000E+00  0.00000000E+00  0.00000000E+00
  0.00000000E+00  0.00000000E+00  0.00000000E+00
  0.00000000E+00  0.00000000E+00  0.00000000E+00
  0.00000000E+00  0.00000000E+00  0.00000000E+00
  0.00000000E+00  0.00000000E+00  0.00000000E+00
  0.00000000E+00  0.00000000E+00  0.00000000E+00
  0.00000000E+00  0.00000000E+00  0.00000000E+00
  0.00000000E+00  0.00000000E+00  0.00000000E+00
  0.00000000E+00  0.00000000E+00  0.00000000E+00
  0.00000000E+00  0.00000000E+00  0.00000000E+00
  0.00000000E+00  0.00000000E+00  0.00000000E+00
  0.00000000E+00  0.00000000E+00  0.00000000E+00
  0.00000000E+00  0.00000000E+00  0.00000000E+00
  0.00000000E+00  0.00000000E+00  0.00000000E+00
  0.00000000E+00  0.00000000E+00  0.00000000E+00
  0.00000000E+00  0.00000000E+00  0.00000000E+00
  0.00000000E+00  0.00000000E+00  0.00000000E+00
  0.00000000E+00  0.00000000E+00  0.00000000E+00
  0.00000000E+00  0.00000000E+00  0.00000000E+00
  0.00000000E+00  0.00000000E+00  0.00000000E+00
  0.00000000E+00  0.00000000E+00  0.00000000E+00
  0.00000000E+00  0.00000000E+00  0.00000000E+00
  0.00000000E+00  0.00000000E+00  0.00000000E+00
  0.00000000E+00  0.00000000E+00  0.00000000E+00
  0.00000000E+00  0.00000000E+00  0.00000000E+00
  0.00000000E+00  0.00000000E+00  0.00000000E+00
  0.00000000E+00  0.00000000E+00  0.00000000E+00
  0.00000000E+00  0.00000000E+00  0.00000000E+00
  0.00000000E+00  0.00000000E+00  0.00000000E+00
  0.00000000E+00  0.00000000E+00  0.00000000E+00
