Ca32 Ru16 O64
1.0
  10.6702639999999995    0.0000000000000000    0.0000000000000006
  -0.0000000000000008   12.6096459999999997    0.0000000000000008
   0.0000000000000000    0.0000000000000000   10.6768359999999998
Ca Ru O
31 16 64
direct
   0.7500000000000000    0.8463780000000000    0.4999999999999999 Ca
   0.0000000000000000    0.6536219999999990    0.0000000000000000 Ca
   0.0000000000000000    0.6536219999999990    0.5000000000000000 Ca
   0.4999999999999999    0.6536219999999990    0.0000000000000000 Ca
   0.4999999999999999    0.6536219999999990    0.5000000000000000 Ca
   0.0000000000000000    0.8463780000000000    0.2500000000000000 Ca
   0.0000000000000000    0.8463780000000000    0.7500000000000000 Ca
   0.4999999999999999    0.8463780000000000    0.2500000000000000 Ca
   0.4999999999999999    0.8463780000000000    0.7500000000000000 Ca
   0.2500000000000000    0.6536219999999990    0.2500000000000000 Ca
   0.2500000000000000    0.6536219999999990    0.7500000000000000 Ca
   0.7499999999999999    0.6536219999999990    0.2500000000000000 Ca
   0.2500000000000000    0.8463780000000000    0.0000000000000000 Ca
   0.2500000000000000    0.8463780000000000    0.5000000000000000 Ca
   0.7500000000000000    0.8463780000000000    0.0000000000000000 Ca
   0.2500000000000000    0.1536219999999990    0.0000000000000000 Ca
   0.2500000000000000    0.1536219999999990    0.4999999999999999 Ca
   0.7499999999999999    0.1536219999999990    0.0000000000000000 Ca
   0.7499999999999999    0.1536219999999990    0.4999999999999999 Ca
   0.2500000000000000    0.3463780000000000    0.2500000000000000 Ca
   0.2500000000000000    0.3463780000000000    0.7499999999999999 Ca
   0.7499999999999999    0.3463780000000000    0.2500000000000000 Ca
   0.7499999999999999    0.3463780000000000    0.7499999999999999 Ca
   0.0000000000000000    0.1536219999999990    0.2500000000000000 Ca
   0.0000000000000000    0.1536219999999990    0.7499999999999999 Ca
   0.5000000000000000    0.1536219999999990    0.2500000000000000 Ca
   0.5000000000000000    0.1536219999999990    0.7499999999999999 Ca
   0.0000000000000000    0.3463780000000000    0.0000000000000000 Ca
   0.0000000000000000    0.3463780000000000    0.4999999999999999 Ca
   0.5000000000000000    0.3463780000000000    0.0000000000000000 Ca
   0.5000000000000000    0.3463780000000000    0.4999999999999999 Ca
   0.0000000000000000    0.0000000000000000    0.0000000000000000 Ru
   0.0000000000000000    0.0000000000000000    0.5000000000000000 Ru
   0.5000000000000000    0.0000000000000000    0.0000000000000000 Ru
   0.5000000000000000    0.0000000000000000    0.4999999999999999 Ru
   0.2500000000000000    0.0000000000000000    0.2500000000000000 Ru
   0.2500000000000000    0.0000000000000000    0.7499999999999999 Ru
   0.7499999999999999    0.0000000000000000    0.2500000000000000 Ru
   0.7499999999999999    0.0000000000000000    0.7499999999999999 Ru
   0.2500000000000000    0.5000000000000000    0.0000000000000000 Ru
   0.2500000000000000    0.5000000000000000    0.5000000000000000 Ru
   0.7499999999999999    0.5000000000000000    0.0000000000000000 Ru
   0.7499999999999999    0.5000000000000000    0.5000000000000000 Ru
   0.0000000000000000    0.5000000000000000    0.2500000000000000 Ru
   0.0000000000000000    0.5000000000000000    0.7499999999999999 Ru
   0.5000000000000000    0.5000000000000000    0.2500000000000000 Ru
   0.5000000000000000    0.5000000000000000    0.7499999999999999 Ru
   0.2500000000000000    0.8340619999999999    0.2500000000000000 O
   0.2500000000000000    0.8340619999999999    0.7500000000000000 O
   0.7500000000000000    0.8340619999999999    0.2500000000000000 O
   0.7500000000000000    0.8340619999999999    0.7500000000000000 O
   0.2500000000000000    0.6659379999999990    0.0000000000000000 O
   0.2500000000000000    0.6659379999999990    0.5000000000000000 O
   0.7499999999999999    0.6659379999999990    0.0000000000000000 O
   0.7499999999999999    0.6659379999999990    0.5000000000000000 O
   0.0000000000000000    0.6659379999999990    0.2500000000000000 O
   0.0000000000000000    0.6659379999999990    0.7499999999999999 O
   0.4999999999999999    0.6659379999999990    0.2500000000000000 O
   0.4999999999999999    0.6659379999999990    0.7499999999999999 O
   0.0000000000000000    0.8340619999999999    0.0000000000000000 O
   0.0000000000000000    0.8340619999999999    0.5000000000000000 O
   0.4999999999999999    0.8340619999999999    0.0000000000000000 O
   0.4999999999999999    0.8340619999999999    0.5000000000000000 O
   0.4094405000000000    0.0000000000000000    0.3406520000000000 O
   0.4094405000000000    0.0000000000000000    0.8406520000000001 O
   0.9094405000000001    0.0000000000000000    0.3406520000000000 O
   0.9094405000000001    0.0000000000000000    0.8406520000000001 O
   0.3405594999999995    0.0000000000000000    0.0906519999999995 O
   0.3405594999999995    0.0000000000000000    0.5906519999999995 O
   0.8405594999999995    0.0000000000000000    0.0906519999999995 O
   0.8405594999999995    0.0000000000000000    0.5906519999999995 O
   0.0905595000000000    0.0000000000000000    0.1593480000000000 O
   0.0905595000000000    0.0000000000000000    0.6593479999999999 O
   0.5905595000000000    0.0000000000000000    0.1593480000000000 O
   0.5905595000000000    0.0000000000000000    0.6593479999999999 O
   0.1594404999999995    0.0000000000000000    0.4093480000000000 O
   0.1594404999999995    0.0000000000000000    0.9093479999999999 O
   0.6594404999999994    0.0000000000000000    0.4093480000000000 O
   0.6594404999999994    0.0000000000000000    0.9093479999999999 O
   0.0000000000000000    0.3340619999999990    0.2500000000000000 O
   0.0000000000000000    0.3340619999999990    0.7499999999999999 O
   0.5000000000000000    0.3340619999999990    0.2500000000000000 O
   0.5000000000000000    0.3340619999999990    0.7499999999999999 O
   0.0000000000000000    0.1659380000000000    0.0000000000000000 O
   0.0000000000000000    0.1659380000000000    0.5000000000000000 O
   0.5000000000000000    0.1659380000000000    0.0000000000000000 O
   0.5000000000000000    0.1659380000000000    0.4999999999999999 O
   0.2500000000000000    0.1659380000000000    0.2500000000000000 O
   0.2500000000000000    0.1659380000000000    0.7499999999999999 O
   0.7499999999999999    0.1659380000000000    0.2500000000000000 O
   0.7499999999999999    0.1659380000000000    0.7499999999999999 O
   0.2500000000000000    0.3340619999999990    0.0000000000000000 O
   0.2500000000000000    0.3340619999999990    0.4999999999999999 O
   0.7499999999999999    0.3340619999999990    0.0000000000000000 O
   0.7499999999999999    0.3340619999999990    0.4999999999999999 O
   0.1594404999999995    0.5000000000000000    0.3406520000000000 O
   0.1594404999999995    0.5000000000000000    0.8406520000000001 O
   0.6594404999999994    0.5000000000000000    0.3406520000000000 O
   0.6594404999999994    0.5000000000000000    0.8406520000000000 O
   0.0905595000000000    0.5000000000000000    0.0906519999999995 O
   0.0905595000000000    0.5000000000000000    0.5906519999999995 O
   0.5905594999999999    0.5000000000000000    0.0906519999999995 O
   0.5905594999999999    0.5000000000000000    0.5906519999999995 O
   0.3405594999999995    0.5000000000000000    0.1593480000000000 O
   0.3405594999999995    0.5000000000000000    0.6593480000000000 O
   0.8405594999999995    0.5000000000000000    0.1593480000000000 O
   0.8405594999999995    0.5000000000000000    0.6593479999999999 O
   0.4094405000000000    0.5000000000000000    0.4093479999999999 O
   0.4094405000000000    0.5000000000000000    0.9093479999999999 O
   0.9094405000000001    0.5000000000000000    0.4093479999999999 O
   0.9094405000000001    0.5000000000000000    0.9093479999999999 O
