Ca1 Cr12 F42
1.0
7.217026 -0.040533 -0.031086
-3.594162 6.291037 -0.020735
0.004248 -0.024712 17.311763
Ca Cr F
1 12 42
direct
0.500309 0.849016 0.675472 Ca
0.283635 0.001623 0.331101 Cr
0.715841 0.712689 0.002955 Cr
0.004174 0.295569 0.666128 Cr
0.349528 0.995057 0.841663 Cr
0.653200 0.646336 0.492474 Cr
0.998951 0.358792 0.166774 Cr
0.654283 0.150250 0.493205 Cr
0.497184 0.356481 0.167084 Cr
0.852104 0.495568 0.837099 Cr
0.349198 0.488481 0.840270 Cr
0.151872 0.648450 0.496344 Cr
0.500666 0.858275 0.166589 Cr
0.574464 0.831320 0.062716 F
0.262799 0.442484 0.730408 F
0.172773 0.744311 0.392996 F
0.429213 0.259416 0.271410 F
0.823660 0.562177 0.941864 F
0.740921 0.176548 0.602758 F
0.847756 0.050919 0.723097 F
0.196652 0.121854 0.397755 F
0.934906 0.815748 0.065147 F
0.119258 0.188001 0.603469 F
0.062550 0.887948 0.269775 F
0.807867 0.920319 0.936719 F
0.146040 0.569277 0.606482 F
0.422107 0.879366 0.269807 F
0.444784 0.560972 0.943150 F
0.882936 0.434338 0.731174 F
0.555375 0.116254 0.390573 F
0.570327 0.452290 0.063491 F
0.359235 0.564352 0.473122 F
0.207574 0.648641 0.143442 F
0.437500 0.783494 0.813576 F
0.645065 0.202367 0.856478 F
0.566165 0.353611 0.515549 F
0.792186 0.444021 0.188208 F
0.696304 0.612235 0.394561 F
0.919419 0.314694 0.068760 F
0.388200 0.051654 0.733713 F
0.316608 0.920798 0.939905 F
0.608581 0.684576 0.597826 F
0.078494 0.400805 0.264795 F
0.944153 0.728862 0.521009 F
0.791852 0.067194 0.189768 F
0.255224 0.196281 0.857598 F
0.057888 0.787157 0.817019 F
0.741904 0.942991 0.476628 F
0.204124 0.270111 0.145839 F
0.626507 0.548932 0.804306 F
0.934382 0.368504 0.464470 F
0.441686 0.078351 0.134470 F
0.382721 0.923003 0.534438 F
0.556033 0.636048 0.199262 F
0.071108 0.435010 0.869745 F
