Ca1 Co16 F48                            
   1.00000000000000     
    10.7207980000000003   -0.0059150000000000   -0.0384070000000000
    -0.0036780000000000    7.4839960000000003   -0.0023500000000000
    -0.0353760000000000   -0.0036220000000000   10.4198959999999996
   Ca   Co   F 
     1    16    48
Direct
  0.5124984238096484  0.2184732609551118  0.5029970161104179
  0.0000610202679510  0.4999592371899835  0.2502200070207689
  1.0008725909256371  0.4979712060943156  0.7509914874836049
  0.4995503619376269  0.5017519135581523  0.2389763658053746
  0.4999720869095255  0.5014221571810644  0.7649806598529085
  0.2331976969337994  0.9939075027755661  0.4892078418122985
  0.2408945930773515  0.9956307199215084  1.0007107900596934
  0.7595909542652494  0.9835569273884733  0.4971405882915138
  0.7574948799612182  1.0001027527339250  1.0013835526427550
  0.4949695431208450  0.9892083650066156  0.2309211622018794
  0.4998766855720476  0.9849265802553097  0.7689553405007002
 -0.0047085184146699  0.0013536396450937  0.2450372186335162
  0.0008970650485111  0.9986937430757611  0.7513665683432539
  0.2460223720688445  0.4942083933635481  1.0013949305083285
  0.2491919813789839  0.5009126815116373  0.5019823337984743
  0.7551771478364622  0.5004375803107146  0.9999593311781740
  0.7527899694438330  0.4971081684625628  0.5000613574715885
  0.4957072484669746  0.2453634544924652  0.1994340827619220
  0.4900842497107564  0.2474010993446295  0.7135493569307648
  0.9829726869770083  0.2429948204409982  0.1983128355855888
  0.9935914626408370  0.2490304027085811  0.7036493720109255
  0.2355109286855868  0.2544384080970749  0.0513451660938577
  0.2572878947769495  0.2369409450647934  0.5433990188327354
  0.7466350196500203  0.2447755544644580  0.0495334663903848
  0.7364361826696748  0.2530538751850779  0.5449558251604242
  0.0124890151238005  0.7615667599276688  0.2950848972544187
  0.0079738519188007  0.7473622802597754  0.7960870272671977
  0.5053371843115837  0.7480392972827258  0.2937337409560328
  0.5152648409261583  0.7398293609653332  0.8228349088970774
  0.2620880911215726  0.7535136106060087  0.4535892274690929
  0.2529060918310574  0.7338356303847292  0.9506637435221749
  0.7622491248312185  0.7338469952716207  0.4476559300650238
  0.7662189077144512  0.7538299898800456  0.9519855546494922
  0.3456342575379103  0.5463329451801792  0.1445999508671580
  0.3612147902676827  0.5389019971048458  0.6472983428296546
  0.8553162368000246  0.5499746422146916  0.1513849095199585
  0.8503066228522751  0.5481015362434575  0.6433530175678037
  0.0858693086664325  0.9528953222482065  0.0958155216017176
  0.0917711362018725  0.9522386205240732  0.5944092469548822
  0.6029771901985438  0.9451064687039362  0.0917594622721270
  0.6021223285081211  0.9586441916290784  0.6007131265607535
  0.1409773683583414  0.0564811181058959  0.3333396525724553
  0.1556306969965944  0.0419067403470259  0.8448001898604774
  0.6368633704012879  0.0464360510824571  0.3634576642071934
  0.6525872488681438  0.0480176032357074  0.8465403499444342
  0.4015356409131995  0.4416703943041201  0.3974094771442271
  0.3905131616002236  0.4435474447864568  0.9091305392666270
  0.8945085529205267  0.4507028230203567  0.4026553691196232
  0.9003845084730674  0.4500460755070828  0.8974025429302261
  0.1447695866530067  0.4572779236677384  0.3541227525890315
  0.1512560675379747  0.4433250165452861  0.8566415909398587
  0.6450272005462684  0.4397464492827374  0.3605466069098422
  0.6520937742437978  0.4442659017748046  0.8527530179071269
  0.3860034472853218  0.0476425977757468  0.3819758433548830
  0.3980419860049483  0.0455486709694932  0.9135146475220906
  0.9016023690468657  0.0489103123691795  0.3921293900811498
  0.9053553159467371  0.0474134051184877  0.9016809337478576
  0.3377598059819155  0.9365105424507429  0.1467612336559931
  0.3660378180955288  0.9514975795042810  0.6528172108636401
  0.8486593894654013  0.9463850551032678  0.1601226858333677
  0.8507791048176464  0.9513315229327518  0.6480160586665872
  0.1044713596178191  0.5447146262365963  0.0977040955332413
  0.1061252395978224  0.5432471142489365  0.6071302759162134
  0.6080460995655844  0.5489832868137346  0.1008115720888435
  0.6049943785169973  0.5302695065265127  0.5969877351186758
 
             NaN             NaN             NaN
             NaN             NaN             NaN
             NaN             NaN             NaN
             NaN             NaN             NaN
             NaN             NaN             NaN
             NaN             NaN             NaN
             NaN             NaN             NaN
             NaN             NaN             NaN
             NaN             NaN             NaN
             NaN             NaN             NaN
             NaN             NaN             NaN
             NaN             NaN             NaN
             NaN             NaN             NaN
             NaN             NaN             NaN
             NaN             NaN             NaN
             NaN             NaN             NaN
             NaN             NaN             NaN
             NaN             NaN             NaN
             NaN             NaN             NaN
             NaN             NaN             NaN
             NaN             NaN             NaN
             NaN             NaN             NaN
             NaN             NaN             NaN
             NaN             NaN             NaN
             NaN             NaN             NaN
             NaN             NaN             NaN
             NaN             NaN             NaN
             NaN             NaN             NaN
             NaN             NaN             NaN
             NaN             NaN             NaN
             NaN             NaN             NaN
             NaN             NaN             NaN
             NaN             NaN             NaN
             NaN             NaN             NaN
             NaN             NaN             NaN
             NaN             NaN             NaN
             NaN             NaN             NaN
             NaN             NaN             NaN
             NaN             NaN             NaN
             NaN             NaN             NaN
             NaN             NaN             NaN
             NaN             NaN             NaN
             NaN             NaN             NaN
             NaN             NaN             NaN
             NaN             NaN             NaN
             NaN             NaN             NaN
             NaN             NaN             NaN
             NaN             NaN             NaN
             NaN             NaN             NaN
             NaN             NaN             NaN
             NaN             NaN             NaN
             NaN             NaN             NaN
             NaN             NaN             NaN
             NaN             NaN             NaN
             NaN             NaN             NaN
             NaN             NaN             NaN
             NaN             NaN             NaN
             NaN             NaN             NaN
             NaN             NaN             NaN
             NaN             NaN             NaN
             NaN             NaN             NaN
             NaN             NaN             NaN
             NaN             NaN             NaN
             NaN             NaN             NaN
             NaN             NaN             NaN
