Ca1 Co16 F48
1.0
10.720798 -0.005915 -0.038407
-0.003678 7.483996 -0.002350
-0.035376 -0.003622 10.419896
Ca Co F
1 16 48
direct
0.521525 1.188330 0.495339 Ca
0.000083 0.500919 0.248859 Co
-0.000323 0.499275 0.751242 Co
0.496377 0.505408 0.235854 Co
0.495611 0.505125 0.762100 Co
0.243036 -0.000369 0.499344 Co
0.246092 0.998610 -0.000935 Co
0.760152 -0.011628 0.499586 Co
0.753055 -0.000130 -0.000748 Co
0.499018 -0.006000 0.238180 Co
0.498647 -0.002231 0.759603 Co
0.000449 0.000471 0.246988 Co
1.000170 -0.000510 0.752331 Co
0.245103 0.499556 -0.000181 Co
0.244565 0.503823 0.500794 Co
0.752986 0.500429 -0.001313 Co
0.755333 0.501452 0.499650 Co
0.491126 0.250719 0.207456 F
0.484669 0.251775 0.707415 F
0.987624 0.252477 0.203961 F
0.992122 0.249689 0.702277 F
0.239752 0.259294 0.048708 F
0.255292 0.251158 0.546911 F
0.741294 0.249419 0.046115 F
0.744542 0.258189 0.546532 F
0.013600 0.749152 0.295641 F
0.008300 0.748737 0.799103 F
0.510442 0.748228 0.294160 F
0.515079 0.750726 0.803262 F
0.258046 0.750300 0.452625 F
0.252772 0.739876 0.950304 F
0.753089 0.738549 0.449409 F
0.760681 0.751422 0.949733 F
0.341508 0.552887 0.144605 F
0.357973 0.548991 0.646764 F
0.850611 0.550723 0.151809 F
0.848933 0.553283 0.644836 F
0.098371 0.957922 0.096240 F
0.100607 0.952882 0.600958 F
0.602992 0.951201 0.094219 F
0.601601 0.976149 0.597679 F
0.147963 0.051553 0.347145 F
0.152580 0.048719 0.846943 F
0.643989 0.053611 0.356870 F
0.647657 0.051049 0.846044 F
0.400248 0.455971 0.397865 F
0.391158 0.453107 0.909027 F
0.897988 0.457601 0.406118 F
0.898572 0.449980 0.897861 F
0.148240 0.448872 0.351126 F
0.151913 0.448398 0.853864 F
0.649155 0.443622 0.358503 F
0.646050 0.450757 0.849116 F
0.400588 0.042412 0.400717 F
0.398239 0.041901 0.907518 F
0.903029 0.040826 0.402197 F
0.900928 0.049476 0.902486 F
0.346156 0.949969 0.149212 F
0.359946 0.953742 0.650443 F
0.849948 0.951406 0.154046 F
0.850769 0.946450 0.653327 F
0.101553 0.546306 0.093266 F
0.101670 0.546946 0.603725 F
0.602591 0.548808 0.095491 F
0.604206 0.529738 0.593339 F
