Ca1 Co4 S6 O24
1.0
7.436060 0.287704 4.755160
2.755114 6.917128 4.790403
0.401114 0.258909 8.806707
Ca Co S O
1 4 6 24
direct
0.499463 0.494819 0.497852 Ca
0.643844 0.646143 0.646692 Co
0.148595 0.151742 0.145014 Co
0.847080 0.846496 0.845498 Co
0.345993 0.348871 0.352446 Co
0.951297 0.247111 0.538544 S
0.458834 0.041864 0.746668 S
0.536920 0.954804 0.244712 S
0.748047 0.456177 0.043064 S
0.247955 0.536013 0.952033 S
0.040487 0.749878 0.459184 S
0.373773 0.627707 0.745970 O
0.957509 0.323753 0.012157 O
0.745237 0.375420 0.627611 O
0.009652 0.957989 0.332890 O
0.623864 0.749067 0.373837 O
0.333449 0.007704 0.956761 O
0.666157 0.982519 0.035301 O
0.246493 0.620178 0.371952 O
0.037363 0.660723 0.987764 O
0.368330 0.248641 0.620493 O
0.984155 0.038568 0.669749 O
0.619410 0.367874 0.248307 O
0.963760 0.287427 0.344918 O
0.480016 0.901848 0.693232 O
0.340660 0.972579 0.284955 O
0.697481 0.481030 0.898111 O
0.291084 0.342803 0.961077 O
0.897002 0.698669 0.483447 O
0.094418 0.300148 0.513640 O
0.655157 0.027373 0.702791 O
0.517369 0.098069 0.292386 O
0.710114 0.648184 0.030262 O
0.301658 0.510173 0.095062 O
0.027848 0.707264 0.655728 O
