Ca8 Ti12 F42                            
   1.00000000000000     
     7.3837270000000004   -0.0422660000000000   -0.1011600000000000
    -3.6864900000000000    6.4673330000000000    0.0495080000000000
     0.2052060000000000    0.0222070000000000   18.6985010000000003
   Ca   Ti   F 
     8    12    42
Direct
  0.6343512766770496  0.1080641988995657  1.0012609373217418
  0.8726372201628646  0.4800744597419397  0.3290435814023847
  0.5476779596677812  0.3575404290955962  0.6554056059742103
  0.1659652553657400  0.1616770273631803  0.9730365990897430
  0.0162740712899735  0.8523146865352845  0.6660748344883243
  0.8539064636760652  0.9674190425301090  0.3205067834601933
  1.0049115781434717  0.7893114962773007  0.1395927153164095
  0.2137963897222942  0.1759054922616427  0.4781960412330553
  0.3671117795396783  0.9817198201691781  0.2979745075078383
  0.0352838325748608  0.3304833244154026  0.6555492150234487
  0.7105428972894452  0.6637761618380792  0.9509704303246238
  0.3566531299855517  0.0085568038105028  0.8206376699946829
  0.9633494461630764  0.2669408442901124  0.1566782088615566
  0.7399368994573767  0.6407600532642385  0.4875850579032537
  0.4999794460996472  0.8226657335504904  0.1618732547371265
  0.1839046912682905  0.6507751959880037  0.4796996131317144
  0.3982922389737333  0.5287310732021780  0.8281682814959374
  0.8415824623292658  0.5468350222548238  0.8437668470171897
  0.7287110271509382  0.2012351527534353  0.4822414315921285
  0.4955167928139600  0.2492222205344520  0.1572947977651432
  0.7679574771023761  0.2122046450903034  0.5921435325760470
  0.8001502969186868  0.4480369379872082  0.9510888916118980
  0.5439007609452446  0.2915155433925574  0.2683400336567326
  0.2088687425936868  0.7258908367827239  0.3709725694923562
  0.5831967804538751  0.8195944497889081  0.0608252748619266
  0.2974457429973872  0.4469680006802171  0.7185907949828527
  0.8008242988476392  0.9634777590736524  0.9330737123370310
  0.0314891550112246  0.7980097058861579  0.2621916452220302
  0.1943863314641974  0.1900794063836639  0.6028125500232382
  0.9658263741684376  0.8224437289472183  0.0212795535076050
  0.9070950314576284  0.0659942256915414  0.7041932264436290
  0.1960614502179335  0.0892880310347474  0.3621088419087997
  0.4845353274021856  0.3073727017072126  0.0440204170440507
  0.6626833802413807  0.1267329888386357  0.3688712329864411
  0.9064042751589151  0.5011729484459416  0.6910911314452802
  0.3979724767632631  0.5268820434851103  0.9398636495521349
  0.1687410139775339  0.5555811730615080  0.5833287886741316
  0.5131524216378422  0.8123055527931081  0.2716285550590616
  0.8167485865576429  0.4365427956403369  0.1548820087567933
  0.5502371949128758  0.3306269488143595  0.5238384667030448
  0.6516903846165013  0.2396265533931087  0.8337562220591138
  0.4630711124515161  0.8180353922736980  0.8124460662443107
  0.4194594384526535  0.5620238700338623  0.4718195729527954
  0.1985951444249915  0.5934457624711476  0.1527157491365263
  0.9828142201134934  0.2896077654058718  0.2673529991224595
  0.7170773934621067  0.6701718381643862  0.5999602244732838
  0.3459242148419126  0.9962788127436143  0.9321747813704581
  0.3565396392113107  0.0470741394722791  0.7090736948230838
  0.7355942992410496  0.6612185636643603  0.3754601561757290
  0.9737065269432764  0.2515539675504452  0.0459419757793152
  0.1853385043445719  0.1734775112208506  0.1526332683462407
  0.8298688519910954  0.9644235223881424  0.4659255670857248
  0.0450510115080915  0.8115378105833790  0.7934130575738771
  0.2547156098104447  0.2122375844278016  0.8466306296090939
  0.0547487393245721  0.8239804616179562  0.5239133974642770
  0.8177928463381274  0.9514655869516375  0.1842113060936111
  0.0986157642460188  0.4988695914927715  0.8493674834895730
  0.5567854671405862  0.5601813789517667  0.1686098993304681
  0.4315628417636950  0.9524620715899466  0.4915646339016668
  0.3500953592003003  0.9601418912237153  0.1007646275232271
  0.6469856901472509  0.5497491982276526  0.7667674036896514
  0.0336808702367470  0.3436854067292888  0.4397790268369005
 
             NaN             NaN             NaN
             NaN             NaN             NaN
             NaN             NaN             NaN
             NaN             NaN             NaN
             NaN             NaN             NaN
             NaN             NaN             NaN
             NaN             NaN             NaN
             NaN             NaN             NaN
             NaN             NaN             NaN
             NaN             NaN             NaN
             NaN             NaN             NaN
             NaN             NaN             NaN
             NaN             NaN             NaN
             NaN             NaN             NaN
             NaN             NaN             NaN
             NaN             NaN             NaN
             NaN             NaN             NaN
             NaN             NaN             NaN
             NaN             NaN             NaN
             NaN             NaN             NaN
             NaN             NaN             NaN
             NaN             NaN             NaN
             NaN             NaN             NaN
             NaN             NaN             NaN
             NaN             NaN             NaN
             NaN             NaN             NaN
             NaN             NaN             NaN
             NaN             NaN             NaN
             NaN             NaN             NaN
             NaN             NaN             NaN
             NaN             NaN             NaN
             NaN             NaN             NaN
             NaN             NaN             NaN
             NaN             NaN             NaN
             NaN             NaN             NaN
             NaN             NaN             NaN
             NaN             NaN             NaN
             NaN             NaN             NaN
             NaN             NaN             NaN
             NaN             NaN             NaN
             NaN             NaN             NaN
             NaN             NaN             NaN
             NaN             NaN             NaN
             NaN             NaN             NaN
             NaN             NaN             NaN
             NaN             NaN             NaN
             NaN             NaN             NaN
             NaN             NaN             NaN
             NaN             NaN             NaN
             NaN             NaN             NaN
             NaN             NaN             NaN
             NaN             NaN             NaN
             NaN             NaN             NaN
             NaN             NaN             NaN
             NaN             NaN             NaN
             NaN             NaN             NaN
             NaN             NaN             NaN
             NaN             NaN             NaN
             NaN             NaN             NaN
             NaN             NaN             NaN
             NaN             NaN             NaN
             NaN             NaN             NaN
