Ca8 Ti12 F42                            
   1.00000000000000     
     7.3837270000000004   -0.0422660000000000   -0.1011600000000000
    -3.6864900000000000    6.4673330000000000    0.0495080000000000
     0.2052060000000000    0.0222070000000000   18.6985010000000003
   Ca   Ti   F 
     8    12    42
Direct
  0.6448257886863183  0.1262171844589877  0.9959970259611384
  0.8652336820084817  0.4864343269083803  0.3332929820618936
  0.5437443222746997  0.3599243566530068  0.6593941606901104
  0.1697141544903546  0.1743083006912934  0.9804627194500979
  0.0139705421540209  0.8576080417636660  0.6701049196093660
  0.8430551100476869  0.9733675888932757  0.3277635128129372
 -0.0345655353863259  0.7863111906119694  0.1445548809217213
  0.2046902275090866  0.1843744297965220  0.4838650949216133
  0.3593245776874598  0.9873796591855915  0.3061085571247665
  0.0284365507185594  0.3333035427756362  0.6611409909080207
  0.7169202082978572  0.6818696036257885  0.9525568149369141
  0.3477701648594334  1.0111233013226437  0.8269996029729260
  0.9605236017846890  0.2752462844753048  0.1642107715087373
  0.7322075325711949  0.6448349518844030  0.4921878978525386
  0.4918732933058768  0.8240704803535218  0.1672247250815079
  0.1750709851102468  0.6546850081070789  0.4853986001253493
  0.3917723031574142  0.5323677006275328  0.8329515204640162
  0.8365558478402992  0.5500851410863168  0.8495581370422529
  0.7205593170690459  0.2064341425461844  0.4877780092860435
  0.4882359179242896  0.2556246628720501  0.1638726033917505
  0.7595989607640253  0.2165048416965910  0.5976625969674142
  0.8091002249621990  0.4713323216655314  0.9601832560719002
  0.5271093930811567  0.2997309929519073  0.2744934225622068
  0.1975001081139384  0.7299644289188921  0.3773709952251448
  0.5758788958186066  0.8472899916091189  0.0647784199610328
  0.2906646019415959  0.4538908842387611  0.7240361257566618
  0.8135067241672724  0.9823241091414392  0.9343116192656178
  0.0311487292136807  0.8067560958157278  0.2655043092835830
  0.1901936133069489  0.1953653116819317  0.6084870198415392
  0.9630266617198285  0.8386549964261641  0.0272714018698083
  0.9016786314203060  0.0709141667701133  0.7081588530375889
  0.1876671932524626  0.0939258670505383  0.3685577057836132
  0.4748065581231835  0.2891544276614075  0.0512091982832228
  0.6525004993261588  0.1333633664141426  0.3739791507961381
  0.9010129889788610  0.5064093969927167  0.6957565468325200
  0.4035317239934332  0.5371610924103587  0.9459366928359191
  0.1622025886801901  0.5610500149855480  0.5894086184956272
  0.4942479211195824  0.8071580104243720  0.2790146296726572
  0.8111392511763974  0.4420752818660353  0.1664137203327103
  0.5419451853888024  0.3340273605952179  0.5283981584802930
  0.6453399396613935  0.2379174057188420  0.8509601796060590
  0.4555898379612173  0.8219485725101575  0.8177862517842340
  0.4104361572865242  0.5648971738321367  0.4764550354735697
  0.1959752184935744  0.5806658174177617  0.1598115306461448
  0.9788497328065120  0.2954471955654005  0.2753252904856814
  0.7111074794471747  0.6744197651840986  0.6049134235509120
  0.3326456051285432  0.9931619955121147  0.9388061601980561
  0.3532570460130978  0.0546190179160659  0.7156748139842359
  0.7285021404286648  0.6654236032505805  0.3800930382076799
  0.9679186488016934  0.2560058711539823  0.0529173577077107
  0.1819260666784131  0.1849430256601861  0.1604668688102314
  0.8224923387776891  0.9699032737375457  0.4695686679634101
  0.0369924253456687  0.8135024065036220  0.7967910072204378
  0.2505084850124973  0.2184901152729573  0.8535038100548493
  0.0484510723259046  0.8316372909448887  0.5288073702896527
  0.8093335437620127  0.9621560195176997  0.1927640381430656
  0.0947679961653623  0.5033555844847016  0.8555536994663802
  0.5700429622283366  0.5805324640356754  0.1675734823640264
  0.4274099251213698  0.9547222471301428  0.4975433452088573
  0.3211522157324658  0.9516647220494394  0.1241266142131478
  0.6321047065190875  0.5328087600958112  0.7731267089112068
  0.0239437185784447  0.3492244624050928  0.4441799349655420
 
             NaN             NaN             NaN
             NaN             NaN             NaN
             NaN             NaN             NaN
             NaN             NaN             NaN
             NaN             NaN             NaN
             NaN             NaN             NaN
             NaN             NaN             NaN
             NaN             NaN             NaN
             NaN             NaN             NaN
             NaN             NaN             NaN
             NaN             NaN             NaN
             NaN             NaN             NaN
             NaN             NaN             NaN
             NaN             NaN             NaN
             NaN             NaN             NaN
             NaN             NaN             NaN
             NaN             NaN             NaN
             NaN             NaN             NaN
             NaN             NaN             NaN
             NaN             NaN             NaN
             NaN             NaN             NaN
             NaN             NaN             NaN
             NaN             NaN             NaN
             NaN             NaN             NaN
             NaN             NaN             NaN
             NaN             NaN             NaN
             NaN             NaN             NaN
             NaN             NaN             NaN
             NaN             NaN             NaN
             NaN             NaN             NaN
             NaN             NaN             NaN
             NaN             NaN             NaN
             NaN             NaN             NaN
             NaN             NaN             NaN
             NaN             NaN             NaN
             NaN             NaN             NaN
             NaN             NaN             NaN
             NaN             NaN             NaN
             NaN             NaN             NaN
             NaN             NaN             NaN
             NaN             NaN             NaN
             NaN             NaN             NaN
             NaN             NaN             NaN
             NaN             NaN             NaN
             NaN             NaN             NaN
             NaN             NaN             NaN
             NaN             NaN             NaN
             NaN             NaN             NaN
             NaN             NaN             NaN
             NaN             NaN             NaN
             NaN             NaN             NaN
             NaN             NaN             NaN
             NaN             NaN             NaN
             NaN             NaN             NaN
             NaN             NaN             NaN
             NaN             NaN             NaN
             NaN             NaN             NaN
             NaN             NaN             NaN
             NaN             NaN             NaN
             NaN             NaN             NaN
             NaN             NaN             NaN
             NaN             NaN             NaN
