Na2 Ca2 V4 Si2 P4 O24                   
   1.00000000000000     
     8.8728400000000001    0.1342640000000000    0.0949750000000000
     4.3063359999999999    7.6894390000000001    0.0799550000000000
     4.4402509999999999    2.5507140000000001    7.2118760000000002
   Ca   Na   V    Si   P    O 
     2     2     4     2     4    24
Direct
  0.7022398482159952  0.4565183299644631  0.2595890728285214
  0.0009043590075803  0.9996421847511363  0.0010682185584015
  0.1343055402980419  0.7437219381069257  0.4141537107045201
  0.8850235401654349  0.2504859729343973  0.6109826137905457
  0.3524328143081347  0.3523149375272736  0.3594795489971481
  0.6262686225009924  0.6429533947344971  0.6492846881191969
  0.1621552048770685  0.1454719397199579  0.1344128841538554
  0.8487013170050891  0.8514162956670939  0.8607316802536014
  0.4531323590242021  0.7526054670523779  0.0349785811777176
  0.5407738633298506  0.2504947108702901  0.9598795798975511
  0.0251225025801629  0.4560475127717880  0.7543741649485527
  0.9756627563332926  0.5510881803560466  0.2462903104801465
  0.7435178980717644  0.0330743329148451  0.4699752962183006
  0.2509005002820432  0.9593226275078904  0.5342280345569268
  0.2133763390034577  0.4183368101458159  0.5941290757376139
  0.7813118385488980  0.5598967063472382  0.4068870383694254
  0.5751871434597665  0.2136265131387684  0.4418613724904275
  0.4271200276422512  0.7909613287392645  0.5432679374269779
  0.4272008464719141  0.5767156927212119  0.2338140533867242
  0.5662366913191895  0.4260622042891935  0.7653003358467703
  0.9095116492462674  0.0723911124757853  0.2810055586905024
  0.0826469001354729  0.9315059904331688  0.7218748760799624
  0.0307810382370440  0.2882255114409573  0.9405494033941044
  0.9539794852302416  0.7264853987334143  0.0744775178234953
  0.2571085032545861  0.9237910290890344  0.0661016543720908
  0.7392482884035065  0.0785471707483541  0.9359082901736390
  0.4849175768100991  0.2968711812734028  0.1436761760780553
  0.4889887257864893  0.7121217922321201  0.8578570186837523
  0.1209316595131251  0.5361493009712679  0.3007100807570707
  0.8654974081268810  0.4742060094886258  0.7140281728142067
  0.2606333019751622  0.1423015134349076  0.5041104986176567
  0.7267249177852103  0.8550654889552123  0.4984179038093769
  0.3749226654424134  0.1930805073537014 -0.0094332249298469
  0.6403672788374798  0.7688536311664982  1.0162010567782160
  0.2033984058963194  0.9845572779381161  0.3742903243299463
  0.7818858250220261  0.0179827423452224  0.6292521605575639
  1.0186881597985527  0.3755424749568783  0.2098275346720382
  0.9933096631619881  0.6370995983240068  0.7706540459841444
 
             NaN             NaN             NaN
             NaN             NaN             NaN
             NaN             NaN             NaN
             NaN             NaN             NaN
             NaN             NaN             NaN
             NaN             NaN             NaN
             NaN             NaN             NaN
             NaN             NaN             NaN
             NaN             NaN             NaN
             NaN             NaN             NaN
             NaN             NaN             NaN
             NaN             NaN             NaN
             NaN             NaN             NaN
             NaN             NaN             NaN
             NaN             NaN             NaN
             NaN             NaN             NaN
             NaN             NaN             NaN
             NaN             NaN             NaN
             NaN             NaN             NaN
             NaN             NaN             NaN
             NaN             NaN             NaN
             NaN             NaN             NaN
             NaN             NaN             NaN
             NaN             NaN             NaN
             NaN             NaN             NaN
             NaN             NaN             NaN
             NaN             NaN             NaN
             NaN             NaN             NaN
             NaN             NaN             NaN
             NaN             NaN             NaN
             NaN             NaN             NaN
             NaN             NaN             NaN
             NaN             NaN             NaN
             NaN             NaN             NaN
             NaN             NaN             NaN
             NaN             NaN             NaN
             NaN             NaN             NaN
             NaN             NaN             NaN
