Na2 Ca2 V4 Si2 P4 O24
1.0
8.872840 0.134264 0.094975
4.306336 7.689439 0.079955
4.440251 2.550714 7.211876
Ca Na V Si P O
2 2 4 2 4 24
direct
0.588520 0.466090 0.359185 Ca
1.002022 0.993634 0.000946 Ca
0.216736 0.666117 0.455987 Na
0.883337 0.251357 0.598111 Na
0.357565 0.356629 0.346072 V
0.630586 0.649690 0.652369 V
0.153672 0.147172 0.138370 V
0.846416 0.854581 0.857620 V
0.451366 0.754676 0.040472 Si
0.543264 0.252361 0.956844 Si
0.028708 0.460335 0.750031 P
0.964398 0.545259 0.245054 P
0.742709 0.044898 0.465010 P
0.251856 0.959539 0.531216 P
0.212236 0.432861 0.582418 O
0.781372 0.569750 0.415245 O
0.575490 0.227556 0.442926 O
0.419901 0.780174 0.552157 O
0.429025 0.581930 0.238828 O
0.565285 0.421562 0.756303 O
0.908303 0.070287 0.272934 O
0.082881 0.943468 0.719745 O
0.047079 0.282622 0.925380 O
0.945232 0.722232 0.071998 O
0.257747 0.928524 0.060723 O
0.737990 0.078269 0.932457 O
0.509837 0.304461 0.127498 O
0.490825 0.702509 0.866279 O
0.128543 0.519768 0.280810 O
0.863308 0.480143 0.719320 O
0.284912 0.134625 0.487966 O
0.711279 0.871087 0.504699 O
0.362459 0.204332 0.007668 O
0.635161 0.791524 0.995925 O
0.201259 0.980485 0.376851 O
0.792041 0.024509 0.620073 O
-0.008593 0.369120 0.223547 O
0.998988 0.635065 0.774296 O
