Al8 Fe16 O32
1.0
        8.3738222122         0.0000000000         0.0000000000
        0.0000000000         8.3738222122         0.0000000000
        0.0000000000         0.0000000000         8.3738222122
   Al   Fe    O
    7   16   32
Direct
   0.5000000000000000    0.5000000000000000    0.5000000000000000 Al
     0.250000000         0.750000000         0.250000000
     0.000000000         0.000000000         0.500000000
     0.250000000         0.250000000         0.750000000
     0.000000000         0.500000000         0.000000000
     0.500000000         0.000000000         0.000000000
     0.750000000         0.250000000         0.250000000
     0.375000000         0.125000000         0.375000000
     0.875000000         0.875000000         0.125000000
     0.625000000         0.875000000         0.375000000
     0.125000000         0.125000000         0.125000000
     0.375000000         0.625000000         0.875000000
     0.875000000         0.375000000         0.625000000
     0.625000000         0.375000000         0.875000000
     0.125000000         0.625000000         0.625000000
     0.875000000         0.125000000         0.875000000
     0.375000000         0.875000000         0.625000000
     0.125000000         0.875000000         0.875000000
     0.625000000         0.125000000         0.625000000
     0.875000000         0.625000000         0.375000000
     0.375000000         0.375000000         0.125000000
     0.125000000         0.375000000         0.375000000
     0.625000000         0.625000000         0.125000000
     0.124486998         0.375512987         0.124486998
     0.625513017         0.125513002         0.374487013
     0.874486983         0.125513002         0.125513002
     0.374487013         0.874486983         0.374487013
     0.375512987         0.124486998         0.124486998
     0.375512987         0.375512987         0.375512987
     0.124486998         0.124486998         0.375512987
     0.125513002         0.874486983         0.125513002
     0.124486998         0.875513017         0.624486983
     0.625513017         0.625513017         0.874486983
     0.874486983         0.625513017         0.625513017
     0.374487013         0.374487013         0.874486983
     0.375512987         0.624486983         0.624486983
     0.375512987         0.875513017         0.875513017
     0.124486998         0.624486983         0.875513017
     0.125513002         0.374487013         0.625513017
     0.624486983         0.375512987         0.624486983
     0.125513002         0.125513002         0.874486983
     0.374487013         0.125513002         0.625513017
     0.874486983         0.874486983         0.874486983
     0.875513017         0.124486998         0.624486983
     0.875513017         0.375512987         0.875513017
     0.624486983         0.124486998         0.875513017
     0.625513017         0.874486983         0.625513017
     0.624486983         0.875513017         0.124486998
     0.125513002         0.625513017         0.374487013
     0.374487013         0.625513017         0.125513002
     0.874486983         0.374487013         0.374487013
     0.875513017         0.624486983         0.124486998
     0.875513017         0.875513017         0.375512987
     0.624486983         0.624486983         0.375512987
     0.625513017         0.374487013         0.125513002
