Zn8 Co16 O32                            
    1.000000000000000     
     7.9725379650972075   -0.0004558482978882   -0.0000060216948143
    -0.0004558551633912    7.9725537010765981   -0.0002585080959077
    -0.0000060000409941   -0.0002585103201213    7.9725133580452567
Zn   Co   O 
 1   16    32
Direct
  0.2500000000000000  0.7500000000000000  0.7500000000000000
  0.3750000154843178  0.3749976417299550  0.6250002562955288
  0.3750008138664356  0.1249988179925410  0.8750020209100882
  0.6249990214287848  0.6250018778432178  0.6250020774021934
  0.6249993664676410  0.3749959322527445  0.3749972036792428
  0.3750024176649447  0.8750031725005272  0.1249981080326279
  0.3750012880007745  0.6249998114740549  0.3749982611845084
  0.6249990108219876  0.1249999494194540  0.1250001221337484
  0.6249986185686254  0.8750023077508828  0.8750011844311842
  0.8749996078796300  0.3749961649286746  0.1249995626504798
  0.8749984639110764  0.1250010534628387  0.3749983539031305
  0.1250010312856418  0.6249978808658767  0.1249975414465965
  0.1250002024600931  0.3749978189624414  0.8750026025038267
  0.8749984918246199  0.8750033444576459  0.6250015942534830
  0.8749993458805534  0.6249999044066215  0.8750016516463361
  0.1250005724603653  0.1249999653062659  0.6250003224733476
  0.1250012897176376  0.8750039372809937  0.3749995638341375
  0.1406398901497425  0.3593647253509857  0.6406443041652636
  0.3593563778872735  0.3593785689670241  0.8593591898226904
  0.3593627014597729  0.1406410941922758  0.6406230456406234
  0.6093676018191445  0.6093581443860643  0.3906380097450537
  0.3906352836754721  0.6093604953699483  0.6093714268102488
  0.3906393223768703  0.3906312920667361  0.3906400676136386
  0.1406226670158048  0.1406462837263263  0.8593606572903596
  0.6093588089890005  0.3906385056438992  0.6093594917359653
  0.1406343304015394  0.8593612656409988  0.1406408956435357
  0.3593621953796458  0.8593700101631399  0.3593675296695054
  0.3593633130862557  0.6406335356319843  0.1406291712746039
  0.6093758549607884  0.1093515512943952  0.8906404104424297
  0.3906406025699312  0.1093632785258478  0.1093754718119300
  0.3906468497684443  0.8906215584442592  0.8906342596478822
  0.1406313421069072  0.6406398085573457  0.3593618621934951
  0.6093645651228172  0.8906377884069698  0.1093524129364951
  0.6406456675761376  0.3593624737789085  0.1406407120937132
  0.8593607716058571  0.3593649070099332  0.3593577081170594
  0.8593620046218149  0.1406417644712548  0.1406343926514282
  0.1093619551445215  0.6093569183809677  0.8906377489869257
  0.8906367050244981  0.6093606614071589  0.1093621475921793
  0.8906409620555991  0.3906339756931629  0.8906396345751517
  0.6406387059288505  0.1406412447157805  0.3593606846363357
  0.1093565136731556  0.3906381008636117  0.1093556590202027
  0.6406400108840060  0.8593629552117648  0.6406460848810696
  0.8593564578062924  0.8593666983410415  0.8593637998856352
  0.8593646497736316  0.6406369340247764  0.6406369711751267
  0.1093637030010868  0.1093606283228112  0.3906383261119544
  0.8906352053619884  0.1093620702460072  0.6093667106217495
  0.8906373691707898  0.8906330913434317  0.3906380998426329
  0.6406380555911184  0.6406450427053301  0.8593625154122009
  0.1093599982881130  0.8906350464811297  0.6093601711724688
 
  0.00000000E+00  0.00000000E+00  0.00000000E+00
  0.00000000E+00  0.00000000E+00  0.00000000E+00
  0.00000000E+00  0.00000000E+00  0.00000000E+00
  0.00000000E+00  0.00000000E+00  0.00000000E+00
  0.00000000E+00  0.00000000E+00  0.00000000E+00
  0.00000000E+00  0.00000000E+00  0.00000000E+00
  0.00000000E+00  0.00000000E+00  0.00000000E+00
  0.00000000E+00  0.00000000E+00  0.00000000E+00
  0.00000000E+00  0.00000000E+00  0.00000000E+00
  0.00000000E+00  0.00000000E+00  0.00000000E+00
  0.00000000E+00  0.00000000E+00  0.00000000E+00
  0.00000000E+00  0.00000000E+00  0.00000000E+00
  0.00000000E+00  0.00000000E+00  0.00000000E+00
  0.00000000E+00  0.00000000E+00  0.00000000E+00
  0.00000000E+00  0.00000000E+00  0.00000000E+00
  0.00000000E+00  0.00000000E+00  0.00000000E+00
  0.00000000E+00  0.00000000E+00  0.00000000E+00
  0.00000000E+00  0.00000000E+00  0.00000000E+00
  0.00000000E+00  0.00000000E+00  0.00000000E+00
  0.00000000E+00  0.00000000E+00  0.00000000E+00
  0.00000000E+00  0.00000000E+00  0.00000000E+00
  0.00000000E+00  0.00000000E+00  0.00000000E+00
  0.00000000E+00  0.00000000E+00  0.00000000E+00
  0.00000000E+00  0.00000000E+00  0.00000000E+00
  0.00000000E+00  0.00000000E+00  0.00000000E+00
  0.00000000E+00  0.00000000E+00  0.00000000E+00
  0.00000000E+00  0.00000000E+00  0.00000000E+00
  0.00000000E+00  0.00000000E+00  0.00000000E+00
  0.00000000E+00  0.00000000E+00  0.00000000E+00
  0.00000000E+00  0.00000000E+00  0.00000000E+00
  0.00000000E+00  0.00000000E+00  0.00000000E+00
  0.00000000E+00  0.00000000E+00  0.00000000E+00
  0.00000000E+00  0.00000000E+00  0.00000000E+00
  0.00000000E+00  0.00000000E+00  0.00000000E+00
  0.00000000E+00  0.00000000E+00  0.00000000E+00
  0.00000000E+00  0.00000000E+00  0.00000000E+00
  0.00000000E+00  0.00000000E+00  0.00000000E+00
  0.00000000E+00  0.00000000E+00  0.00000000E+00
  0.00000000E+00  0.00000000E+00  0.00000000E+00
  0.00000000E+00  0.00000000E+00  0.00000000E+00
  0.00000000E+00  0.00000000E+00  0.00000000E+00
  0.00000000E+00  0.00000000E+00  0.00000000E+00
  0.00000000E+00  0.00000000E+00  0.00000000E+00
  0.00000000E+00  0.00000000E+00  0.00000000E+00
  0.00000000E+00  0.00000000E+00  0.00000000E+00
  0.00000000E+00  0.00000000E+00  0.00000000E+00
  0.00000000E+00  0.00000000E+00  0.00000000E+00
  0.00000000E+00  0.00000000E+00  0.00000000E+00
