Na2 Ca2 V4 Si4 P2 O24                   
   1.00000000000000     
     8.8352839999999997    0.1350930000000000    0.0608490000000000
     4.2757030000000000    7.7047730000000003    0.0929450000000000
     4.4038930000000001    2.5840100000000001    7.2249480000000004
   Ca   Na   V    Si   P    O 
     2     2     4     4     2    24
Direct
  0.7412401436231509  0.4078842971467084  0.1535421375044844
  0.0005719807389613  0.9868364806321780  0.0124685578845352
  0.2834370740771174  0.6736867614168346  0.4774570200855640
  0.8508776320413961  0.2552077881008256  0.6039722690022140
  0.3547806954997411  0.3594199520772453  0.3607749839770035
  0.6232406835165045  0.6474797151960329  0.6521062074930695
  0.1515141848425105  0.1458274693677220  0.1414100204268193
  0.8505456064220495  0.8531345113247082  0.8523197686292181
  0.0210075328731755  0.4643807267072769  0.7502424786298073
  0.7385771793431321  0.0344865100749820  0.4715032461082456
  0.4502375796874791  0.7592164126938727  0.0306332300939842
  0.5394880748589195  0.2552137114290187  0.9660800101568724
  0.9616338196961747  0.5469128773436512  0.2492536050601520
  0.2473071968866480  0.9689632870424892  0.5383092905568913
  0.2075126078129090  0.4255499822889356  0.5735339671511671
  0.7795856690891612  0.5669512203962921  0.4167227493699469
  0.5717782795760445  0.2347720071174659  0.4350867604943751
  0.4092865936182777  0.7841721390269597  0.5573264730754299
  0.4303352185353533  0.5826563458154860  0.2274821332143447
  0.5558382332556757  0.4278662497847637  0.7679972253672458
  0.9121430351205536  0.0729934414937572  0.2724004078306897
  0.0766975423017830  0.9590116735654415  0.7235329206517572
  0.0337073276798429  0.2818556595803228  0.9412821606594389
  0.9423976816886913  0.7240323833653823  0.0743863203168277
  0.2635757142837815  0.9361582090530326  0.0585685508328310
  0.7297762779389676  0.0758846514284162  0.9405194204403196
  0.5103160017189714  0.3039141775486565  0.1367277485966748
  0.4744913466054650  0.7165626187037940  0.8590415244311330
  0.1321582335289212  0.5144818591003790  0.2797911587981894
  0.8329449420272865  0.4936718225795941  0.7320848955641667
  0.2961835951137904  0.1336799490284078  0.4918399717926665
  0.7017585359309334  0.8522895069136109  0.5112890731034899
  0.3528812145161698  0.2083366211978181  0.0216749552998858
  0.6481716967730161  0.7664781850555098  0.9963044130873194
  0.1897488306742498  0.9949217167373973  0.3846927546557866
  0.7840655014676285  0.0079852263816820  0.6431312103641448
  0.9829997418657077  0.3749273377462095  0.2195660879014155
  0.0053605746141311  0.6485409984323683  0.7696445295334097
 
             NaN             NaN             NaN
             NaN             NaN             NaN
             NaN             NaN             NaN
             NaN             NaN             NaN
             NaN             NaN             NaN
             NaN             NaN             NaN
             NaN             NaN             NaN
             NaN             NaN             NaN
             NaN             NaN             NaN
             NaN             NaN             NaN
             NaN             NaN             NaN
             NaN             NaN             NaN
             NaN             NaN             NaN
             NaN             NaN             NaN
             NaN             NaN             NaN
             NaN             NaN             NaN
             NaN             NaN             NaN
             NaN             NaN             NaN
             NaN             NaN             NaN
             NaN             NaN             NaN
             NaN             NaN             NaN
             NaN             NaN             NaN
             NaN             NaN             NaN
             NaN             NaN             NaN
             NaN             NaN             NaN
             NaN             NaN             NaN
             NaN             NaN             NaN
             NaN             NaN             NaN
             NaN             NaN             NaN
             NaN             NaN             NaN
             NaN             NaN             NaN
             NaN             NaN             NaN
             NaN             NaN             NaN
             NaN             NaN             NaN
             NaN             NaN             NaN
             NaN             NaN             NaN
             NaN             NaN             NaN
             NaN             NaN             NaN
