Na2 Ca2 V4 Si4 P2 O24
1.0
8.835284 0.135093 0.060849
4.275703 7.704773 0.092945
4.403893 2.584010 7.224948
Ca Na V Si P O
2 2 4 4 2 24
direct
0.679890 0.425260 0.215207 Ca
0.007797 0.984991 0.002535 Ca
0.348716 0.580588 0.497205 Na
0.869112 0.251424 0.600213 Na
0.354019 0.361055 0.350482 V
0.627153 0.652664 0.653018 V
0.150087 0.147929 0.135769 V
0.849602 0.855330 0.847043 V
0.025952 0.468561 0.745051 Si
0.739225 0.042722 0.463651 Si
0.450145 0.759143 0.033209 Si
0.541717 0.255052 0.958932 Si
0.960717 0.544554 0.243234 P
0.249746 0.963975 0.528817 P
0.206398 0.441334 0.562176 O
0.787349 0.561075 0.419410 O
0.567918 0.239434 0.435079 O
0.415583 0.782890 0.548152 O
0.434238 0.581987 0.227713 O
0.557578 0.426968 0.758954 O
0.910684 0.072267 0.262573 O
0.082037 0.952976 0.717444 O
0.051372 0.278764 0.927149 O
0.935349 0.726418 0.074799 O
0.262528 0.935347 0.057171 O
0.734925 0.079438 0.931123 O
0.514913 0.304970 0.127689 O
0.472704 0.714837 0.862328 O
0.136817 0.509688 0.266531 O
0.830833 0.497027 0.741359 O
0.293754 0.134624 0.481307 O
0.700855 0.856507 0.512683 O
0.355073 0.207947 0.017560 O
0.641687 0.785150 0.988074 O
0.189180 0.993079 0.377165 O
0.789495 0.014687 0.632916 O
-0.022039 0.375989 0.213433 O
1.001542 0.650561 0.774601 O
