Na2 Ca2 V4 Si2 P4 O24                   
   1.00000000000000     
     8.8687559999999994    0.1313780000000000    0.1008270000000000
     4.3019299999999996    7.6823459999999999    0.0763140000000000
     4.4421929999999996    2.5413090000000000    7.2153440000000000
   Ca   Na   V    Si   P    O 
     2     2     4     2     4    24
Direct
  0.6444371523193694  0.4883485513682427  0.3287754127851609
 -0.0001731361320887  1.0015313964726762 -0.0015160487850450
  0.1264581992826704  0.7458837859921386  0.4108221624747362
  0.8934590227767270  0.2483644356660511  0.6088522058558633
  0.3590170565546322  0.3473814977467478  0.3530295912886490
  0.6297024407654401  0.6434329731195240  0.6520335796895683
  0.1548820293379312  0.1485336149767837  0.1338306273771971
  0.8505833932382229  0.8499839332527491  0.8592106713785369
  0.4542806145925470  0.7532887298183223  0.0353628411128079
  0.5430576772378690  0.2511569668139266  0.9540980300509916
  0.0284900205914218  0.4543321593258937  0.7518676097010971
  0.9759799466533761  0.5489752207282707  0.2432488512529366
  0.7471261993447489  0.0354141080691796  0.4670710360590833
  0.2550681682026317  0.9539004932316050  0.5316732898696270
  0.2143048245536825  0.4219727265892056  0.5869177806028656
  0.7873683341906078  0.5738687802296069  0.4107642955959820
  0.5810841615237695  0.2183110903239109  0.4367253778393116
  0.4286004979789571  0.7806018004280163  0.5428570627039081
  0.4211865296531229  0.5803370881144420  0.2332556929541254
  0.5698511394716330  0.4211233304386421  0.7557194857460765
  0.9173935592016139  0.0603158160393304  0.2795407412908713
  0.0861143268595800  0.9305478865996707  0.7207404402102164
  0.0413339701443550  0.2826964472019906  0.9321182968754040
  0.9573031505547669  0.7235037848698599  0.0709083609263775
  0.2596118762107991  0.9262178991120437  0.0594083999357644
  0.7391787669899672  0.0757760360597148  0.9342199174959466
  0.4943123550057997  0.2972936058118021  0.1361558610880846
  0.4938891544087568  0.7072193665398732  0.8582652482035344
  0.1313520933622934  0.5227342410134923  0.2902654002213492
  0.8662653951383937  0.4708579028635806  0.7158210904561251
  0.2733856389472040  0.1333242148290681  0.5008888709284285
  0.7208967607812529  0.8603872685373937  0.5027990733124250
  0.3658780515015913  0.2004839116615188 -0.0009381193942423
  0.6384666806355415  0.7716149363701937  1.0189566676884392
  0.2046049899465693  0.9819736111734634  0.3734499045572828
  0.7852594530393558  0.0222440952267958  0.6259407783669850
  0.9906953015842053  0.3758179523856769  0.2222525700568680
  0.9941490638155579  0.6358965574875723  0.7692119689475850
 
             NaN             NaN             NaN
             NaN             NaN             NaN
             NaN             NaN             NaN
             NaN             NaN             NaN
             NaN             NaN             NaN
             NaN             NaN             NaN
             NaN             NaN             NaN
             NaN             NaN             NaN
             NaN             NaN             NaN
             NaN             NaN             NaN
             NaN             NaN             NaN
             NaN             NaN             NaN
             NaN             NaN             NaN
             NaN             NaN             NaN
             NaN             NaN             NaN
             NaN             NaN             NaN
             NaN             NaN             NaN
             NaN             NaN             NaN
             NaN             NaN             NaN
             NaN             NaN             NaN
             NaN             NaN             NaN
             NaN             NaN             NaN
             NaN             NaN             NaN
             NaN             NaN             NaN
             NaN             NaN             NaN
             NaN             NaN             NaN
             NaN             NaN             NaN
             NaN             NaN             NaN
             NaN             NaN             NaN
             NaN             NaN             NaN
             NaN             NaN             NaN
             NaN             NaN             NaN
             NaN             NaN             NaN
             NaN             NaN             NaN
             NaN             NaN             NaN
             NaN             NaN             NaN
             NaN             NaN             NaN
             NaN             NaN             NaN
