Na2 Ca2 V4 Si2 P4 O24
1.0
8.868756 0.131378 0.100827
4.301930 7.682346 0.076314
4.442193 2.541309 7.215344
Ca Na V Si P O
2 2 4 2 4 24
direct
0.559009 0.477390 0.406118 Ca
1.001348 0.995756 0.000633 Ca
0.178394 0.694096 0.437057 Na
0.888334 0.250877 0.599002 Na
0.358861 0.355944 0.346009 V
0.633237 0.648279 0.652959 V
0.154010 0.146679 0.138439 V
0.846047 0.854493 0.858891 V
0.452830 0.753190 0.041639 Si
0.543579 0.251492 0.956594 Si
0.029927 0.458724 0.751229 P
0.965489 0.545000 0.245495 P
0.743820 0.044834 0.465658 P
0.252550 0.958137 0.531821 P
0.215843 0.432894 0.583823 O
0.779898 0.568845 0.414604 O
0.575420 0.225802 0.443677 O
0.421492 0.779357 0.553042 O
0.430178 0.581918 0.240540 O
0.566023 0.420397 0.756220 O
0.910590 0.068283 0.274551 O
0.083532 0.940887 0.720571 O
0.048352 0.281779 0.925921 O
0.946511 0.721462 0.072338 O
0.257567 0.925805 0.061877 O
0.739594 0.078726 0.933571 O
0.505392 0.305518 0.128292 O
0.495044 0.699134 0.867565 O
0.126174 0.523304 0.284900 O
0.868401 0.476624 0.715197 O
0.282440 0.134948 0.489301 O
0.715031 0.868871 0.505797 O
0.364863 0.200915 0.006048 O
0.633559 0.796320 0.996348 O
0.203919 0.976751 0.377124 O
0.791609 0.026580 0.620827 O
-0.002830 0.366843 0.224412 O
0.996425 0.635948 0.774147 O
