Ca8 Ni12 F42
1.0
7.264566 0.028535 -0.050170
-3.631676 6.336793 0.015146
-0.118699 -0.028761 18.342905
Ca Ni F
8 12 42
direct
0.006221 0.835193 0.675954 Ca
0.148004 0.642585 0.980372 Ca
0.352235 0.513794 0.313504 Ca
0.844313 0.014795 0.347957 Ca
0.166414 0.160279 0.008492 Ca
0.990693 0.796012 0.174830 Ca
0.776748 0.978465 0.836162 Ca
0.224012 0.200753 0.507221 Ca
0.347243 0.008500 0.334831 Ni
0.992398 0.334633 0.665721 Ni
0.657865 0.657307 0.001444 Ni
0.308958 0.004191 0.832588 Ni
0.993438 0.311054 0.161683 Ni
0.697327 0.687729 0.494940 Ni
0.498295 0.819498 0.162485 Ni
0.189207 0.681246 0.497326 Ni
0.302730 0.489152 0.829462 Ni
0.805269 0.495661 0.829179 Ni
0.697404 0.187893 0.498547 Ni
0.495412 0.310199 0.162343 Ni
0.752356 0.205212 0.601300 F
0.805065 0.554849 0.937414 F
0.441373 0.257713 0.269431 F
0.261631 0.734439 0.387496 F
0.472729 0.742877 0.056913 F
0.238593 0.480236 0.727764 F
0.822053 0.946813 0.955683 F
0.051820 0.883356 0.289997 F
0.123489 0.177487 0.618011 F
0.970879 0.789514 0.053436 F
0.875374 0.065422 0.724416 F
0.214464 0.190245 0.385018 F
0.518628 0.379973 0.055099 F
0.624469 0.142779 0.388358 F
0.862809 0.481086 0.723732 F
0.368441 0.498439 0.944441 F
0.104046 0.615711 0.603321 F
0.514576 0.883985 0.274723 F
0.800707 0.426202 0.171256 F
0.590500 0.383502 0.497687 F
0.619119 0.194184 0.843009 F
0.406287 0.793118 0.847535 F
0.388450 0.575626 0.506774 F
0.196960 0.618408 0.184743 F
0.016508 0.286885 0.271103 F
0.745098 0.726380 0.596830 F
0.278937 0.976163 0.943961 F
0.324399 0.010385 0.729436 F
0.645722 0.672854 0.382734 F
0.020079 0.356287 0.051690 F
0.188403 0.198701 0.142335 F
0.808968 0.995040 0.477297 F
-0.003043 0.804718 0.815621 F
0.183626 0.188487 0.846762 F
1.001422 0.796699 0.478981 F
0.804637 -0.001514 0.155878 F
0.024347 0.427406 0.870141 F
0.581618 0.608736 0.199470 F
0.387257 0.986645 0.519955 F
0.383242 0.005504 0.137831 F
0.603886 0.599080 0.807065 F
0.997115 0.382545 0.469278 F
