Na2 Ca2 V4 P2 S4 O24                    
   1.00000000000000     
     8.9655450000000005    0.3616970000000000    0.2137960000000000
     4.2702280000000004    7.9070549999999997    0.2312510000000000
     4.1902039999999996    2.6240440000000000    7.4524739999999996
   Ca   Na   V    P    S    O 
     2     2     4     2     4    24
Direct
  0.3276553947904923  0.5575154032015031  0.6926761308239185
  0.9929519641779392  0.9465196735096064  0.0902249871193365
  0.4101627940478898  0.0839994806198212  0.7531071639062367
  0.5979001796030934  0.8814391312972635  0.2423560943377276
  0.3511583332741249  0.3612896023894825  0.3545064002637034
  0.6628793712773375  0.6713003649559000  0.6260482983141071
  0.1493735963780162  0.1529163287034694  0.1415593963606239
  0.8438741191995252  0.8471773612457526  0.8547315974769238
  0.7537207750233730  0.0454704293603795  0.4400422150903303
  0.4592156205360505  0.7511340591547114  0.0416855059841961
  0.0423200874943764  0.4416077342329332  0.7570747219782408
  0.9588523809513300  0.5511405584137445  0.2528390813273163
  0.2390279910820116  0.9685855358234962  0.5545843188833619
  0.5441907346816055  0.2542137922553049  0.9525536129265318
  0.2216035979748327  0.4387802743421720  0.5986840108016448
  0.7872011626558268  0.5518663287679491  0.4125336863719750
  0.5667687647171742  0.2020020733498509  0.4569047162439079
  0.4238968928274737  0.8088867350401991  0.5385129308294582
  0.4534595133881552  0.5691221061561108  0.1926591632689742
  0.5560736283757066  0.4367330371970743  0.8164498221422912
  0.9041981045781300  0.1121740273924223  0.2636502901700782
  0.1132758824960866  0.8820789330196381  0.7320880891269003
  0.0760978230493416  0.2555266674281176  0.8990794157299858
  0.9129479240055638  0.7330892250943628  0.0994966697553939
  0.2651808561020185  0.9086470308668072  0.0820902850118928
  0.7240531981193793  0.1039417848830967  0.9160843011294473
  0.4858829864423227  0.2398071488651251  0.1439743856007314
  0.4979264226518613  0.7612163478402296  0.8478710010187112
  0.1012139292827888  0.5560453484098185  0.2882745045041267
  0.8933877898067826  0.4846714798135298  0.7035693415634019
  0.2500319536156861  0.1216665448709924  0.5628419058518019
  0.7513657106332078  0.8901332604703762  0.4052747822301539
  0.3983048905687874  0.2376547528424069  0.9268620246418426
  0.5983068809497506  0.8111021624870943  0.0330429664886824
  0.1926540411965752  0.0161956283041385  0.3973129666936579
  0.7971623497056091  0.9680591071295577  0.6145677798574202
  0.0268833047003758  0.4006352532114316  0.1889656572495518
  0.0141639466327147  0.5788760396712109  0.8256152814036373
 
             NaN             NaN             NaN
             NaN             NaN             NaN
             NaN             NaN             NaN
             NaN             NaN             NaN
             NaN             NaN             NaN
             NaN             NaN             NaN
             NaN             NaN             NaN
             NaN             NaN             NaN
             NaN             NaN             NaN
             NaN             NaN             NaN
             NaN             NaN             NaN
             NaN             NaN             NaN
             NaN             NaN             NaN
             NaN             NaN             NaN
             NaN             NaN             NaN
             NaN             NaN             NaN
             NaN             NaN             NaN
             NaN             NaN             NaN
             NaN             NaN             NaN
             NaN             NaN             NaN
             NaN             NaN             NaN
             NaN             NaN             NaN
             NaN             NaN             NaN
             NaN             NaN             NaN
             NaN             NaN             NaN
             NaN             NaN             NaN
             NaN             NaN             NaN
             NaN             NaN             NaN
             NaN             NaN             NaN
             NaN             NaN             NaN
             NaN             NaN             NaN
             NaN             NaN             NaN
             NaN             NaN             NaN
             NaN             NaN             NaN
             NaN             NaN             NaN
             NaN             NaN             NaN
             NaN             NaN             NaN
             NaN             NaN             NaN
