Na2 Ca2 V4 P2 S4 O24
1.0
8.965545 0.361697 0.213796
4.270228 7.907055 0.231251
4.190204 2.624044 7.452474
Ca Na V P S O
2 2 4 2 4 24
direct
0.416060 0.540965 0.631414 Ca
-0.017804 0.996419 0.040626 Ca
0.415833 0.088649 0.751265 Na
0.573525 0.759666 0.318199 Na
0.351540 0.358213 0.356353 V
0.654183 0.662079 0.632216 V
0.147617 0.151180 0.142713 V
0.845030 0.851767 0.858201 V
0.752700 0.046822 0.445654 P
0.452413 0.751303 0.047951 P
0.049387 0.457235 0.749187 S
0.958066 0.551427 0.249632 S
0.243952 0.961804 0.554480 S
0.543231 0.259036 0.941096 S
0.231777 0.432663 0.598313 O
0.775612 0.566807 0.399439 O
0.578666 0.225621 0.445360 O
0.405104 0.781242 0.558951 O
0.428585 0.587549 0.225384 O
0.572406 0.413801 0.765057 O
0.909756 0.093863 0.266780 O
0.093389 0.926671 0.734078 O
0.068386 0.273225 0.901146 O
0.935737 0.734968 0.094541 O
0.265262 0.919249 0.060380 O
0.721010 0.097771 0.940017 O
0.482649 0.311457 0.099015 O
0.495137 0.717552 0.875990 O
0.097178 0.525159 0.309060 O
0.901712 0.501122 0.691694 O
0.296116 0.100581 0.542405 O
0.718550 0.900105 0.435457 O
0.402451 0.209438 0.951434 O
0.599372 0.804972 0.029257 O
0.191641 0.017342 0.398665 O
0.787715 0.986561 0.620905 O
1.008550 0.409188 0.181783 O
0.021896 0.597217 0.810111 O
