Li16 Mn16 P16 O64 F16
1.0
10.355964 0.000000 0.000000
-1.480374 10.544727 0.000000
-3.694369 -5.233924 13.312727
Li Mn P O F
15 16 16 64 16
direct
0.544500 0.217833 0.906288 Li
0.455500 0.282167 0.093712 Li
0.455500 0.782167 0.093712 Li
0.455500 0.782167 0.593712 Li
0.955500 0.282167 0.093712 Li
0.955500 0.282167 0.593712 Li
0.955500 0.782167 0.093712 Li
0.955500 0.782167 0.593712 Li
0.044500 0.217833 0.406288 Li
0.044500 0.217833 0.906288 Li
0.044500 0.717833 0.406288 Li
0.044500 0.717833 0.906288 Li
0.544500 0.217833 0.406288 Li
0.544500 0.717833 0.406288 Li
0.544500 0.717833 0.906288 Li
0.000000 0.000000 0.000000 Mn
0.000000 1.000000 0.500000 Mn
0.000000 0.500000 0.000000 Mn
0.000000 0.500000 0.500000 Mn
0.500000 0.000000 0.000000 Mn
0.500000 1.000000 0.500000 Mn
0.500000 0.500000 0.000000 Mn
0.500000 0.500000 0.500000 Mn
0.250000 0.250000 0.250000 Mn
0.250000 0.250000 0.750000 Mn
0.250000 0.750000 0.250000 Mn
0.250000 0.750000 0.750000 Mn
0.750000 0.250000 0.250000 Mn
0.750000 0.250000 0.750000 Mn
0.750000 0.750000 0.250000 Mn
0.750000 0.750000 0.750000 Mn
0.225538 0.059217 0.383250 P
0.225538 0.059217 0.883250 P
0.225538 0.559217 0.383250 P
0.225538 0.559217 0.883250 P
0.725538 0.059217 0.383250 P
0.725538 0.059217 0.883250 P
0.725538 0.559217 0.383250 P
0.725538 0.559217 0.883250 P
0.274462 0.440783 0.116750 P
0.274462 0.440783 0.616750 P
0.274462 0.940783 0.116750 P
0.274462 0.940783 0.616750 P
0.774462 0.440783 0.116750 P
0.774462 0.440783 0.616750 P
0.774462 0.940783 0.116750 P
0.774462 0.940783 0.616750 P
0.353472 0.417540 0.038032 O
0.353472 0.417540 0.538032 O
0.353472 0.917540 0.038032 O
0.353472 0.917540 0.538032 O
0.853472 0.417540 0.038032 O
0.853472 0.417540 0.538032 O
0.853472 0.917540 0.038032 O
0.853472 0.917540 0.538032 O
0.319466 0.340278 0.168571 O
0.319466 0.340278 0.668571 O
0.319466 0.840278 0.168571 O
0.319466 0.840278 0.668571 O
0.819466 0.340278 0.168571 O
0.819466 0.340278 0.668571 O
0.819466 0.840278 0.168571 O
0.819466 0.840278 0.668571 O
0.180534 0.159722 0.331429 O
0.180534 0.159722 0.831429 O
0.180534 0.659722 0.331429 O
0.180534 0.659722 0.831429 O
0.680534 0.159722 0.331429 O
0.680534 0.159722 0.831429 O
0.680534 0.659722 0.331429 O
0.680534 0.659722 0.831429 O
0.314898 0.088200 0.189979 O
0.314898 0.088200 0.689979 O
0.314898 0.588200 0.189979 O
0.314898 0.588200 0.689979 O
0.814898 0.088200 0.189979 O
0.814898 0.088200 0.689979 O
0.814898 0.588200 0.189979 O
0.814898 0.588200 0.689979 O
0.146528 0.082460 0.461968 O
0.146528 0.082460 0.961968 O
0.146528 0.582460 0.461968 O
0.146528 0.582460 0.961968 O
0.646528 0.082460 0.461968 O
0.646528 0.082460 0.961968 O
0.646528 0.582460 0.461968 O
0.646528 0.582460 0.961968 O
0.185102 0.411800 0.310021 O
0.185102 0.411800 0.810021 O
0.185102 0.911800 0.310021 O
0.185102 0.911800 0.810021 O
0.685102 0.411800 0.310021 O
0.685102 0.411800 0.810021 O
0.685102 0.911800 0.310021 O
0.685102 0.911800 0.810021 O
0.116354 0.391273 0.058655 O
0.116354 0.391273 0.558655 O
0.116354 0.891273 0.058655 O
0.116354 0.891273 0.558655 O
0.616354 0.391273 0.058655 O
0.616354 0.391273 0.558655 O
0.616354 0.891273 0.058655 O
0.616354 0.891273 0.558655 O
0.383646 0.108727 0.441345 O
0.383646 0.108727 0.941345 O
0.383646 0.608727 0.441345 O
0.383646 0.608727 0.941345 O
0.883646 0.108727 0.441345 O
0.883646 0.108727 0.941345 O
0.883646 0.608727 0.441345 O
0.883646 0.608727 0.941345 O
0.059070 0.169991 0.134199 F
0.059070 0.169991 0.634199 F
0.059070 0.669991 0.134199 F
0.059070 0.669991 0.634199 F
0.559070 0.169991 0.134199 F
0.559070 0.169991 0.634199 F
0.559070 0.669991 0.134199 F
0.559070 0.669991 0.634199 F
0.440930 0.330009 0.365801 F
0.440930 0.330009 0.865801 F
0.440930 0.830009 0.365801 F
0.440930 0.830009 0.865801 F
0.940930 0.330009 0.365801 F
0.940930 0.330009 0.865801 F
0.940930 0.830009 0.365801 F
0.940930 0.830009 0.865801 F
