Ca1 Mn4 P6 O24                          
   1.00000000000000     
     2.7101410000000001    6.9455330000000002    4.5295820000000004
     0.4250880000000000    0.2497760000000000    8.7064090000000007
     7.4613870000000002    0.2494680000000000    4.4821330000000001
   Ca   Mn   P    O 
     1     4     6    24
Direct
  0.3944041713109299  0.6104821580075194  0.5053636155503423
  0.6423214513619344  0.6436376858286734  0.6480348625583043
  0.1417268721838516  0.1544827403572155  0.1433531918471578
  0.8459194683610419  0.8555571747148807  0.8513424693875110
  0.3511223333292489  0.3524322811829530  0.3611216917676797
  0.2425060364452418  0.5285820967223371  0.9729392790925208
  0.0155468486206373  0.7602536675945123  0.4619122078093346
  0.9645136526652199  0.2504272611305312  0.5286586388315073
  0.4601928012330576  0.0370788767547689  0.7527084632724624
  0.5361322166192282  0.9719678902620982  0.2433131512090078
  0.7423562900678432  0.4744370212414796  0.0401169986038241
  0.5984356960958421  0.7620527688965701  0.4000507410199507
  0.3033593630388809  0.0174882201052455  0.9626389731454577
  0.3971735790719087  0.6041472846010451  0.7683219855239221
  0.9529534852188938  0.3196679306380630  0.0189228213296357
  0.7580440978434386  0.3984159230756754  0.6078838777055142
  0.0043920706592788  0.9708642463074023  0.3190705336755272
  0.9848089376937552  0.0346238450893878  0.6689538014069546
  0.5879316370856483  0.4070349984941367  0.2465222746786828
  0.6933150893413668  0.9881797621265768  0.0351347270754932
  0.2234952583622124  0.6111664344403643  0.3846450129004346
  0.0380463546026207  0.6859960161253664  0.9765099814198401
  0.3884269809049347  0.2484605064345113  0.6030814004958955
  0.2764514412039172  0.3336796425096376  0.9712747298170817
  0.8632066402002538  0.7108615484032751  0.4786171113587226
  0.9862378741168153  0.2898861003207622  0.3210943540969569
  0.4894847172319098  0.8802866197888347  0.6972323119091672
  0.3377578452303024  0.9809239873841374  0.2709196511077001
  0.6984605900330066  0.5005848401930181  0.8759027167670594
  0.2880688376892542  0.4982708937703433  0.1352657532652473
  0.0093568693148611  0.7177601838122747  0.6654157059436798
  0.1266508746087734  0.2864483120164157  0.5166078427661726
  0.6583289465359283  0.0204593108057603  0.7297847759503873
  0.5130983480964638  0.1266324645383227  0.2963568967222119
  0.7150155437661798  0.6731137444873915  0.0271078493349311
 
             NaN             NaN             NaN
             NaN             NaN             NaN
             NaN             NaN             NaN
             NaN             NaN             NaN
             NaN             NaN             NaN
             NaN             NaN             NaN
             NaN             NaN             NaN
             NaN             NaN             NaN
             NaN             NaN             NaN
             NaN             NaN             NaN
             NaN             NaN             NaN
             NaN             NaN             NaN
             NaN             NaN             NaN
             NaN             NaN             NaN
             NaN             NaN             NaN
             NaN             NaN             NaN
             NaN             NaN             NaN
             NaN             NaN             NaN
             NaN             NaN             NaN
             NaN             NaN             NaN
             NaN             NaN             NaN
             NaN             NaN             NaN
             NaN             NaN             NaN
             NaN             NaN             NaN
             NaN             NaN             NaN
             NaN             NaN             NaN
             NaN             NaN             NaN
             NaN             NaN             NaN
             NaN             NaN             NaN
             NaN             NaN             NaN
             NaN             NaN             NaN
             NaN             NaN             NaN
             NaN             NaN             NaN
             NaN             NaN             NaN
             NaN             NaN             NaN
