Ca1 Mn12 F42                            
   1.00000000000000     
     7.3118090000000002   -0.0232730000000000   -0.0502780000000000
    -3.6747139999999998    6.4042539999999999   -0.0290240000000000
     0.1053090000000000   -0.1543090000000000   17.4483080000000008
   Ca   Mn   F 
     1    12    42
Direct
  0.5737708052038916  0.8355201780601992  0.7021545773754710
  0.2982339858605867  0.0072910053580247  0.3311818555706907
  0.6983123986922546  0.6854455445849401  0.0051138322288668
  0.0220314668748655  0.3290335885431388  0.6646511227705825
  0.3436919752629758  0.9888239583149340  0.8416590384789790
  0.6526362254579220  0.6642863800970674  0.4940666208316257
  1.0011612887818344  0.3430604414174875  0.1689161089979902
  0.6487860978756680  0.1640223331468508  0.4972392393494581
  0.5039468049449607  0.3472123140531880  0.1695685673678166
  0.8469477593374172  0.4901375781420846  0.8369942035029108
  0.3461035740702866  0.4859424380510596  0.8450707287178656
  0.1516208797588694  0.6664430567345494  0.4974441408850410
  0.4977610471965045  0.8446257012952963  0.1696466315137616
  0.5545394798692393  0.7913216087784815  0.0668364078096322
  0.2912266057691321  0.4947630885936178  0.7371092458003495
  0.1924523438898781  0.7691212908756125  0.3909827045125636
  0.4381167854026280  0.2572666515580186  0.2723030402062976
  0.8199915196041416  0.5454936968966314  0.9369656922696993
  0.7413566758604225  0.1833451874308780  0.6006918494916792
  0.9046086389114932  0.0862979090368488  0.7224450711191129
  0.1921149633621830  0.1192403993477293  0.3918966264654465
  0.9261998427691099  0.8055170399630354  0.0612908226525957
  0.1528341525042563  0.2420160770043173  0.6038861218192805
  0.0876297725680641  0.8932502072917384  0.2671488959271809
  0.7819851865986722  0.8844039999005697  0.9377013464575900
  0.1302192319749325  0.5841609321937544  0.6115221995877514
  0.4474658423064210  0.8955113201242402  0.2738257357582360
  0.4312551016740042  0.5094351075979627  0.9474170198233247
  0.8773642501598458  0.4292014488168701  0.7339710818001787
  0.5591345253799267  0.1359509806444255  0.3947398726669403
  0.5787716546365993  0.4364031136336068  0.0674256962984295
  0.3619257616069305  0.5857541835505011  0.4816480880138879
  0.2084086792035259  0.6349375751382070  0.1546361766655662
  0.4508800100165369  0.7829117275303717  0.8386603449029227
  0.6475077360601527  0.2158164536881756  0.8518129459691182
  0.5777976572983774  0.3800700140292619  0.5166918338064393
  0.7877064929021979  0.4188293404809371  0.1901786939787596
  0.6791066728420412  0.6277110864330149  0.3969103601420430
  0.9388533031679916  0.3176958390235982  0.0697858820270957
  0.3934807730844835 -0.0050197827046769  0.7363416088439190
  0.3056422189349220  0.9673352197370154  0.9402304686228328
  0.6255516387689504  0.7032711062884953  0.5991377959319563
  0.0642579584435647  0.3688281543218499  0.2677364704925769
  0.9420319098531961  0.7484062816224518  0.5149782787493342
  0.7899579758618238  0.0534373442667619  0.1828727089070047
  0.2584406121542280  0.1999831917435943  0.8351872293443080
  0.0482967829558147  0.7617595119289121  0.8185322129929099
  0.7249678739987068  0.9510816793755795  0.4793552636133767
  0.2186143879083279  0.2719854886098710  0.1481687271212601
  0.6490227340769723  0.5583339498220625  0.8024917424677283
  0.9315743580095738  0.3903245864422063  0.4723888786341286
  0.4419051950310410  0.0515527600028829  0.1382527665423882
  0.3718357109414108  0.9417747895250149  0.5304572202075929
  0.5566481398441587  0.6379585785751185  0.2006216287427915
  0.0455456147341660  0.4245000334994410  0.8677506400845747
 
             NaN             NaN             NaN
             NaN             NaN             NaN
             NaN             NaN             NaN
             NaN             NaN             NaN
             NaN             NaN             NaN
             NaN             NaN             NaN
             NaN             NaN             NaN
             NaN             NaN             NaN
             NaN             NaN             NaN
             NaN             NaN             NaN
             NaN             NaN             NaN
             NaN             NaN             NaN
             NaN             NaN             NaN
             NaN             NaN             NaN
             NaN             NaN             NaN
             NaN             NaN             NaN
             NaN             NaN             NaN
             NaN             NaN             NaN
             NaN             NaN             NaN
             NaN             NaN             NaN
             NaN             NaN             NaN
             NaN             NaN             NaN
             NaN             NaN             NaN
             NaN             NaN             NaN
             NaN             NaN             NaN
             NaN             NaN             NaN
             NaN             NaN             NaN
             NaN             NaN             NaN
             NaN             NaN             NaN
             NaN             NaN             NaN
             NaN             NaN             NaN
             NaN             NaN             NaN
             NaN             NaN             NaN
             NaN             NaN             NaN
             NaN             NaN             NaN
             NaN             NaN             NaN
             NaN             NaN             NaN
             NaN             NaN             NaN
             NaN             NaN             NaN
             NaN             NaN             NaN
             NaN             NaN             NaN
             NaN             NaN             NaN
             NaN             NaN             NaN
             NaN             NaN             NaN
             NaN             NaN             NaN
             NaN             NaN             NaN
             NaN             NaN             NaN
             NaN             NaN             NaN
             NaN             NaN             NaN
             NaN             NaN             NaN
             NaN             NaN             NaN
             NaN             NaN             NaN
             NaN             NaN             NaN
             NaN             NaN             NaN
             NaN             NaN             NaN
