Ca1 Mn12 F42
1.0
7.311809 -0.023273 -0.050278
-3.674714 6.404254 -0.029024
0.105309 -0.154309 17.448308
Ca Mn F
1 12 42
direct
0.586477 -0.111523 0.711102 Ca
0.290163 1.002883 0.330028 Mn
0.703637 0.696936 0.006477 Mn
0.006898 0.306079 0.664791 Mn
0.353236 -0.003566 0.837645 Mn
0.652780 0.653689 0.494208 Mn
0.995231 0.347388 0.167677 Mn
0.648595 0.154948 0.493038 Mn
0.496298 0.348868 0.167710 Mn
0.854785 0.496328 0.837252 Mn
0.356124 0.496170 0.839130 Mn
0.151682 0.652274 0.496201 Mn
0.493771 0.847992 0.167947 Mn
0.557520 0.808151 0.066087 F
0.258219 0.440628 0.734706 F
0.188136 0.768646 0.393050 F
0.432753 0.253021 0.269724 F
0.813426 0.565453 0.941698 F
0.743701 0.187428 0.597637 F
0.853999 0.062143 0.717798 F
0.192785 0.121317 0.391528 F
0.917254 0.800592 0.069475 F
0.121246 0.199035 0.604783 F
0.075063 0.889257 0.267797 F
0.807255 0.914873 0.945598 F
0.142262 0.565607 0.609821 F
0.431245 0.883328 0.270428 F
0.446889 0.559721 0.943164 F
0.888099 0.433939 0.728706 F
0.552982 0.121926 0.390738 F
0.560350 0.440344 0.064997 F
0.360118 0.575598 0.475899 F
0.212949 0.647904 0.148613 F
0.446581 0.792489 0.814263 F
0.647965 0.204815 0.852265 F
0.570556 0.362432 0.513113 F
0.776435 0.430533 0.187482 F
0.689412 0.621879 0.396943 F
0.929298 0.312259 0.068850 F
0.382914 0.043254 0.733743 F
0.327631 0.938044 0.935258 F
0.615274 0.689463 0.596430 F
0.061594 0.382858 0.266337 F
0.941864 0.727926 0.518401 F
0.775570 0.047577 0.186670 F
0.268654 0.202154 0.851581 F
0.061838 0.788050 0.818944 F
0.725204 0.943580 0.478064 F
0.215492 0.266023 0.147809 F
0.635248 0.559237 0.806070 F
0.931841 0.378291 0.467224 F
0.444111 0.073911 0.137696 F
0.376179 0.924433 0.536462 F
0.545804 0.621708 0.197534 F
0.075734 0.439402 0.866799 F
