Na8 V16 P16 O80
1.0
  12.3788102000000002    0.0000000000000000    0.0000000000000008
   0.0000000000000020   12.3788102000000002    0.0000000000000008
   0.0000000000000000    0.0000000000000000    8.4399148000000004
Na V P O
1 16 16 80
direct
   0.3749999999999999    0.6250000000000000    0.7500000000000000 Na
   0.0034993015094254    0.2470760123613684    0.1752938289760307 V
   0.0034993015094254    0.2470760123613684    0.6752938289760306 V
   0.0034993015094254    0.7470760123613683    0.1752938289760307 V
   0.0034993015094254    0.7470760123613683    0.6752938289760306 V
   0.4887230233487327    0.2392548133927853    0.2400062070854820 V
   0.4887230233487327    0.2392548133927853    0.7400062070854819 V
   0.4887230233487327    0.7392548133927853    0.2400062070854820 V
   0.4887230233487327    0.7392548133927853    0.7400062070854819 V
   0.2463904411540276    0.0030079451291522    0.3415977938658977 V
   0.2463904411540276    0.0030079451291522    0.8415977938658976 V
   0.2463904411540276    0.5030079451291521    0.3415977938658977 V
   0.2463904411540276    0.5030079451291521    0.8415977938658976 V
   0.7613564109941247    0.0107387230049091    0.2778030434273298 V
   0.7613564109941247    0.0107387230049091    0.7778030434273298 V
   0.7613564109941247    0.5107387230049091    0.2778030434273298 V
   0.7613564109941247    0.5107387230049091    0.7778030434273298 V
   0.0111963172307749    0.4972618484545446    0.1822052637273610 P
   0.0111963172307749    0.4972618484545446    0.6822052637273609 P
   0.0111963172307749    0.9972618484545447    0.1822052637273610 P
   0.0111963172307749    0.9972618484545447    0.6822052637273609 P
   0.4943265348610798    0.4987801009061084    0.2736036154007184 P
   0.4943265348610798    0.4987801009061084    0.7736036154007184 P
   0.4943265348610797    0.9987801009061084    0.2736036154007184 P
   0.4943265348610797    0.9987801009061084    0.7736036154007183 P
   0.2386991381587194    0.2527908807590417    0.3343188350288545 P
   0.2386991381587194    0.2527908807590417    0.8343188350288545 P
   0.2386991381587194    0.7527908807590417    0.3343188350288545 P
   0.2386991381587194    0.7527908807590417    0.8343188350288544 P
   0.7557164871097551    0.2511631628383650    0.2441270712234538 P
   0.7557164871097551    0.2511631628383650    0.7441270712234538 P
   0.7557164871097553    0.7511631628383649    0.2441270712234538 P
   0.7557164871097553    0.7511631628383649    0.7441270712234538 P
   0.2397093744737410    0.3554375269569208    0.4377839390879289 O
   0.2397093744737410    0.3554375269569208    0.9377839390879289 O
   0.2397093744737410    0.8554375269569208    0.4377839390879289 O
   0.2397093744737410    0.8554375269569208    0.9377839390879288 O
   0.7598750055293272    0.3576788224353441    0.3466333513288309 O
   0.7598750055293272    0.3576788224353441    0.8466333513288309 O
   0.7598750055293274    0.8576788224353440    0.3466333513288309 O
   0.7598750055293274    0.8576788224353440    0.8466333513288308 O
   0.4062383152616907    0.4951860437623919    0.4013047673049790 O
   0.4062383152616907    0.4951860437623919    0.9013047673049790 O
   0.4062383152616906    0.9951860437623919    0.4013047673049790 O
   0.4062383152616906    0.9951860437623919    0.9013047673049790 O
   0.9056021852649079    0.9999935435680406    0.2806166546392154 O
   0.9056021852649079    0.9999935435680406    0.7806166546392155 O
   0.9056021852649079    0.4999935435680405    0.2806166546392154 O
   0.9056021852649079    0.4999935435680405    0.7806166546392154 O
   0.2900751129190398    0.0303466608742144    0.1679102154014707 O
   0.2900751129190398    0.0303466608742144    0.6679102154014707 O
   0.2900751129190398    0.5303466608742144    0.1679102154014707 O
   0.2900751129190398    0.5303466608742144    0.6679102154014707 O
   0.7141403515499350    0.0240972329935482    0.1025901673453858 O
   0.7141403515499350    0.0240972329935482    0.6025901673453858 O
   0.7141403515499350    0.5240972329935482    0.1025901673453858 O
   0.7141403515499350    0.5240972329935482    0.6025901673453857 O
   0.9600857505981536    0.2193767221465564    0.3489666462138515 O
   0.9600857505981536    0.2193767221465564    0.8489666462138515 O
   0.9600857505981536    0.7193767221465563    0.3489666462138515 O
   0.9600857505981536    0.7193767221465563    0.8489666462138515 O
   0.5358500126985343    0.2262199178410617    0.4153170280789056 O
   0.5358500126985343    0.2262199178410617    0.9153170280789056 O
   0.5358500126985342    0.7262199178410618    0.4153170280789056 O
   0.5358500126985342    0.7262199178410618    0.9153170280789055 O
   0.0979636450366912    0.4900376876039610    0.3118570438788347 O
   0.0979636450366912    0.4900376876039610    0.8118570438788347 O
   0.0979636450366912    0.9900376876039609    0.3118570438788347 O
   0.0979636450366912    0.9900376876039609    0.8118570438788347 O
   0.6052376233790452    0.0065567875400536    0.3538275480853260 O
   0.6052376233790452    0.0065567875400536    0.8538275480853259 O
   0.6052376233790451    0.5065567875400535    0.3538275480853260 O
   0.6052376233790451    0.5065567875400535    0.8538275480853259 O
   0.2306076320721616    0.1468413078464686    0.4326080999595721 O
   0.2306076320721616    0.1468413078464686    0.9326080999595721 O
   0.2306076320721616    0.6468413078464686    0.4326080999595721 O
   0.2306076320721616    0.6468413078464686    0.9326080999595721 O
   0.7633946636656803    0.1500027197203085    0.3609265782557214 O
   0.7633946636656803    0.1500027197203085    0.8609265782557214 O
   0.7633946636656803    0.6500027197203084    0.3609265782557214 O
   0.7633946636656803    0.6500027197203084    0.8609265782557213 O
   0.0191844266730508    0.1032084105994742    0.0840315515967266 O
   0.0191844266730508    0.1032084105994742    0.5840315515967266 O
   0.0191844266730508    0.6032084105994742    0.0840315515967266 O
   0.0191844266730508    0.6032084105994742    0.5840315515967265 O
   0.4867595649839389    0.0999677355132131    0.1568542698050023 O
   0.4867595649839389    0.0999677355132131    0.6568542698050023 O
   0.4867595649839389    0.5999677355132130    0.1568542698050023 O
   0.4867595649839389    0.5999677355132130    0.6568542698050022 O
   0.1520807305918166    0.2599149877179671    0.2044444932465699 O
   0.1520807305918166    0.2599149877179671    0.7044444932465699 O
   0.1520807305918166    0.7599149877179671    0.2044444932465699 O
   0.1520807305918166    0.7599149877179671    0.7044444932465698 O
   0.6447480064270819    0.2433304280848717    0.1640803750619134 O
   0.6447480064270819    0.2433304280848717    0.6640803750619134 O
   0.6447480064270817    0.7433304280848717    0.1640803750619134 O
   0.6447480064270817    0.7433304280848717    0.6640803750619133 O
   0.3444457441668841    0.2499544442740758    0.2363154242883221 O
   0.3444457441668841    0.2499544442740758    0.7363154242883221 O
   0.3444457441668841    0.7499544442740759    0.2363154242883221 O
   0.3444457441668841    0.7499544442740759    0.7363154242883220 O
   0.8435897241564406    0.2548475715105410    0.1161385323746869 O
   0.8435897241564406    0.2548475715105410    0.6161385323746869 O
   0.8435897241564406    0.7548475715105409    0.1161385323746869 O
   0.8435897241564406    0.7548475715105409    0.6161385323746869 O
   0.0100668657198801    0.3946160830094724    0.0787745030328442 O
   0.0100668657198801    0.3946160830094724    0.5787745030328441 O
   0.0100668657198801    0.8946160830094723    0.0787745030328442 O
   0.0100668657198801    0.8946160830094723    0.5787745030328441 O
   0.4902471801087798    0.3923002470745653    0.1710563642500720 O
   0.4902471801087798    0.3923002470745653    0.6710563642500720 O
   0.4902471801087798    0.8923002470745652    0.1710563642500721 O
   0.4902471801087798    0.8923002470745652    0.6710563642500720 O
