Ca1 V4 P6 O24                           
   1.00000000000000     
     2.6191320000000000    7.1097250000000001    4.5052950000000003
     0.2012930000000000    0.1360980000000000    8.8187650000000009
     7.5628010000000003    0.1335290000000000    4.5213840000000003
   Ca   V    P    O 
     1     4     6    24
Direct
  0.2562722540127950  0.7923424552361156  0.5725861940120535
  0.6554622024780801  0.6316246114237873  0.6409624926646776
  0.1404480635462668  0.1464754415491694  0.1363558134813319
  0.8370796959813886  0.8526813045083390  0.8637899616480940
  0.3567287644738401  0.3535513279200339  0.3603446938766641
  0.2525950226297960  0.5216221094267803  0.9686351106426924
  0.0268258574452551  0.7443390992343394  0.4593951902502134
  0.9697192116673405  0.2482137942729607  0.5247769406931214
  0.4604050273430633  0.0298114578469129  0.7497703967998306
  0.5403329422715748  0.9672287178177260  0.2443841878889592
  0.7462122174462208  0.4655967676667695  0.0371168099946831
  0.5711481882775450  0.7762606577533575  0.4165111507798754
  0.2899287088583455  0.0416978367564443  0.9362883242726019
  0.4216482435162278  0.5655793114895522  0.7802133121941273
  0.9322454996037808  0.2956603464865462  0.0486447740644597
  0.7804927232926044  0.4028491694647079  0.5864814689955361
  0.0467786456525601  0.9372180372712506  0.3047478452339292
  0.9756579461383170  0.0451790506533849  0.6757514573871115
  0.5761098185098387  0.4219175533792610  0.2163437542629250
  0.7123051658757422  0.9526663271861645  0.0599924858173607
  0.2231744807592735  0.5855625880114992  0.4216546541734399
  0.0766625786156006  0.6963352061761811  0.9244716338008325
  0.4208051296306995  0.2190434230578424  0.5838971157980917
  0.2482172826406195  0.3395367741904650  0.9868255177120194
  0.8695920355653576  0.7110046385644847  0.4670227684457002
  0.9949117080378216  0.2543614289767914  0.3349692978767900
  0.4988830055409661  0.8617557177021531  0.7075448400396017
  0.3539825380846027  0.9868589512846521  0.2435585417287091
  0.7220964560064355  0.5028992515843240  0.8580247845567133
  0.2741394724857999  0.4994235208131319  0.1400268104472395
 -0.0147884410406986  0.7445387343815714  0.6542752459823432
  0.1380985514054907  0.2802312614916571  0.5027238083188916
  0.6390913295123978  1.0053845791951963  0.7679895006021074
  0.5090140365972616  0.1320443432136662  0.2840420175624482
  0.7494989536637274  0.6458359194275793  0.0234340230653874
 
             NaN             NaN             NaN
             NaN             NaN             NaN
             NaN             NaN             NaN
             NaN             NaN             NaN
             NaN             NaN             NaN
             NaN             NaN             NaN
             NaN             NaN             NaN
             NaN             NaN             NaN
             NaN             NaN             NaN
             NaN             NaN             NaN
             NaN             NaN             NaN
             NaN             NaN             NaN
             NaN             NaN             NaN
             NaN             NaN             NaN
             NaN             NaN             NaN
             NaN             NaN             NaN
             NaN             NaN             NaN
             NaN             NaN             NaN
             NaN             NaN             NaN
             NaN             NaN             NaN
             NaN             NaN             NaN
             NaN             NaN             NaN
             NaN             NaN             NaN
             NaN             NaN             NaN
             NaN             NaN             NaN
             NaN             NaN             NaN
             NaN             NaN             NaN
             NaN             NaN             NaN
             NaN             NaN             NaN
             NaN             NaN             NaN
             NaN             NaN             NaN
             NaN             NaN             NaN
             NaN             NaN             NaN
             NaN             NaN             NaN
             NaN             NaN             NaN
