Ca1 V4 P6 O24
1.0
2.619132 7.109725 4.505295
0.201293 0.136098 8.818765
7.562801 0.133529 4.521384
Ca V P O
1 4 6 24
direct
0.341157 0.733865 0.572121 Ca
0.649517 0.639529 0.644305 V
0.136280 0.142937 0.140877 V
0.846493 0.852154 0.857445 V
0.356835 0.351897 0.352170 V
0.247945 0.528405 0.963815 P
0.035640 0.747136 0.466149 P
0.960177 0.251723 0.524347 P
0.460302 0.030530 0.747956 P
0.533218 0.968893 0.244228 P
0.746748 0.460717 0.037539 P
0.573018 0.780428 0.413566 O
0.297076 0.047620 0.935190 O
0.413884 0.570085 0.772392 O
0.929739 0.286406 0.046187 O
0.784742 0.424085 0.565331 O
0.054510 0.929391 0.291586 O
0.940877 0.067728 0.698213 O
0.577785 0.429073 0.224199 O
0.695469 0.951753 0.056793 O
0.212057 0.574653 0.425529 O
0.068770 0.708285 0.943291 O
0.419737 0.219589 0.581010 O
0.226637 0.352868 0.990943 O
0.856301 0.723496 0.506792 O
0.974874 0.243517 0.346751 O
0.474389 0.868162 0.713619 O
0.340731 -0.002327 0.250994 O
0.702733 0.498511 0.869903 O
0.288296 0.494317 0.131178 O
0.024934 0.759238 0.640481 O
0.142301 0.262746 0.495139 O
0.650017 0.991424 0.752874 O
0.515838 0.133651 0.275849 O
0.771131 0.637313 0.005508 O
