Ca9 Ti12 F42                            
   1.00000000000000     
     7.3724949999999998   -0.0017640000000000   -0.0866000000000000
    -3.6466530000000001    6.3566229999999999    0.0216090000000000
     0.2489810000000000   -0.0315640000000000   18.7445950000000003
   Ca   Ti   F 
     9    12    42
Direct
  0.3232983292112646  0.5004307125206149  0.3431953421405041
  0.5206955795763194  0.3464450691957974  0.6681140752535523
  0.1588176361150437  0.1704655841401485  0.0128588066324381
  0.0246718976251793  0.8321812748744647  0.6662230779767865
  0.8417981329984088  0.9887815710637919  0.3375201293736689
  0.6371687398623419  0.1471493575799193  1.0040261508345567
  0.0179867081900629  0.8117697835856659  0.1660724467311943
  0.8209213439786905  0.0038797109986808  0.8285134388189936
  0.1677609642923013  0.1962705464634122  0.4989641436546277
  0.3634416308059617  1.0136415177696176  0.3091160286954134
  0.0168950308016131  0.3373633755826781  0.6591571853233271
  0.6621522468921300  0.6646126873028165  0.9930928605647115
  0.3538571386965940  0.0510835746934934  0.8308020665529303
 -0.0705030473849570  0.2834150155793048  0.1719609782217826
  0.7227558928142518  0.6433420480935758  0.4944762440525520
  0.4981691011777593  0.8575886672966899  0.1689908745384794
  0.1478011208051990  0.6628610527210274  0.4899361941772541
  0.3500549536137679  0.4869192394606643  0.8324357890760051
  0.7936577043067146  0.4877486945392259  0.8335211551038995
  0.7068199604773315  0.2172149330311521  0.4871897909184092
  0.4925269967608695  0.2731472238503187  0.1712450500436708
  0.7409107185047997  0.2237127606801088  0.6016455724148209
  0.7997538937796562  0.4961700214484364  0.9470724056010570
  0.4460964599990787  0.3108383413123087  0.2772824746271392
  0.2306247238316208  0.7523474711962167  0.3820021236959893
  0.5542659975558745  0.8226619036223451  0.0586228508790866
  0.2891448047252932  0.4530348087388796  0.7204569175947907
  0.8287397090532017  0.9971466404820044  0.9524987900056442
  0.0523857993105045  0.8802550582033467  0.2827388328151395
  0.1847926315937579  0.1825626297253921  0.6172534474677613
  0.9332485269866827  0.8227032444851418  0.0525727395433089
  0.8926525716823052  0.0491523108647580  0.7121840275348160
  0.2042117865150212  0.1501942969296615  0.3838043726770065
  0.5265981005835558  0.3697059260697025  0.0554576382384684
  0.6257713622492225  0.1295153606386611  0.3772916238049502
  0.8538384068561825  0.4847627125894166  0.7151065042489403
  0.3499963331012148  0.4846613653924396  0.9486555097274151
  0.1423862834119839  0.6237766957156684  0.6051141265999013
  0.4949379173326935  0.8161375990469287  0.2823190471707926
  0.7997330742952778  0.4686546544899445  0.1966721410971485
  0.5197828445996908  0.3363008594707010  0.5235776769517072
  0.6564280474294593  0.1739326057474498  0.8699705419474358
  0.4338960385188154  0.8071673246663827  0.8184889094110205
  0.3773272665987568  0.5603659751633238  0.4760943769166250
  0.1786462824429766  0.6077792460572264  0.1634703559611755
  0.0209527578426396  0.3074672943960300  0.2797539611295986
  0.7043974319462039  0.6595219768811504  0.6080885774236976
  0.3236140174458076  0.0269249871067956  0.9452329864300005
  0.3427112797810789  0.0262686150552948  0.7182914212426645
  0.6728841438835894  0.6533470012035458  0.3846578313193582
  0.9489934118856933  0.2925436539385741  0.0611617250215327
  0.1750929332157938  0.1965687251949796  0.1447970617263900
  0.8082209468597470  0.9782444517628384  0.4701311441665877
  0.0125227287501275  0.8072867866798245  0.8027654101098194
  0.1659322120823988  0.1731624983974957  0.8578345197764198
  0.0290363138965823  0.8475374071510180  0.5296235943840050
  0.8098840284951626  0.9695504075939773  0.1968525872965486
  0.0324323060128758  0.4165461994802040  0.8281796900708467
  0.5283060440244096  0.5852649808508056  0.1748202027012176
  0.4182057247173460  0.9513626467238514  0.5089078199761261
  0.3531491991117026 -0.0053784725965480  0.1062416239166208
  0.6587775640500425  0.6657192866671880  0.8706376143552916
  0.0058566596124145  0.3645821809259057  0.4367920200209241
 
             NaN             NaN             NaN
             NaN             NaN             NaN
             NaN             NaN             NaN
             NaN             NaN             NaN
             NaN             NaN             NaN
             NaN             NaN             NaN
             NaN             NaN             NaN
             NaN             NaN             NaN
             NaN             NaN             NaN
             NaN             NaN             NaN
             NaN             NaN             NaN
             NaN             NaN             NaN
             NaN             NaN             NaN
             NaN             NaN             NaN
             NaN             NaN             NaN
             NaN             NaN             NaN
             NaN             NaN             NaN
             NaN             NaN             NaN
             NaN             NaN             NaN
             NaN             NaN             NaN
             NaN             NaN             NaN
             NaN             NaN             NaN
             NaN             NaN             NaN
             NaN             NaN             NaN
             NaN             NaN             NaN
             NaN             NaN             NaN
             NaN             NaN             NaN
             NaN             NaN             NaN
             NaN             NaN             NaN
             NaN             NaN             NaN
             NaN             NaN             NaN
             NaN             NaN             NaN
             NaN             NaN             NaN
             NaN             NaN             NaN
             NaN             NaN             NaN
             NaN             NaN             NaN
             NaN             NaN             NaN
             NaN             NaN             NaN
             NaN             NaN             NaN
             NaN             NaN             NaN
             NaN             NaN             NaN
             NaN             NaN             NaN
             NaN             NaN             NaN
             NaN             NaN             NaN
             NaN             NaN             NaN
             NaN             NaN             NaN
             NaN             NaN             NaN
             NaN             NaN             NaN
             NaN             NaN             NaN
             NaN             NaN             NaN
             NaN             NaN             NaN
             NaN             NaN             NaN
             NaN             NaN             NaN
             NaN             NaN             NaN
             NaN             NaN             NaN
             NaN             NaN             NaN
             NaN             NaN             NaN
             NaN             NaN             NaN
             NaN             NaN             NaN
             NaN             NaN             NaN
             NaN             NaN             NaN
             NaN             NaN             NaN
             NaN             NaN             NaN
