Ca9 Ti12 F42
1.0
7.372495 -0.001764 -0.086600
-3.646653 6.356623 0.021609
0.248981 -0.031564 18.744595
Ca Ti F
9 12 42
direct
1.170377 0.501105 0.337974 Ca
0.517116 0.346076 0.669011 Ca
0.166345 0.170860 0.002163 Ca
0.023242 0.832858 0.666086 Ca
0.839157 0.996985 0.328706 Ca
0.653349 0.154875 -0.000484 Ca
0.026050 0.814482 0.159264 Ca
0.824726 0.000794 0.827438 Ca
0.176694 0.184961 0.496367 Ca
0.342641 0.996358 0.322998 Ti
0.014693 0.335311 0.658419 Ti
0.670607 0.667757 0.995969 Ti
0.356302 0.049080 0.829969 Ti
1.013332 0.323957 0.168825 Ti
0.711281 0.645586 0.497544 Ti
0.497526 0.806998 0.167622 Ti
0.144428 0.650491 0.493375 Ti
0.353237 0.487083 0.832483 Ti
0.796356 0.487476 0.832370 Ti
0.702187 0.208299 0.494925 Ti
0.497081 0.320513 0.170433 Ti
0.722543 0.209320 0.608207 F
0.801715 0.494612 0.946388 F
0.479916 0.292097 0.279943 F
0.204907 0.722138 0.384245 F
0.557467 0.837653 0.058107 F
0.285222 0.448118 0.721295 F
0.827916 -0.006464 0.950591 F
0.044594 0.864277 0.277396 F
0.180394 0.178281 0.616756 F
0.967170 0.832085 0.043699 F
0.892508 0.048187 0.712451 F
0.183359 0.134841 0.380079 F
0.517972 0.346598 0.053251 F
0.632981 0.127676 0.382810 F
0.854914 0.484667 0.715932 F
0.360096 0.496920 0.948703 F
0.146854 0.630833 0.608533 F
0.494975 0.830924 0.280976 F
0.817953 0.449324 0.186704 F
0.520150 0.336069 0.530566 F
0.662364 0.174393 0.866574 F
0.438525 0.806307 0.816640 F
0.383713 0.558490 0.476992 F
0.191671 0.631703 0.137832 F
1.023246 0.321185 0.279626 F
0.699650 0.663139 0.611341 F
0.335533 0.018605 0.942934 F
0.341723 0.025238 0.718271 F
0.699058 0.678537 0.385057 F
0.958365 0.282437 0.060533 F
0.185332 0.178698 0.137015 F
0.799400 0.977804 0.480724 F
0.018856 0.810722 0.803414 F
0.170168 0.173481 0.863524 F
0.021735 0.836027 0.529753 F
0.816580 0.994368 0.195203 F
0.037372 0.417246 0.828651 F
0.617781 0.621923 0.147682 F
0.400263 0.953352 0.503778 F
0.403868 0.016372 0.146185 F
0.663226 0.664484 0.868571 F
0.002623 0.345991 0.477872 F
