V4 P4 O20                               
   1.00000000000000     
     6.4454921021908245   -0.0080619562051411   -3.3364719209908862
    -0.0523738181860190    7.3582967539551056   -0.0827846412959738
    -0.4609594872546642   -0.0862508910264143    7.6623061915445643
   Li   V    P    O 
     1     4     4    20
Direct
   0.5608503261513839    0.8861026220957859    0.3819074459086562 Li
  0.2505424271568519  0.7683951393878218  0.9569273104506706
  0.7690646415413493  0.2482931953777761  0.5408711392426639
  0.7494642060697224  0.2316085132699913  0.0430584385932437
  0.2309276975646233  0.7517127899628413  0.4591221658123095
  0.2505346516878819  0.1155694521299954  0.2508470046305600
  0.7407526176739673  0.6077842177420015  0.2571516640735827
  0.7494652744504997  0.8844347636030095  0.7491503403505863
  0.2592470949353318  0.3922100905959122  0.7428442812846506
  0.2310133216628084  0.9956833221520722  0.4075447199597304
  0.7662085909934603  0.4854635980483439  0.1041115395928296
  0.7689841987104695  0.0043218504415096  0.5924599343900370
  0.2337916402363386  0.5145331956858585  0.8958909401501133
  0.7638776181840625  0.3331346279252410  0.7338586399171727
  0.2591408557103717  0.8397332967851389  0.7648230132972464
  0.2361233454472928  0.6668635766480173  0.2661464124318694
  0.7408582053053558  0.1602609845222569  0.2351969427861349
  0.5488500697868617  0.7346006268481282  0.1509114265267109
  0.4476038137804778  0.2428363052712173  0.3653616839489287
  0.4511512964806266  0.2654024133379688  0.8490829531458121
  0.5523967819098082  0.7571634086056047  0.6346380056294618
  0.2793728380908507  0.5079444874922504  0.5876715549722236
  0.7307991015867324  0.0062266932631129  0.9045864881303676
  0.7206260257373234  0.4920574263612690  0.4123276444549910
  0.2692080519054144  0.9937697172642067  0.0954205573218896
  0.9414411635970217  0.7354581372761809  0.3729561004207982
  0.0512865592232190  0.2365137620347732  0.1460079968086328
  0.0585559185159992  0.2645440401890375  0.6270462229826432
  0.9487167276566620  0.7634836601413882  0.8539860005183495
 
  0.00000000E+00  0.00000000E+00  0.00000000E+00
  0.00000000E+00  0.00000000E+00  0.00000000E+00
  0.00000000E+00  0.00000000E+00  0.00000000E+00
  0.00000000E+00  0.00000000E+00  0.00000000E+00
  0.00000000E+00  0.00000000E+00  0.00000000E+00
  0.00000000E+00  0.00000000E+00  0.00000000E+00
  0.00000000E+00  0.00000000E+00  0.00000000E+00
  0.00000000E+00  0.00000000E+00  0.00000000E+00
  0.00000000E+00  0.00000000E+00  0.00000000E+00
  0.00000000E+00  0.00000000E+00  0.00000000E+00
  0.00000000E+00  0.00000000E+00  0.00000000E+00
  0.00000000E+00  0.00000000E+00  0.00000000E+00
  0.00000000E+00  0.00000000E+00  0.00000000E+00
  0.00000000E+00  0.00000000E+00  0.00000000E+00
  0.00000000E+00  0.00000000E+00  0.00000000E+00
  0.00000000E+00  0.00000000E+00  0.00000000E+00
  0.00000000E+00  0.00000000E+00  0.00000000E+00
  0.00000000E+00  0.00000000E+00  0.00000000E+00
  0.00000000E+00  0.00000000E+00  0.00000000E+00
  0.00000000E+00  0.00000000E+00  0.00000000E+00
  0.00000000E+00  0.00000000E+00  0.00000000E+00
  0.00000000E+00  0.00000000E+00  0.00000000E+00
  0.00000000E+00  0.00000000E+00  0.00000000E+00
  0.00000000E+00  0.00000000E+00  0.00000000E+00
  0.00000000E+00  0.00000000E+00  0.00000000E+00
  0.00000000E+00  0.00000000E+00  0.00000000E+00
  0.00000000E+00  0.00000000E+00  0.00000000E+00
  0.00000000E+00  0.00000000E+00  0.00000000E+00
  0.00000000E+00  0.00000000E+00  0.00000000E+00
