Fe16 P16 O64
1.0
   9.8309366232043303   -0.0000000004903470    0.0000011600579716
   0.0000000130320008   11.9931211653867891    0.0000001225569358
   0.0000012906154977    0.0000001454955913    9.9911649696078868
Li Fe P O
1 16 16 64
direct
   0.5000000000000000    0.2500000000000000    0.5000000000000000 Li
   0.2663555162430974    0.1249999773511260    0.7752760256064062 Fe
   0.2663555162430973    0.6249999773511260    0.7752760256064062 Fe
   0.7663555162430974    0.1249999773511260    0.7752760256064062 Fe
   0.7663555162430974    0.6249999773511260    0.7752760256064062 Fe
   0.0163553706532896    0.3750000180806001    0.7247235806231431 Fe
   0.0163553706532897    0.8750000180806001    0.7247235806231431 Fe
   0.5163553706532896    0.3750000180806001    0.7247235806231431 Fe
   0.5163553706532897    0.8750000180806000    0.7247235806231431 Fe
   0.4836451971133756    0.1249999881139892    0.2752764406020066 Fe
   0.4836451971133756    0.6249999881139892    0.2752764406020067 Fe
   0.9836451971133755    0.1249999881139892    0.2752764406020066 Fe
   0.9836451971133756    0.6249999881139892    0.2752764406020067 Fe
   0.2336451068596428    0.3750000305987604    0.2247236080154600 Fe
   0.2336451068596428    0.8750000305987603    0.2247236080154600 Fe
   0.7336451068596428    0.3750000305987604    0.2247236080154600 Fe
   0.7336451068596429    0.8750000305987604    0.2247236080154600 Fe
   0.2084060282012616    0.1250000135792304    0.0996735374930613 P
   0.2084060282012616    0.6250000135792304    0.0996735374930613 P
   0.7084060282012616    0.1250000135792304    0.0996735374930613 P
   0.7084060282012618    0.6250000135792303    0.0996735374930613 P
   0.4584066398407341    0.3749999864539421    0.4003262066312600 P
   0.4584066398407341    0.8749999864539422    0.4003262066312600 P
   0.9584066398407343    0.3749999864539420    0.4003262066312600 P
   0.9584066398407342    0.8749999864539419    0.4003262066312600 P
   0.0415915106405040    0.1250000176856162    0.5996773705738763 P
   0.0415915106405040    0.6250000176856162    0.5996773705738763 P
   0.5415915106405039    0.1250000176856162    0.5996773705738763 P
   0.5415915106405040    0.6250000176856161    0.5996773705738763 P
   0.2915917720043849    0.3749999869708698    0.9003225310728428 P
   0.2915917720043849    0.8749999869708698    0.9003225310728428 P
   0.7915917720043850    0.3749999869708698    0.9003225310728429 P
   0.7915917720043849    0.8749999869708699    0.9003225310728428 P
   0.3619913584350372    0.1250000100865626    0.1254354464160157 O
   0.3619913584350372    0.6250000100865626    0.1254354464160157 O
   0.8619913584350373    0.1250000100865626    0.1254354464160157 O
   0.8619913584350373    0.6250000100865626    0.1254354464160157 O
   0.3645428289151517    0.2746202319558519    0.8286262260137448 O
   0.3645428289151517    0.7746202319558519    0.8286262260137448 O
   0.8645428289151518    0.2746202319558519    0.8286262260137448 O
   0.8645428289151517    0.7746202319558518    0.8286262260137447 O
   0.3645428237002203    0.4753797524598182    0.8286262217780946 O
   0.3645428237002202    0.9753797524598182    0.8286262217780946 O
   0.8645428237002203    0.4753797524598182    0.8286262217780946 O
   0.8645428237002203    0.9753797524598181    0.8286262217780945 O
   0.1380100840020778    0.3749999781570933    0.8745653670109098 O
   0.1380100840020778    0.8749999781570933    0.8745653670109099 O
   0.6380100840020780    0.3749999781570932    0.8745653670109099 O
   0.6380100840020779    0.8749999781570933    0.8745653670109098 O
   0.3196874374506534    0.3749999903085671    0.0514203438014641 O
   0.3196874374506534    0.8749999903085670    0.0514203438014641 O
   0.8196874374506535    0.3749999903085671    0.0514203438014641 O
   0.8196874374506534    0.8749999903085671    0.0514203438014641 O
   0.1119906705607268    0.3749999972693036    0.3745648996693906 O
   0.1119906705607268    0.8749999972693037    0.3745648996693907 O
   0.6119906705607268    0.3749999972693036    0.3745648996693906 O
   0.6119906705607269    0.8749999972693037    0.3745648996693906 O
   0.1354570969172904    0.0246200695981657    0.1713739600756519 O
   0.1354570969172904    0.5246200695981657    0.1713739600756519 O
   0.6354570969172906    0.0246200695981657    0.1713739600756519 O
   0.6354570969172904    0.5246200695981657    0.1713739600756519 O
   0.1145430030155444    0.2253800351234185    0.6713738824068712 O
   0.1145430030155444    0.7253800351234185    0.6713738824068711 O
   0.6145430030155444    0.2253800351234185    0.6713738824068712 O
   0.6145430030155444    0.7253800351234185    0.6713738824068711 O
   0.3854572856578016    0.2746201940991201    0.3286260841874534 O
   0.3854572856578016    0.7746201940991201    0.3286260841874534 O
   0.8854572856578016    0.2746201940991201    0.3286260841874534 O
   0.8854572856578015    0.7746201940991202    0.3286260841874534 O
   0.3854572988405591    0.4753797994066281    0.3286260973786211 O
   0.3854572988405590    0.9753797994066281    0.3286260973786211 O
   0.8854572988405591    0.4753797994066281    0.3286260973786211 O
   0.8854572988405591    0.9753797994066281    0.3286260973786211 O
   0.1803126552487994    0.1250000040361134    0.9485817819529722 O
   0.1803126552487994    0.6250000040361134    0.9485817819529722 O
   0.6803126552487995    0.1250000040361134    0.9485817819529723 O
   0.6803126552487995    0.6250000040361133    0.9485817819529720 O
   0.0696876132229174    0.1250000019216108    0.4485799798798543 O
   0.0696876132229174    0.6250000019216108    0.4485799798798543 O
   0.5696876132229175    0.1250000019216108    0.4485799798798543 O
   0.5696876132229174    0.6250000019216108    0.4485799798798543 O
   0.4303127368701124    0.3749999999419491    0.5514180256565071 O
   0.4303127368701123    0.8749999999419490    0.5514180256565071 O
   0.9303127368701124    0.3749999999419490    0.5514180256565071 O
   0.9303127368701124    0.8749999999419491    0.5514180256565071 O
   0.3880098802184571    0.1249999952673650    0.6254345459925768 O
   0.3880098802184571    0.6249999952673650    0.6254345459925768 O
   0.8880098802184572    0.1249999952673651    0.6254345459925768 O
   0.8880098802184573    0.6249999952673650    0.6254345459925768 O
   0.1145429935610113    0.0246199760226738    0.6713738750528463 O
   0.1145429935610113    0.5246199760226739    0.6713738750528462 O
   0.6145429935610114    0.0246199760226738    0.6713738750528463 O
   0.6145429935610113    0.5246199760226737    0.6713738750528462 O
   0.1354570918273469    0.2253799455116280    0.1713739621089925 O
   0.1354570918273469    0.7253799455116280    0.1713739621089925 O
   0.6354570918273469    0.2253799455116280    0.1713739621089925 O
   0.6354570918273469    0.7253799455116280    0.1713739621089925 O
