Ca9 Mn12 F42                            
   1.00000000000000     
     7.6161919999999999   -0.0907600000000000   -0.0053970000000000
    -3.8919820000000001    6.6598930000000003    0.0449040000000000
     0.0043990000000000    0.1339850000000000   18.5945189999999982
   Ca   Mn   F 
     9    12    42
Direct
  0.3624922353323483  0.4863791908957591  0.3294705495826031
  0.5069662324126943  0.8669983812724076  0.6814367966229921
  0.1910944401336173  0.6569532982975493  0.0134763877658328
  0.5363351824976046  0.3746751752104105  0.6654969228250958
  0.8407033392109103  0.0123506474946762  0.3338132260926214
  0.1749109643392503  0.1379818126265525  0.0053242316021408
  0.8648277044621943  0.0614299360075377  0.8373214767968011
  1.0255598479344825  0.8084589774135986  0.1794354829723378
  0.1641430065161809  0.1586772222250340  0.5074992835268195
  0.3254501827967148  0.9707953108146399  0.3484534028216175
  0.0360151840864929  0.3748961336532767  0.6569132021530641
  0.6906197880051180  0.6579970568297463 -0.0007642045522727
  0.3464735075037143  0.0232795091436471  0.8414703697179539
  0.9931596971091011  0.2993221305028288  0.1610409861250434
  0.6601980433893960  0.6856531312589793  0.5009308739697006
  0.5040711332160893  0.8089646519124459  0.1724985575987219
  0.1611371957372268  0.6690968341020690  0.5001505624962297
  0.3605717062406180  0.5205946181845756  0.8340478088439374
  0.8559398427468177  0.5242468530982348  0.8290397279312387
  0.6670851283665368  0.1822419471332405  0.4940547222522967
  0.4911350604919362  0.3006098740146336  0.1653892709345547
  0.5956736373552950  0.1269905281829486  0.6051572352548017
  0.8762455006134380  0.5714721081810205  0.9441085632403199
  0.4161744861369563  0.2155860457643288  0.2763775106646933
  0.1757013550007356  0.6679802533385976  0.3874236145980602
  0.5358117383289110  0.7618404276897401  0.0657252669014452
  0.3037329926893925  0.5188593692084998  0.7213765753974465
  0.8541674540822890  0.9480984810460513  0.9505143774664525
  0.0354150097984110  0.8675830983653579  0.2940924253071192
  0.2084427412123306  0.2432039724377056  0.6209524070216583
  0.9886051329662847  0.8004321821267867  0.0602209286584062
  0.8490856018500956  0.0949761833793077  0.7167580110670244
  0.1686467486039853  0.1791042909111098  0.3881495903303978
  0.5019604073681528  0.3707992270619367  0.0488889962413556
  0.6558441745127838  0.1527110943774398  0.3801509552423141
  0.8596363666633147  0.4689322669924563  0.7080331596711653
  0.4003469945129489  0.5815949846773679  0.9438370538301697
  0.2270610230899805  0.6916887414656563  0.6096978309741771
  0.4725090009423178  0.8329762116412849  0.2868420623113644
  0.8047592056301140  0.4321077990689408  0.1699547753672875
  0.5620835687683503  0.3784977879980625  0.5202575985729245
  0.6600809310682156  0.2085934474410352  0.8575106030771078
  0.5112349350015051  0.8356805813009249  0.8122984793731460
  0.3398627501864062  0.5292709951525186  0.4797856561315158
  0.1844491313212292  0.6198204569849046  0.1469079401067317
  0.0585812202373866  0.3214355739527017  0.2703477821025318
  0.6213271012286553  0.6907231734793456  0.6145419394321040
  0.2995360547792104  0.9468995171021342  0.9525292364529653
  0.3970158555989747  0.0762084584527206  0.7326096663950133
  0.6632348728318879  0.6905157037150301  0.3838733376047589
  0.0362662670471859  0.3265138955677653  0.0455395662518467
  0.1697993162304975  0.1588733234185737  0.1376870193983043
  0.8078921166594686  1.0065339825193726  0.4761616339471944
  0.0194767587764455  0.8411096570912696  0.8202126868037392
  0.2313945918886218  0.2133061952447456  0.8779714810572351
  0.9713738107787832  0.7911893722677622  0.5154133744682432
  0.8140154179682918 -0.0180032456178583  0.1983369549665595
  0.0530782733705590  0.4163320493976726  0.8423138764069653
  0.5211081995296966  0.5620920163892322  0.2119761122489597
  0.3465405624719530 -0.0056031774586970  0.4713900497445693
  0.3946773022998602  0.9990937168175843  0.1448610965454560
  0.5952854655727953  0.5051272318663454  0.7875003014343364
  0.9639818761651483  0.3622179719913417  0.5388725460239124
 
             NaN             NaN             NaN
             NaN             NaN             NaN
             NaN             NaN             NaN
             NaN             NaN             NaN
             NaN             NaN             NaN
             NaN             NaN             NaN
             NaN             NaN             NaN
             NaN             NaN             NaN
             NaN             NaN             NaN
             NaN             NaN             NaN
             NaN             NaN             NaN
             NaN             NaN             NaN
             NaN             NaN             NaN
             NaN             NaN             NaN
             NaN             NaN             NaN
             NaN             NaN             NaN
             NaN             NaN             NaN
             NaN             NaN             NaN
             NaN             NaN             NaN
             NaN             NaN             NaN
             NaN             NaN             NaN
             NaN             NaN             NaN
             NaN             NaN             NaN
             NaN             NaN             NaN
             NaN             NaN             NaN
             NaN             NaN             NaN
             NaN             NaN             NaN
             NaN             NaN             NaN
             NaN             NaN             NaN
             NaN             NaN             NaN
             NaN             NaN             NaN
             NaN             NaN             NaN
             NaN             NaN             NaN
             NaN             NaN             NaN
             NaN             NaN             NaN
             NaN             NaN             NaN
             NaN             NaN             NaN
             NaN             NaN             NaN
             NaN             NaN             NaN
             NaN             NaN             NaN
             NaN             NaN             NaN
             NaN             NaN             NaN
             NaN             NaN             NaN
             NaN             NaN             NaN
             NaN             NaN             NaN
             NaN             NaN             NaN
             NaN             NaN             NaN
             NaN             NaN             NaN
             NaN             NaN             NaN
             NaN             NaN             NaN
             NaN             NaN             NaN
             NaN             NaN             NaN
             NaN             NaN             NaN
             NaN             NaN             NaN
             NaN             NaN             NaN
             NaN             NaN             NaN
             NaN             NaN             NaN
             NaN             NaN             NaN
             NaN             NaN             NaN
             NaN             NaN             NaN
             NaN             NaN             NaN
             NaN             NaN             NaN
             NaN             NaN             NaN
