Ca9 Mn12 F42
1.0
7.616192 -0.090760 -0.005397
-3.891982 6.659893 0.044904
0.004399 0.133985 18.594519
Ca Mn F
9 12 42
direct
0.461929 0.493861 0.339346 Ca
0.512942 0.857015 0.682704 Ca
0.151501 0.633924 1.000217 Ca
0.530423 0.355191 0.663717 Ca
0.835855 0.004574 0.327220 Ca
0.182425 0.145131 0.003989 Ca
0.866252 0.070663 0.839060 Ca
0.994651 0.789042 0.175342 Ca
0.150173 0.147843 0.507942 Ca
0.335098 0.979166 0.340325 Mn
0.029509 0.375120 0.653915 Mn
0.678004 0.669088 0.002679 Mn
0.338325 0.019929 0.838303 Mn
-0.005771 0.303287 0.156511 Mn
0.658503 0.672903 0.504794 Mn
0.490778 0.805320 0.170360 Mn
0.167719 0.673762 0.496844 Mn
0.354777 0.520113 0.834845 Mn
0.843507 0.523806 0.825968 Mn
0.660616 0.172173 0.496822 Mn
0.482745 0.304635 0.173635 Mn
0.605763 0.125215 0.608748 F
0.838959 0.565745 0.941585 F
0.446130 0.263158 0.291117 F
0.166732 0.674800 0.384265 F
0.532629 0.791364 0.061273 F
0.272255 0.524481 0.727024 F
0.856872 0.954975 0.950445 F
0.042578 0.874043 0.288228 F
0.204081 0.245964 0.620933 F
0.990093 0.804711 0.056065 F
0.853970 0.100630 0.718397 F
0.119317 0.167255 0.392206 F
0.503650 0.376385 0.055050 F
0.680053 0.153781 0.383989 F
0.856991 0.469255 0.708007 F
0.389922 0.561572 0.946872 F
0.243637 0.694208 0.604617 F
0.481822 0.829451 0.287391 F
0.798916 0.420835 0.175961 F
0.549234 0.363759 0.525693 F
0.654970 0.208282 0.851796 F
0.523883 0.832262 0.814000 F
0.340886 0.527674 0.477189 F
0.176511 0.624791 0.134794 F
0.056698 0.331313 0.264965 F
0.618573 0.671257 0.619865 F
0.292785 0.942260 0.948017 F
0.385767 0.054095 0.730021 F
0.682786 0.697440 0.388806 F
0.024201 0.315520 0.041250 F
0.171816 0.162024 0.137534 F
0.783607 0.986115 0.498267 F
0.010708 0.837734 0.818500 F
0.223680 0.210353 0.873310 F
0.974266 0.786104 0.516425 F
0.804455 0.000085 0.190487 F
0.055466 0.441020 0.860921 F
0.593986 0.605919 0.195699 F
0.346056 0.001976 0.462640 F
0.373698 0.995107 0.177800 F
0.572030 0.485104 0.782300 F
0.962293 0.369384 0.535023 F
