Ca1 Mn12 F42                            
   1.00000000000000     
     7.3180810000000003   -0.0174550000000000   -0.0476490000000000
    -3.6723690000000002    6.4149510000000003   -0.0580330000000000
     0.1112220000000000   -0.2296730000000000   17.4445639999999997
   Ca   Mn   F 
     1    12    42
Direct
  0.6480532396651729  0.8391438370858884  0.7444345580165410
  0.3063073663713595  0.0109316970976644  0.3314272932852932
  0.6868082365148440  0.6745606496245948  0.0004971309927760
  0.0289148312752314  0.3472113216377838  0.6596252581693116
  0.3279974103588623  0.9653290438412148  0.8389907442725487
  0.6597206791860173  0.6838649293000326  0.5024030230504193
  1.0012234232598547  0.3439572898389109  0.1673539854746120
  0.6593597326534908  0.1833428098187077  0.4961060664158559
  0.5029315754646030  0.3467377618510517  0.1694367358836802
  0.8387725085376408  0.4620172487509394  0.8386786361722970
  0.3213142872205754  0.4501272935182091  0.8438261191125438
  0.1594748955420492  0.6865457558137021  0.4986846283530653
  0.4983104408455283  0.8455425380104394  0.1665723552985855
  0.5431649282042841  0.7858405675101626  0.0610546969738884
  0.2744505155605937  0.4965651689004088  0.7408574087388583
  0.2050085491266686  0.7733847915968929  0.3894380141606962
  0.4344774087473707  0.2547977175175087  0.2730735791036061
  0.8039903550325832  0.5366509738566001  0.9411468699042719
  0.7666823640173902  0.2154439699445083  0.5963462254166813
  0.9400658518697107  0.1035050081641221  0.7143994470097227
  0.1998787718349386  0.1202499075675081  0.3932492813107273
  0.9160195841272113  0.8177840890380659  0.0540013266671715
  0.1746200635451365  0.2795434161626281  0.5981121593075958
  0.0921244439044109  0.8927993642289973  0.2686353110156238
  0.7587211637793071  0.8605562626681317  0.9277776939757469
  0.1188671124881005  0.6004970672040284  0.6080921475977500
  0.4544988460188256  0.9009773318046984  0.2706967305175735
  0.4156218370338019  0.4770136539338888  0.9449369983382584
  0.8616173690939519  0.4108504895914761  0.7298195105434346
  0.5654501964962628  0.1428701438247931  0.3921183301624777
  0.5817795269154342  0.4429789279798195  0.0676843843278743
  0.3667979521495317  0.6065722530388963  0.4882639018842954
  0.2087943509030867  0.6364570927119451  0.1543228578730443
  0.4059617094908030  0.7667583494404784  0.8592362057087508
  0.6195270346851004  0.1727431989674957  0.8534195326806893
  0.5878557961496192  0.3957044044891596  0.5192574620769320
  0.7852373424931941  0.4178424159720727  0.1898785778506970
  0.6771777651940700  0.6418514929742131  0.4041341325526218
  0.9406440399889763  0.3211982490863484  0.0680270894383848
  0.4100719425521432 -0.0568321372693451  0.7390815259966941
  0.2702538763515088  0.9864750019154752  0.9347337599082344
  0.6427636303776463  0.7293041570513513  0.6079957499006911
  0.0628507317528891  0.3674729411654901  0.2663200889150877
  0.9557214688641678  0.7696501031968104  0.5153979991111127
  0.7896896965313962  0.0529968484032511  0.1783197322202239
  0.2610041526150488  0.1607461063485676  0.8096571864794810
  0.0439528574414576  0.7542082151291757  0.8173881368805839
  0.7328021889472346  0.9699396066967103  0.4817493023620780
  0.2202906636530711  0.2731369960505436  0.1469193003467673
  0.6040288965433115  0.5503100582675825  0.8079261463539156
  0.9303940260647457  0.4000548783355733  0.4681823713587124
  0.4406463238658530  0.0508838399803950  0.1359315224365649
  0.3899076771608277  0.9748229215812432  0.5276976640430507
  0.5582494214821112  0.6420285420297512  0.1979500030188361
  0.0480737916035126  0.3649705034698136  0.8695704336501314
 
             NaN             NaN             NaN
             NaN             NaN             NaN
             NaN             NaN             NaN
             NaN             NaN             NaN
             NaN             NaN             NaN
             NaN             NaN             NaN
             NaN             NaN             NaN
             NaN             NaN             NaN
             NaN             NaN             NaN
             NaN             NaN             NaN
             NaN             NaN             NaN
             NaN             NaN             NaN
             NaN             NaN             NaN
             NaN             NaN             NaN
             NaN             NaN             NaN
             NaN             NaN             NaN
             NaN             NaN             NaN
             NaN             NaN             NaN
             NaN             NaN             NaN
             NaN             NaN             NaN
             NaN             NaN             NaN
             NaN             NaN             NaN
             NaN             NaN             NaN
             NaN             NaN             NaN
             NaN             NaN             NaN
             NaN             NaN             NaN
             NaN             NaN             NaN
             NaN             NaN             NaN
             NaN             NaN             NaN
             NaN             NaN             NaN
             NaN             NaN             NaN
             NaN             NaN             NaN
             NaN             NaN             NaN
             NaN             NaN             NaN
             NaN             NaN             NaN
             NaN             NaN             NaN
             NaN             NaN             NaN
             NaN             NaN             NaN
             NaN             NaN             NaN
             NaN             NaN             NaN
             NaN             NaN             NaN
             NaN             NaN             NaN
             NaN             NaN             NaN
             NaN             NaN             NaN
             NaN             NaN             NaN
             NaN             NaN             NaN
             NaN             NaN             NaN
             NaN             NaN             NaN
             NaN             NaN             NaN
             NaN             NaN             NaN
             NaN             NaN             NaN
             NaN             NaN             NaN
             NaN             NaN             NaN
             NaN             NaN             NaN
             NaN             NaN             NaN
