Ca1 Mn12 F42
1.0
7.318081 -0.017455 -0.047649
-3.672369 6.414951 -0.058033
0.111222 -0.229673 17.444564
Ca Mn F
1 12 42
direct
0.679190 -0.074554 0.751848 Ca
0.290270 1.001578 0.331276 Mn
0.698376 0.686461 0.007693 Mn
0.012194 0.314931 0.662114 Mn
0.356408 -0.002684 0.836182 Mn
0.652596 0.657658 0.495143 Mn
0.991702 0.341894 0.168424 Mn
0.649514 0.158567 0.494144 Mn
0.492544 0.343111 0.168724 Mn
0.857450 0.496812 0.836307 Mn
0.358873 0.497740 0.836912 Mn
0.151950 0.656811 0.496276 Mn
0.490194 0.842416 0.168837 Mn
0.551381 0.799624 0.067096 F
0.259971 0.444823 0.732552 F
0.187013 0.765140 0.392841 F
0.430092 0.248360 0.271405 F
0.811629 0.558606 0.940679 F
0.748170 0.196750 0.597678 F
0.871461 0.074312 0.716851 F
0.192684 0.119034 0.393359 F
0.911882 0.790219 0.070931 F
0.125320 0.209437 0.600834 F
0.075232 0.887378 0.268924 F
0.806853 0.909661 0.947620 F
0.137397 0.570504 0.607286 F
0.431125 0.881154 0.271402 F
0.446832 0.554498 0.942276 F
0.893031 0.440583 0.727984 F
0.553297 0.121282 0.391681 F
0.555668 0.432859 0.064932 F
0.360011 0.579989 0.476922 F
0.207815 0.639046 0.150530 F
0.454175 0.795418 0.817365 F
0.654472 0.201897 0.849283 F
0.572231 0.366784 0.512937 F
0.774051 0.423117 0.187683 F
0.685974 0.624236 0.397265 F
0.927085 0.306657 0.069294 F
0.380896 0.037656 0.733349 F
0.334181 0.949211 0.934825 F
0.618710 0.693380 0.596552 F
0.057156 0.377674 0.267231 F
0.942967 0.732961 0.517363 F
0.773607 0.045591 0.186303 F
0.265029 0.200995 0.848372 F
0.060484 0.792386 0.820742 F
0.725901 0.947451 0.479220 F
0.210500 0.261953 0.149056 F
0.641338 0.566260 0.805612 F
0.927594 0.377302 0.467210 F
0.437778 0.062125 0.138649 F
0.379350 0.935792 0.533168 F
0.544207 0.621786 0.198246 F
0.074576 0.432289 0.865289 F
