Ca8 Ni12 F42                            
   1.00000000000000     
     7.2792130000000004   -0.0142700000000000    0.0081880000000000
    -3.6761580000000000    6.3401300000000003    0.0000460000000000
     0.0280370000000000    0.0127080000000000   18.2173650000000009
   Ca   Ni   F 
     8    12    42
Direct
  0.9342385660674815  0.9167142607581780  0.7704669260386315
  0.4631291007638433  0.8690869316934647  0.6540442370184308
  0.1762442809997739  0.6543641118048680  0.9759967086853730
  0.3510552362970872  0.5128982829417967  0.3225657690585350
  0.8368000153553480  0.0220985657006067  0.3445865002050646
  0.1566858557810101  0.1534746441103153 -0.0005051811744853
  0.9889429578526009  0.7958257701412538  0.1703895651642686
  0.1900978084128290  0.1716820658812369  0.5140776937910838
  0.3318192942455690  0.0088768932545106  0.3316111664968273
  0.9854925642306284  0.3573499819257026  0.6685161620352363
  0.6743222944305137  0.6542487220735246  0.9953540920675132
  0.3480846205807942 -0.0023750847275871  0.8393732065025979
  0.9981030802894201  0.3151100994873495  0.1586066092830483
  0.6700252353864289  0.6828112684097907  0.4961688009098558
  0.4999471958413917  0.8195147306318755  0.1588431046540739
  0.1657635907519773  0.6706884997559938  0.4925542753991790
  0.3371651708829373  0.4979124320371447  0.8297320328525071
  0.8314227058002944  0.4805447301520669  0.8364604349737127
  0.6785984680798075  0.1892063463676635  0.4951799570089560
  0.4945020461433398  0.3135061363158733  0.1606648143426553
  0.7320042753673857  0.2148506892258508  0.6020870454608505
  0.7974267159167567  0.5032845250819030  0.9432565883671126
  0.4380095181420184  0.2650218614893116  0.2696197158830785
  0.2328371884810952  0.7376907615730727  0.3846525618722134
  0.4967758106760038  0.7557494004850004  0.0510964038589564
  0.2678837579256062  0.5225025661671908  0.7266720101051675
  0.8420983943312320  0.9198179277858586  0.9419550351608647
  0.0426175428092503  0.8906065314460346  0.2853907495277350
  0.1082571564145397  0.2002243016312202  0.6252976013685650
  0.9812155263933856  0.7909445565248038  0.0484874367836478
  0.7827382391666623  0.0699158284932541  0.7203949968431334
  0.1997210364581721  0.1751588421097366  0.3885734839282109
  0.5201207896918596  0.3885008382277030  0.0555787068698659
  0.6036689689987653  0.1344758464745927  0.3869711371456860
  0.8885970865482279  0.5115899152468387  0.7303202827555404
  0.3868781121102085  0.4881607845596453  0.9408850828551489
  0.1408234091161813  0.6113768943448731  0.6014254803679451
  0.5010603713144721  0.8735292517229423  0.2738472393234053
  0.7992940355382129  0.4232322717376766  0.1710417023285610
  0.5608589435893406  0.3747972425893628  0.5049700500745375
  0.6327918673616190  0.1973229704412317  0.8279004012129166
  0.4370500808613008  0.7929228829345043  0.8521134952430803
  0.3557369591348844  0.5529222346005698  0.4835401530386424
  0.1945643340114631  0.6232026343737151  0.1731137677042246
  0.0262977605370559  0.3019229733839709  0.2704771571491523
  0.6413436784377066  0.7334284806940224  0.5990218629071236
  0.3351287344314123  1.0066831374900764  0.9502792010171983
  0.2749269908617655  0.9578392915087707  0.7315580990250964
  0.6615624334365892  0.6791030209217477  0.3817575857855084
  0.0316891126890517  0.3603601960092371  0.0481237212181467
  0.1876937239274634  0.1966613740436138  0.1405970773163405
  0.7964575239612174  0.9969562015881377  0.4766979925640204
  0.0556647539308587  0.7718102551357819  0.8531848237927486
  0.2223762993804169  0.1856681262547702  0.8324246515757705
  0.9818662467407745  0.7943562103490281  0.4981125768062447
  0.8061947135447194  0.0033887408323850  0.1575210129285088
  0.0505856634305768  0.4128546707570773  0.8716786989650781
  0.5811237665018594  0.6108447011852898  0.1954633479888475
  0.3812653401950574  0.9676803266211996  0.5309177460224977
  0.3914634708207011  0.0112836250533029  0.1384452251765244
  0.6436118569589292  0.6001754238409469  0.8061927427858252
  0.9642112619956376  0.3852947247438235  0.4588346286297071
 
             NaN             NaN             NaN
             NaN             NaN             NaN
             NaN             NaN             NaN
             NaN             NaN             NaN
             NaN             NaN             NaN
             NaN             NaN             NaN
             NaN             NaN             NaN
             NaN             NaN             NaN
             NaN             NaN             NaN
             NaN             NaN             NaN
             NaN             NaN             NaN
             NaN             NaN             NaN
             NaN             NaN             NaN
             NaN             NaN             NaN
             NaN             NaN             NaN
             NaN             NaN             NaN
             NaN             NaN             NaN
             NaN             NaN             NaN
             NaN             NaN             NaN
             NaN             NaN             NaN
             NaN             NaN             NaN
             NaN             NaN             NaN
             NaN             NaN             NaN
             NaN             NaN             NaN
             NaN             NaN             NaN
             NaN             NaN             NaN
             NaN             NaN             NaN
             NaN             NaN             NaN
             NaN             NaN             NaN
             NaN             NaN             NaN
             NaN             NaN             NaN
             NaN             NaN             NaN
             NaN             NaN             NaN
             NaN             NaN             NaN
             NaN             NaN             NaN
             NaN             NaN             NaN
             NaN             NaN             NaN
             NaN             NaN             NaN
             NaN             NaN             NaN
             NaN             NaN             NaN
             NaN             NaN             NaN
             NaN             NaN             NaN
             NaN             NaN             NaN
             NaN             NaN             NaN
             NaN             NaN             NaN
             NaN             NaN             NaN
             NaN             NaN             NaN
             NaN             NaN             NaN
             NaN             NaN             NaN
             NaN             NaN             NaN
             NaN             NaN             NaN
             NaN             NaN             NaN
             NaN             NaN             NaN
             NaN             NaN             NaN
             NaN             NaN             NaN
             NaN             NaN             NaN
             NaN             NaN             NaN
             NaN             NaN             NaN
             NaN             NaN             NaN
             NaN             NaN             NaN
             NaN             NaN             NaN
             NaN             NaN             NaN
