Ca8 Ni12 F42
1.0
7.279213 -0.014270 0.008188
-3.676158 6.340130 0.000046
0.028037 0.012708 18.217365
Ca Ni F
8 12 42
direct
0.892726 0.915491 0.766363 Ca
0.486345 0.851552 0.653123 Ca
0.164579 0.653984 0.976505 Ca
0.347839 0.509245 0.321676 Ca
0.840444 0.013091 0.346601 Ca
0.153537 0.157734 0.005546 Ca
0.987058 0.792852 0.173159 Ca
0.203117 0.171055 0.513373 Ca
0.340308 0.008040 0.333256 Ni
0.988592 0.341102 0.669344 Ni
0.663800 0.656509 -0.000914 Ni
0.330620 0.007840 0.830755 Ni
0.995684 0.314107 0.161130 Ni
0.682683 0.677075 0.495149 Ni
0.497800 0.819004 0.161723 Ni
0.175767 0.668717 0.494986 Ni
0.328268 0.502403 0.828501 Ni
0.820462 0.497512 0.828963 Ni
0.688595 0.184167 0.495400 Ni
0.494420 0.311724 0.161534 Ni
0.740650 0.191945 0.601437 F
0.812089 0.548917 0.937586 F
0.438577 0.261876 0.270170 F
0.246296 0.735766 0.386900 F
0.476737 0.743212 0.055386 F
0.264151 0.524355 0.724654 F
0.821520 0.941272 0.955898 F
0.047708 0.885809 0.288307 F
0.123870 0.195838 0.623375 F
0.976175 0.791153 0.051770 F
0.807337 0.054320 0.721014 F
0.207076 0.176371 0.388979 F
0.521815 0.381944 0.054441 F
0.615440 0.137713 0.387355 F
0.859780 0.478336 0.723114 F
0.375391 0.491340 0.941760 F
0.135594 0.614416 0.604054 F
0.508907 0.876562 0.275420 F
0.798594 0.422463 0.173274 F
0.572508 0.371034 0.504825 F
0.628110 0.202796 0.841161 F
0.418266 0.797592 0.850159 F
0.371475 0.559405 0.496152 F
0.194544 0.620186 0.181765 F
0.022033 0.290592 0.271925 F
0.677616 0.723332 0.600299 F
0.287995 0.992578 0.941902 F
0.340975 -0.010682 0.723257 F
0.655027 0.668814 0.382336 F
0.025120 0.365338 0.050807 F
0.188494 0.200348 0.141163 F
0.802019 0.989203 0.476913 F
0.026822 0.801620 0.823247 F
0.219470 0.201950 0.825228 F
0.993303 0.792680 0.492291 F
0.804720 0.001925 0.156038 F
0.043791 0.433432 0.867391 F
0.584233 0.611213 0.196515 F
0.389469 0.965485 0.530864 F
0.384689 0.006757 0.139798 F
0.623233 0.600011 0.801554 F
0.981578 0.379141 0.462519 F
