Li24 I8 O8
1.0
   8.3264683849107186    0.0000002747312788   -0.0000000608457624
   0.0000002762722978    8.3264682502169247   -0.0000000328408378
  -0.0000000608361146   -0.0000000313212694    8.3264683523418022
Li I O
23 8 8
direct
   0.5000000001224335    1.2499999993175344    0.2499999970223961 Li
   0.0000000001224336    0.7499999993175344    0.2499999970223961 Li
   0.0000000001224336    0.7499999993175344    0.7499999970223961 Li
   0.0000000001224336    0.2499999993175344    0.2499999970223960 Li
   0.0000000001224336    0.2499999993175344    0.7499999970223961 Li
   0.5000000001224334    0.2499999993175344    0.7499999970223961 Li
   0.5000000001224335    0.7499999993175346    0.7499999970223961 Li
   0.2500000009523084    0.4999999999476543    0.2499999964800601 Li
   0.2500000009523083    0.4999999999476544    0.7499999964800600 Li
   0.2500000009523085    0.9999999999476541    0.2499999964800601 Li
   0.2500000009523084    0.9999999999476540    0.7499999964800600 Li
   0.7500000009523086    0.4999999999476545    0.2499999964800601 Li
   0.7500000009523083    0.4999999999476545    0.7499999964800601 Li
   0.7500000009523083    0.9999999999476544    0.2499999964800601 Li
   0.7500000009523082    0.9999999999476542    0.7499999964800601 Li
   0.2500000012395062    0.2499999998555537    0.0000000002563354 Li
   0.2500000012395062    0.2499999998555537    0.5000000002563354 Li
   0.2500000012395062    0.7499999998555537    0.0000000002563354 Li
   0.2500000012395062    0.7499999998555537    0.5000000002563354 Li
   0.7500000012395063    0.2499999998555537    0.0000000002563354 Li
   0.7500000012395062    0.2499999998555537    0.5000000002563354 Li
   0.7500000012395062    0.7499999998555538    0.0000000002563354 Li
   0.7500000012395062    0.7499999998555539    0.5000000002563353 Li
   0.4999999989683915    0.0000000016153976    0.0000000045186787 I
   0.4999999989683915    0.0000000016153976    0.5000000045186788 I
   0.4999999989683915    0.5000000016153976    0.0000000045186787 I
   0.4999999989683915    0.5000000016153976    0.5000000045186788 I
   0.9999999989683916    0.0000000016153976    0.0000000045186787 I
   0.9999999989683914    0.0000000016153976    0.5000000045186788 I
   0.9999999989683915    0.5000000016153977    0.0000000045186788 I
   0.9999999989683913    0.5000000016153977    0.5000000045186787 I
   0.2499999987173604    0.2499999992638600    0.2500000017225297 O
   0.2499999987173603    0.2499999992638600    0.7500000017225297 O
   0.2499999987173602    0.7499999992638599    0.2500000017225297 O
   0.2499999987173602    0.7499999992638600    0.7500000017225297 O
   0.7499999987173602    0.2499999992638599    0.2500000017225297 O
   0.7499999987173602    0.2499999992638599    0.7500000017225297 O
   0.7499999987173603    0.7499999992638600    0.2500000017225296 O
   0.7499999987173603    0.7499999992638600    0.7500000017225297 O
