Ca4 Mn4 P6 O24
1.0
2.709647 8.253407 4.637081
-0.139936 0.548059 8.593497
7.556876 0.547464 4.095780
Ca Mn P O
4 4 6 24
direct
0.574862 0.424580 0.511272 Ca
0.921072 0.984521 0.071341 Ca
0.380314 0.719549 0.061880 Ca
0.115553 0.434152 0.776566 Ca
0.689830 0.666769 0.597628 Mn
0.191389 0.129001 0.171885 Mn
0.806056 0.898504 0.829038 Mn
0.304438 0.324102 0.366991 Mn
0.248141 0.517148 0.978636 P
0.037881 0.771903 0.415067 P
0.965711 0.231667 0.587792 P
0.458090 0.080829 0.724012 P
0.530102 0.908213 0.264419 P
0.748015 0.481846 0.014101 P
0.581303 0.723799 0.416402 O
0.294921 0.105856 0.910432 O
0.341318 0.504970 0.773315 O
0.896205 0.288569 0.011265 O
0.800959 0.400686 0.560392 O
0.093354 0.928501 0.236634 O
0.914827 0.079501 0.772131 O
0.599825 0.484734 0.207358 O
0.694657 0.935867 0.095297 O
0.201259 0.585588 0.389859 O
0.154948 0.722466 0.990952 O
0.402379 0.259293 0.567560 O
0.124626 0.407348 0.075196 O
0.884125 0.774135 0.405548 O
0.062526 0.142392 0.422775 O
0.497845 0.890415 0.707960 O
0.414884 0.900754 0.197249 O
0.664259 0.546335 0.871789 O
0.371509 0.420172 0.088726 O
0.998115 0.788116 0.605373 O
0.080871 0.299067 0.595060 O
0.611953 0.090295 0.721598 O
0.432917 0.073022 0.354130 O
0.831721 0.624254 0.949379 O
