Na2 Ca2 V4 P2 S4 O24
1.0
8.971838 0.371091 0.181764
4.282149 7.896160 0.195057
4.169880 2.603471 7.420609
Ca Na V P S O
2 2 4 2 4 24
direct
0.536825 0.485638 0.440033 Ca
0.005915 0.989257 0.017093 Ca
0.424714 0.087358 0.748672 Na
0.592501 0.901638 0.249829 Na
0.349078 0.354899 0.357778 V
0.650556 0.654279 0.638047 V
0.145022 0.150502 0.143852 V
0.846958 0.847794 0.859730 V
0.752934 0.039032 0.445107 P
0.458946 0.747820 0.051891 P
0.046317 0.453048 0.749552 S
0.951448 0.547480 0.250510 S
0.240655 0.961201 0.558932 S
0.542212 0.258137 0.943359 S
0.231127 0.427306 0.600971 O
0.766627 0.569542 0.400110 O
0.583900 0.225725 0.438347 O
0.403710 0.782927 0.556375 O
0.424504 0.585669 0.230128 O
0.572475 0.408684 0.766503 O
0.914512 0.075224 0.265958 O
0.089808 0.928169 0.736050 O
0.066327 0.269245 0.902756 O
0.930901 0.732487 0.099293 O
0.275141 0.919358 0.057709 O
0.720532 0.093976 0.943997 O
0.486771 0.308930 0.101321 O
0.513326 0.717243 0.874990 O
0.092882 0.508596 0.314321 O
0.903960 0.489200 0.687867 O
0.293639 0.098666 0.549362 O
0.706703 0.896098 0.442868 O
0.403317 0.203523 0.958557 O
0.605588 0.790319 0.052589 O
0.188271 0.021968 0.400239 O
0.784377 0.982450 0.622433 O
0.987155 0.407560 0.185757 O
0.011746 0.594734 0.811066 O
