Na2 Ca2 V4 P2 S4 O24                    
   1.00000000000000     
     8.9702450000000002    0.3425820000000000    0.1988880000000000
     4.2543949999999997    7.9184070000000002    0.2346600000000000
     4.1731610000000003    2.6311879999999999    7.4448829999999999
   Ca   Na   V    P    S    O 
     2     2     4     2     4    24
Direct
  0.6764670321258498  0.4450396959509324  0.2844759612310374
  0.0020787564253085  1.0030213646431334  0.0070197307141517
  0.4095294828178669  0.1102882913057846  0.7493314224053785
  0.5880576056904928  0.8998428011070143  0.2528636728999751
  0.3424735134965670  0.3461254558529244  0.3653676586204550
  0.6459404943490707  0.6564829414281635  0.6391305339228525
  0.1494132882868373  0.1516572810013969  0.1437875062267486
  0.8481625683827557  0.8462430476614780  0.8559083108694946
  0.7554474677661379  0.0320621830685207  0.4430777856711924
  0.4541132114774661  0.7524457777163552  0.0398984834895470
  0.0452417957243869  0.4544024910670236  0.7453122219815146
  0.9537842943845818  0.5542375435332200  0.2496048281151745
  0.2368885264881651  0.9645890685592705  0.5638179259091309
  0.5431489791274724  0.2475095084516273  0.9586542726957752
  0.2188079451814845  0.4441292360327245  0.5888090548614762
  0.7705815443490535  0.5642321279617976  0.4002469858510203
  0.5748620248729238  0.2065309665204790  0.4496997945559355
  0.4048366448798422  0.7986343397855600  0.5534336158898580
  0.4395054306211904  0.5648350451257218  0.1837778073731427
  0.5520533786830354  0.4229335741832784  0.8164646186996822
  0.8957469123453031  0.1109714759216883  0.2566225132436436
  0.0887861235671761  0.9187564422051817  0.7408611308963159
  0.0803786858277514  0.2655969148296735  0.8961009919615937
  0.9288973105480525  0.7380319798507357  0.0997929663403088
  0.2677086221206192  0.9105624528365240  0.0796296354705290
  0.7285578282788238  0.0957977169686336  0.9259573435209151
  0.4968751190486786  0.2389878326260486  0.1469196339972619
  0.5038112579449372  0.7716230207509921  0.8423216423631472
  0.0969701610793495  0.5134494189077413  0.3096737490592338
  0.8937253479988476  0.4804042805482044  0.7018743011354521
  0.2711931242661283  0.1090450913105668  0.5675293421767648
  0.7332432917874198  0.8820439272733506  0.4274818266739149
  0.4074440985748871  0.1968356461452884  0.9596524066055797
  0.6091250004442199  0.7667867874905283  0.0633608978112700
  0.1822556339360708  0.0319964523720457  0.4043100966126610
  0.7993932415401759  0.9753871949821131  0.6117193682056357
  0.9879329047804859  0.4146001216631466  0.1819269527475738
  0.0034174030663065  0.5919687320397977  0.8159988898788600
 
             NaN             NaN             NaN
             NaN             NaN             NaN
             NaN             NaN             NaN
             NaN             NaN             NaN
             NaN             NaN             NaN
             NaN             NaN             NaN
             NaN             NaN             NaN
             NaN             NaN             NaN
             NaN             NaN             NaN
             NaN             NaN             NaN
             NaN             NaN             NaN
             NaN             NaN             NaN
             NaN             NaN             NaN
             NaN             NaN             NaN
             NaN             NaN             NaN
             NaN             NaN             NaN
             NaN             NaN             NaN
             NaN             NaN             NaN
             NaN             NaN             NaN
             NaN             NaN             NaN
             NaN             NaN             NaN
             NaN             NaN             NaN
             NaN             NaN             NaN
             NaN             NaN             NaN
             NaN             NaN             NaN
             NaN             NaN             NaN
             NaN             NaN             NaN
             NaN             NaN             NaN
             NaN             NaN             NaN
             NaN             NaN             NaN
             NaN             NaN             NaN
             NaN             NaN             NaN
             NaN             NaN             NaN
             NaN             NaN             NaN
             NaN             NaN             NaN
             NaN             NaN             NaN
             NaN             NaN             NaN
             NaN             NaN             NaN
