Na2 Ca2 V4 P2 S4 O24
1.0
8.970245 0.342582 0.198888
4.254395 7.918407 0.234660
4.173161 2.631188 7.444883
Ca Na V P S O
2 2 4 2 4 24
direct
0.619649 0.453508 0.315178 Ca
0.012998 0.984545 0.012961 Ca
0.432886 0.115526 0.745136 Na
0.589855 0.886853 0.249237 Na
0.347978 0.353841 0.359726 V
0.645101 0.653909 0.636300 V
0.145910 0.150115 0.146938 V
0.850764 0.848569 0.854530 V
0.751650 0.036104 0.443882 P
0.455911 0.751183 0.043936 P
0.042293 0.454518 0.748275 S
0.949663 0.546444 0.251810 S
0.241060 0.962982 0.559131 S
0.550798 0.254210 0.950066 S
0.225713 0.422442 0.604232 O
0.767165 0.568108 0.399724 O
0.586740 0.224066 0.431858 O
0.401543 0.787609 0.555313 O
0.421717 0.587391 0.220918 O
0.573354 0.404598 0.773817 O
0.912780 0.077968 0.262942 O
0.089902 0.928130 0.736568 O
0.053437 0.274807 0.910179 O
0.933250 0.729674 0.097601 O
0.279247 0.925702 0.052999 O
0.726747 0.089708 0.945076 O
0.509669 0.303535 0.104055 O
0.501593 0.724341 0.868753 O
0.094708 0.502907 0.312455 O
0.897378 0.490774 0.690113 O
0.291973 0.101113 0.551382 O
0.708736 0.892731 0.439562 O
0.406787 0.196307 0.981295 O
0.613889 0.779539 0.041992 O
0.184972 0.026385 0.402207 O
0.782435 0.981400 0.620537 O
0.981542 0.407096 0.187068 O
0.010355 0.597123 0.806521 O
