Mn16 P16 O64
1.0
   9.9055384437342848   -0.0000000755538122   -0.0000012441231960
  -0.0000001177998392   12.0815730366417764   -0.0000000974125282
  -0.0000002572906016   -0.0000001740987413    9.8884124657649561
Li Mn P O
1 16 16 64
direct
   0.5000000000000000    0.5000000000000000    0.5000000000000000 Li
   0.2069297609436032    0.3749999501599140    0.7933421184144701 Mn
   0.2069297609436032    0.8749999501599141    0.7933421184144701 Mn
   0.7069297609436032    0.3749999501599140    0.7933421184144701 Mn
   0.7069297609436033    0.8749999501599139    0.7933421184144701 Mn
   0.0430699233651124    0.3749999445406893    0.2933421418446270 Mn
   0.0430699233651124    0.8749999445406894    0.2933421418446270 Mn
   0.5430699233651124    0.3749999445406893    0.2933421418446270 Mn
   0.5430699233651124    0.8749999445406894    0.2933421418446270 Mn
   0.2930701183546754    0.1249999589591110    0.2066577346940940 Mn
   0.2930701183546754    0.6249999589591111    0.2066577346940940 Mn
   0.7930701183546753    0.1249999589591110    0.2066577346940940 Mn
   0.7930701183546754    0.6249999589591110    0.2066577346940940 Mn
   0.4569298073154838    0.1249999632045776    0.7066579374321015 Mn
   0.4569298073154837    0.6249999632045776    0.7066579374321015 Mn
   0.9569298073154838    0.1249999632045776    0.7066579374321015 Mn
   0.9569298073154837    0.6249999632045776    0.7066579374321015 Mn
   0.0418643812111444    0.1249999576609758    0.3963127577681400 P
   0.0418643812111444    0.6249999576609758    0.3963127577681400 P
   0.5418643812111444    0.1249999576609758    0.3963127577681400 P
   0.5418643812111443    0.6249999576609759    0.3963127577681400 P
   0.2081356230031361    0.1249999487098485    0.8963131851118379 P
   0.2081356230031361    0.6249999487098484    0.8963131851118379 P
   0.7081356230031361    0.1249999487098485    0.8963131851118379 P
   0.7081356230031363    0.6249999487098484    0.8963131851118379 P
   0.4581355877033765    0.3749999583861632    0.6036870186975040 P
   0.4581355877033765    0.8749999583861633    0.6036870186975040 P
   0.9581355877033766    0.3749999583861633    0.6036870186975040 P
   0.9581355877033766    0.8749999583861632    0.6036870186975040 P
   0.2918643481273101    0.3749999565449135    0.1036872994564827 P
   0.2918643481273101    0.8749999565449136    0.1036872994564827 P
   0.7918643481273101    0.3749999565449136    0.1036872994564827 P
   0.7918643481273102    0.8749999565449137    0.1036872994564827 P
   0.3880411911088256    0.1249999680485897    0.3707871552986208 O
   0.3880411911088257    0.6249999680485899    0.3707871552986208 O
   0.8880411911088256    0.1249999680485897    0.3707871552986208 O
   0.8880411911088256    0.6249999680485897    0.3707871552986208 O
   0.3619592344352051    0.1249999679539482    0.8707870626254525 O
   0.3619592344352050    0.6249999679539483    0.8707870626254526 O
   0.8619592344352051    0.1249999679539482    0.8707870626254525 O
   0.8619592344352049    0.6249999679539482    0.8707870626254525 O
   0.1119590173615323    0.3749999509272591    0.6292130997907569 O
   0.1119590173615323    0.8749999509272592    0.6292130997907569 O
   0.6119590173615322    0.3749999509272591    0.6292130997907569 O
   0.6119590173615322    0.8749999509272592    0.6292130997907569 O
   0.1380409993449301    0.3749999508873837    0.1292128845067213 O
   0.1380409993449301    0.8749999508873838    0.1292128845067213 O
   0.6380409993449301    0.3749999508873837    0.1292128845067213 O
   0.6380409993449302    0.8749999508873839    0.1292128845067213 O
   0.1849487814628298    0.1249999625238742    0.0506992032818628 O
   0.1849487814628299    0.6249999625238742    0.0506992032818628 O
   0.6849487814628298    0.1249999625238742    0.0506992032818628 O
   0.6849487814628298    0.6249999625238742    0.0506992032818628 O
   0.0650511831351138    0.1249999672986939    0.5506998557213177 O
   0.0650511831351138    0.6249999672986941    0.5506998557213177 O
   0.5650511831351137    0.1249999672986940    0.5506998557213177 O
   0.5650511831351137    0.6249999672986940    0.5506998557213177 O
   0.3150510878654906    0.3749999606336161    0.9493002295384942 O
   0.3150510878654906    0.8749999606336162    0.9493002295384942 O
   0.8150510878654906    0.3749999606336161    0.9493002295384941 O
   0.8150510878654906    0.8749999606336161    0.9493002295384941 O
   0.4349488581414918    0.3749999569054588    0.4493006183302221 O
   0.4349488581414918    0.8749999569054588    0.4493006183302221 O
   0.9349488581414916    0.3749999569054587    0.4493006183302221 O
   0.9349488581414919    0.8749999569054590    0.4493006183302222 O
   0.1142272422092035    0.2253853096586703    0.3283410686661588 O
   0.1142272422092035    0.7253853096586704    0.3283410686661588 O
   0.6142272422092035    0.2253853096586703    0.3283410686661588 O
   0.6142272422092035    0.7253853096586703    0.3283410686661588 O
   0.1357728933148035    0.0246145492967923    0.8283406294460161 O
   0.1357728933148035    0.5246145492967923    0.8283406294460161 O
   0.6357728933148036    0.0246145492967923    0.8283406294460161 O
   0.6357728933148036    0.5246145492967923    0.8283406294460161 O
   0.3857727701394859    0.4753853510179246    0.6716592719171557 O
   0.3857727701394859    0.9753853510179247    0.6716592719171557 O
   0.8857727701394860    0.4753853510179246    0.6716592719171557 O
   0.8857727701394857    0.9753853510179246    0.6716592719171557 O
   0.3642271818714605    0.2746146747529381    0.1716588741921513 O
   0.3642271818714605    0.7746146747529381    0.1716588741921513 O
   0.8642271818714604    0.2746146747529381    0.1716588741921513 O
   0.8642271818714606    0.7746146747529382    0.1716588741921513 O
   0.3857727520104450    0.2746145844108549    0.6716592761437259 O
   0.3857727520104450    0.7746145844108548    0.6716592761437259 O
   0.8857727520104450    0.2746145844108549    0.6716592761437259 O
   0.8857727520104451    0.7746145844108550    0.6716592761437259 O
   0.3642271667899993    0.4753852583028955    0.1716588759631867 O
   0.3642271667899994    0.9753852583028956    0.1716588759631867 O
   0.8642271667899993    0.4753852583028954    0.1716588759631867 O
   0.8642271667899993    0.9753852583028957    0.1716588759631867 O
   0.1142272142221338    0.0246145939327843    0.3283410645383237 O
   0.1142272142221338    0.5246145939327844    0.3283410645383237 O
   0.6142272142221338    0.0246145939327843    0.3283410645383237 O
   0.6142272142221338    0.5246145939327843    0.3283410645383237 O
   0.1357728765631970    0.2253853552821231    0.8283406366205691 O
   0.1357728765631970    0.7253853552821232    0.8283406366205691 O
   0.6357728765631970    0.2253853552821231    0.8283406366205691 O
   0.6357728765631969    0.7253853552821232    0.8283406366205691 O
