Li16 Tm16 Si16 O64
1.0
   9.8777122498000001    0.0000000000000000    0.0000000000000000
   0.0000000000000000   12.5341444016000008    0.0000000000000000
   0.0000000000000000    0.0000000000000000   10.8483228683000004
Li Tm Si O
15 16 16 64
direct
   0.7500000000000000    0.7499999999999999    0.5000000000000000 Li
   0.0000000000000000    0.0000000000000000    0.0000000000000000 Li
   0.0000000000000000    0.4999999999999999    0.0000000000000000 Li
   0.4999999999999999    0.0000000000000000    0.0000000000000000 Li
   0.4999999999999999    0.4999999999999999    0.0000000000000000 Li
   0.0000000000000000    0.2500000000000000    0.0000000000000000 Li
   0.0000000000000000    0.7499999999999999    0.0000000000000000 Li
   0.4999999999999999    0.2500000000000000    0.0000000000000000 Li
   0.4999999999999999    0.7499999999999999    0.0000000000000000 Li
   0.2500000000000000    0.0000000000000000    0.5000000000000000 Li
   0.2500000000000000    0.4999999999999999    0.5000000000000000 Li
   0.7500000000000000    0.0000000000000000    0.5000000000000000 Li
   0.2500000000000000    0.2500000000000000    0.5000000000000000 Li
   0.2500000000000000    0.7499999999999999    0.5000000000000000 Li
   0.7500000000000000    0.2500000000000000    0.5000000000000000 Li
   0.4901829960000000    0.3749999999999999    0.7231929900000000 Tm
   0.4901829960000000    0.8749999999999999    0.7231929900000000 Tm
   0.9901829959999999    0.3749999999999999    0.7231929900000000 Tm
   0.9901829959999999    0.8749999999999999    0.7231929900000000 Tm
   0.2598170040000000    0.3749999999999999    0.2231930050000000 Tm
   0.2598170040000000    0.8749999999999999    0.2231930050000000 Tm
   0.7598170040000000    0.3749999999999999    0.2231930050000000 Tm
   0.7598170040000000    0.8749999999999999    0.2231930050000000 Tm
   0.0098169995000000    0.1250000000000000    0.2768070100000000 Tm
   0.0098169995000000    0.6250000000000000    0.2768070100000000 Tm
   0.5098169994999999    0.1250000000000000    0.2768070100000000 Tm
   0.5098169994999999    0.6250000000000000    0.2768070100000000 Tm
   0.2401829960000000    0.1250000000000000    0.7768070099999999 Tm
   0.2401829960000000    0.6250000000000000    0.7768070099999999 Tm
   0.7401829960000000    0.1250000000000000    0.7768070099999999 Tm
   0.7401829960000000    0.6250000000000000    0.7768070099999999 Tm
   0.2087090015000000    0.3749999999999999    0.9120050070000000 Si
   0.2087090015000000    0.8749999999999999    0.9120050070000000 Si
   0.7087090014999999    0.3749999999999999    0.9120050070000000 Si
   0.7087090014999999    0.8749999999999999    0.9120050070000000 Si
   0.0412909985000000    0.3749999999999999    0.4120050070000000 Si
   0.0412909985000000    0.8749999999999999    0.4120050070000000 Si
   0.5412909985000000    0.3749999999999999    0.4120050070000000 Si
   0.5412909985000000    0.8749999999999999    0.4120050070000000 Si
   0.2912909985000000    0.1250000000000000    0.0879950000000000 Si
   0.2912909985000000    0.6250000000000000    0.0879950000000000 Si
   0.7912909985000000    0.1250000000000000    0.0879950000000000 Si
   0.7912909985000000    0.6250000000000000    0.0879950000000000 Si
   0.4587090015000000    0.1250000000000000    0.5879949930000000 Si
   0.4587090015000000    0.6250000000000000    0.5879949930000000 Si
   0.9587090014999999    0.1250000000000000    0.5879949930000000 Si
   0.9587090014999999    0.6250000000000000    0.5879949930000000 Si
   0.1130544990000000    0.2727015020000000    0.3369939920000000 O
   0.1130544990000000    0.7727015019999999    0.3369939920000000 O
   0.6130544990000000    0.2727015020000000    0.3369939920000000 O
   0.6130544990000000    0.7727015019999999    0.3369939920000000 O
   0.3869454859999999    0.2272984980000000    0.6630060080000000 O
   0.3869454859999999    0.7272984979999999    0.6630060080000000 O
   0.8869454859999999    0.2272984980000000    0.6630060080000000 O
   0.8869454859999999    0.7272984979999999    0.6630060080000000 O
   0.1369455010000000    0.2727015020000000    0.8369939920000000 O
   0.1369455010000000    0.7727015019999999    0.8369939920000000 O
   0.6369455010000000    0.2727015020000000    0.8369939920000000 O
   0.6369455010000000    0.7727015019999999    0.8369939920000000 O
   0.1130544990000000    0.4772984980000000    0.3369939920000000 O
   0.1130544990000000    0.9772984979999999    0.3369939920000000 O
   0.6130544990000000    0.4772984980000000    0.3369939920000000 O
   0.6130544990000000    0.9772984979999999    0.3369939920000000 O
   0.3630545140000000    0.0227015000000000    0.1630059930000000 O
   0.3630545140000000    0.5227014999999999    0.1630059930000000 O
   0.8630545140000000    0.0227015000000000    0.1630059930000000 O
   0.8630545140000000    0.5227014999999999    0.1630059930000000 O
   0.1273030045000000    0.1250000000000000    0.0978460010000000 O
   0.1273030045000000    0.6250000000000000    0.0978460010000000 O
   0.6273030045000000    0.1250000000000000    0.0978460010000000 O
   0.6273030045000000    0.6250000000000000    0.0978460010000000 O
   0.3630545140000000    0.2272984980000000    0.1630059930000000 O
   0.3630545140000000    0.7272984979999999    0.1630059930000000 O
   0.8630545140000000    0.2272984980000000    0.1630059930000000 O
   0.8630545140000000    0.7272984979999999    0.1630059930000000 O
   0.3869454859999999    0.0227015000000000    0.6630060080000000 O
   0.3869454859999999    0.5227014999999999    0.6630060080000000 O
   0.8869454859999999    0.0227015000000000    0.6630060080000000 O
   0.8869454859999999    0.5227014999999999    0.6630060080000000 O
   0.3726969955000000    0.3749999999999999    0.9021540280000000 O
   0.3726969955000000    0.8749999999999999    0.9021540280000000 O
   0.8726969954999999    0.3749999999999999    0.9021540280000000 O
   0.8726969954999999    0.8749999999999999    0.9021540280000000 O
   0.1226970030000000    0.1250000000000000    0.5978459720000000 O
   0.1226970030000000    0.6250000000000000    0.5978459720000000 O
   0.6226970030000000    0.1250000000000000    0.5978459720000000 O
   0.6226970030000000    0.6250000000000000    0.5978459720000000 O
   0.3562850060000000    0.1250000000000000    0.9493290190000000 O
   0.3562850060000000    0.6250000000000000    0.9493290190000000 O
   0.8562850059999999    0.1250000000000000    0.9493290190000000 O
   0.8562850059999999    0.6250000000000000    0.9493290190000000 O
   0.3773030044999999    0.3749999999999999    0.4021539990000000 O
   0.3773030044999999    0.8749999999999999    0.4021539990000000 O
   0.8773030044999999    0.3749999999999999    0.4021539990000000 O
   0.8773030044999999    0.8749999999999999    0.4021539990000000 O
   0.3937149939999999    0.1250000000000000    0.4493289890000000 O
   0.3937149939999999    0.6250000000000000    0.4493289890000000 O
   0.8937149939999999    0.1250000000000000    0.4493289890000000 O
   0.8937149939999999    0.6250000000000000    0.4493289890000000 O
   0.1062849985000000    0.3749999999999999    0.5506709810000000 O
   0.1062849985000000    0.8749999999999999    0.5506709810000000 O
   0.6062849985000001    0.3749999999999999    0.5506709810000000 O
   0.6062849985000001    0.8749999999999999    0.5506709810000000 O
   0.1437149940000000    0.3749999999999999    0.0506710000000000 O
   0.1437149940000000    0.8749999999999999    0.0506710000000000 O
   0.6437149940000000    0.3749999999999999    0.0506710000000000 O
   0.6437149940000000    0.8749999999999999    0.0506710000000000 O
   0.1369455010000000    0.4772984980000000    0.8369939920000000 O
   0.1369455010000000    0.9772984979999999    0.8369939920000000 O
   0.6369455010000000    0.4772984980000000    0.8369939920000000 O
   0.6369455010000000    0.9772984979999999    0.8369939920000000 O
