Ca8 Sc16 Se32                           
   1.00000000000000     
    11.5909972837943442    0.0000001485924804    0.0000014831752241
     0.0000001462581177   11.5909947819537713   -0.0000001971604589
     0.0000014821929645   -0.0000001909246068   11.5909985602536061
Ca   Sc   Ca   Se
1    16     6    32
Direct
  0.7499999517335507  0.2499998423768906  0.7499998115306344
  0.1250075734729734  0.8749927880951709  0.3749932905600463
  0.8749936285260140  0.1250068271005718  0.3749934089687944
  0.8749933969031336  0.8749928190777964  0.6250074701565838
  0.1250074017769445  0.1250066672094560  0.6250073552338531
  0.1250074652091899  0.3749924015006168  0.8749921123447642
  0.8749931858971283  0.6250077937603064  0.8749918491211396
  0.8749930585134814  0.3749924638402408  0.1250067832585664
  0.1250079280024704  0.6250078942336705  0.1250071631032503
  0.6250070322334274  0.8749929048645767  0.8749923134587538
  0.3749922577432865  0.1250067656297585  0.8749924046312191
  0.3749920247576545  0.8749931004679806  0.1250071982576618
  0.6250069667914093  0.1250068294564390  0.1250069596414443
  0.6250069472765023  0.3749927212643284  0.3749931575379974
  0.3749921051285630  0.6250079701535503  0.3749935068107990
  0.3749921490973171  0.3749928036936465  0.6250073660716915
  0.6250071306044958  0.6250076620352506  0.6250073601220724
  0.7500000088569196  0.7500000343463250  0.2500000868009816
  0.4999997904338768  0.9999999698229357  0.5000001303365444
  0.2499997877073265  0.7500001148557818  0.7499998055634330
  0.0000001665382279  0.5000001243691228  0.5000003305397789
  0.2500000342264339  0.2499997824995728  0.2499999314695451
  0.0000001405117631  0.0000000217827968  0.9999998410171155
  0.8889312763128955  0.1110685980848538  0.6110691919503850
  0.1110688534455257  0.8889310182399722  0.6110687044086831
  0.1110691883233222  0.1110684220218159  0.3889311912223690
  0.8889315325450859  0.8889309736528377  0.3889313728929717
  0.3611024742454413  0.1388972102853515  0.6388974565779312
  0.1388974743874600  0.3611026838115452  0.6388976033654258
  0.1388974624167906  0.1388972501124704  0.8611025181939906
  0.3611023620711486  0.3611025605474419  0.8611024764711345
  0.8889310677150770  0.6110693503122502  0.1110689077784852
  0.1110692842009641  0.3889307181697331  0.1110687364772223
  0.1110689895077784  0.6110690035313674  0.8889306297377099
  0.8889313180510994  0.3889308813960512  0.8889305505049041
  0.3611026894236912  0.6388976272645921  0.1388976259807014
  0.1388975789583404  0.8611029352056303  0.1388975730676528
  0.1388976745433619  0.6388978382387972  0.3611030495710247
  0.3611021817892449  0.8611025557291885  0.3611026873872918
  0.3889306539386762  0.1110686601953570  0.1110688768503475
  0.6110687118820092  0.8889309389119529  0.1110689164309356
  0.6110688743748148  0.1110686961015933  0.8889307637162326
  0.3889308711319903  0.8889311564506772  0.8889310623696239
  0.8611029661190673  0.1388969134927490  0.1388972193168128
  0.6388970226130936  0.3611027692918239  0.1388974163263814
  0.6388972307573926  0.1388972849011741  0.3611029111104884
  0.8611026557126876  0.3611026992595586  0.3611030345487374
  0.3889307270954069  0.6110691525867074  0.6110688651304204
  0.6110688290221511  0.3889310254966470  0.6110688402297602
  0.6110686822154436  0.6110690313360614  0.3889311864676351
  0.3889309819753960  0.3889311949518940  0.3889312489277194
  0.8611028423089964  0.6388976240143817  0.6388974425556567
  0.6388974604383476  0.8611026830951670  0.6388974786357930
  0.6388973582185996  0.6388974942388751  0.8611024792574120
  0.8611028373337872  0.8611026649357360  0.8611022812920558
 
  0.00000000E+00  0.00000000E+00  0.00000000E+00
  0.00000000E+00  0.00000000E+00  0.00000000E+00
  0.00000000E+00  0.00000000E+00  0.00000000E+00
  0.00000000E+00  0.00000000E+00  0.00000000E+00
  0.00000000E+00  0.00000000E+00  0.00000000E+00
  0.00000000E+00  0.00000000E+00  0.00000000E+00
  0.00000000E+00  0.00000000E+00  0.00000000E+00
  0.00000000E+00  0.00000000E+00  0.00000000E+00
  0.00000000E+00  0.00000000E+00  0.00000000E+00
  0.00000000E+00  0.00000000E+00  0.00000000E+00
  0.00000000E+00  0.00000000E+00  0.00000000E+00
  0.00000000E+00  0.00000000E+00  0.00000000E+00
  0.00000000E+00  0.00000000E+00  0.00000000E+00
  0.00000000E+00  0.00000000E+00  0.00000000E+00
  0.00000000E+00  0.00000000E+00  0.00000000E+00
  0.00000000E+00  0.00000000E+00  0.00000000E+00
  0.00000000E+00  0.00000000E+00  0.00000000E+00
  0.00000000E+00  0.00000000E+00  0.00000000E+00
  0.00000000E+00  0.00000000E+00  0.00000000E+00
  0.00000000E+00  0.00000000E+00  0.00000000E+00
  0.00000000E+00  0.00000000E+00  0.00000000E+00
  0.00000000E+00  0.00000000E+00  0.00000000E+00
  0.00000000E+00  0.00000000E+00  0.00000000E+00
  0.00000000E+00  0.00000000E+00  0.00000000E+00
  0.00000000E+00  0.00000000E+00  0.00000000E+00
  0.00000000E+00  0.00000000E+00  0.00000000E+00
  0.00000000E+00  0.00000000E+00  0.00000000E+00
  0.00000000E+00  0.00000000E+00  0.00000000E+00
  0.00000000E+00  0.00000000E+00  0.00000000E+00
  0.00000000E+00  0.00000000E+00  0.00000000E+00
  0.00000000E+00  0.00000000E+00  0.00000000E+00
  0.00000000E+00  0.00000000E+00  0.00000000E+00
  0.00000000E+00  0.00000000E+00  0.00000000E+00
  0.00000000E+00  0.00000000E+00  0.00000000E+00
  0.00000000E+00  0.00000000E+00  0.00000000E+00
  0.00000000E+00  0.00000000E+00  0.00000000E+00
  0.00000000E+00  0.00000000E+00  0.00000000E+00
  0.00000000E+00  0.00000000E+00  0.00000000E+00
  0.00000000E+00  0.00000000E+00  0.00000000E+00
  0.00000000E+00  0.00000000E+00  0.00000000E+00
  0.00000000E+00  0.00000000E+00  0.00000000E+00
  0.00000000E+00  0.00000000E+00  0.00000000E+00
  0.00000000E+00  0.00000000E+00  0.00000000E+00
  0.00000000E+00  0.00000000E+00  0.00000000E+00
  0.00000000E+00  0.00000000E+00  0.00000000E+00
  0.00000000E+00  0.00000000E+00  0.00000000E+00
  0.00000000E+00  0.00000000E+00  0.00000000E+00
  0.00000000E+00  0.00000000E+00  0.00000000E+00
  0.00000000E+00  0.00000000E+00  0.00000000E+00
  0.00000000E+00  0.00000000E+00  0.00000000E+00
  0.00000000E+00  0.00000000E+00  0.00000000E+00
  0.00000000E+00  0.00000000E+00  0.00000000E+00
  0.00000000E+00  0.00000000E+00  0.00000000E+00
  0.00000000E+00  0.00000000E+00  0.00000000E+00
  0.00000000E+00  0.00000000E+00  0.00000000E+00
  0.00000000E+00  0.00000000E+00  0.00000000E+00
