Ca7 Ni16 F48                            
   1.00000000000000     
    11.2219169999999995   -0.0000320000000000    0.0098340000000000
    -0.0000150000000000    7.6724870000000003   -0.0000110000000000
     0.0096380000000000   -0.0000130000000000   10.6722590000000004
   Ca   Ni   F 
     7    16    48
Direct
  0.6650363264841439  0.7500752763152381  0.6343865870990990
  0.0341245763774039  0.2500577693900504  0.4901275323981607
  0.0381773871399925  0.2500337797284695  0.9684872822655513
  0.5344261472922401  0.2500864891154405  0.9986129953368851
  0.2118741088145002  0.7499283923653817  0.2484857926139543
  0.2066807841652596  0.7499569004900946  0.7425143254907847
  0.7091391625304175  0.7498965314630256  0.2300590092737742
  0.4940354787167505  0.4945631607427088  0.2631035614521108
  0.4927701200114157  0.4888212984739801  0.7524993893507219
  0.9944425547292730  0.4994992604436184  0.2402304799684606
  0.9802529026151460  0.5073682659775041  0.7409135042693489
  0.2612806501959176  0.0039462884769225  0.5021855577885919
  0.2575141923432109 -0.0026992080806434  1.0046009612281033
  0.7543386658936101  0.0274822584200384  0.4877751860446296
  0.7504458949762062  0.9982129699954433  0.9937694784344931
  0.4940385218478619  0.0054552626160662  0.2630827394904201
  0.4927594054945147  0.0112058159913483  0.7525331182554376
  0.9944990326617037  1.0004619424029886  0.2401700803241711
  0.9803022535181231  0.9926545467503469  0.7409571585534040
  0.2613257883829080  0.4960501786745797  0.5021301644581713
  0.2575594521938778  0.5027235774724244  1.0046767762700548
  0.7542561028658321  0.4726708174120819  0.4877539891060295
  0.7504496037692531  0.5017521526668840  0.9937618866393518
  0.4795361103163908  0.2501003216001427  0.2031317429779666
  0.4557009701880375  0.2499920821391751  0.7274154459715441
  0.9916233327537372  0.2500311253478623  0.1784762095191036
  0.9949924682978294  0.2500119854582025  0.7024248289659537
  0.2313486343275495  0.2500321734507409  0.0430279606366428
  0.2317210610140332  0.2500545245638566  0.5457916055719705
  0.7380195201240425  0.2500259274750086  0.0427777475764732
  0.7942615109158118  0.2500000060308790  0.5540889357237940
  0.0111559871872607  0.7499698862196773  0.2927165573476982
  0.0070025468611073  0.7499824507286805  0.7907420365114504
  0.5164492457135816  0.7498505920780643  0.3063840844412943
  0.5212643943848267  0.7500049281237445  0.7751640978664788
  0.2643866972366582  0.7499259269095258  0.4535777652840802
  0.2674343903438003  0.7499734694623480  0.9467150250620716
  0.7495091999184570  0.7499314256584826  0.4411962522232986
  0.7447026265118503  0.7499818340372807  0.9522519480230544
  0.3446626985717487  0.5559409151134631  0.1663419860808440
  0.3457749426092026  0.5586526221483877  0.6619297295974732
  0.8464487640179621  0.5571723327798678  0.1460557463116700
  0.8353519201131697  0.5642967009925611  0.6438235555057856
  0.1077135978647698  0.9440817564034527  0.1011882420713481
  0.1045803704188805  0.9561654275967972  0.6011501296317115
  0.5984048042272647  0.9631158983619854  0.1056979894417440
  0.5985855105500026  1.0116280592793245  0.5943706651490508
  0.1451617347899233  0.0428369511068669  0.3521979098466407
  0.1422667248263785  0.0326446095301255  0.8532098811437078
  0.6593516238833778  0.0344847199171999  0.3354506014271446
  0.6363800150809245  0.0622743373153645  0.8573781797270565
  0.4062147015568813  0.4520640420465721  0.4136820688750291
  0.4072231347867835  0.4577052440540456  0.9180881268548200
  0.9081292840067208  0.4459493118037124  0.3955030558698289
  0.8979972117204589  0.4464094427018322  0.8993176322549410
  0.1451884062980811  0.4571747192440546  0.3522051532003649
  0.1422751694699074  0.4673419942270267  0.8531937399916224
  0.6593113273923071  0.4654836922759261  0.3353948314842954
  0.6364092782694637  0.4377086115887359  0.8573653035184943
  0.4062058380090791  0.0478995652215141  0.4136785845383368
  0.4072401311455574  0.0422891975213295  0.9180551783050092
  0.9081133576578507  0.0540934066207986  0.3955309310951815
  0.8980089040641642  0.0535830112487701  0.8993109818216087
  0.3446273302888230  0.9440345728533338  0.1663174837973600
  0.3457991056043546  0.9413376065160938  0.6619413285082305
  0.8464524589652453  0.9428179423573173  0.1460541846672535
  0.8353730280098154  0.9357423071936790  0.6438219891175272
  0.1077019564032931  0.5559081436602066  0.1011544154320315
  0.1045756804189670  0.5437980964813752  0.6011212116270070
  0.5983933089452278  0.5368521598696487  0.1057200220447728
  0.5986160846308375  0.4884412340003148  0.5943094394747079
 
             NaN             NaN             NaN
             NaN             NaN             NaN
             NaN             NaN             NaN
             NaN             NaN             NaN
             NaN             NaN             NaN
             NaN             NaN             NaN
             NaN             NaN             NaN
             NaN             NaN             NaN
             NaN             NaN             NaN
             NaN             NaN             NaN
             NaN             NaN             NaN
             NaN             NaN             NaN
             NaN             NaN             NaN
             NaN             NaN             NaN
             NaN             NaN             NaN
             NaN             NaN             NaN
             NaN             NaN             NaN
             NaN             NaN             NaN
             NaN             NaN             NaN
             NaN             NaN             NaN
             NaN             NaN             NaN
             NaN             NaN             NaN
             NaN             NaN             NaN
             NaN             NaN             NaN
             NaN             NaN             NaN
             NaN             NaN             NaN
             NaN             NaN             NaN
             NaN             NaN             NaN
             NaN             NaN             NaN
             NaN             NaN             NaN
             NaN             NaN             NaN
             NaN             NaN             NaN
             NaN             NaN             NaN
             NaN             NaN             NaN
             NaN             NaN             NaN
             NaN             NaN             NaN
             NaN             NaN             NaN
             NaN             NaN             NaN
             NaN             NaN             NaN
             NaN             NaN             NaN
             NaN             NaN             NaN
             NaN             NaN             NaN
             NaN             NaN             NaN
             NaN             NaN             NaN
             NaN             NaN             NaN
             NaN             NaN             NaN
             NaN             NaN             NaN
             NaN             NaN             NaN
             NaN             NaN             NaN
             NaN             NaN             NaN
             NaN             NaN             NaN
             NaN             NaN             NaN
             NaN             NaN             NaN
             NaN             NaN             NaN
             NaN             NaN             NaN
             NaN             NaN             NaN
             NaN             NaN             NaN
             NaN             NaN             NaN
             NaN             NaN             NaN
             NaN             NaN             NaN
             NaN             NaN             NaN
             NaN             NaN             NaN
             NaN             NaN             NaN
             NaN             NaN             NaN
             NaN             NaN             NaN
             NaN             NaN             NaN
             NaN             NaN             NaN
             NaN             NaN             NaN
             NaN             NaN             NaN
             NaN             NaN             NaN
             NaN             NaN             NaN
