Ca7 Ni16 F48
1.0
11.221917 -0.000032 0.009834
-0.000015 7.672487 -0.000011
0.009638 -0.000013 10.672259
Ca Ni F
7 16 48
direct
0.623281 0.750002 0.652326 Ca
0.034623 0.249999 0.487790 Ca
0.040375 0.249994 0.985410 Ca
0.540991 0.249989 0.986537 Ca
0.210532 0.749995 0.236357 Ca
0.209730 0.749990 0.738532 Ca
0.710302 0.749998 0.242130 Ca
0.494772 0.492145 0.256157 Ni
0.498689 0.495674 0.745496 Ni
0.990530 0.500389 0.249362 Ni
0.988602 0.502330 0.746185 Ni
0.259723 0.006478 0.496767 Ni
0.259864 0.000611 0.999345 Ni
0.747333 0.009896 0.500420 Ni
0.756094 0.997759 0.998407 Ni
0.494758 0.007855 0.256166 Ni
0.498687 0.004341 0.745493 Ni
0.990527 -0.000383 0.249367 Ni
0.988597 0.997672 0.746186 Ni
0.259713 0.493518 0.496772 Ni
0.259867 0.499387 0.999349 Ni
0.747339 0.490115 0.500427 Ni
0.756095 0.502240 0.998410 Ni
0.484943 0.249997 0.191628 F
0.487205 0.249996 0.704754 F
0.984870 0.250008 0.190759 F
0.987131 0.249998 0.693716 F
0.236157 0.249995 0.046160 F
0.230335 0.249991 0.548657 F
0.738189 0.250002 0.046445 F
0.737796 0.249988 0.549444 F
0.014774 0.749998 0.298373 F
0.013310 0.750001 0.795946 F
0.510449 0.749999 0.297814 F
0.507447 0.750000 0.788553 F
0.265002 0.750000 0.442670 F
0.264337 0.750004 0.944099 F
0.759271 0.749998 0.450646 F
0.762981 0.749996 0.946705 F
0.346006 0.554665 0.159425 F
0.346943 0.560697 0.652927 F
0.846455 0.560203 0.153634 F
0.843123 0.552472 0.653575 F
0.106284 0.953470 0.102678 F
0.106338 0.952444 0.601928 F
0.603335 0.958463 0.101886 F
0.603857 0.944706 0.602151 F
0.143246 0.049693 0.352387 F
0.144481 0.043538 0.851874 F
0.655726 0.022086 0.340591 F
0.645242 0.048862 0.854654 F
0.407953 0.454032 0.410181 F
0.407189 0.445539 0.905757 F
0.901368 0.442982 0.406339 F
0.905002 0.443395 0.905866 F
0.143249 0.450314 0.352385 F
0.144486 0.456470 0.851879 F
0.655725 0.477911 0.340591 F
0.645250 0.451142 0.854663 F
0.407947 0.045960 0.410179 F
0.407190 0.054459 0.905750 F
0.901368 0.057022 0.406347 F
0.905004 0.056605 0.905865 F
0.346002 0.945335 0.159428 F
0.346942 0.939301 0.652929 F
0.846459 0.939803 0.153642 F
0.843127 0.947521 0.653580 F
0.106288 0.546546 0.102676 F
0.106343 0.547560 0.601927 F
0.603337 0.541533 0.101884 F
0.603859 0.555305 0.602151 F
