Na8 Mn16 O32
1.0
        8.4597177505         0.0000000000         0.0000000000
        0.0000000000         8.4597177505         0.0000000000
        0.0000000000         0.0000000000         8.4597177505
   Na   Mn    O
    7   16   32
Direct
   0.2500000000000000    0.7500000000000000   -0.2500000000000000 Na
     0.500000000         0.000000000         0.500000000
     0.250000000         0.250000000         0.250000000
     0.000000000         0.000000000         0.000000000
     0.750000000         0.250000000         0.750000000
     0.000000000         0.500000000         0.500000000
     0.750000000         0.750000000         0.250000000
     0.375000000         0.875000000         0.125000000
     0.125000000         0.875000000         0.375000000
     0.125000000         0.625000000         0.125000000
     0.375000000         0.625000000         0.375000000
     0.375000000         0.375000000         0.625000000
     0.125000000         0.375000000         0.875000000
     0.125000000         0.125000000         0.625000000
     0.375000000         0.125000000         0.875000000
     0.875000000         0.875000000         0.625000000
     0.625000000         0.875000000         0.875000000
     0.625000000         0.625000000         0.625000000
     0.875000000         0.625000000         0.875000000
     0.875000000         0.375000000         0.125000000
     0.625000000         0.375000000         0.375000000
     0.625000000         0.125000000         0.125000000
     0.875000000         0.125000000         0.375000000
     0.355372995         0.855373025         0.355372995
     0.105373003         0.394627005         0.105373003
     0.855373025         0.144627005         0.144627005
     0.644626975         0.144627005         0.355372995
     0.394627005         0.394627005         0.394627005
     0.144627005         0.855373025         0.144627005
     0.105373003         0.105373003         0.394627005
     0.394627005         0.105373003         0.105373003
     0.355372995         0.355372995         0.855373025
     0.105373003         0.894626975         0.605373025
     0.855373025         0.644626975         0.644626975
     0.644626975         0.644626975         0.855373025
     0.394627005         0.894626975         0.894626975
     0.144627005         0.355372995         0.644626975
     0.105373003         0.605373025         0.894626975
     0.394627005         0.605373025         0.605373025
     0.855373025         0.855373025         0.855373025
     0.605373025         0.394627005         0.605373025
     0.355372995         0.144627005         0.644626975
     0.144627005         0.144627005         0.855373025
     0.894626975         0.394627005         0.894626975
     0.644626975         0.855373025         0.644626975
     0.605373025         0.105373003         0.894626975
     0.894626975         0.105373003         0.605373025
     0.855373025         0.355372995         0.355372995
     0.605373025         0.894626975         0.105373003
     0.355372995         0.644626975         0.144627005
     0.144627005         0.644626975         0.355372995
     0.894626975         0.894626975         0.394627005
     0.644626975         0.355372995         0.144627005
     0.605373025         0.605373025         0.394627005
     0.894626975         0.605373025         0.105373003
