Mg8 In16 S32
1.0
       10.8052520752         0.0000000000         0.0000000000
        0.0000000000        10.8052520752         0.0000000000
        0.0000000000         0.0000000000        10.8052520752
   Mg   In    S
    7   16   32
Direct
     0.500000000         0.500000000         0.000000000
     0.500000000         0.000000000         0.500000000
     0.250000000         0.250000000         0.250000000
     0.250000000         0.750000000         0.750000000
     0.000000000         0.000000000         0.000000000
     0.750000000         0.250000000         0.750000000
     0.000000000         0.500000000         0.500000000
     0.125000000         0.625000000         0.125000000
     0.375000000         0.875000000         0.125000000
     0.375000000         0.625000000         0.375000000
     0.125000000         0.875000000         0.375000000
     0.125000000         0.125000000         0.625000000
     0.375000000         0.375000000         0.625000000
     0.375000000         0.125000000         0.875000000
     0.125000000         0.375000000         0.875000000
     0.625000000         0.625000000         0.625000000
     0.875000000         0.875000000         0.625000000
     0.875000000         0.625000000         0.875000000
     0.625000000         0.875000000         0.875000000
     0.625000000         0.125000000         0.125000000
     0.875000000         0.375000000         0.125000000
     0.875000000         0.125000000         0.375000000
     0.625000000         0.375000000         0.375000000
     0.382115930         0.117884077         0.117884077
     0.367884070         0.867884099         0.367884070
     0.867884099         0.132115915         0.132115915
     0.117884077         0.117884077         0.382115930
     0.382115930         0.382115930         0.382115930
     0.132115915         0.867884099         0.132115915
     0.632115901         0.132115915         0.367884070
     0.117884077         0.382115930         0.117884077
     0.382115930         0.617884099         0.617884099
     0.367884070         0.367884070         0.867884099
     0.867884099         0.632115901         0.632115901
     0.117884077         0.617884099         0.882115901
     0.382115930         0.882115901         0.882115901
     0.132115915         0.367884070         0.632115901
     0.632115901         0.632115901         0.867884099
     0.117884077         0.882115901         0.617884099
     0.882115901         0.117884077         0.617884099
     0.867884099         0.867884099         0.867884099
     0.367884070         0.132115915         0.632115901
     0.617884099         0.117884077         0.882115901
     0.882115901         0.382115930         0.882115901
     0.632115901         0.867884099         0.632115901
     0.132115915         0.132115915         0.867884099
     0.617884099         0.382115930         0.617884099
     0.882115901         0.617884099         0.117884077
     0.867884099         0.367884070         0.367884070
     0.367884070         0.632115901         0.132115915
     0.617884099         0.617884099         0.382115930
     0.882115901         0.882115901         0.382115930
     0.632115901         0.367884070         0.132115915
     0.132115915         0.632115901         0.367884070
     0.617884099         0.882115901         0.117884077
