Li16 Fe16 S16 O64 F16                   
   1.00000000000000     
    10.4709230401097972    0.1685512984371119   -0.1110272121018105
    -1.1891966375298368   10.4932626942818281   -0.1242382166951366
    -4.6111988031392830   -4.9320020385043009   13.1960455238991390
   Li   Fe   S    O    F 
     1    16    16    64    16
Direct
   0.8703895363999550    0.6893015858618696    0.6133280489096435 Li
  0.0015142904772389  0.9992836875615012  0.2491940233131231
  0.0001688849536094  0.9997731685275113  0.7497366344155338
  0.9986348638406355  0.4988827594629583  0.2487558615091174
  0.0010425776904199  0.5018071454473159  0.7497280446349635
  0.4955562730660432  0.9891674244001649  0.2475756111600589
  0.5014278514915915  0.0008727373934008  0.7516624006534514
  0.4976980018291712  0.5046879774833641  0.2480200004774602
  0.5013153896585223  0.5003984042425884  0.7515483864951094
  0.9997554225566603  0.0006858295429240  0.9995467740887065
  0.0040613699502998  0.9988026908683878  0.5010872160283526
  0.9988529694271264  0.4986075576314022  0.9988500369296105
  0.0071057225229296  0.5033715499373201  0.5019345652503873
  0.4985875432540752  0.9997747000046431  0.0005099537710009
  0.4994920600632966  0.9997819072666587  0.5011662056045054
  0.4998818733889507  0.4987528883040326  0.9989463810184773
  0.4910601796819947  0.5065171288471078  0.5024847782294941
  0.1682066263437036  0.3222287124736809  0.1286363661665035
  0.1684214506745576  0.3215634307799036  0.6294388701337112
  0.1656029605034846  0.8203292728522129  0.1273953315172562
  0.1702407549788845  0.8228124336156384  0.6301197221863575
  0.6673930048737091  0.3217392750889871  0.1313660032343762
  0.6659431601476342  0.3205904825680648  0.6233503396798312
  0.6696979903172391  0.8210449780934397  0.1284296371109264
  0.6670363274391704  0.8211425892770947  0.6288907111475908
  0.3336291594128511  0.1799112229554041  0.3731253802514729
  0.3322519708523757  0.1779755321781806  0.8717332609402391
  0.3293625926128882  0.6802968464931283  0.3701350285866241
  0.3331707900539556  0.6780487171182799  0.8717429569041784
  0.8331315417640113  0.1771228775621481  0.3721035375637527
  0.8322037697405094  0.1779493633266611  0.8706151562603637
  0.8331526909315059  0.6777434284563810  0.3717833105024013
  0.8326977131671640  0.6784324522073817  0.8712309017602422
  0.3135909565066655  0.3775842475617281  0.2023680776130732
  0.3131728057880423  0.3770513779110019  0.7031691610919282
  0.3105399388105283  0.8751786391016694  0.2033446317039989
  0.3144855576003565  0.8769312276467787  0.7046417875518713
  0.8132126468868250  0.3753416180315625  0.2038570525436967
  0.8098756952567925  0.3800724386282113  0.6964886843727740
  0.8143440943211075  0.8761601702314650  0.2024892993954168
  0.8127833441519172  0.8738536184561383  0.7008490219895265
  0.1923534686240345  0.1208765248380459  0.2946038281231509
  0.1874580313161260  0.1231653942537889  0.7977239183845910
  0.1859371313621025  0.6248737356051635  0.2949829467029801
  0.1884069522441933  0.6237979994705896  0.7973563787489297
  0.6835457249531345  0.1298219580946665  0.3032519735418759
  0.6870684432261527  0.1236797497631414  0.7970384603958749
  0.6870695232252189  0.6254763984107399  0.2994235099821481
  0.6876546902620859  0.6234775544030384  0.7973477251272527
  0.0732187767446391  0.3400316163675186  0.1855380730993943
  0.0720170659503623  0.3399150925491767  0.6850065051761192
  0.0696344405501321  0.8376684549255273  0.1834015721254971
  0.0727737115731557  0.8389370425236464  0.6846737307625119
  0.5745731610076490  0.3416311155959946  0.1906073457632544
  0.5690672407602904  0.3411275685737181  0.6780375651098183
  0.5750891626392018  0.8384733925013279  0.1863400643142228
  0.5728867122867953  0.8397561893431273  0.6863106353557811
  0.4379652331795896  0.1667506348902918  0.3224592388969825
  0.4284047018071817  0.1605677668816199  0.8158344654365308
  0.4287165850288233  0.6624839558425535  0.3168412423631111
  0.4297613266760933  0.6610075363841830  0.8161994354661957
  0.9242035202091259  0.1606501563762208  0.3131431537269478
  0.9273364686200338  0.1597715575103393  0.8139352094210892
  0.9271075965923359  0.6593531103602430  0.3141176759712252
  0.9283372675658512  0.6608549199475178  0.8148664732802189
  0.1527411439494131  0.1750903337543761  0.0739959065259441
  0.1531202942059195  0.1744057279745945  0.5749463011824574
  0.1517500574257298  0.6738429322598876  0.0730346004932869
  0.1554955028040226  0.6756807529872546  0.5743409638427082
  0.6500166342514078  0.1743942686608477  0.0769952538520187
  0.6530639637133575  0.1728359998536249  0.5720488186673620
  0.6530663943750099  0.6740881330782216  0.0734763218015146
  0.6486829873368904  0.6730511380379980  0.5731587788982893
  0.3443939306375725  0.3265160716925948  0.4263877647891547
  0.3478529508374493  0.3251293930389849  0.9266665106320104
  0.3450010155065399  0.8269070916923553  0.4254583023777201
  0.3485430567305059  0.8250110086052089  0.9271313293966941
  0.8455090314985370  0.3256132579445179  0.4275212851684387
  0.8477845620838806  0.3251233050296563  0.9253577197707443
  0.8516425901463265  0.8249334512208506  0.4280509981896259
  0.8484771854578383  0.8255359224855852  0.9263027008709841
  0.1370950457222264  0.3942402537367400  0.0543690128297740
  0.1374801264738466  0.3923344548414676  0.5539806311219166
  0.1377032445347410  0.8939800988287558  0.0545352585923666
  0.1411368870477929  0.8950225902012505  0.5558289568732988
  0.6352839393609386  0.3936770107456766  0.0573374484196449
  0.6316953095728906  0.3850856063633188  0.5428596612129581
  0.6374366078531324  0.8941477809086535  0.0552399913848305
  0.6354072286399415  0.8926468725285019  0.5542610849358667
  0.3625708242711383  0.1079006083623781  0.4471832876034796
  0.3626109545059393  0.1058329089241354  0.9460582378717390
  0.3578843657276920  0.6072068356872791  0.4442828295741279
  0.3629929329029054  0.6050300759434464  0.9454070304911255
  0.8647864729118098  0.1048267148865776  0.4453127508646233
  0.8628088107319911  0.1060774291133981  0.9450174136603735
  0.8631573082911785  0.6032490210625525  0.4446252322304005
  0.8631595621430392  0.6060660049259212  0.9453122641740919
  0.0521657974658538  0.4653650414659367  0.3792435425400953
  0.0488119734439110  0.4646379968805689  0.8777921585423414
  0.0528457444025747  0.9682543960321013  0.3795051510940723
  0.0507695273547242  0.9655906816232900  0.8791923275532696
  0.5510828493428761  0.4610088242931880  0.3797275949466226
  0.5525817765664698  0.4634018411362959  0.8793184303519865
  0.5494187902628198  0.9631354540190031  0.3795667055029099
  0.5520902838210873  0.9671319552899504  0.8813149138051699
  0.4489163192370924  0.0326535887380786  0.1225629290002033
  0.4493106113467817  0.0344153447420439  0.6213598912950999
  0.4478508829069341  0.5364480421058602  0.1199568128893915
  0.4458533471173283  0.5380256122998048  0.6222170363235477
  0.9503433977885720  0.0355202154129302  0.1210271052752461
  0.9500401188862639  0.0337153424784304  0.6202412295797330
  0.9476434243858733  0.5328052994879116  0.1194510823672701
  0.9512002939219641  0.5358756354155574  0.6198918480438138
 
  0.00000000E+00  0.00000000E+00  0.00000000E+00
  0.00000000E+00  0.00000000E+00  0.00000000E+00
  0.00000000E+00  0.00000000E+00  0.00000000E+00
  0.00000000E+00  0.00000000E+00  0.00000000E+00
  0.00000000E+00  0.00000000E+00  0.00000000E+00
  0.00000000E+00  0.00000000E+00  0.00000000E+00
  0.00000000E+00  0.00000000E+00  0.00000000E+00
  0.00000000E+00  0.00000000E+00  0.00000000E+00
  0.00000000E+00  0.00000000E+00  0.00000000E+00
  0.00000000E+00  0.00000000E+00  0.00000000E+00
  0.00000000E+00  0.00000000E+00  0.00000000E+00
  0.00000000E+00  0.00000000E+00  0.00000000E+00
  0.00000000E+00  0.00000000E+00  0.00000000E+00
  0.00000000E+00  0.00000000E+00  0.00000000E+00
  0.00000000E+00  0.00000000E+00  0.00000000E+00
  0.00000000E+00  0.00000000E+00  0.00000000E+00
  0.00000000E+00  0.00000000E+00  0.00000000E+00
  0.00000000E+00  0.00000000E+00  0.00000000E+00
  0.00000000E+00  0.00000000E+00  0.00000000E+00
  0.00000000E+00  0.00000000E+00  0.00000000E+00
  0.00000000E+00  0.00000000E+00  0.00000000E+00
  0.00000000E+00  0.00000000E+00  0.00000000E+00
  0.00000000E+00  0.00000000E+00  0.00000000E+00
  0.00000000E+00  0.00000000E+00  0.00000000E+00
  0.00000000E+00  0.00000000E+00  0.00000000E+00
  0.00000000E+00  0.00000000E+00  0.00000000E+00
  0.00000000E+00  0.00000000E+00  0.00000000E+00
  0.00000000E+00  0.00000000E+00  0.00000000E+00
  0.00000000E+00  0.00000000E+00  0.00000000E+00
  0.00000000E+00  0.00000000E+00  0.00000000E+00
  0.00000000E+00  0.00000000E+00  0.00000000E+00
  0.00000000E+00  0.00000000E+00  0.00000000E+00
  0.00000000E+00  0.00000000E+00  0.00000000E+00
  0.00000000E+00  0.00000000E+00  0.00000000E+00
  0.00000000E+00  0.00000000E+00  0.00000000E+00
  0.00000000E+00  0.00000000E+00  0.00000000E+00
  0.00000000E+00  0.00000000E+00  0.00000000E+00
  0.00000000E+00  0.00000000E+00  0.00000000E+00
  0.00000000E+00  0.00000000E+00  0.00000000E+00
  0.00000000E+00  0.00000000E+00  0.00000000E+00
  0.00000000E+00  0.00000000E+00  0.00000000E+00
  0.00000000E+00  0.00000000E+00  0.00000000E+00
  0.00000000E+00  0.00000000E+00  0.00000000E+00
  0.00000000E+00  0.00000000E+00  0.00000000E+00
  0.00000000E+00  0.00000000E+00  0.00000000E+00
  0.00000000E+00  0.00000000E+00  0.00000000E+00
  0.00000000E+00  0.00000000E+00  0.00000000E+00
  0.00000000E+00  0.00000000E+00  0.00000000E+00
  0.00000000E+00  0.00000000E+00  0.00000000E+00
  0.00000000E+00  0.00000000E+00  0.00000000E+00
  0.00000000E+00  0.00000000E+00  0.00000000E+00
  0.00000000E+00  0.00000000E+00  0.00000000E+00
  0.00000000E+00  0.00000000E+00  0.00000000E+00
  0.00000000E+00  0.00000000E+00  0.00000000E+00
  0.00000000E+00  0.00000000E+00  0.00000000E+00
  0.00000000E+00  0.00000000E+00  0.00000000E+00
  0.00000000E+00  0.00000000E+00  0.00000000E+00
  0.00000000E+00  0.00000000E+00  0.00000000E+00
  0.00000000E+00  0.00000000E+00  0.00000000E+00
  0.00000000E+00  0.00000000E+00  0.00000000E+00
  0.00000000E+00  0.00000000E+00  0.00000000E+00
  0.00000000E+00  0.00000000E+00  0.00000000E+00
  0.00000000E+00  0.00000000E+00  0.00000000E+00
  0.00000000E+00  0.00000000E+00  0.00000000E+00
  0.00000000E+00  0.00000000E+00  0.00000000E+00
  0.00000000E+00  0.00000000E+00  0.00000000E+00
  0.00000000E+00  0.00000000E+00  0.00000000E+00
  0.00000000E+00  0.00000000E+00  0.00000000E+00
  0.00000000E+00  0.00000000E+00  0.00000000E+00
  0.00000000E+00  0.00000000E+00  0.00000000E+00
  0.00000000E+00  0.00000000E+00  0.00000000E+00
  0.00000000E+00  0.00000000E+00  0.00000000E+00
  0.00000000E+00  0.00000000E+00  0.00000000E+00
  0.00000000E+00  0.00000000E+00  0.00000000E+00
  0.00000000E+00  0.00000000E+00  0.00000000E+00
  0.00000000E+00  0.00000000E+00  0.00000000E+00
  0.00000000E+00  0.00000000E+00  0.00000000E+00
  0.00000000E+00  0.00000000E+00  0.00000000E+00
  0.00000000E+00  0.00000000E+00  0.00000000E+00
  0.00000000E+00  0.00000000E+00  0.00000000E+00
  0.00000000E+00  0.00000000E+00  0.00000000E+00
  0.00000000E+00  0.00000000E+00  0.00000000E+00
  0.00000000E+00  0.00000000E+00  0.00000000E+00
  0.00000000E+00  0.00000000E+00  0.00000000E+00
  0.00000000E+00  0.00000000E+00  0.00000000E+00
  0.00000000E+00  0.00000000E+00  0.00000000E+00
  0.00000000E+00  0.00000000E+00  0.00000000E+00
  0.00000000E+00  0.00000000E+00  0.00000000E+00
  0.00000000E+00  0.00000000E+00  0.00000000E+00
  0.00000000E+00  0.00000000E+00  0.00000000E+00
  0.00000000E+00  0.00000000E+00  0.00000000E+00
  0.00000000E+00  0.00000000E+00  0.00000000E+00
  0.00000000E+00  0.00000000E+00  0.00000000E+00
  0.00000000E+00  0.00000000E+00  0.00000000E+00
  0.00000000E+00  0.00000000E+00  0.00000000E+00
  0.00000000E+00  0.00000000E+00  0.00000000E+00
  0.00000000E+00  0.00000000E+00  0.00000000E+00
  0.00000000E+00  0.00000000E+00  0.00000000E+00
  0.00000000E+00  0.00000000E+00  0.00000000E+00
  0.00000000E+00  0.00000000E+00  0.00000000E+00
  0.00000000E+00  0.00000000E+00  0.00000000E+00
  0.00000000E+00  0.00000000E+00  0.00000000E+00
  0.00000000E+00  0.00000000E+00  0.00000000E+00
  0.00000000E+00  0.00000000E+00  0.00000000E+00
  0.00000000E+00  0.00000000E+00  0.00000000E+00
  0.00000000E+00  0.00000000E+00  0.00000000E+00
  0.00000000E+00  0.00000000E+00  0.00000000E+00
  0.00000000E+00  0.00000000E+00  0.00000000E+00
  0.00000000E+00  0.00000000E+00  0.00000000E+00
  0.00000000E+00  0.00000000E+00  0.00000000E+00
  0.00000000E+00  0.00000000E+00  0.00000000E+00
  0.00000000E+00  0.00000000E+00  0.00000000E+00
  0.00000000E+00  0.00000000E+00  0.00000000E+00
