Ca8 Mn12 F42                            
   1.00000000000000     
     7.5392820000000000   -0.0623600000000000   -0.0021820000000000
    -3.8286959999999999    6.6907150000000000    0.0546620000000000
     0.0100690000000000    0.1675620000000000   18.7027539999999988
   Ca   Mn   F 
     8    12    42
Direct
  0.7854654974367726  0.9133636792135095  0.8113770870537931
  0.1814191551830014  0.6499909394669416  1.0005230003615297
  0.3586460303460721  0.4990401375815208  0.3550902980611662
  0.5521865327047808  0.3633420345839400  0.6675667094618524
  0.8602768950038533  0.0079109600932884  0.3361628092307648
  0.1909785027325192  0.1713975085274033  0.9988459101866155
  0.9936334984484498  0.7709927730894867  0.1794636442525149
  0.1783687259330708  0.1318955765472718  0.5181598294593136
  0.3682303650789895  1.0018109897615430  0.3239163245706125
  0.0309627357800200  0.3688824764066947  0.6680142204149517
  0.6778507467061886  0.6753921220810022  0.0088838003016556
  0.3441670830714861  0.0112937641463191  0.8391634614853964
  0.0253568637795734  0.3064052020698795  0.1684948099565249
  0.6733242239375623  0.6794675671335447  0.5136939675141284
  0.5193069177538311  0.8152338327119087  0.1747923461316900
  0.1793265012715459  0.6708556419896170  0.4966940362631158
  0.3146643742590328  0.4929413281916667  0.8382460648072098
  0.8334686639949057  0.5065939097982483  0.8338234641490564
  0.6844381984638195  0.1788501534591730  0.5006786711911215
  0.4979055658850935  0.3066571617888021  0.1705579679257317
  0.7669699570129797  0.2458766971122125  0.6125264487187856
  0.7785591379737065  0.5715502541350029  0.9299445060184582
  0.4542556066801607  0.2995286372581827  0.2878384366755025
  0.2445275975343720  0.7405316195357606  0.3917431958937761
  0.5061471684975862  0.7829091879758324  0.0625111975265601
  0.2528674984923776  0.5173862301452896  0.7347684297174000
  0.8582019367426161  0.9522841598615240  0.9615924093569256
  0.0612278310774204  0.8831794811977094  0.2909520742455282
  0.2198818549697241  0.2554617162399874  0.6258265784665300
  0.9747866609227959  0.7480813561586874  0.0598773979205315
  0.9192961336309502  0.1405792166209942  0.7325557084703731
  0.1717929132432939  0.1636535514397613  0.4002734454943410
  0.5185120291165750  0.3851193645744946  0.0587986139826988
  0.6349647549856173  0.1085443562762852  0.3862299500809858
  0.8573728861163866  0.4673569557692639  0.7305328926007166
  0.3826290648692752  0.5197395599891973  0.9533143932293531
  0.1407977366967277  0.5828678313443497  0.5980345536946359
  0.5085602574593829  0.7988997508711403  0.2897011348752303
  0.8064343414054563  0.3953689504131933  0.1773227350030566
  0.5512050370138771  0.3515896068820017  0.5268351728255767
  0.6548475548461541  0.2201985138876514  0.8542830916637937
  0.4662818399460719  0.8131095422620920  0.8422827214676856
  0.3547534396442761  0.5284497441847094  0.4830541106218490
  0.2014160899737565  0.6273790254186532  0.1648883521712454
  0.0816853750036129  0.3270253469244621  0.2809253454117631
  0.6543859699691695  0.6648910372723484  0.6205593528538463
  0.2935589832905589  0.9584301937941212  0.9518425721096679
  0.4017190838800648  0.0909831745200337  0.7373841366465246
  0.6878767935234394  0.7064592144012710  0.3997232584194925
  0.0544597664749762  0.3454421699180748  0.0551977804002312
  0.1814351712051940  0.1333123120958375  0.1342743778136438
  0.8195673123116612  0.0044926917637470  0.5072881129775321
  0.0160351945477402  0.8090606841286956  0.8158334740776958
  0.2111639355684721  0.1967916160491306  0.8680201416432274
  0.9880358830382557  0.7846740325768748  0.5120244888956669
  0.8288564868921358  0.0075088918714661  0.2022632645892102
  0.0792846480681300  0.5152826451981251  0.8874987777901374
  0.6351231708061743  0.6195116916681227  0.1817459253529612
  0.3860580086733966  0.9644713961063194  0.5203187674773828
  0.4074601340708264  0.0079458026590950  0.2018509150476873
  0.5969297926734378  0.5595261025878945  0.7897221016934115
  0.9557274135734063  0.3985335597210515  0.4675454597668183
 
             NaN             NaN             NaN
             NaN             NaN             NaN
             NaN             NaN             NaN
             NaN             NaN             NaN
             NaN             NaN             NaN
             NaN             NaN             NaN
             NaN             NaN             NaN
             NaN             NaN             NaN
             NaN             NaN             NaN
             NaN             NaN             NaN
             NaN             NaN             NaN
             NaN             NaN             NaN
             NaN             NaN             NaN
             NaN             NaN             NaN
             NaN             NaN             NaN
             NaN             NaN             NaN
             NaN             NaN             NaN
             NaN             NaN             NaN
             NaN             NaN             NaN
             NaN             NaN             NaN
             NaN             NaN             NaN
             NaN             NaN             NaN
             NaN             NaN             NaN
             NaN             NaN             NaN
             NaN             NaN             NaN
             NaN             NaN             NaN
             NaN             NaN             NaN
             NaN             NaN             NaN
             NaN             NaN             NaN
             NaN             NaN             NaN
             NaN             NaN             NaN
             NaN             NaN             NaN
             NaN             NaN             NaN
             NaN             NaN             NaN
             NaN             NaN             NaN
             NaN             NaN             NaN
             NaN             NaN             NaN
             NaN             NaN             NaN
             NaN             NaN             NaN
             NaN             NaN             NaN
             NaN             NaN             NaN
             NaN             NaN             NaN
             NaN             NaN             NaN
             NaN             NaN             NaN
             NaN             NaN             NaN
             NaN             NaN             NaN
             NaN             NaN             NaN
             NaN             NaN             NaN
             NaN             NaN             NaN
             NaN             NaN             NaN
             NaN             NaN             NaN
             NaN             NaN             NaN
             NaN             NaN             NaN
             NaN             NaN             NaN
             NaN             NaN             NaN
             NaN             NaN             NaN
             NaN             NaN             NaN
             NaN             NaN             NaN
             NaN             NaN             NaN
             NaN             NaN             NaN
             NaN             NaN             NaN
             NaN             NaN             NaN
