Ca8 Mn12 F42                            
   1.00000000000000     
     7.5392820000000000   -0.0623600000000000   -0.0021820000000000
    -3.8286959999999999    6.6907150000000000    0.0546620000000000
     0.0100690000000000    0.1675620000000000   18.7027539999999988
   Ca   Mn   F 
     8    12    42
Direct
  0.7907250315886017  0.9249649252078901  0.8160480009672137
  0.1755374990760367  0.6482076542375413  0.9966114978682269
  0.3543510279557101  0.4994381708314356  0.3518813076802859
  0.5423897095554847  0.3608254602370707  0.6628698388741107
  0.8565038067504805  0.0067572871239422  0.3340092444962890
  0.1852467225973594  0.1740671312417562  0.9947958329123409
  0.9862243640612808  0.7694045051723283  0.1752483163372567
  0.1721502431237012  0.1327542011369883  0.5153629901704054
  0.3632378382604414 -0.0002173971027267  0.3207642728239830
  0.0127955609714294  0.3473146169134427  0.6718611238757285
  0.6637558073018323  0.6665430624512363  0.0062763245851021
  0.3489373717574205  0.0128349552735953  0.8316413897988442
  0.0195097244645080  0.3046432063169883  0.1651543844843142
  0.6675075227098501  0.6831342801614024  0.5075756279668785
  0.5138487972191214  0.8130885967007233  0.1714162756178719
  0.1722751889567633  0.6711948151582314  0.4929155945403450
  0.3111208521461689  0.5012213604641765  0.8338398516300431
  0.8180028714859338  0.4962925945141958  0.8291523761431681
  0.6776142090429877  0.1798448328706896  0.4961012808962018
  0.4906443430169640  0.3035294748508841  0.1662246730151313
  0.7621707192931406  0.2401023102232684  0.6081153549902117
  0.7570031777288236  0.5658053483805828  0.9224915263904525
  0.4482118804698741  0.2975458597398765  0.2840403650783989
  0.2406251946119369  0.7398496900454118  0.3880022549699271
  0.5033549079060916  0.7852775009783765  0.0580824309988248
  0.2375651368637693  0.5208413585444075  0.7324386573037095
  0.8517156285149033  0.9530022531017154  0.9532626331140874
  0.0561698228362066  0.8821183676044778  0.2870260490386655
  0.2124354606049938  0.2582199533611365  0.6225232819978939
  0.9595208080990626  0.7401287660563128  0.0544472252293166
  0.9137533557064681  0.1441520801057063  0.7326928607426209
  0.1690000283065929  0.1640353278637731  0.3970443260096447
  0.5080006941786807  0.3814004743690471  0.0546399268427741
  0.6306416219900869  0.1099234633938409  0.3826320533723687
  0.8411370715395277  0.4593694294136051  0.7257144322719725
  0.3697992634078812  0.5135995809826081  0.9500328056022861
  0.1325396723564924  0.5841452357364171  0.5934036981820662
  0.5068377586507643  0.8004344059878742  0.2866836043449690
  0.8005593867352666  0.3926142531788196  0.1732915438801730
  0.5433041369051995  0.3519757469035016  0.5271887456946424
  0.6279477179046231  0.2086552699656623  0.8489531041715755
  0.4612342577991860  0.8131945930614929  0.8423632150648366
  0.3469640064135948  0.5266697615945045  0.4804370235378990
  0.1961792188455080  0.6262978623792702  0.1603325680269892
  0.0771419367497023  0.3247259972036918  0.2769962881757223
  0.6501318824971377  0.6711437099848996  0.6186834286485220
  0.2751607173366512  0.9542314491516245  0.9469119319006635
  0.3815388684252092  0.0942621289394755  0.7326319827337164
  0.6815255350933046  0.7055719302116056  0.3976518896467585
  0.0456954917009148  0.3424144546432796  0.0513779375370631
  0.1722646310698596  0.1250472546032893  0.1281292974018297
  0.8160660056580075  0.0071506127518370  0.5018944887480065
  0.0066245204169891  0.7943207789537445  0.8131473573695960
  0.1883087771084242  0.1879372841231183  0.8618997803410997
  0.9815797557574119  0.7856163797736142  0.5089211958577596
  0.8253839857365185  0.0046093666264787  0.1978877459852525
  0.0588008461181649  0.4954266570566972  0.8865655172964023
  0.6268813257706057  0.6156741728983605  0.1790611136628189
  0.3788572735193471  0.9643638944456618  0.5157018549787342
  0.4022525422237139  0.0056951460650120  0.1979675472088458
  0.5960250545133127  0.5710316734805478  0.7878368755328599
  0.9481650108139953  0.4032605741864196  0.4630941027226301
 
             NaN             NaN             NaN
             NaN             NaN             NaN
             NaN             NaN             NaN
             NaN             NaN             NaN
             NaN             NaN             NaN
             NaN             NaN             NaN
             NaN             NaN             NaN
             NaN             NaN             NaN
             NaN             NaN             NaN
             NaN             NaN             NaN
             NaN             NaN             NaN
             NaN             NaN             NaN
             NaN             NaN             NaN
             NaN             NaN             NaN
             NaN             NaN             NaN
             NaN             NaN             NaN
             NaN             NaN             NaN
             NaN             NaN             NaN
             NaN             NaN             NaN
             NaN             NaN             NaN
             NaN             NaN             NaN
             NaN             NaN             NaN
             NaN             NaN             NaN
             NaN             NaN             NaN
             NaN             NaN             NaN
             NaN             NaN             NaN
             NaN             NaN             NaN
             NaN             NaN             NaN
             NaN             NaN             NaN
             NaN             NaN             NaN
             NaN             NaN             NaN
             NaN             NaN             NaN
             NaN             NaN             NaN
             NaN             NaN             NaN
             NaN             NaN             NaN
             NaN             NaN             NaN
             NaN             NaN             NaN
             NaN             NaN             NaN
             NaN             NaN             NaN
             NaN             NaN             NaN
             NaN             NaN             NaN
             NaN             NaN             NaN
             NaN             NaN             NaN
             NaN             NaN             NaN
             NaN             NaN             NaN
             NaN             NaN             NaN
             NaN             NaN             NaN
             NaN             NaN             NaN
             NaN             NaN             NaN
             NaN             NaN             NaN
             NaN             NaN             NaN
             NaN             NaN             NaN
             NaN             NaN             NaN
             NaN             NaN             NaN
             NaN             NaN             NaN
             NaN             NaN             NaN
             NaN             NaN             NaN
             NaN             NaN             NaN
             NaN             NaN             NaN
             NaN             NaN             NaN
             NaN             NaN             NaN
             NaN             NaN             NaN
