Ca8 Cr12 F42                            
   1.00000000000000     
     7.4076190000000004   -0.0150330000000000   -0.4942230000000000
    -3.6014870000000001    6.6771609999999999    0.1980200000000000
     0.9801910000000000    0.1556000000000000   18.5840439999999987
   Ca   Cr   F 
     8    12    42
Direct
  0.5796434458276086  0.8189706610028157  0.7252036701891021
  0.8464376221192346  0.5150796688145506  0.3136383974004558
  0.5753694162773888  0.0712028631129106  0.9897556760645660
  0.0622195294400027  0.8625059383250843  0.6680086677450700
  0.8393169163270979  0.0080946889656356  0.3461949105822792
  0.0885262131246651  0.5794544222987090  0.9794256908062021
  0.9903151545610948  0.8518945949765938  0.1511130045690348
  0.2778380422566101  0.2511225999386733  0.5024958385659869
  0.3464201041220236  0.0142124000021527  0.3443321548568574
  1.0207756525878895  0.3256237325381795  0.6626815866069771
  0.6124559886374178  0.5939531237029659  0.9984763335533947
  0.3087003768525525  0.9607225284152328  0.8312265502528697
  0.9322690625026996  0.3043116721410946  0.1592128783274167
  0.7352523596876613  0.7167528865390048  0.5056504583845969
  0.4391504446314053  0.8042403726643832  0.1722282592283932
  0.2203049220214631  0.7198772510891478  0.4994221590762702
  0.3078643192527892  0.4537678432688069  0.8325792054352879
  0.8091864620654946  0.4609498128855682  0.8164835261005742
  0.7471124083486775  0.2224361256714896  0.5018612286839221
  0.4449514915766046  0.3181332783313753  0.1677473544285279
  0.7610683126964882  0.1752580912427048  0.6050715280957690
  0.7756215569180920  0.4866904748905804  0.9209322857546564
  0.5026007188185226  0.2735671482983440  0.2958126581137123
  0.1760893764033508  0.7391102019357324  0.3899806184392680
  0.3517515642522976  0.7780542517694526  0.0517530300173614
  0.2723241370332169  0.4864436928087371  0.7205463988785957
  0.6977093284245897  0.8639689871889006  0.9645599100424503
  0.9309779451360443  0.8316852740498036  0.2695037189329531
  0.1672252355788918  0.1853295337327613  0.6153706661677893
  0.8903987529899602  0.6923367793494931  0.0470894001362522
  0.9032143222525681  1.0240732740912346  0.7235128198378904
  0.1754861428106529  0.1251278203026303  0.3884178932325021
  0.5142002099813878  0.3188250513483489  0.0389654741177279
  0.7724030457425071  0.2690530763271977  0.3968177150938075
  0.8853440235158603  0.4681112520191420  0.7110959627671289
  0.3430290803457468  0.4915762807432625  0.9468708765120892
  0.2237882980679904  0.7127391511415635  0.6055066597266797
  0.5211356828740896  0.9144044302462623  0.3032786535119124
  0.7523334860086508  0.4320917009775950  0.1794364476070217
  0.6420987506288528  0.4228087027573569  0.5212874050976075
  0.5920928288891536  0.1231584226046471  0.8617021317767838
  0.3857608261757732  0.7428246681360750  0.8307365126230171
  0.4265734866602007  0.6121657508785922  0.4914503314813691
  0.1434046317716720  0.6628664236934863  0.1965924357442505
  0.9396297683489891  0.2789331105809355  0.2659551039071854
  0.7360279418072398  0.7490131586833864  0.6124239592890365
  0.2447802737898650  0.9019214485053619  0.9328849098021055
  0.3867671747188217 -0.0147934343785866  0.7277171161138206
  0.7534962216682755  0.6830912497206095  0.3998847533586958
  0.9001970295962548  0.3043212250062028  0.0520121440118777
  0.1407344422588173  0.2051349913608882  0.1506170797515883
  0.7968316946356079 -0.0066326943213801  0.4738809542768112
  0.0350706287180121  0.7859033805028566  0.7953334023754727
  0.2442144111381662  0.1775905661426744  0.8331711426922270
  0.0495973394228613  0.8577917009975676  0.5178533682751945
  0.7331477998387034  0.9498011160870291  0.1451366617353482
  0.0252805511766796  0.3976361564960614  0.8571976366657799
  0.4920147578527143  0.5813515501496999  0.1975874049389898
  0.4461723021488920  0.0499433180954828  0.4894357351087383
  0.3724846504511395  0.0325377652672236  0.1541753305916599
  0.6001896018379820  0.5570687030228750  0.7962434821415072
  0.0476996847650661  0.3806105113283696  0.5037896941822027
 
             NaN             NaN             NaN
             NaN             NaN             NaN
             NaN             NaN             NaN
             NaN             NaN             NaN
             NaN             NaN             NaN
             NaN             NaN             NaN
             NaN             NaN             NaN
             NaN             NaN             NaN
             NaN             NaN             NaN
             NaN             NaN             NaN
             NaN             NaN             NaN
             NaN             NaN             NaN
             NaN             NaN             NaN
             NaN             NaN             NaN
             NaN             NaN             NaN
             NaN             NaN             NaN
             NaN             NaN             NaN
             NaN             NaN             NaN
             NaN             NaN             NaN
             NaN             NaN             NaN
             NaN             NaN             NaN
             NaN             NaN             NaN
             NaN             NaN             NaN
             NaN             NaN             NaN
             NaN             NaN             NaN
             NaN             NaN             NaN
             NaN             NaN             NaN
             NaN             NaN             NaN
             NaN             NaN             NaN
             NaN             NaN             NaN
             NaN             NaN             NaN
             NaN             NaN             NaN
             NaN             NaN             NaN
             NaN             NaN             NaN
             NaN             NaN             NaN
             NaN             NaN             NaN
             NaN             NaN             NaN
             NaN             NaN             NaN
             NaN             NaN             NaN
             NaN             NaN             NaN
             NaN             NaN             NaN
             NaN             NaN             NaN
             NaN             NaN             NaN
             NaN             NaN             NaN
             NaN             NaN             NaN
             NaN             NaN             NaN
             NaN             NaN             NaN
             NaN             NaN             NaN
             NaN             NaN             NaN
             NaN             NaN             NaN
             NaN             NaN             NaN
             NaN             NaN             NaN
             NaN             NaN             NaN
             NaN             NaN             NaN
             NaN             NaN             NaN
             NaN             NaN             NaN
             NaN             NaN             NaN
             NaN             NaN             NaN
             NaN             NaN             NaN
             NaN             NaN             NaN
             NaN             NaN             NaN
             NaN             NaN             NaN
