Ca8 Cr12 F42
1.0
7.407619 -0.015033 -0.494223
-3.601487 6.677161 0.198020
0.980191 0.155600 18.584044
Ca Cr F
8 12 42
direct
0.627486 0.850266 0.743232 Ca
0.836561 0.514408 0.315629 Ca
0.585200 0.085357 -0.004698 Ca
0.033427 0.842111 0.671860 Ca
0.832312 0.008109 0.345878 Ca
0.110287 0.587926 0.978980 Ca
0.994810 0.859779 0.152656 Ca
0.241060 0.221895 0.502421 Ca
0.334601 0.004231 0.340458 Cr
0.987418 0.284743 0.666615 Cr
0.639689 0.622032 0.995895 Cr
0.325066 0.978055 0.828574 Cr
0.940617 0.315356 0.160238 Cr
0.716215 0.696048 0.503527 Cr
0.448310 0.814910 0.171936 Cr
0.210000 0.701118 0.499451 Cr
0.323840 0.467658 0.826738 Cr
0.818255 0.462559 0.818677 Cr
0.723131 0.200548 0.502587 Cr
0.452259 0.327035 0.167727 Cr
0.726908 0.139935 0.606204 F
0.814283 0.538672 0.918972 F
0.495619 0.265989 0.292505 F
0.155094 0.725728 0.379930 F
0.377305 0.775724 0.050859 F
0.244589 0.445105 0.721463 F
0.733417 0.899835 0.963494 F
0.925040 0.833150 0.268987 F
0.127744 0.151008 0.614177 F
0.912512 0.710761 0.046532 F
0.862300 -0.013003 0.725923 F
0.168694 0.119191 0.385559 F
0.531239 0.344372 0.034128 F
0.759880 0.262369 0.397848 F
0.863185 0.434496 0.714432 F
0.381952 0.528332 0.936640 F
0.223745 0.727197 0.611765 F
0.516115 0.911080 0.299465 F
0.759797 0.444315 0.178559 F
0.599803 0.377112 0.518976 F
0.609684 0.172920 0.863416 F
0.432280 0.783527 0.814055 F
0.410183 0.589055 0.491462 F
0.152783 0.675784 0.193906 F
0.936652 0.283404 0.266814 F
0.718910 0.721434 0.608029 F
0.280612 0.901643 0.930458 F
0.361905 0.033592 0.727780 F
0.732783 0.680412 0.396849 F
0.912467 0.317106 0.051866 F
0.147441 0.212133 0.152470 F
0.823315 1.012342 0.474705 F
0.042657 0.766056 0.798024 F
0.215452 0.161941 0.844585 F
0.021612 0.818854 0.514422 F
0.740604 0.958706 0.143140 F
0.046101 0.417891 0.859549 F
0.495754 0.588913 0.198595 F
0.418333 0.005975 0.482746 F
0.387486 0.044527 0.145375 F
0.605504 0.540885 0.794963 F
0.027898 0.391988 0.513515 F
