Ca1 Ni12 F42
1.0
7.038215 -0.002825 0.024676
-3.516436 6.165232 -0.138733
-0.059066 -0.317367 16.841706
Ca Ni F
1 12 42
direct
0.849621 0.000119 0.833632 Ca
0.295311 0.999477 0.333575 Ni
0.688031 0.668945 0.010499 Ni
0.019204 0.331237 0.656469 Ni
0.351329 0.000343 0.833401 Ni
0.655066 0.665865 0.496645 Ni
0.988430 0.333214 0.170328 Ni
0.656020 0.166752 0.495997 Ni
0.487981 0.332212 0.169387 Ni
0.852733 0.500740 0.835177 Ni
0.352131 0.499811 0.831765 Ni
0.155608 0.666880 0.497511 Ni
0.488380 0.832397 0.170964 Ni
0.542495 0.792476 0.066377 F
0.268021 0.444698 0.721770 F
0.172337 0.746514 0.391025 F
0.425316 0.252004 0.276022 F
0.823435 0.555529 0.945138 F
0.750249 0.208089 0.600649 F
0.906517 0.080949 0.708527 F
0.184651 0.117198 0.397290 F
0.904260 0.767041 0.080007 F
0.136495 0.232298 0.586902 F
0.066657 0.882296 0.269992 F
0.825940 0.919834 0.958738 F
0.135932 0.592026 0.606580 F
0.432390 0.867157 0.275932 F
0.443097 0.563006 0.941190 F
0.880954 0.438042 0.725761 F
0.564969 0.130296 0.390981 F
0.543551 0.407983 0.060222 F
0.356412 0.575646 0.472790 F
0.196353 0.631792 0.149323 F
0.450267 0.803833 0.811563 F
0.646772 0.196850 0.855257 F
0.563866 0.367135 0.517311 F
0.780195 0.423667 0.194068 F
0.691535 0.624035 0.396173 F
0.910349 0.291595 0.069585 F
0.389141 0.075289 0.732790 F
0.314230 0.925611 0.934029 F
0.618185 0.707006 0.597393 F
0.066684 0.375290 0.270765 F
0.953852 0.757537 0.521307 F
0.780258 0.034673 0.191949 F
0.253467 0.197368 0.854191 F
0.056515 0.803047 0.812661 F
0.746306 0.964607 0.475376 F
0.195342 0.241342 0.145680 F
0.652734 0.599429 0.804326 F
0.930044 0.383905 0.463327 F
0.431041 0.048643 0.136734 F
0.382696 0.950773 0.530114 F
0.545526 0.614939 0.203489 F
0.053605 0.401296 0.862757 F
