Ca1 Mn4 P6 O24                          
   1.00000000000000     
     2.7180029999999999    6.9276669999999996    4.5386740000000003
     0.4410490000000000    0.2584240000000000    8.7004490000000008
     7.4563670000000002    0.2578720000000000    4.4932119999999998
   Ca   Mn   P    O 
     1     4     6    24
Direct
  0.4527878074372993  0.5450699992376037  0.5005034028002513
  0.6387332786603409  0.6489649866545006  0.6467845195247820
  0.1415814246355991  0.1531213188910541  0.1450593543263088
  0.8466672093837097  0.8563707815550986  0.8518476776147177
  0.3475399826446418  0.3560642641581738  0.3580256826119103
  0.2408676047144682  0.5327823300395161  0.9689521346771207
  0.0207252740191306  0.7600784998584132  0.4658432854533323
  0.9608629565060018  0.2527533532038473  0.5300605782896147
  0.4606405663919585  0.0382866577570137  0.7522851632824475
  0.5301441799057725  0.9720628003204520  0.2449276949425064
  0.7432426668140817  0.4745464409820832  0.0368011474606135
  0.6006776359014612  0.7615173835690163  0.3978003141677641
  0.3056746746017462  0.0171083991135494  0.9633344160317127
  0.3911240437094494  0.6118657808844661  0.7606894219198087
  0.9544182509498943  0.3209129146462142  0.0155288127263220
  0.7505258654567610  0.4020077250967840  0.6059094674225959
  0.0022094704960013  0.9724827722413482  0.3188623029350774
  0.9820570998057840  0.0385017305992315  0.6760344858267620
  0.5907623709402837  0.4033763403455386  0.2464259256611901
  0.6853677648994062  0.9920507207713949  0.0345319076980071
  0.2295882322386806  0.6118206086203746  0.3852907166823322
  0.0313658449549909  0.6868110362177815  0.9850328519147324
  0.3868388731431525  0.2507267297687953  0.6028197688205079
  0.2758544691972353  0.3355781409320776  0.9709876983366061
  0.8653129933594497  0.7090356499337516  0.4879161224317082
  0.9818146556395475  0.2892426710673347  0.3239717468193233
  0.4856478609849799  0.8835057389618202  0.6970891110259663
  0.3320406877318184  0.9805348184164937  0.2742978165127744
  0.6932314274410207  0.5004119636366112  0.8773642878041097
  0.2910686320999659  0.5027670159354154  0.1289443836556064
  0.0153648033664883  0.7196719611169783  0.6672978894932545
  0.1188730379302071  0.2969703826122788  0.5150604381113945
  0.6608607588950476  0.0224329584250449  0.7240399816848426
  0.5052085347382577  0.1271784263214977  0.2994253792852825
  0.7130638821251607  0.6741119133697212  0.0250237894572488
 
             NaN             NaN             NaN
             NaN             NaN             NaN
             NaN             NaN             NaN
             NaN             NaN             NaN
             NaN             NaN             NaN
             NaN             NaN             NaN
             NaN             NaN             NaN
             NaN             NaN             NaN
             NaN             NaN             NaN
             NaN             NaN             NaN
             NaN             NaN             NaN
             NaN             NaN             NaN
             NaN             NaN             NaN
             NaN             NaN             NaN
             NaN             NaN             NaN
             NaN             NaN             NaN
             NaN             NaN             NaN
             NaN             NaN             NaN
             NaN             NaN             NaN
             NaN             NaN             NaN
             NaN             NaN             NaN
             NaN             NaN             NaN
             NaN             NaN             NaN
             NaN             NaN             NaN
             NaN             NaN             NaN
             NaN             NaN             NaN
             NaN             NaN             NaN
             NaN             NaN             NaN
             NaN             NaN             NaN
             NaN             NaN             NaN
             NaN             NaN             NaN
             NaN             NaN             NaN
             NaN             NaN             NaN
             NaN             NaN             NaN
             NaN             NaN             NaN
