Ca1 Cr12 F42                            
   1.00000000000000     
     7.2522430000000000   -0.0285990000000000   -0.0125400000000000
    -3.6012290000000000    6.2683910000000003    0.0098950000000000
     0.0482450000000000    0.0831640000000000   17.3438739999999996
   Ca   Cr   F 
     1    12    42
Direct
  0.8535020457597293  0.1105507640937544  0.3377024183243860
  0.2851786465777972  1.0014880996203257  0.3297647651478302
  0.7252930660455376  0.7216856291538789  0.9979436208139142
  0.0030595497766900  0.2909808880239687  0.6688552537152378
  0.3627006816066024  0.0040370754924229  0.8338235777971910
  0.6383918556471790  0.6514988542533471  0.5010011299553494
  0.0180661061234574  0.3706578627043762  0.1624402126179700
  0.6358734574546262  0.1535931245864220  0.5064345098032644
  0.5142579799914635  0.3640805550331973  0.1654712345972502
  0.8622441188364602  0.5056023565684211  0.8334026052414214
  0.3607108550928615  0.5026242056614599  0.8342194363087178
  0.1392172232077571  0.6526231851294210  0.5012133627970061
  0.5164318599549618  0.8640189718833742  0.1650874377539632
  0.5854815332133705  0.8380092548638715  0.0610909698556047
  0.2610807211829093  0.4411733957441991  0.7289902274146737
  0.1735693716163358  0.7493734356946046  0.3953120830757400
  0.4364866436790192  0.2627743097398936  0.2702349815444053
  0.8375862353254326  0.5771224129058175  0.9376522540386321
  0.7408661979530839  0.1689785336329488  0.6078946860432062
  0.8933078906153095  0.0737927898123425  0.7315207923798687
  0.1367781709407708  0.1083191314140853  0.3850363897916153
  0.9444596051367024  0.8270912762940295  0.0589628824188072
  0.1228098927243287  0.2005293387796313  0.6036951542606815
  0.0662920610391982  0.8827472614957443  0.2636382808253719
  0.8152748901804057  0.9333669066256849  0.9332199067112785
  0.1061278351845608  0.5522059954258426  0.6046445118836026
  0.4703570042334664  0.9077019461127521  0.2746370389883777
  0.4590737920677064  0.5684233542089874  0.9387883155496448
  0.8820362464373990  0.4299205922655817  0.7294672898511853
  0.5504914912172638  0.1349649068789266  0.3981509211334734
  0.5894007674341862  0.4626951156490113  0.0620357057121728
  0.3450853218939682  0.5647121121335749  0.4800082651077223
  0.2230355787350763  0.6650944128109796  0.1453871058862649
  0.4498975713122839  0.7986803386351983  0.8153619293136998
  0.6530170091301521  0.2129211745438641  0.8562326279572765
  0.5552061111974599  0.3613350664504468  0.5285035322436067
  0.8032555640573228  0.4422660643154984  0.1904442554006958
  0.6786870203044234  0.6186013041550873  0.4000558465959682
  0.9356027057927500  0.3270659119125641  0.0653188346993543
  0.4028195780379231  0.0781863155943373  0.7354965354251407
  0.3190357639726517  0.9301492621684770  0.9320739492040400
  0.6072673325982793  0.7064884887841760  0.5980133354621011
  0.0820584200979325  0.3942076432219447  0.2702257203120847
  0.9319931267710113  0.7396377983156923  0.5194594589569120
  0.8101364186364628  0.0718850563253915  0.1936935431179497
  0.2725620130260378  0.2081715293328529  0.8525717169978239
  0.0709217404302065  0.7963548517406844  0.8108840323815596
  0.7196531536405318  0.9491992286325396  0.4707960099958571
  0.2239719861513406  0.2835894861819123  0.1439245927699944
  0.6391865926415030  0.5606460421594045  0.8014225206526755
  0.9152942551527085  0.3689095704079086  0.4656967113660973
  0.4607468142657129  0.0870101485001010  0.1337961695032928
  0.3564602939352237  0.9301286385239624  0.5355514367808043
  0.5713894714737811  0.6427937538949487  0.1994194206832420
  0.0826262247901676  0.4470843398440541  0.8660316825557309
 
             NaN             NaN             NaN
             NaN             NaN             NaN
             NaN             NaN             NaN
             NaN             NaN             NaN
             NaN             NaN             NaN
             NaN             NaN             NaN
             NaN             NaN             NaN
             NaN             NaN             NaN
             NaN             NaN             NaN
             NaN             NaN             NaN
             NaN             NaN             NaN
             NaN             NaN             NaN
             NaN             NaN             NaN
             NaN             NaN             NaN
             NaN             NaN             NaN
             NaN             NaN             NaN
             NaN             NaN             NaN
             NaN             NaN             NaN
             NaN             NaN             NaN
             NaN             NaN             NaN
             NaN             NaN             NaN
             NaN             NaN             NaN
             NaN             NaN             NaN
             NaN             NaN             NaN
             NaN             NaN             NaN
             NaN             NaN             NaN
             NaN             NaN             NaN
             NaN             NaN             NaN
             NaN             NaN             NaN
             NaN             NaN             NaN
             NaN             NaN             NaN
             NaN             NaN             NaN
             NaN             NaN             NaN
             NaN             NaN             NaN
             NaN             NaN             NaN
             NaN             NaN             NaN
             NaN             NaN             NaN
             NaN             NaN             NaN
             NaN             NaN             NaN
             NaN             NaN             NaN
             NaN             NaN             NaN
             NaN             NaN             NaN
             NaN             NaN             NaN
             NaN             NaN             NaN
             NaN             NaN             NaN
             NaN             NaN             NaN
             NaN             NaN             NaN
             NaN             NaN             NaN
             NaN             NaN             NaN
             NaN             NaN             NaN
             NaN             NaN             NaN
             NaN             NaN             NaN
             NaN             NaN             NaN
             NaN             NaN             NaN
             NaN             NaN             NaN
