Ca1 Cr12 F42                            
   1.00000000000000     
     7.2522430000000000   -0.0285990000000000   -0.0125400000000000
    -3.6012290000000000    6.2683910000000003    0.0098950000000000
     0.0482450000000000    0.0831640000000000   17.3438739999999996
   Ca   Cr   F 
     1    12    42
Direct
 -0.1035232591731517  0.1654031451188298  0.3530321600139464
  0.2917148885151009 -0.0002008909672790  0.3299350873513648
  0.7188474765858196  0.7154835680376928  0.9970156897824058
  0.0064266123386500  0.2946700491287976  0.6688808419840383
  0.3613752307453945  1.0016647761298796  0.8328511273896525
  0.6483033583669406  0.6642619769988091  0.5061045586139846
  1.0047007933988923  0.3555565130760755  0.1560587596349593
  0.6406075949968010  0.1643251989354552  0.5089282523975461
  0.5021446589042912  0.3510966189494275  0.1610229083243493
  0.8614188050003140  0.5037052126332323  0.8333798105120226
  0.3599850483841235  0.5001769613092282  0.8330278154844206
  0.1492880768655194  0.6670538963613946  0.5064305444867211
  0.5042137878549133  0.8520985097436716  0.1631284781139099
  0.5734975831567466  0.8265398868035816  0.0586720556389898
  0.2653259276021414  0.4397905551788130  0.7276697724413826
  0.1821274866387723  0.7555750067053065  0.3996921707225821
  0.4310330004861008  0.2538058142342026  0.2667453685753808
  0.8377942717544146  0.5760006670617455  0.9372624570985039
  0.7419348553064725  0.1797618648165116  0.6101989429819326
  0.8983873611940538  0.0728013720211025  0.7293225120499538
  0.1601152240690841  0.1211856214162814  0.3886712161336571
  0.9337615575195943  0.8187230239520270  0.0597583662907446
  0.1229031056131894  0.2097935589499428  0.5999051996040363
  0.0633942232999433  0.8730792968724019  0.2690707002513283
  0.8102937822211899  0.9279985949531168  0.9326209386626096
  0.1149625830397891  0.5651086865568956  0.6091471912312677
  0.4547080988508131  0.8923033015977228  0.2721439208581111
  0.4547252946214737  0.5634693202461613  0.9373897844019657
  0.8821069780136170  0.4277721034873782  0.7300757394191791
  0.5633395157227440  0.1419122169249325  0.3984929234381263
  0.5795793101162814  0.4510237727498756  0.0579435065159281
  0.3553349289720939  0.5802338989202448  0.4841970686311079
  0.2117099576969992  0.6499212321927671  0.1398348280600452
  0.4486275706368818  0.7963107465835905  0.8144877876235584
  0.6513318388814939  0.2109216238928618  0.8557440167302724
  0.5620371275763736  0.3726435625417068  0.5321976367332568
  0.7926666812095294  0.4311393681165047  0.1841086153064655
  0.6888317066995844  0.6245786992464799  0.4061829825599515
  0.9220838760658313  0.3096730022811291  0.0591002476098879
  0.4013783643558978  0.0756381545209102  0.7344752280613145
  0.3165496920105658  0.9276392404139931  0.9311391720252494
  0.6139480409655715  0.7195384323969313  0.6028578739215034
  0.0817726443870408  0.3921471892264570  0.2633893713886707
  0.9412727268183158  0.7521282034971360  0.5256235369704070
  0.7977773259067109  0.0619806656967061  0.1886776478396877
  0.2707996906652996  0.2054484310402026  0.8511951308814033
  0.0696725643653234  0.7937656383678230  0.8100483631251193
  0.7317402058646909  0.9632984848677648  0.4758907827009617
  0.2120826139831171  0.2687873221955619  0.1381231205878906
  0.6391287085801207  0.5592212008382900  0.8009715740881759
  0.9252685006586673  0.3805824920986626  0.4696468993261859
  0.4456062094281789  0.0724395846072937  0.1305954996233836
  0.3628149336076766  0.9454799387536670  0.5394829519537602
  0.5583014146243900  0.6286554592313418  0.1954069322641712
  0.0814383777187557  0.4436762887496156  0.8647571338108713
 
             NaN             NaN             NaN
             NaN             NaN             NaN
             NaN             NaN             NaN
             NaN             NaN             NaN
             NaN             NaN             NaN
             NaN             NaN             NaN
             NaN             NaN             NaN
             NaN             NaN             NaN
             NaN             NaN             NaN
             NaN             NaN             NaN
             NaN             NaN             NaN
             NaN             NaN             NaN
             NaN             NaN             NaN
             NaN             NaN             NaN
             NaN             NaN             NaN
             NaN             NaN             NaN
             NaN             NaN             NaN
             NaN             NaN             NaN
             NaN             NaN             NaN
             NaN             NaN             NaN
             NaN             NaN             NaN
             NaN             NaN             NaN
             NaN             NaN             NaN
             NaN             NaN             NaN
             NaN             NaN             NaN
             NaN             NaN             NaN
             NaN             NaN             NaN
             NaN             NaN             NaN
             NaN             NaN             NaN
             NaN             NaN             NaN
             NaN             NaN             NaN
             NaN             NaN             NaN
             NaN             NaN             NaN
             NaN             NaN             NaN
             NaN             NaN             NaN
             NaN             NaN             NaN
             NaN             NaN             NaN
             NaN             NaN             NaN
             NaN             NaN             NaN
             NaN             NaN             NaN
             NaN             NaN             NaN
             NaN             NaN             NaN
             NaN             NaN             NaN
             NaN             NaN             NaN
             NaN             NaN             NaN
             NaN             NaN             NaN
             NaN             NaN             NaN
             NaN             NaN             NaN
             NaN             NaN             NaN
             NaN             NaN             NaN
             NaN             NaN             NaN
             NaN             NaN             NaN
             NaN             NaN             NaN
             NaN             NaN             NaN
             NaN             NaN             NaN
