Ca16 Ti32 O64                           
   1.00000000000000     
    10.3775279467713766   -0.1203659310486147    0.0214461750016378
     2.0050003686488092   10.9252054346102874    3.1336628424691204
    -0.0238267186487684   -0.1120398904198186   11.9916752419786796
   Ca   Ti   O 
     1    32    64
Direct
  0.6954398597365881  0.3431839965171690  0.2942439110638233
  0.1630660281557894  0.0810023605659183  0.4830702728089946
  0.1563201527265647  0.0960054710539211  0.9809073801323223
  0.1584960823607631  0.5762568427992676  0.4803640051808955
  0.1599321241338387  0.5743417895098872  0.9794803350840482
  0.6605509263254348  0.0686355416606403  0.4892871850823397
  0.6532297191520300  0.1103603875723707  0.9747497177486579
  0.6578295999279078  0.5889851239861557  0.4786543439527264
  0.6578690018160955  0.5808929133874372  0.9784910941693070
  0.1557513596906404  0.1004143745830746  0.2308537768602505
  0.1499116122676227  0.1154783578278398  0.7258564932553426
  0.1488990074744692  0.6026973694961271  0.2240392494905947
  0.1492159577899841  0.6058209513937740  0.7221251595676463
  0.6585398397651261  0.0709190125715722  0.2316226013555607
  0.6524728288509252  0.1102339576896014  0.7260197135605750
  0.6440043102250570  0.6332007835213034  0.2151401165032993
  0.6484726432990797  0.6032617340160513  0.7235181649807600
  0.4013412032980881  0.1092407818906480  0.0972744460698038
  0.4026990750657191  0.1049556268578655  0.6033357668788710
  0.4061395784038808  0.5856802546616251  0.1054431734042680
  0.4099106159178092  0.5729280757134774  0.6079240661292289
  0.9010424272968152  0.1155494478900749  0.0997932717515582
  0.9018614828826657  0.1127158744431682  0.5991721849767018
  0.9089977565754737  0.5901824607309010  0.1021611780846783
  0.9089480885603365  0.5769915564960399  0.6086307156836668
  0.4091204408097013  0.1086845678122543  0.3512480848639683
  0.4083946126043898  0.0787987995899329  0.8584681596870993
  0.3969330426970998  0.6067920628353036  0.3520902366728933
  0.3988266880187297  0.6040585746287164  0.8506297628750161
  0.9171335655869228  0.0739115041841245  0.3585778607155845
  0.9096423346364801  0.0820007008768755  0.8564931052236204
  0.9009623642660998  0.6028583960756322  0.3502929745777479
  0.8990136412298995  0.6061744532230620  0.8491154334651512
  0.0010711969879154  0.5033468506002308  0.0005560130134725
  0.0011821344829670  0.5004395385328309  0.4982535213579453
  0.0034229882286780  0.0122747661507745  0.0010967560414770
  0.0063912484858122  0.0034404673529522  0.5050404647769042
  0.5046679425501424  0.5029136046871940  0.0019178829124513
  0.5038688968307241  0.5025491770208959  0.4957820263456867
  0.5057933855833099  0.0107642228284561  0.0014367796825141
  0.5040073206447389  0.0058556446940443  0.5003956475831401
  0.0058621317182315  0.0066214302520322  0.2477786975093679
  0.0041965364890828  0.0135931605547412  0.7489583553082682
  0.9992435024516197  0.5070581036515946  0.2487613264511523
  0.0021925010107253  0.5047411018534547  0.7505666019808004
  0.5033970782848982  0.0076433331935561  0.2524382210744349
  0.5062162658750964  0.0099287984595833  0.7503235728530271
  0.5112067140948184  0.5081635456157798  0.2472553741407069
  0.5049558154440064  0.5029132522049480  0.7502639915249674
  0.0548835402598087  0.1899608604594931  0.0818612432493495
  0.0553533547336258  0.1888156630903595  0.5780845496857623
  0.0546830012027897  0.6797293055986913  0.0798164153057144
  0.0543716106888823  0.6766872524002281  0.5795707967796773
  0.5589881257017026  0.1851091210626947  0.0851486196389075
  0.5592446013146812  0.1832377302997514  0.5779503341104331
  0.5494372086741208  0.6894945649466138  0.0747838969471317
  0.5530183151123822  0.6781773705532856  0.5796812166586207
  0.0532066426161961  0.1786250023377676  0.3333978772478190
  0.0554584484434244  0.1885163398468563  0.8306238515001994
  0.0546585406961313  0.6808493722074260  0.3310963098322048
  0.0551885072071130  0.6812933605358324  0.8305139460720383
  0.5645005545192632  0.1835478499870504  0.3323996121162480
  0.5547865612648906  0.1884294100315032  0.8303083129009039
  0.5498471932645472  0.6925478522661663  0.3288329945394324
  0.5537487856824796  0.6819971035691808  0.8298811823471866
  0.2546946478091243  0.5017067932249049  0.1263378326739755
  0.2532535529008584  0.4987528772960346  0.6261377891041207
  0.2548447834052396  0.0131936538864608  0.1242939667034761
  0.2556381553384242  0.0107388085721070  0.6265077084851072
  0.7477274947265471  0.5060758621792658  0.1306100041867495
  0.7516386075068340  0.5024770421161122  0.6232966323000468
  0.7576705661560794  0.0090367720051177  0.1237581852707734
  0.7585178323885131  0.0072768822670710  0.6286452521789414
  0.2546654188673401  0.5047289159160329  0.3728639636318078
  0.2540529445902990  0.5031314156810183  0.8743636272885240
  0.2571246190897227  0.0089987716106990  0.3749093837591673
  0.2528206528992953  0.0098176254380675  0.8754841249953245
  0.7468541058202476  0.5081880370874217  0.3667301356843566
  0.7527756596964963  0.5059734133786620  0.8751383525451359
  0.7578381008617470  0.9939040747204970  0.3790974272073555
  0.7540949563944892  0.0135693893079889  0.8746861677769502
  0.3068936622368099  0.1860882123431438  0.4556636261042044
  0.3068754591626615  0.1865165149338921  0.9552620305453772
  0.3032002370942948  0.6773183194364307  0.4573176683912195
  0.3036017528141315  0.6781863725317052  0.9554597048076090
  0.8036562133866596  0.1830316338515487  0.4516715723124847
  0.8046150976856552  0.1911390824507393  0.9569036834106868
  0.8028959094160086  0.6794701543875945  0.4540600326640245
  0.8029274414821117  0.6808398328348844  0.9560908537057102
  0.3068459362840912  0.1901217205037398  0.2066158546499537
  0.3074759505065501  0.1874887692303631  0.7057812126119529
  0.3046273748595070  0.6826070092770919  0.2037615574625917
  0.3053896641063432  0.6795981728946288  0.7037893128797066
  0.8037892099152586  0.1849133360460584  0.2127693603648879
  0.8051288557033942  0.1905149465279692  0.7026407727370838
  0.8046564318966887  0.6922058169656680  0.2020728713080047
  0.8040155829057554  0.6816905081893907  0.7031189989077120
 
  0.00000000E+00  0.00000000E+00  0.00000000E+00
  0.00000000E+00  0.00000000E+00  0.00000000E+00
  0.00000000E+00  0.00000000E+00  0.00000000E+00
  0.00000000E+00  0.00000000E+00  0.00000000E+00
  0.00000000E+00  0.00000000E+00  0.00000000E+00
  0.00000000E+00  0.00000000E+00  0.00000000E+00
  0.00000000E+00  0.00000000E+00  0.00000000E+00
  0.00000000E+00  0.00000000E+00  0.00000000E+00
  0.00000000E+00  0.00000000E+00  0.00000000E+00
  0.00000000E+00  0.00000000E+00  0.00000000E+00
  0.00000000E+00  0.00000000E+00  0.00000000E+00
  0.00000000E+00  0.00000000E+00  0.00000000E+00
  0.00000000E+00  0.00000000E+00  0.00000000E+00
  0.00000000E+00  0.00000000E+00  0.00000000E+00
  0.00000000E+00  0.00000000E+00  0.00000000E+00
  0.00000000E+00  0.00000000E+00  0.00000000E+00
  0.00000000E+00  0.00000000E+00  0.00000000E+00
  0.00000000E+00  0.00000000E+00  0.00000000E+00
  0.00000000E+00  0.00000000E+00  0.00000000E+00
  0.00000000E+00  0.00000000E+00  0.00000000E+00
  0.00000000E+00  0.00000000E+00  0.00000000E+00
  0.00000000E+00  0.00000000E+00  0.00000000E+00
  0.00000000E+00  0.00000000E+00  0.00000000E+00
  0.00000000E+00  0.00000000E+00  0.00000000E+00
  0.00000000E+00  0.00000000E+00  0.00000000E+00
  0.00000000E+00  0.00000000E+00  0.00000000E+00
  0.00000000E+00  0.00000000E+00  0.00000000E+00
  0.00000000E+00  0.00000000E+00  0.00000000E+00
  0.00000000E+00  0.00000000E+00  0.00000000E+00
  0.00000000E+00  0.00000000E+00  0.00000000E+00
  0.00000000E+00  0.00000000E+00  0.00000000E+00
  0.00000000E+00  0.00000000E+00  0.00000000E+00
  0.00000000E+00  0.00000000E+00  0.00000000E+00
  0.00000000E+00  0.00000000E+00  0.00000000E+00
  0.00000000E+00  0.00000000E+00  0.00000000E+00
  0.00000000E+00  0.00000000E+00  0.00000000E+00
  0.00000000E+00  0.00000000E+00  0.00000000E+00
  0.00000000E+00  0.00000000E+00  0.00000000E+00
  0.00000000E+00  0.00000000E+00  0.00000000E+00
  0.00000000E+00  0.00000000E+00  0.00000000E+00
  0.00000000E+00  0.00000000E+00  0.00000000E+00
  0.00000000E+00  0.00000000E+00  0.00000000E+00
  0.00000000E+00  0.00000000E+00  0.00000000E+00
  0.00000000E+00  0.00000000E+00  0.00000000E+00
  0.00000000E+00  0.00000000E+00  0.00000000E+00
  0.00000000E+00  0.00000000E+00  0.00000000E+00
  0.00000000E+00  0.00000000E+00  0.00000000E+00
  0.00000000E+00  0.00000000E+00  0.00000000E+00
  0.00000000E+00  0.00000000E+00  0.00000000E+00
  0.00000000E+00  0.00000000E+00  0.00000000E+00
  0.00000000E+00  0.00000000E+00  0.00000000E+00
  0.00000000E+00  0.00000000E+00  0.00000000E+00
  0.00000000E+00  0.00000000E+00  0.00000000E+00
  0.00000000E+00  0.00000000E+00  0.00000000E+00
  0.00000000E+00  0.00000000E+00  0.00000000E+00
  0.00000000E+00  0.00000000E+00  0.00000000E+00
  0.00000000E+00  0.00000000E+00  0.00000000E+00
  0.00000000E+00  0.00000000E+00  0.00000000E+00
  0.00000000E+00  0.00000000E+00  0.00000000E+00
  0.00000000E+00  0.00000000E+00  0.00000000E+00
  0.00000000E+00  0.00000000E+00  0.00000000E+00
  0.00000000E+00  0.00000000E+00  0.00000000E+00
  0.00000000E+00  0.00000000E+00  0.00000000E+00
  0.00000000E+00  0.00000000E+00  0.00000000E+00
  0.00000000E+00  0.00000000E+00  0.00000000E+00
  0.00000000E+00  0.00000000E+00  0.00000000E+00
  0.00000000E+00  0.00000000E+00  0.00000000E+00
  0.00000000E+00  0.00000000E+00  0.00000000E+00
  0.00000000E+00  0.00000000E+00  0.00000000E+00
  0.00000000E+00  0.00000000E+00  0.00000000E+00
  0.00000000E+00  0.00000000E+00  0.00000000E+00
  0.00000000E+00  0.00000000E+00  0.00000000E+00
  0.00000000E+00  0.00000000E+00  0.00000000E+00
  0.00000000E+00  0.00000000E+00  0.00000000E+00
  0.00000000E+00  0.00000000E+00  0.00000000E+00
  0.00000000E+00  0.00000000E+00  0.00000000E+00
  0.00000000E+00  0.00000000E+00  0.00000000E+00
  0.00000000E+00  0.00000000E+00  0.00000000E+00
  0.00000000E+00  0.00000000E+00  0.00000000E+00
  0.00000000E+00  0.00000000E+00  0.00000000E+00
  0.00000000E+00  0.00000000E+00  0.00000000E+00
  0.00000000E+00  0.00000000E+00  0.00000000E+00
  0.00000000E+00  0.00000000E+00  0.00000000E+00
  0.00000000E+00  0.00000000E+00  0.00000000E+00
  0.00000000E+00  0.00000000E+00  0.00000000E+00
  0.00000000E+00  0.00000000E+00  0.00000000E+00
  0.00000000E+00  0.00000000E+00  0.00000000E+00
  0.00000000E+00  0.00000000E+00  0.00000000E+00
  0.00000000E+00  0.00000000E+00  0.00000000E+00
  0.00000000E+00  0.00000000E+00  0.00000000E+00
  0.00000000E+00  0.00000000E+00  0.00000000E+00
  0.00000000E+00  0.00000000E+00  0.00000000E+00
  0.00000000E+00  0.00000000E+00  0.00000000E+00
  0.00000000E+00  0.00000000E+00  0.00000000E+00
  0.00000000E+00  0.00000000E+00  0.00000000E+00
  0.00000000E+00  0.00000000E+00  0.00000000E+00
  0.00000000E+00  0.00000000E+00  0.00000000E+00
