Mg7 Cr12 In4 S32
1.0
10.348131 0.110866 0.110860
0.110866 10.348109 0.110859
0.110860 0.110858 10.348123
Mg Cr In S
7 12 4 32
direct
0.128286 0.622777 0.128286 Mg
0.376462 0.874318 0.874317 Mg
0.874318 0.376461 0.874318 Mg
0.874317 0.874317 0.376462 Mg
0.627148 0.627149 0.627149 Mg
0.622778 0.128286 0.128286 Mg
0.128286 0.128285 0.622778 Mg
0.247748 0.247748 0.000543 Cr
0.254011 0.744451 0.501170 Cr
0.744452 0.254009 0.501170 Cr
0.749449 0.749449 0.001376 Cr
0.254009 0.501170 0.744452 Cr
0.247748 0.000543 0.247748 Cr
0.744451 0.501170 0.254009 Cr
0.749449 0.001376 0.749449 Cr
0.501170 0.254010 0.744451 Cr
0.501170 0.744452 0.254009 Cr
0.000543 0.247748 0.247748 Cr
0.001376 0.749449 0.749449 Cr
0.006965 0.496633 0.496633 In
0.998208 0.998207 0.998209 In
0.496632 0.496631 0.006966 In
0.496632 0.006969 0.496632 In
0.737574 0.737575 0.238751 S
0.737574 0.238752 0.737574 S
0.238752 0.737574 0.737574 S
0.230988 0.230988 0.230988 S
0.264663 0.264663 0.758670 S
0.264663 0.758669 0.264662 S
0.758669 0.264662 0.264662 S
0.763922 0.763921 0.763922 S
0.519116 0.519116 0.259500 S
0.516812 0.018849 0.748372 S
0.018849 0.516813 0.748372 S
0.014374 0.014373 0.248817 S
0.485615 0.485616 0.753551 S
0.481322 0.981509 0.247387 S
0.981508 0.481322 0.247388 S
0.983469 0.983468 0.747162 S
0.519116 0.259502 0.519115 S
0.516812 0.748372 0.018849 S
0.014373 0.248817 0.014373 S
0.018849 0.748373 0.516812 S
0.485616 0.753553 0.485616 S
0.481321 0.247387 0.981509 S
0.983469 0.747161 0.983469 S
0.981509 0.247388 0.481322 S
0.259500 0.519115 0.519116 S
0.248817 0.014373 0.014373 S
0.748372 0.516813 0.018848 S
0.748373 0.018849 0.516812 S
0.753551 0.485616 0.485616 S
0.747161 0.983469 0.983469 S
0.247388 0.481322 0.981509 S
0.247388 0.981508 0.481322 S
