Sc16 Zn8 S32
1.0
       10.5004024506         0.0000000000         0.0000000000
        0.0000000000        10.5004024506         0.0000000000
        0.0000000000         0.0000000000        10.5004024506
Zn   Sc   Zn    S
1     16   6   32
Direct
   1.0000000000000000    1.0000000000000000    0.5000000000000000 Zn
     0.125000000         0.875000000         0.875000000
     0.875000000         0.125000000         0.875000000
     0.875000000         0.875000000         0.125000000
     0.125000000         0.125000000         0.125000000
     0.125000000         0.375000000         0.375000000
     0.875000000         0.625000000         0.375000000
     0.875000000         0.375000000         0.625000000
     0.125000000         0.625000000         0.625000000
     0.625000000         0.875000000         0.375000000
     0.375000000         0.125000000         0.375000000
     0.375000000         0.875000000         0.625000000
     0.625000000         0.125000000         0.625000000
     0.625000000         0.375000000         0.875000000
     0.375000000         0.625000000         0.875000000
     0.375000000         0.375000000         0.125000000
     0.625000000         0.625000000         0.125000000
     0.500000000         0.500000000         0.500000000
     0.750000000         0.250000000         0.250000000
     0.500000000         0.000000000         0.000000000
     0.250000000         0.750000000         0.250000000
     0.000000000         0.500000000         0.000000000
     0.250000000         0.250000000         0.750000000
     0.879389167         0.120610841         0.120610841
     0.120610841         0.879389167         0.120610841
     0.120610841         0.120610841         0.879389167
     0.879389167         0.879389167         0.879389167
     0.370610833         0.129389167         0.129389167
     0.129389167         0.370610833         0.129389167
     0.129389167         0.129389167         0.370610833
     0.370610833         0.370610833         0.370610833
     0.879389167         0.620610833         0.620610833
     0.120610841         0.379389167         0.620610833
     0.120610841         0.620610833         0.379389167
     0.879389167         0.379389167         0.379389167
     0.370610833         0.629389167         0.629389167
     0.129389167         0.870610833         0.629389167
     0.129389167         0.629389167         0.870610833
     0.370610833         0.870610833         0.870610833
     0.379389167         0.120610841         0.620610833
     0.620610833         0.879389167         0.620610833
     0.620610833         0.120610841         0.379389167
     0.379389167         0.879389167         0.379389167
     0.870610833         0.129389167         0.629389167
     0.629389167         0.370610833         0.629389167
     0.629389167         0.129389167         0.870610833
     0.870610833         0.370610833         0.870610833
     0.379389167         0.620610833         0.120610841
     0.620610833         0.379389167         0.120610841
     0.620610833         0.620610833         0.879389167
     0.379389167         0.379389167         0.879389167
     0.870610833         0.629389167         0.129389167
     0.629389167         0.870610833         0.129389167
     0.629389167         0.629389167         0.370610833
     0.870610833         0.870610833         0.370610833
