Mg16 Cr16 Si16 O64
1.0
   9.6111416089310726   -0.0000430292103462   -0.0000010976875692
  -0.0000471472578408   10.2276429925093755    0.0000362832964362
  -0.0000014034671480    0.0000448856911546   12.6593219334625555
Mg Cr Si O
15 16 16 64
direct
   0.5000006670209034    0.0000029408574623    0.4999982726161856 Mg
   0.2499978442902065    0.4999948377519455    0.2499986947966321 Mg
   0.2499978442902065    0.4999948377519455    0.7499986947966322 Mg
   0.7499978442902064    0.4999948377519455    0.2499986947966321 Mg
   0.7499978442902064    0.4999948377519455    0.7499986947966322 Mg
   0.2499976839697232    0.4999944395876093    0.0000006917229081 Mg
   0.2499976839697233    0.4999944395876094    0.5000006917229081 Mg
   0.7499976839697232    0.4999944395876094    0.0000006917229081 Mg
   0.7499976839697232    0.4999944395876093    0.5000006917229081 Mg
   0.0000007012067629    0.0000024892214035    0.2500022582993064 Mg
   0.0000007012067629    0.0000024892214035    0.7500022582993066 Mg
   0.5000007012067629    0.0000024892214035    0.2500022582993064 Mg
   0.0000006670209035    0.0000029408574623    0.9999982726161856 Mg
   0.0000006670209035    0.0000029408574623    0.4999982726161856 Mg
   0.5000006670209035    0.0000029408574623    0.9999982726161856 Mg
   0.4882913476699320    0.2795279141057402    0.1250000027762714 Cr
   0.4882913476699319    0.2795279141057402    0.6250000027762715 Cr
   0.9882913476699320    0.2795279141057402    0.1250000027762714 Cr
   0.9882913476699319    0.2795279141057401    0.6250000027762715 Cr
   0.2382869870718156    0.2204586920651612    0.3749998910506629 Cr
   0.2382869870718156    0.2204586920651612    0.8749998910506630 Cr
   0.7382869870718156    0.2204586920651612    0.3749998910506629 Cr
   0.7382869870718155    0.2204586920651612    0.8749998910506630 Cr
   0.0117166350909400    0.7204603123387762    0.3750012195570445 Cr
   0.0117166350909400    0.7204603123387763    0.8750012195570445 Cr
   0.5117166350909400    0.7204603123387763    0.3750012195570445 Cr
   0.5117166350909400    0.7204603123387763    0.8750012195570445 Cr
   0.2617153806770272    0.7795372296781694    0.1249991951577056 Cr
   0.2617153806770272    0.7795372296781695    0.6249991951577056 Cr
   0.7617153806770273    0.7795372296781695    0.1249991951577056 Cr
   0.7617153806770273    0.7795372296781695    0.6249991951577056 Cr
   0.0367697965366163    0.5918573132401754    0.1249989583319073 Si
   0.0367697965366162    0.5918573132401754    0.6249989583319073 Si
   0.5367697965366162    0.5918573132401754    0.1249989583319073 Si
   0.5367697965366162    0.5918573132401754    0.6249989583319073 Si
   0.2132373655955262    0.0918701237700744    0.1249999818629098 Si
   0.2132373655955262    0.0918701237700744    0.6249999818629098 Si
   0.7132373655955262    0.0918701237700744    0.1249999818629098 Si
   0.7132373655955262    0.0918701237700744    0.6249999818629098 Si
   0.4632284333638945    0.4081301575854666    0.3749999675421626 Si
   0.4632284333638944    0.4081301575854667    0.8749999675421627 Si
   0.9632284333638945    0.4081301575854667    0.3749999675421626 Si
   0.9632284333638945    0.4081301575854667    0.8749999675421627 Si
   0.2867682625178044    0.9081432836340116    0.3750009713961261 Si
   0.2867682625178044    0.9081432836340116    0.8750009713961263 Si
   0.7867682625178044    0.9081432836340116    0.3750009713961261 Si
   0.7867682625178043    0.9081432836340115    0.8750009713961261 Si
   0.3658413520901678    0.5916300289881504    0.1249997243427045 O
   0.3658413520901678    0.5916300289881504    0.6249997243427046 O
   0.8658413520901678    0.5916300289881504    0.1249997243427045 O
   0.8658413520901677    0.5916300289881504    0.6249997243427046 O
   0.3841676868267668    0.0916428694777764    0.1250001145632884 O
   0.3841676868267668    0.0916428694777764    0.6250001145632884 O
   0.8841676868267668    0.0916428694777764    0.1250001145632884 O
   0.8841676868267666    0.0916428694777764    0.6250001145632884 O
   0.1341602444573818    0.4083629901814544    0.3749997583915459 O
   0.1341602444573818    0.4083629901814544    0.8749997583915460 O
   0.6341602444573817    0.4083629901814544    0.3749997583915459 O
   0.6341602444573817    0.4083629901814544    0.8749997583915460 O
   0.1158412195076905    0.9083686421550696    0.3750003739906670 O
   0.1158412195076905    0.9083686421550694    0.8750003739906670 O
   0.6158412195076907    0.9083686421550695    0.3750003739906670 O
   0.6158412195076906    0.9083686421550695    0.8750003739906672 O
   0.1387369727850030    0.9428335742216633    0.1250004207430749 O
   0.1387369727850030    0.9428335742216633    0.6250004207430750 O
   0.6387369727850030    0.9428335742216634    0.1250004207430749 O
   0.6387369727850030    0.9428335742216631    0.6250004207430750 O
   0.1112508870299529    0.4428205889583240    0.1250001985185706 O
   0.1112508870299529    0.4428205889583240    0.6250001985185706 O
   0.6112508870299528    0.4428205889583240    0.1250001985185706 O
   0.6112508870299528    0.4428205889583240    0.6250001985185706 O
   0.3612623553104399    0.0571780417121357    0.3749998970514103 O
   0.3612623553104399    0.0571780417121357    0.8749998970514103 O
   0.8612623553104399    0.0571780417121357    0.3749998970514103 O
   0.8612623553104399    0.0571780417121357    0.8749998970514105 O
   0.3887404587286034    0.5571687386200230    0.3749994308721993 O
   0.3887404587286034    0.5571687386200230    0.8749994308721993 O
   0.8887404587286035    0.5571687386200230    0.3749994308721993 O
   0.8887404587286034    0.5571687386200231    0.8749994308721993 O
   0.1089903686573112    0.6576682999803597    0.0190269693932596 O
   0.1089903686573112    0.6576682999803597    0.5190269693932597 O
   0.6089903686573112    0.6576682999803596    0.0190269693932596 O
   0.6089903686573112    0.6576682999803596    0.5190269693932597 O
   0.1409950349178259    0.1576875607846899    0.2309640890429685 O
   0.1409950349178260    0.1576875607846899    0.7309640890429686 O
   0.6409950349178261    0.1576875607846899    0.2309640890429685 O
   0.6409950349178261    0.1576875607846899    0.7309640890429686 O
   0.3910090597795542    0.3423189643321525    0.2690243742016844 O
   0.3910090597795542    0.3423189643321525    0.7690243742016845 O
   0.8910090597795544    0.3423189643321525    0.2690243742016843 O
   0.8910090597795542    0.3423189643321525    0.7690243742016845 O
   0.3589963575519722    0.8423327763637130    0.4809695971314114 O
   0.3589963575519722    0.8423327763637128    0.9809695971314114 O
   0.8589963575519721    0.8423327763637130    0.4809695971314114 O
   0.8589963575519721    0.8423327763637130    0.9809695971314114 O
   0.3910091415670832    0.3423185589970067    0.4809761751281929 O
   0.3910091415670831    0.3423185589970067    0.9809761751281930 O
   0.8910091415670832    0.3423185589970067    0.4809761751281929 O
   0.8910091415670832    0.3423185589970066    0.9809761751281930 O
   0.3589992813417652    0.8423305648076791    0.2690352329102866 O
   0.3589992813417651    0.8423305648076791    0.7690352329102866 O
   0.8589992813417653    0.8423305648076792    0.2690352329102866 O
   0.8589992813417650    0.8423305648076791    0.7690352329102866 O
   0.1089932390933711    0.6576702675408462    0.2309682055216506 O
   0.1089932390933712    0.6576702675408461    0.7309682055216508 O
   0.6089932390933712    0.6576702675408461    0.2309682055216506 O
   0.6089932390933710    0.6576702675408462    0.7309682055216508 O
   0.1409952353439448    0.1576877990429730    0.0190353330872705 O
   0.1409952353439448    0.1576877990429730    0.5190353330872705 O
   0.6409952353439448    0.1576877990429730    0.0190353330872705 O
   0.6409952353439449    0.1576877990429730    0.5190353330872705 O
