Ca1 V12 F42                             
   1.00000000000000     
     7.3759959999999998   -0.0069220000000000   -0.1057500000000000
    -3.6792330000000000    6.3993700000000002    0.1078870000000000
     0.2661690000000000    0.0577080000000000   17.5073280000000011
   Ca   V    F 
     1    12    42
Direct
  0.8379555344209098  0.1437500890214009  0.3430720911728322
  0.2746599935162110  0.9938236558055582  0.3272850874903471
  0.7270662504126333  0.7257252970492245  0.9977047589771629
  0.9967383505411745  0.2775700739011184  0.6701343507533151
  0.3573539253114406  0.0027520967440992  0.8335995859514678
  0.6241084773631176  0.6324682489290842  0.4995272402755244
  0.0224988093796807  0.3767282085365914  0.1629024263509509
  0.6190279898187914  0.1334271243615598  0.5086493116676883
  0.5179151442328609  0.3682577052167927  0.1670532225391649
  0.8570356025996724  0.5027621811824181  0.8326650283506576
  0.3570806220548273  0.5028323967404555  0.8344139482047493
  0.1272049685054755  0.6364930569799261  0.4993647499759752
  0.5231150727997917  0.8691026562903835  0.1672174171491598
  0.5979169555447390  0.8416498327351355  0.0641017003691642
  0.2481524554746376  0.4262720630503328  0.7308560623700286
  0.1648824882587351  0.7494894627540665  0.3957571020980504
  0.4357940622636130  0.2570212759522481  0.2718699413042592
  0.8290854049057221  0.5795714219544956  0.9356277736003016
  0.7448089240045571  0.1588353068823152  0.6068242028639060
  0.8819293224118580  0.0709385834187186  0.7366103304951187
  0.1042967248464417  0.0895496396586902  0.3727475311175991
  0.9462532342681181  0.8230013663898961  0.0581519991927666
  0.1157771009199504  0.1815123186550465  0.6073903443410618
  0.0880724143840494  0.8605525645098119  0.2550829333536694
  0.8132438458957607  0.9346665412313293  0.9322964041930730
  0.0920997743749930  0.5240687628585110  0.6013320222232069
  0.4810634483682463  0.9163262812669932  0.2787411778557410
  0.4624987628999509  0.5727371546879196  0.9377136384868480
  0.8873095925458282  0.4310581321648448  0.7295108294480428
  0.5208462597027690  0.1215165465278265  0.4008030778097827
  0.5854327888151232  0.4724782576805538  0.0636310614330014
  0.3322374785766739  0.5500430434227025  0.4782686609056034
  0.2327503921079820  0.6636855732688920  0.1495574716380932
  0.4377479133481965  0.7922228770779316  0.8142662352298747
  0.6476868879905529  0.2136751074090680  0.8533661443742940
  0.5450265680254179  0.3491033884220664  0.5257496237345093
  0.8060041778007404  0.4466902568271661  0.1891852497008324
  0.6647287574145183  0.6044194680125823  0.3999752404821992
  0.9346933259823064  0.3256231451264067  0.0677291852300253
  0.3951300647102086  0.0747850178566050  0.7355542597836221
  0.3211282701218622  0.9303217829762999  0.9314890655576785
  0.5965644725358206  0.7001848703492253  0.5938611689512467
  0.0746467409950470  0.4012471925301181  0.2710053757445992
  0.9148905789593688  0.7136766825534887  0.5180390396473580
  0.8149662212027683  0.0806399274039659  0.1974188983292947
  0.2759871663535317  0.2118369760642535  0.8534388439987554
  0.0674052356793676  0.7930635189918119  0.8129308695386613
  0.7023078614013060  0.9328569814476447  0.4679122798220824
  0.2285665260052768  0.2921148771315064  0.1496143083682601
  0.6313353935474461  0.5525363327344982  0.8026638950179722
  0.8976465934480080  0.3521176006385937  0.4612652800720315
  0.4722064975128675  0.0948581603384675  0.1383486840557106
  0.3438360672189694  0.9076699427099305  0.5360406247492643
  0.5705967889385749  0.6427297903281942  0.1994944353074723
  0.0817058478345964  0.4528935423426406  0.8642626199424435
 
             NaN             NaN             NaN
             NaN             NaN             NaN
             NaN             NaN             NaN
             NaN             NaN             NaN
             NaN             NaN             NaN
             NaN             NaN             NaN
             NaN             NaN             NaN
             NaN             NaN             NaN
             NaN             NaN             NaN
             NaN             NaN             NaN
             NaN             NaN             NaN
             NaN             NaN             NaN
             NaN             NaN             NaN
             NaN             NaN             NaN
             NaN             NaN             NaN
             NaN             NaN             NaN
             NaN             NaN             NaN
             NaN             NaN             NaN
             NaN             NaN             NaN
             NaN             NaN             NaN
             NaN             NaN             NaN
             NaN             NaN             NaN
             NaN             NaN             NaN
             NaN             NaN             NaN
             NaN             NaN             NaN
             NaN             NaN             NaN
             NaN             NaN             NaN
             NaN             NaN             NaN
             NaN             NaN             NaN
             NaN             NaN             NaN
             NaN             NaN             NaN
             NaN             NaN             NaN
             NaN             NaN             NaN
             NaN             NaN             NaN
             NaN             NaN             NaN
             NaN             NaN             NaN
             NaN             NaN             NaN
             NaN             NaN             NaN
             NaN             NaN             NaN
             NaN             NaN             NaN
             NaN             NaN             NaN
             NaN             NaN             NaN
             NaN             NaN             NaN
             NaN             NaN             NaN
             NaN             NaN             NaN
             NaN             NaN             NaN
             NaN             NaN             NaN
             NaN             NaN             NaN
             NaN             NaN             NaN
             NaN             NaN             NaN
             NaN             NaN             NaN
             NaN             NaN             NaN
             NaN             NaN             NaN
             NaN             NaN             NaN
             NaN             NaN             NaN
