Ca1 V12 F42                             
   1.00000000000000     
     7.3759959999999998   -0.0069220000000000   -0.1057500000000000
    -3.6792330000000000    6.3993700000000002    0.1078870000000000
     0.2661690000000000    0.0577080000000000   17.5073280000000011
   Ca   V    F 
     1    12    42
Direct
  0.8391862595719907  0.1490914806078301  0.3417511154954401
  0.2742746907917050 -0.0038239509731529  0.3270536663919639
  0.7336263611716801  0.7338911366437669  0.9964986905089167
 -0.0075722079287585  0.2685551181749931  0.6716738937886911
  0.3596690790591834  1.0019341767302004  0.8336619121500550
  0.6137830203846834  0.6220592802723847  0.5006847072283001
  1.0276552672459744  0.3875950825672343  0.1626646249983770
  0.6133100529809682  0.1248546655081253  0.5100403667310530
  0.5235386453230532  0.3796778563601400  0.1675288296270116
  0.8588217332040302  0.5022360331182951  0.8327638441809304
  0.3584819303138827  0.5016379915432709  0.8346339795301009
  0.1181122062388160  0.6284513063498218  0.4993008779964856
  0.5292195591883779  0.8803667428424863  0.1659833606893791
  0.6088628413450350  0.8500220383765046  0.0647897006305530
  0.2456817521526388  0.4201947587852798  0.7314462873300307
  0.1525744296540469  0.7458116600282465  0.3971978494318315
  0.4316439727384941  0.2616033011224398  0.2712047922277483
  0.8343311774150933  0.5855621028854213  0.9352106525068024
  0.7446414853531111  0.1524324866518270  0.6059569218898401
  0.8761441798933178  0.0645548295396465  0.7390277965836909
  0.0962213127647436  0.0854524844384846  0.3701224993993461
  0.9556831858420193  0.8337122328311291  0.0555031150178500
  0.1128335479510269  0.1729080431741533  0.6096242291531510
  0.0960724739510938  0.8575773730353409  0.2536096493116666
  0.8144144815561556  0.9382856819594606  0.9296316079086421
  0.0886593738183520  0.5167032265109813  0.6002236911256795
  0.4878015322357533  0.9259483530611140  0.2773705149224054
  0.4665601770271584  0.5760005932538422  0.9377087543599775
  0.8872645854082010  0.4278304169587978  0.7293978795684285
  0.5159279475363807  0.1136345890450058  0.4015876876296101
  0.5963403904414893  0.4814509756224812  0.0637169800129484
  0.3224622375659206  0.5434398338894684  0.4767118478435013
  0.2399335303850861  0.6762225483912455  0.1482909650975205
  0.4387782601719278  0.7905356946513362  0.8135382879436862
  0.6499525934173812  0.2135935676740357  0.8542099553666201
  0.5338640048466203  0.3367802315660440  0.5270503526014862
  0.8111257471015380  0.4543352661270016  0.1918426970232396
  0.6547186468013608  0.5873441469791604  0.4022673001322333
  0.9379789331027879  0.3420412006255872  0.0679408840428725
  0.3997227091643656  0.0765080146376760  0.7358974525159813
  0.3239126449811957  0.9277079836274540  0.9313867729186046
  0.5825092262865564  0.6819063041158147  0.5955473365452223
  0.0814678448777342  0.4112123617865995  0.2700368582787721
  0.9057046098373330  0.7023254192881407  0.5207388061861880
  0.8218034666408657  0.0898559874290195  0.1965718518506566
  0.2787008805952897  0.2110869099797927  0.8543432292595704
  0.0701787157443922  0.7925302523189325  0.8122881137599254
  0.6944996061284608  0.9211764267578249  0.4694225085149838
  0.2324140059996531  0.3044419049423637  0.1468019090456470
  0.6325503215873353  0.5511016756389767  0.8026453446712658
  0.8893300709798233  0.3414602126126688  0.4586661521799182
  0.4748405577944431  0.1066261846884986  0.1368447580159086
  0.3380993452699996  0.9019408782146192  0.5375023655196168
  0.5791886743701553  0.6531134860403496  0.2012420088118708
  0.0835221753005477  0.4525154452434922  0.8647164067528286
 
             NaN             NaN             NaN
             NaN             NaN             NaN
             NaN             NaN             NaN
             NaN             NaN             NaN
             NaN             NaN             NaN
             NaN             NaN             NaN
             NaN             NaN             NaN
             NaN             NaN             NaN
             NaN             NaN             NaN
             NaN             NaN             NaN
             NaN             NaN             NaN
             NaN             NaN             NaN
             NaN             NaN             NaN
             NaN             NaN             NaN
             NaN             NaN             NaN
             NaN             NaN             NaN
             NaN             NaN             NaN
             NaN             NaN             NaN
             NaN             NaN             NaN
             NaN             NaN             NaN
             NaN             NaN             NaN
             NaN             NaN             NaN
             NaN             NaN             NaN
             NaN             NaN             NaN
             NaN             NaN             NaN
             NaN             NaN             NaN
             NaN             NaN             NaN
             NaN             NaN             NaN
             NaN             NaN             NaN
             NaN             NaN             NaN
             NaN             NaN             NaN
             NaN             NaN             NaN
             NaN             NaN             NaN
             NaN             NaN             NaN
             NaN             NaN             NaN
             NaN             NaN             NaN
             NaN             NaN             NaN
             NaN             NaN             NaN
             NaN             NaN             NaN
             NaN             NaN             NaN
             NaN             NaN             NaN
             NaN             NaN             NaN
             NaN             NaN             NaN
             NaN             NaN             NaN
             NaN             NaN             NaN
             NaN             NaN             NaN
             NaN             NaN             NaN
             NaN             NaN             NaN
             NaN             NaN             NaN
             NaN             NaN             NaN
             NaN             NaN             NaN
             NaN             NaN             NaN
             NaN             NaN             NaN
             NaN             NaN             NaN
             NaN             NaN             NaN
