Na27 V27 O54
1.0
   8.9876997470999989    0.0000000000000000    0.0000000000000000
  -4.4938498734000003    7.7835763026000002    0.0000000000000000
   0.0000000000000000    0.0000000000000000   16.0995998383000014
Na V O
26 27 54
direct
   0.4444444476666666    0.5555555623333333    0.6666666870000000 Na
   0.0000000000000000    0.0000000000000000    0.0000000000000000 Na
   0.0000000000000000    0.3333333333333333    0.0000000000000000 Na
   0.0000000000000000    0.6666666666666666    0.0000000000000000 Na
   0.3333333333333333    0.0000000000000000    0.0000000000000000 Na
   0.3333333333333333    0.3333333333333333    0.0000000000000000 Na
   0.3333333333333333    0.6666666666666666    0.0000000000000000 Na
   0.6666666666666666    0.0000000000000000    0.0000000000000000 Na
   0.6666666666666665    0.3333333333333333    0.0000000000000000 Na
   0.6666666666666666    0.6666666666666666    0.0000000000000000 Na
   0.2222222290000000    0.1111111143333333    0.3333333430000000 Na
   0.2222222290000000    0.4444444476666666    0.3333333430000000 Na
   0.2222222290000000    0.7777777809999999    0.3333333430000000 Na
   0.5555555623333333    0.1111111143333333    0.3333333430000000 Na
   0.5555555623333334    0.4444444476666666    0.3333333430000000 Na
   0.5555555623333333    0.7777777809999999    0.3333333430000000 Na
   0.8888888956666666    0.1111111143333333    0.3333333430000000 Na
   0.8888888956666666    0.4444444476666666    0.3333333430000000 Na
   0.8888888956666665    0.7777777809999999    0.3333333430000000 Na
   0.1111111143333333    0.2222222290000000    0.6666666870000000 Na
   0.1111111143333333    0.5555555623333333    0.6666666870000000 Na
   0.1111111143333333    0.8888888956666666    0.6666666870000000 Na
   0.4444444476666666    0.8888888956666666    0.6666666870000000 Na
   0.7777777809999998    0.2222222290000000    0.6666666870000000 Na
   0.7777777809999998    0.5555555623333333    0.6666666870000000 Na
   0.7777777809999999    0.8888888956666666    0.6666666870000000 Na
   0.0000000000000000    0.0000000000000000    0.5000000000000000 V
   0.0000000000000000    0.3333333333333333    0.5000000000000000 V
   0.0000000000000000    0.6666666666666666    0.5000000000000000 V
   0.3333333333333333    0.0000000000000000    0.5000000000000000 V
   0.3333333333333333    0.3333333333333333    0.5000000000000000 V
   0.3333333333333333    0.6666666666666666    0.5000000000000000 V
   0.6666666666666666    0.0000000000000000    0.5000000000000000 V
   0.6666666666666665    0.3333333333333333    0.5000000000000000 V
   0.6666666666666666    0.6666666666666666    0.5000000000000000 V
   0.2222222290000000    0.1111111143333333    0.8333333130000000 V
   0.2222222290000000    0.4444444476666666    0.8333333130000000 V
   0.2222222290000000    0.7777777809999999    0.8333333130000000 V
   0.5555555623333333    0.1111111143333333    0.8333333130000000 V
   0.5555555623333334    0.4444444476666666    0.8333333130000000 V
   0.5555555623333333    0.7777777809999999    0.8333333130000000 V
   0.8888888956666666    0.1111111143333333    0.8333333130000000 V
   0.8888888956666666    0.4444444476666666    0.8333333130000000 V
   0.8888888956666665    0.7777777809999999    0.8333333130000000 V
   0.1111111143333333    0.2222222290000000    0.1666666720000000 V
   0.1111111143333333    0.5555555623333333    0.1666666720000000 V
   0.1111111143333333    0.8888888956666666    0.1666666720000000 V
   0.4444444476666667    0.2222222290000000    0.1666666720000000 V
   0.4444444476666666    0.5555555623333333    0.1666666720000000 V
   0.4444444476666666    0.8888888956666666    0.1666666720000000 V
   0.7777777809999998    0.2222222290000000    0.1666666720000000 V
   0.7777777809999998    0.5555555623333333    0.1666666720000000 V
   0.7777777809999999    0.8888888956666666    0.1666666720000000 V
   0.0000000000000000    0.0000000000000000    0.2338999960000000 O
   0.0000000000000000    0.3333333333333333    0.2338999960000000 O
   0.0000000000000000    0.6666666666666666    0.2338999960000000 O
   0.3333333333333333    0.0000000000000000    0.2338999960000000 O
   0.3333333333333333    0.3333333333333333    0.2338999960000000 O
   0.3333333333333333    0.6666666666666666    0.2338999960000000 O
   0.6666666666666666    0.0000000000000000    0.2338999960000000 O
   0.6666666666666665    0.3333333333333333    0.2338999960000000 O
   0.6666666666666666    0.6666666666666666    0.2338999960000000 O
   0.0000000000000000    0.0000000000000000    0.7660999890000000 O
   0.0000000000000000    0.3333333333333333    0.7660999890000000 O
   0.0000000000000000    0.6666666666666666    0.7660999890000000 O
   0.3333333333333333    0.0000000000000000    0.7660999890000000 O
   0.3333333333333333    0.3333333333333333    0.7660999890000000 O
   0.3333333333333333    0.6666666666666666    0.7660999890000000 O
   0.6666666666666666    0.0000000000000000    0.7660999890000000 O
   0.6666666666666665    0.3333333333333333    0.7660999890000000 O
   0.6666666666666666    0.6666666666666666    0.7660999890000000 O
   0.2222222290000000    0.1111111143333333    0.5672333240000001 O
   0.2222222290000000    0.4444444476666666    0.5672333240000001 O
   0.2222222290000000    0.7777777809999999    0.5672333240000001 O
   0.5555555623333333    0.1111111143333333    0.5672333240000001 O
   0.5555555623333334    0.4444444476666666    0.5672333240000001 O
   0.5555555623333333    0.7777777809999999    0.5672333240000001 O
   0.8888888956666666    0.1111111143333333    0.5672333240000001 O
   0.8888888956666666    0.4444444476666666    0.5672333240000001 O
   0.8888888956666665    0.7777777809999999    0.5672333240000001 O
   0.2222222290000000    0.1111111143333333    0.0994333400000000 O
   0.2222222290000000    0.4444444476666666    0.0994333400000000 O
   0.2222222290000000    0.7777777809999999    0.0994333400000000 O
   0.5555555623333333    0.1111111143333333    0.0994333400000000 O
   0.5555555623333334    0.4444444476666666    0.0994333400000000 O
   0.5555555623333333    0.7777777809999999    0.0994333400000000 O
   0.8888888956666666    0.1111111143333333    0.0994333400000000 O
   0.8888888956666666    0.4444444476666666    0.0994333400000000 O
   0.8888888956666665    0.7777777809999999    0.0994333400000000 O
   0.1111111143333333    0.2222222290000000    0.9005666380000000 O
   0.1111111143333333    0.5555555623333333    0.9005666380000000 O
   0.1111111143333333    0.8888888956666666    0.9005666380000000 O
   0.4444444476666667    0.2222222290000000    0.9005666380000000 O
   0.4444444476666666    0.5555555623333333    0.9005666380000000 O
   0.4444444476666666    0.8888888956666666    0.9005666380000000 O
   0.7777777809999998    0.2222222290000000    0.9005666380000000 O
   0.7777777809999998    0.5555555623333333    0.9005666380000000 O
   0.7777777809999999    0.8888888956666666    0.9005666380000000 O
   0.1111111143333333    0.2222222290000000    0.4327666760000001 O
   0.1111111143333333    0.5555555623333333    0.4327666760000001 O
   0.1111111143333333    0.8888888956666666    0.4327666760000001 O
   0.4444444476666667    0.2222222290000000    0.4327666760000001 O
   0.4444444476666666    0.5555555623333333    0.4327666760000001 O
   0.4444444476666666    0.8888888956666666    0.4327666760000001 O
   0.7777777809999998    0.2222222290000000    0.4327666760000001 O
   0.7777777809999998    0.5555555623333333    0.4327666760000001 O
   0.7777777809999999    0.8888888956666666    0.4327666760000001 O
