Tb16 Mg8 Se32
1.0
       11.6597175598         0.0000000000         0.0000000000
        0.0000000000        11.6597175598         0.0000000000
        0.0000000000         0.0000000000        11.6597175598
Mg   Tb   Mg   Se
1   16    6   32
Direct
     0.250000000         0.750000000         0.750000000
     0.375000000         0.125000000         0.875000000
     0.375000000         0.375000000         0.625000000
     0.625000000         0.875000000         0.875000000
     0.625000000         0.625000000         0.625000000
     0.375000000         0.625000000         0.375000000
     0.375000000         0.875000000         0.125000000
     0.625000000         0.375000000         0.375000000
     0.625000000         0.125000000         0.125000000
     0.875000000         0.125000000         0.375000000
     0.875000000         0.375000000         0.125000000
     0.125000000         0.875000000         0.375000000
     0.125000000         0.625000000         0.125000000
     0.875000000         0.625000000         0.875000000
     0.875000000         0.875000000         0.625000000
     0.125000000         0.375000000         0.875000000
     0.125000000         0.125000000         0.625000000
     0.500000000         0.000000000         0.500000000
     0.750000000         0.250000000         0.750000000
     0.750000000         0.750000000         0.250000000
     0.000000000         0.000000000         0.000000000
     0.250000000         0.250000000         0.250000000
     0.000000000         0.500000000         0.500000000
     0.379190028         0.879190028         0.879190028
     0.379190028         0.620809972         0.620809972
     0.620809972         0.379190028         0.620809972
     0.620809972         0.120809980         0.879190028
     0.129190013         0.129190013         0.870809972
     0.129190013         0.370809972         0.629190028
     0.370809972         0.129190013         0.629190028
     0.370809972         0.370809972         0.870809972
     0.379190028         0.379190028         0.379190028
     0.379190028         0.120809980         0.120809980
     0.620809972         0.879190028         0.120809980
     0.620809972         0.620809972         0.379190028
     0.129190013         0.629190028         0.370809972
     0.129190013         0.870809972         0.129190013
     0.370809972         0.629190028         0.129190013
     0.370809972         0.870809972         0.370809972
     0.879190028         0.879190028         0.379190028
     0.879190028         0.620809972         0.120809980
     0.120809980         0.379190028         0.120809980
     0.120809980         0.120809980         0.379190028
     0.629190028         0.129190013         0.370809972
     0.629190028         0.370809972         0.129190013
     0.870809972         0.129190013         0.129190013
     0.870809972         0.370809972         0.370809972
     0.879190028         0.379190028         0.879190028
     0.879190028         0.120809980         0.620809972
     0.120809980         0.879190028         0.620809972
     0.120809980         0.620809972         0.879190028
     0.629190028         0.629190028         0.870809972
     0.629190028         0.870809972         0.629190028
     0.870809972         0.629190028         0.629190028
     0.870809972         0.870809972         0.870809972
