Ca16 Co32 O64                           
   1.00000000000000     
     9.3663732098206953    0.0000090912416280   -2.7382266029053297
    -0.0005521416538342   11.2643807518614718   -0.0019526358679084
    -0.0286290378636757   -0.0020015877912306   11.2733374978312177
   Ca   Co   O 
     1    32    64
Direct
   0.6659608770791493    0.6250214954905284    0.4981217122126926 Ca
  0.9999484884612767  0.2494620227565570  0.2475219512348152
  0.0003784978522855  0.2503314199311156  0.7523232640055070
  0.9976927588870073  0.7506848043753739  0.2443611414305321
  0.0015094351623208  0.7495624989616116  0.7539732087906885
  0.4998131561542155  0.2502442383318492  0.2469859976856124
  0.5006943573455510  0.2500247206164717  0.7536832470670253
  0.4981513256145151  0.7488146394894941  0.2437623806485601
  0.5039302426053106  0.7495278836242827  0.7607376023179537
  0.9977086606148278  0.9991552849313891  0.2443930307554499
  0.0014910379893289  0.0006298718973472  0.7539543699240333
  0.9998874594248397  0.5003531000619771  0.2474611571553036
  0.0004401194893934  0.4998647384390006  0.7523721161571166
  0.4981783284411542  0.0009116143851069  0.2437857166108957
  0.5039011654819444  0.0007068118546408  0.7606531694539548
  0.4997624677191113  0.4995501079409904  0.2469373502083870
  0.5007356019756903  0.5001855447596871  0.7537604821065224
  0.2496223228354060  0.1249970103884410  0.2440235941770252
  0.2507868027371956  0.1258044056144011  0.7544617907797022
  0.2495797773330168  0.6247609278332176  0.2440487135722398
  0.2508337715137097  0.6244102261054738  0.7544945783410248
  0.7497310644002929  0.1251555003196771  0.2478441709270332
  0.7511571148251097  0.1248429560912805  0.7534658469413033
  0.7496712409855751  0.6246709966193865  0.2477319759335823
  0.7511937435484632  0.6253375664202684  0.7535203018806573
  0.2498890014250494  0.3748853447380881  0.2474633464258780
  0.2507542120317360  0.3750990728787423  0.7529049804701557
  0.2443626298834726  0.8748737299583947  0.2314348905164922
  0.2525277606069713  0.8751307650027476  0.7610213180824617
  0.7499965396455185  0.3749160477235379  0.2483281042450255
  0.7508286171653180  0.3750983027449585  0.7528305747042585
  0.7480975098395936  0.8749097503423477  0.2461867327624160
  0.7521837830365217  0.8750934732744348  0.7543526463473635
  0.0545204826009825  0.1248794071108405  0.1607677499393647
  0.0565599420005027  0.1248777690799545  0.6666376214788036
  0.0544802111152578  0.6248863664452881  0.1607502367566905
  0.0566345765312362  0.6252810325351883  0.6666687664259389
  0.5550207336259788  0.1249086104222091  0.1604631525584579
  0.5553719651356638  0.1235149028844645  0.6681028521933429
  0.5549476174027416  0.6247959635063262  0.1603557120702776
  0.5554225706621151  0.6266522180964605  0.6681878528457394
  0.4448978643012945  0.3749066537436883  0.3340146832998653
  0.4455245264612965  0.3751011114750571  0.8391826669051793
  0.4389026262820724  0.8749035878382638  0.3318300991312542
  0.4477583728746270  0.8751738148680515  0.8453353678060833
  0.9453163469532935  0.3749431101046398  0.3343651978542247
  0.9457093559376055  0.3751279393304162  0.8386247198187137
  0.9441739643065017  0.8749136876106182  0.3327428652317010
  0.9446037654922126  0.8751277050587777  0.8390551487225588
  0.4437923529072561  0.1242864985936460  0.3326369947061248
  0.4460356279181065  0.1258674128644795  0.8416201361524264
  0.4437462057559190  0.6255593692822744  0.3326419501904668
  0.4460508652050836  0.6243915807215025  0.8416852545413842
  0.9450786486906018  0.1237545106726548  0.3335506950501965
  0.9455853099844328  0.1255723214710544  0.8390464967855734
  0.9449955814806453  0.6261714514631851  0.3334600846299308
  0.9456533316367038  0.6246612501900732  0.8391123119176136
  0.0550524813781682  0.3748721282828955  0.1621909733354669
  0.0555945262065536  0.3750516883137265  0.6656503325241713
  0.0500450347383770  0.8748897651281795  0.1544849129581549
  0.0587590389040864  0.8750654455789907  0.6686407330531207
  0.5551151669278233  0.3748728715108571  0.1612420159217256
  0.5555025283419294  0.3750710858407431  0.6666862834310930
  0.5542393717524772  0.8748574682665722  0.1598891241288102
  0.5526460949004803  0.8750620585291543  0.6659917505151998
  0.1953411668687908  0.2488152976533309  0.3331477963996687
  0.1957585088279416  0.2496244306784649  0.8389496702657933
  0.1966368422691274  0.7538059984100602  0.3324491040386250
  0.1959212325911350  0.7494283178926451  0.8419113727394200
  0.6947913941951291  0.2497556601985721  0.3346472351494307
  0.6956223034720168  0.2502458215849276  0.8387922393359575
  0.6924550989729436  0.7501295531864977  0.3327970865056293
  0.6975810969141788  0.7500326737378105  0.8415178973849555
  0.3035096844079402  0.0016634670065158  0.1540239430052285
  0.3074500318246731  0.9976854108238321  0.6664587456860120
  0.3043554301881463  0.4996944562346947  0.1604141160223544
  0.3057205443281716  0.5005689226557463  0.6668122600839289
  0.8045568594631554  0.0002863847453143  0.1608064548984091
  0.8063505773350169  0.9995642358512487  0.6669562859821652
  0.8051117505979754  0.4997218562569651  0.1620087973996315
  0.8052942593832219  0.5003660004905739  0.6660277060194451
  0.3043649487863290  0.2500236211984400  0.1604087119235516
  0.3056914972489037  0.2495933724375199  0.6667674284829355
  0.3034839735169533  0.7480116201617300  0.1540383567091469
  0.3074870697520167  0.7524733036417692  0.6665021697212488
  0.8051512063621727  0.2500165642453243  0.1620975259434296
  0.8052888750612502  0.2497754183187880  0.6659853642681903
  0.8045293834732351  0.7495054893075841  0.1607485358290779
  0.8063666240960125  0.7505452846016549  0.6669822947557699
  0.1952957453272941  0.5010050046820951  0.3331444921214300
  0.1958083779915335  0.5006291250096363  0.8389990720771932
  0.1966613326150199  0.9960391305349391  0.3324311057543448
  0.1959001834289217  0.0008710132322842  0.8419054610086577
  0.6947535101995758  0.5001585268991576  0.3345923408351845
  0.6956472307746588  0.5000069765150098  0.8388925452593857
  0.6924596683595583  0.9997183481282808  0.3328475344378284
  0.6975457323964627  0.0002401172695391  0.8414698203927017
 
  0.00000000E+00  0.00000000E+00  0.00000000E+00
  0.00000000E+00  0.00000000E+00  0.00000000E+00
  0.00000000E+00  0.00000000E+00  0.00000000E+00
  0.00000000E+00  0.00000000E+00  0.00000000E+00
  0.00000000E+00  0.00000000E+00  0.00000000E+00
  0.00000000E+00  0.00000000E+00  0.00000000E+00
  0.00000000E+00  0.00000000E+00  0.00000000E+00
  0.00000000E+00  0.00000000E+00  0.00000000E+00
  0.00000000E+00  0.00000000E+00  0.00000000E+00
  0.00000000E+00  0.00000000E+00  0.00000000E+00
  0.00000000E+00  0.00000000E+00  0.00000000E+00
  0.00000000E+00  0.00000000E+00  0.00000000E+00
  0.00000000E+00  0.00000000E+00  0.00000000E+00
  0.00000000E+00  0.00000000E+00  0.00000000E+00
  0.00000000E+00  0.00000000E+00  0.00000000E+00
  0.00000000E+00  0.00000000E+00  0.00000000E+00
  0.00000000E+00  0.00000000E+00  0.00000000E+00
  0.00000000E+00  0.00000000E+00  0.00000000E+00
  0.00000000E+00  0.00000000E+00  0.00000000E+00
  0.00000000E+00  0.00000000E+00  0.00000000E+00
  0.00000000E+00  0.00000000E+00  0.00000000E+00
  0.00000000E+00  0.00000000E+00  0.00000000E+00
  0.00000000E+00  0.00000000E+00  0.00000000E+00
  0.00000000E+00  0.00000000E+00  0.00000000E+00
  0.00000000E+00  0.00000000E+00  0.00000000E+00
  0.00000000E+00  0.00000000E+00  0.00000000E+00
  0.00000000E+00  0.00000000E+00  0.00000000E+00
  0.00000000E+00  0.00000000E+00  0.00000000E+00
  0.00000000E+00  0.00000000E+00  0.00000000E+00
  0.00000000E+00  0.00000000E+00  0.00000000E+00
  0.00000000E+00  0.00000000E+00  0.00000000E+00
  0.00000000E+00  0.00000000E+00  0.00000000E+00
  0.00000000E+00  0.00000000E+00  0.00000000E+00
  0.00000000E+00  0.00000000E+00  0.00000000E+00
  0.00000000E+00  0.00000000E+00  0.00000000E+00
  0.00000000E+00  0.00000000E+00  0.00000000E+00
  0.00000000E+00  0.00000000E+00  0.00000000E+00
  0.00000000E+00  0.00000000E+00  0.00000000E+00
  0.00000000E+00  0.00000000E+00  0.00000000E+00
  0.00000000E+00  0.00000000E+00  0.00000000E+00
  0.00000000E+00  0.00000000E+00  0.00000000E+00
  0.00000000E+00  0.00000000E+00  0.00000000E+00
  0.00000000E+00  0.00000000E+00  0.00000000E+00
  0.00000000E+00  0.00000000E+00  0.00000000E+00
  0.00000000E+00  0.00000000E+00  0.00000000E+00
  0.00000000E+00  0.00000000E+00  0.00000000E+00
  0.00000000E+00  0.00000000E+00  0.00000000E+00
  0.00000000E+00  0.00000000E+00  0.00000000E+00
  0.00000000E+00  0.00000000E+00  0.00000000E+00
  0.00000000E+00  0.00000000E+00  0.00000000E+00
  0.00000000E+00  0.00000000E+00  0.00000000E+00
  0.00000000E+00  0.00000000E+00  0.00000000E+00
  0.00000000E+00  0.00000000E+00  0.00000000E+00
  0.00000000E+00  0.00000000E+00  0.00000000E+00
  0.00000000E+00  0.00000000E+00  0.00000000E+00
  0.00000000E+00  0.00000000E+00  0.00000000E+00
  0.00000000E+00  0.00000000E+00  0.00000000E+00
  0.00000000E+00  0.00000000E+00  0.00000000E+00
  0.00000000E+00  0.00000000E+00  0.00000000E+00
  0.00000000E+00  0.00000000E+00  0.00000000E+00
  0.00000000E+00  0.00000000E+00  0.00000000E+00
  0.00000000E+00  0.00000000E+00  0.00000000E+00
  0.00000000E+00  0.00000000E+00  0.00000000E+00
  0.00000000E+00  0.00000000E+00  0.00000000E+00
  0.00000000E+00  0.00000000E+00  0.00000000E+00
  0.00000000E+00  0.00000000E+00  0.00000000E+00
  0.00000000E+00  0.00000000E+00  0.00000000E+00
  0.00000000E+00  0.00000000E+00  0.00000000E+00
  0.00000000E+00  0.00000000E+00  0.00000000E+00
  0.00000000E+00  0.00000000E+00  0.00000000E+00
  0.00000000E+00  0.00000000E+00  0.00000000E+00
  0.00000000E+00  0.00000000E+00  0.00000000E+00
  0.00000000E+00  0.00000000E+00  0.00000000E+00
  0.00000000E+00  0.00000000E+00  0.00000000E+00
  0.00000000E+00  0.00000000E+00  0.00000000E+00
  0.00000000E+00  0.00000000E+00  0.00000000E+00
  0.00000000E+00  0.00000000E+00  0.00000000E+00
  0.00000000E+00  0.00000000E+00  0.00000000E+00
  0.00000000E+00  0.00000000E+00  0.00000000E+00
  0.00000000E+00  0.00000000E+00  0.00000000E+00
  0.00000000E+00  0.00000000E+00  0.00000000E+00
  0.00000000E+00  0.00000000E+00  0.00000000E+00
  0.00000000E+00  0.00000000E+00  0.00000000E+00
  0.00000000E+00  0.00000000E+00  0.00000000E+00
  0.00000000E+00  0.00000000E+00  0.00000000E+00
  0.00000000E+00  0.00000000E+00  0.00000000E+00
  0.00000000E+00  0.00000000E+00  0.00000000E+00
  0.00000000E+00  0.00000000E+00  0.00000000E+00
  0.00000000E+00  0.00000000E+00  0.00000000E+00
  0.00000000E+00  0.00000000E+00  0.00000000E+00
  0.00000000E+00  0.00000000E+00  0.00000000E+00
  0.00000000E+00  0.00000000E+00  0.00000000E+00
  0.00000000E+00  0.00000000E+00  0.00000000E+00
  0.00000000E+00  0.00000000E+00  0.00000000E+00
  0.00000000E+00  0.00000000E+00  0.00000000E+00
  0.00000000E+00  0.00000000E+00  0.00000000E+00
  0.00000000E+00  0.00000000E+00  0.00000000E+00
