Ca16 Co32 O64                           
   1.00000000000000     
     9.7589261194346886   -0.0305292108791715    0.0073146120029811
     1.7420204647983450   10.8292570364768128    2.8303102504371562
    -0.0085653844915867   -0.0021544102887662   11.2646282589560691
   Ca   Co   O 
     1    32    64
Direct
  0.6962494343443791  0.3434876448205670  0.2906937889760176
  0.1552751125935510  0.0917386163217341  0.4792105002933851
  0.1554575141887343  0.0937516324057218  0.9779394828080658
  0.1540750013725056  0.5969139974400457  0.4776749161118920
  0.1540698973188410  0.5969708335995222  0.9771030878713457
  0.6561128982695319  0.0853622664036688  0.4808641851229556
  0.6557216424102054  0.0927331590792138  0.9784457028833633
  0.6523716135434499  0.6003450493879381  0.4766422419540325
  0.6523474418985188  0.6004244943798486  0.9763917538445172
  0.1552411750807374  0.0917861301843965  0.2281071430162329
  0.1554868812234648  0.0936178781114126  0.7284577166026753
  0.1547895552133802  0.5987611245836252  0.2269271522247256
  0.1540976790513930  0.5961311240028769  0.7275872044841255
  0.6560912883106004  0.0854720586133495  0.2296434815943291
  0.6557327610872739  0.0925699949809500  0.7283866990097740
  0.6512477124022708  0.6132441815711541  0.2233083059256864
  0.6538643655637700  0.5966765018046278  0.7274474843666505
  0.4051876455043136  0.0926520277386432  0.1036598614497071
  0.4051991672245743  0.0925812672504949  0.6031818002149132
  0.4034901808976310  0.6011389746659466  0.1002553224034751
  0.4036396599041577  0.5974045822672085  0.6026019310488923
  0.9061195539997345  0.0916025627595842  0.1029775237867307
  0.9061605226459890  0.0914319185346733  0.6045145106847026
  0.9043524693602510  0.6003319206145350  0.1023410669789615
  0.9037897212226811  0.5968567322352499  0.6019809538400174
  0.4046980345590934  0.0915204961359462  0.3536831875557422
  0.4052064069944387  0.0934351407972036  0.8532263856075676
  0.4035039446862079  0.6010845569015433  0.3524134628073791
  0.4036292556728774  0.5974368504504097  0.8518824133935344
  0.9077725445135590  0.0848089262534204  0.3554180508271785
  0.9053250146799081  0.0933364815157415  0.8532811384220943
  0.9043592910809506  0.6002367757222234  0.3508049989564416
  0.9037883044187006  0.5969063975776473  0.8528589047362015
  0.0034979698857837  0.0073548436091327  0.0003221292488325
  0.0049256141008578  0.0040685850022690  0.5014714229029424
  0.0018225875281133  0.5113181106619328  0.0002485814822645
  0.0018408758736570  0.5112732675199027  0.4975580431248445
  0.5036799255537476  0.0076376118727839  0.9995822690819078
  0.5030704624251193  0.0047434852095437  0.5006418865543942
  0.5025123311960099  0.5121459356609627  0.9994876461102415
  0.5025266022993644  0.5121078936053821  0.4978264540731733
  0.0048816097589216  0.0041157728113703  0.2498459688533502
  0.0035073880344595  0.0072445169095792  0.7494902832921667
  0.0023123183261024  0.5122559244960966  0.2486542568290659
  0.0020486972117226  0.5102206540093416  0.7491791484913722
  0.5031039334048252  0.0047585069906179  0.2502631178823488
  0.5036216983779584  0.0075853512059762  0.7499684216483326
  0.5069045673644678  0.5132394751445580  0.2483813130356425
  0.5021571069943027  0.5104073510831125  0.7490862527424480
  0.0563171214208432  0.1791261468770396  0.0820601095528067
  0.0563617156791575  0.1789792699125047  0.5815245312036263
  0.0554689315629265  0.6838250778874697  0.0801331631401602
  0.0555834182004513  0.6822740899501556  0.5812240071798259
  0.5580872125273584  0.1779010275067872  0.0836679181902737
  0.5581298114027210  0.1778068834159783  0.5804347589400983
  0.5532748892097157  0.6904219297818779  0.0770521685876987
  0.5556872233888877  0.6835988433073651  0.5808698092711569
  0.0551970393499816  0.1768729301264091  0.3323316811432067
  0.0567776139449538  0.1802527917489600  0.8314388019796299
  0.0554658991747078  0.6837818536453801  0.3310595058932429
  0.0556086035059743  0.6822989211741531  0.8307183978659607
  0.5599213133176477  0.1798605597476632  0.3315666419395985
  0.5572175560177943  0.1794907135957409  0.8315882056608798
  0.5532820843712039  0.6904156189128201  0.3308083973606428
  0.5556818357763704  0.6836116389325488  0.8303728267087462
  0.2539289275890304  0.5122930761331396  0.1238785252726026
  0.2526224504876739  0.5101102902587986  0.6239213549836293
  0.2538479093343168  0.0070258986748061  0.1243711850420037
  0.2538825728244560  0.0069720705192795  0.6254801655634181
  0.7496195710179686  0.5124230776665812  0.1275702478556449
  0.7514542864047306  0.5112868479594296  0.6226871689939307
  0.7544892643123083  0.0048792205705819  0.1246024646855868
  0.7545112031778489  0.0046963825606901  0.6263572649694717
  0.2549234295526551  0.0068457541133649  0.3749338453610992
  0.2535417060483849  0.0076274980697012  0.8748244766828904
  0.2539176471773857  0.5122691822110923  0.3733604527314524
  0.2526240936688154  0.5101483355643240  0.8744186717722966
  0.7546333934915530  0.0009045735973337  0.3764425189632863
  0.7538184061726699  0.0073805841838048  0.8748617899417498
  0.7496088054103289  0.5123299779219127  0.3696669170390738
  0.7514391029190739  0.5113344180294546  0.8750595757571744
  0.3065488937509745  0.1787154979889120  0.4562912779145075
  0.3070953144224887  0.1799516027195695  0.9568522310049203
  0.3049965656162374  0.6841104599855671  0.4557239586471396
  0.3049988590790180  0.6841397089956567  0.9552629147100188
  0.8054382824347885  0.1792203738123562  0.4543611243588826
  0.8072498616154762  0.1793340702260778  0.9571986679950950
  0.8056167857264307  0.6835261167182464  0.4557701168277513
  0.8056139305815315  0.6835755230481789  0.9555658315855815
  0.3065202315073957  0.1787349478257380  0.2073139372439529
  0.3070763146740733  0.1798784539863920  0.7061579874780867
  0.3053939075760860  0.6848645475753362  0.2053316454117545
  0.3053983027172447  0.6829864653674593  0.7057536988980458
  0.8053956789312064  0.1793200273851555  0.2091191558463703
  0.8072430006046001  0.1791991766422046  0.7061864020573965
  0.8069303082473962  0.6900132416317083  0.2040893403733154
  0.8057943445021031  0.6818887166306077  0.7060636042576377
 
  0.00000000E+00  0.00000000E+00  0.00000000E+00
  0.00000000E+00  0.00000000E+00  0.00000000E+00
  0.00000000E+00  0.00000000E+00  0.00000000E+00
  0.00000000E+00  0.00000000E+00  0.00000000E+00
  0.00000000E+00  0.00000000E+00  0.00000000E+00
  0.00000000E+00  0.00000000E+00  0.00000000E+00
  0.00000000E+00  0.00000000E+00  0.00000000E+00
  0.00000000E+00  0.00000000E+00  0.00000000E+00
  0.00000000E+00  0.00000000E+00  0.00000000E+00
  0.00000000E+00  0.00000000E+00  0.00000000E+00
  0.00000000E+00  0.00000000E+00  0.00000000E+00
  0.00000000E+00  0.00000000E+00  0.00000000E+00
  0.00000000E+00  0.00000000E+00  0.00000000E+00
  0.00000000E+00  0.00000000E+00  0.00000000E+00
  0.00000000E+00  0.00000000E+00  0.00000000E+00
  0.00000000E+00  0.00000000E+00  0.00000000E+00
  0.00000000E+00  0.00000000E+00  0.00000000E+00
  0.00000000E+00  0.00000000E+00  0.00000000E+00
  0.00000000E+00  0.00000000E+00  0.00000000E+00
  0.00000000E+00  0.00000000E+00  0.00000000E+00
  0.00000000E+00  0.00000000E+00  0.00000000E+00
  0.00000000E+00  0.00000000E+00  0.00000000E+00
  0.00000000E+00  0.00000000E+00  0.00000000E+00
  0.00000000E+00  0.00000000E+00  0.00000000E+00
  0.00000000E+00  0.00000000E+00  0.00000000E+00
  0.00000000E+00  0.00000000E+00  0.00000000E+00
  0.00000000E+00  0.00000000E+00  0.00000000E+00
  0.00000000E+00  0.00000000E+00  0.00000000E+00
  0.00000000E+00  0.00000000E+00  0.00000000E+00
  0.00000000E+00  0.00000000E+00  0.00000000E+00
  0.00000000E+00  0.00000000E+00  0.00000000E+00
  0.00000000E+00  0.00000000E+00  0.00000000E+00
  0.00000000E+00  0.00000000E+00  0.00000000E+00
  0.00000000E+00  0.00000000E+00  0.00000000E+00
  0.00000000E+00  0.00000000E+00  0.00000000E+00
  0.00000000E+00  0.00000000E+00  0.00000000E+00
  0.00000000E+00  0.00000000E+00  0.00000000E+00
  0.00000000E+00  0.00000000E+00  0.00000000E+00
  0.00000000E+00  0.00000000E+00  0.00000000E+00
  0.00000000E+00  0.00000000E+00  0.00000000E+00
  0.00000000E+00  0.00000000E+00  0.00000000E+00
  0.00000000E+00  0.00000000E+00  0.00000000E+00
  0.00000000E+00  0.00000000E+00  0.00000000E+00
  0.00000000E+00  0.00000000E+00  0.00000000E+00
  0.00000000E+00  0.00000000E+00  0.00000000E+00
  0.00000000E+00  0.00000000E+00  0.00000000E+00
  0.00000000E+00  0.00000000E+00  0.00000000E+00
  0.00000000E+00  0.00000000E+00  0.00000000E+00
  0.00000000E+00  0.00000000E+00  0.00000000E+00
  0.00000000E+00  0.00000000E+00  0.00000000E+00
  0.00000000E+00  0.00000000E+00  0.00000000E+00
  0.00000000E+00  0.00000000E+00  0.00000000E+00
  0.00000000E+00  0.00000000E+00  0.00000000E+00
  0.00000000E+00  0.00000000E+00  0.00000000E+00
  0.00000000E+00  0.00000000E+00  0.00000000E+00
  0.00000000E+00  0.00000000E+00  0.00000000E+00
  0.00000000E+00  0.00000000E+00  0.00000000E+00
  0.00000000E+00  0.00000000E+00  0.00000000E+00
  0.00000000E+00  0.00000000E+00  0.00000000E+00
  0.00000000E+00  0.00000000E+00  0.00000000E+00
  0.00000000E+00  0.00000000E+00  0.00000000E+00
  0.00000000E+00  0.00000000E+00  0.00000000E+00
  0.00000000E+00  0.00000000E+00  0.00000000E+00
  0.00000000E+00  0.00000000E+00  0.00000000E+00
  0.00000000E+00  0.00000000E+00  0.00000000E+00
  0.00000000E+00  0.00000000E+00  0.00000000E+00
  0.00000000E+00  0.00000000E+00  0.00000000E+00
  0.00000000E+00  0.00000000E+00  0.00000000E+00
  0.00000000E+00  0.00000000E+00  0.00000000E+00
  0.00000000E+00  0.00000000E+00  0.00000000E+00
  0.00000000E+00  0.00000000E+00  0.00000000E+00
  0.00000000E+00  0.00000000E+00  0.00000000E+00
  0.00000000E+00  0.00000000E+00  0.00000000E+00
  0.00000000E+00  0.00000000E+00  0.00000000E+00
  0.00000000E+00  0.00000000E+00  0.00000000E+00
  0.00000000E+00  0.00000000E+00  0.00000000E+00
  0.00000000E+00  0.00000000E+00  0.00000000E+00
  0.00000000E+00  0.00000000E+00  0.00000000E+00
  0.00000000E+00  0.00000000E+00  0.00000000E+00
  0.00000000E+00  0.00000000E+00  0.00000000E+00
  0.00000000E+00  0.00000000E+00  0.00000000E+00
  0.00000000E+00  0.00000000E+00  0.00000000E+00
  0.00000000E+00  0.00000000E+00  0.00000000E+00
  0.00000000E+00  0.00000000E+00  0.00000000E+00
  0.00000000E+00  0.00000000E+00  0.00000000E+00
  0.00000000E+00  0.00000000E+00  0.00000000E+00
  0.00000000E+00  0.00000000E+00  0.00000000E+00
  0.00000000E+00  0.00000000E+00  0.00000000E+00
  0.00000000E+00  0.00000000E+00  0.00000000E+00
  0.00000000E+00  0.00000000E+00  0.00000000E+00
  0.00000000E+00  0.00000000E+00  0.00000000E+00
  0.00000000E+00  0.00000000E+00  0.00000000E+00
  0.00000000E+00  0.00000000E+00  0.00000000E+00
  0.00000000E+00  0.00000000E+00  0.00000000E+00
  0.00000000E+00  0.00000000E+00  0.00000000E+00
  0.00000000E+00  0.00000000E+00  0.00000000E+00
  0.00000000E+00  0.00000000E+00  0.00000000E+00
