Ca16 Ni32 O64                           
   1.00000000000000     
     9.7803232278318699    0.1211330071374242   -0.3024642157208914
     1.6623634372709790   10.2998629776473791    3.1409172846545368
     0.3519242557085841   -0.3138132670614519   11.2896007696855829
   Ca   Ni   O 
     1    32    64
Direct
   0.3633351611141836    0.3473242735516724    0.5399771247030382 Ca
  0.1564135259983387  0.0853928944459071  0.4808949695933424
  0.1564070944556964  0.0893270337994566  0.9792908071829668
  0.1531807930707455  0.6018415962978021  0.4760699361354587
  0.1531985807437823  0.6027385549043390  0.9754960355472428
  0.6569612354492830  0.0796683621486459  0.4827792851840095
  0.6565026217180863  0.0882303397910871  0.9795272778988563
  0.6519607780967438  0.6053640258044819  0.4756085465342260
  0.6519921682850021  0.6064187584673755  0.9740709606918699
  0.1563753187703442  0.0861237527350937  0.2299142309338787
  0.1564640794089836  0.0885897112506038  0.7298606435703032
  0.1535864255863236  0.6046569370358534  0.2251746531876878
  0.1531376602936640  0.6003127672777540  0.7262947487930875
  0.6568934567634337  0.0805827350385098  0.2309231911680759
  0.6565625051342947  0.0873805396649252  0.7301689393557518
  0.6506208719500880  0.6184189133494666  0.2216581831693936
  0.6531518938828177  0.6016492067422157  0.7259513487791081
  0.4059867729536901  0.0880637601518408  0.1047190553608282
  0.4060622897567248  0.0869158299776553  0.6051192269564074
  0.4022930887607027  0.6073293867016872  0.0986522713192569
  0.4028246969199427  0.6019951160539074  0.6011502247719528
  0.9070744584857445  0.0865679673243939  0.1043301558165148
  0.9071570022384745  0.0854239715669003  0.6063714934365968
  0.9037204335671496  0.6064835520591350  0.0998786111667267
  0.9031579646573543  0.6008650378977687  0.6010920710880321
  0.4052772195908211  0.0856628903772350  0.3554093494862497
  0.4062146698936914  0.0897267809474334  0.8543244746466123
  0.4022443397364192  0.6067276789408006  0.3505141336397029
  0.4028713006027790  0.6025486910485101  0.8504513631389642
  0.9086264570707353  0.0791573488292600  0.3570984294655283
  0.9063811504431600  0.0884917057040757  0.8546771943190613
  0.9036972974400549  0.6056803761813011  0.3497250434343800
  0.9031550019247198  0.6016268666734531  0.8510450240788512
  0.0073710716738684  0.9918123808017312  0.5057333462601932
  0.0055837562684102  0.9973209610285479  0.0030202515747356
  0.0017164757062266  0.5108943817046988  0.4978379744001796
  0.0017342056275385  0.5118974219511392  0.0004720594331277
  0.5040927646325456  0.9927784761129188  0.5049210152208677
  0.5049869205970615  0.9980830698466312  0.0024059462207802
  0.5023993922296489  0.5132017135622572  0.4972492427110547
  0.5026337958467818  0.5140007590751156  0.9999414812707648
  0.0073244377365762  0.9925629935040663  0.2528558879831785
  0.0056276775973708  0.9965892660220479  0.7536824938253103
  0.0013094429229277  0.5140480304177907  0.2482267432760590
  0.0019962930669313  0.5091269232556328  0.7499421802776270
  0.5040781907469808  0.9936680089938448  0.2530656246636545
  0.5049762952765572  0.9972504441455380  0.7538514463461141
  0.5059166512507932  0.5170757880320541  0.2475076432124897
  0.5020449120117062  0.5107407852431207  0.7494878214981857
  0.0567600413188817  0.1786954505796522  0.0823497655113791
  0.0567367029539910  0.1776841797851707  0.5810112140679613
  0.0542094516498722  0.6956700935565008  0.0760969355059214
  0.0541235481985685  0.6915637611360751  0.5782482813869781
  0.5587500689507485  0.1776781070345202  0.0838563942313567
  0.5587575033777444  0.1765305457964965  0.5799961995431845
  0.5511749164289315  0.7027674269739056  0.0722306721334212
  0.5541042841478513  0.6938431978649305  0.5779866251242123
  0.0553457959825952  0.1750622986824177  0.3326861006844485
  0.0569095921146530  0.1802162646515581  0.8309274390028114
  0.0541091181516093  0.6949206954458969  0.3279587879935538
  0.0541962007552374  0.6922418241949648  0.8270466868269614
  0.5604049727411453  0.1761710904231254  0.3324620873732191
  0.5578481331016226  0.1803004124269826  0.8308248620873889
  0.5511563310075253  0.7021167189716729  0.3281640584560549
  0.5541044006167298  0.6944821810431480  0.8261245128347714
  0.2534726866165973  0.5135161298307352  0.1241710650042262
  0.2526815856775921  0.5098959581223943  0.6239942124558856
  0.2556422582281332  0.9970878502332750  0.1272740913229155
  0.2556271955941346  0.9960283352523640  0.6293319965877996
  0.7491781615225632  0.5165355397593744  0.1263744903317637
  0.7512059031220649  0.5107042797955785  0.6232441722479540
  0.7560244945397188  0.9939814103960183  0.1270962213932217
  0.7561166417139644  0.9927735959996997  0.6311670790839770
  0.2534119929313072  0.5128905331943042  0.3729080194180488
  0.2527116355995520  0.5104779041281365  0.8750737160174427
  0.2563682659615559  0.9946835766254761  0.3785744289731751
  0.2553808201742224  0.9985029370543882  0.8780241775520662
  0.7490068081493745  0.5157289751447818  0.3689532800427128
  0.7512707423917870  0.5114323181165051  0.8754637067401850
  0.7563668587850667  0.9880809297816178  0.3802410067306305
  0.7552148935414460  0.9972177412422849  0.8783591732035103
  0.3068658347122656  0.1773758970343508  0.4563729273909209
  0.3071471381017453  0.1808038678411464  0.9564138429836436
  0.3029656585675320  0.6944336438269589  0.4528550657915195
  0.3030811173658401  0.6951803709223940  0.9512124242014122
  0.8063500470249603  0.1752933509373162  0.4552442571388713
  0.8075289398883368  0.1792542184377905  0.9567803490224305
  0.8045535068232457  0.6945745423055758  0.4532635058453406
  0.8046263851646611  0.6957122830467757  0.9505848422111963
  0.3068339348714912  0.1781403784430143  0.2074091425339540
  0.3071979750296305  0.1800310976828755  0.7053523178382837
  0.3025756592080068  0.6972844432810450  0.2015773168611384
  0.3036609361094920  0.6923128335368023  0.7025291446631666
  0.8063104839000266  0.1761567856475998  0.2098614101485459
  0.8075055770265961  0.1784837668081841  0.7058283548849045
  0.8064360915034093  0.7021147986176175  0.2003743033726786
  0.8045438783386930  0.6919871168315185  0.7025702551084558
 
  0.00000000E+00  0.00000000E+00  0.00000000E+00
  0.00000000E+00  0.00000000E+00  0.00000000E+00
  0.00000000E+00  0.00000000E+00  0.00000000E+00
  0.00000000E+00  0.00000000E+00  0.00000000E+00
  0.00000000E+00  0.00000000E+00  0.00000000E+00
  0.00000000E+00  0.00000000E+00  0.00000000E+00
  0.00000000E+00  0.00000000E+00  0.00000000E+00
  0.00000000E+00  0.00000000E+00  0.00000000E+00
  0.00000000E+00  0.00000000E+00  0.00000000E+00
  0.00000000E+00  0.00000000E+00  0.00000000E+00
  0.00000000E+00  0.00000000E+00  0.00000000E+00
  0.00000000E+00  0.00000000E+00  0.00000000E+00
  0.00000000E+00  0.00000000E+00  0.00000000E+00
  0.00000000E+00  0.00000000E+00  0.00000000E+00
  0.00000000E+00  0.00000000E+00  0.00000000E+00
  0.00000000E+00  0.00000000E+00  0.00000000E+00
  0.00000000E+00  0.00000000E+00  0.00000000E+00
  0.00000000E+00  0.00000000E+00  0.00000000E+00
  0.00000000E+00  0.00000000E+00  0.00000000E+00
  0.00000000E+00  0.00000000E+00  0.00000000E+00
  0.00000000E+00  0.00000000E+00  0.00000000E+00
  0.00000000E+00  0.00000000E+00  0.00000000E+00
  0.00000000E+00  0.00000000E+00  0.00000000E+00
  0.00000000E+00  0.00000000E+00  0.00000000E+00
  0.00000000E+00  0.00000000E+00  0.00000000E+00
  0.00000000E+00  0.00000000E+00  0.00000000E+00
  0.00000000E+00  0.00000000E+00  0.00000000E+00
  0.00000000E+00  0.00000000E+00  0.00000000E+00
  0.00000000E+00  0.00000000E+00  0.00000000E+00
  0.00000000E+00  0.00000000E+00  0.00000000E+00
  0.00000000E+00  0.00000000E+00  0.00000000E+00
  0.00000000E+00  0.00000000E+00  0.00000000E+00
  0.00000000E+00  0.00000000E+00  0.00000000E+00
  0.00000000E+00  0.00000000E+00  0.00000000E+00
  0.00000000E+00  0.00000000E+00  0.00000000E+00
  0.00000000E+00  0.00000000E+00  0.00000000E+00
  0.00000000E+00  0.00000000E+00  0.00000000E+00
  0.00000000E+00  0.00000000E+00  0.00000000E+00
  0.00000000E+00  0.00000000E+00  0.00000000E+00
  0.00000000E+00  0.00000000E+00  0.00000000E+00
  0.00000000E+00  0.00000000E+00  0.00000000E+00
  0.00000000E+00  0.00000000E+00  0.00000000E+00
  0.00000000E+00  0.00000000E+00  0.00000000E+00
  0.00000000E+00  0.00000000E+00  0.00000000E+00
  0.00000000E+00  0.00000000E+00  0.00000000E+00
  0.00000000E+00  0.00000000E+00  0.00000000E+00
  0.00000000E+00  0.00000000E+00  0.00000000E+00
  0.00000000E+00  0.00000000E+00  0.00000000E+00
  0.00000000E+00  0.00000000E+00  0.00000000E+00
  0.00000000E+00  0.00000000E+00  0.00000000E+00
  0.00000000E+00  0.00000000E+00  0.00000000E+00
  0.00000000E+00  0.00000000E+00  0.00000000E+00
  0.00000000E+00  0.00000000E+00  0.00000000E+00
  0.00000000E+00  0.00000000E+00  0.00000000E+00
  0.00000000E+00  0.00000000E+00  0.00000000E+00
  0.00000000E+00  0.00000000E+00  0.00000000E+00
  0.00000000E+00  0.00000000E+00  0.00000000E+00
  0.00000000E+00  0.00000000E+00  0.00000000E+00
  0.00000000E+00  0.00000000E+00  0.00000000E+00
  0.00000000E+00  0.00000000E+00  0.00000000E+00
  0.00000000E+00  0.00000000E+00  0.00000000E+00
  0.00000000E+00  0.00000000E+00  0.00000000E+00
  0.00000000E+00  0.00000000E+00  0.00000000E+00
  0.00000000E+00  0.00000000E+00  0.00000000E+00
  0.00000000E+00  0.00000000E+00  0.00000000E+00
  0.00000000E+00  0.00000000E+00  0.00000000E+00
  0.00000000E+00  0.00000000E+00  0.00000000E+00
  0.00000000E+00  0.00000000E+00  0.00000000E+00
  0.00000000E+00  0.00000000E+00  0.00000000E+00
  0.00000000E+00  0.00000000E+00  0.00000000E+00
  0.00000000E+00  0.00000000E+00  0.00000000E+00
  0.00000000E+00  0.00000000E+00  0.00000000E+00
  0.00000000E+00  0.00000000E+00  0.00000000E+00
  0.00000000E+00  0.00000000E+00  0.00000000E+00
  0.00000000E+00  0.00000000E+00  0.00000000E+00
  0.00000000E+00  0.00000000E+00  0.00000000E+00
  0.00000000E+00  0.00000000E+00  0.00000000E+00
  0.00000000E+00  0.00000000E+00  0.00000000E+00
  0.00000000E+00  0.00000000E+00  0.00000000E+00
  0.00000000E+00  0.00000000E+00  0.00000000E+00
  0.00000000E+00  0.00000000E+00  0.00000000E+00
  0.00000000E+00  0.00000000E+00  0.00000000E+00
  0.00000000E+00  0.00000000E+00  0.00000000E+00
  0.00000000E+00  0.00000000E+00  0.00000000E+00
  0.00000000E+00  0.00000000E+00  0.00000000E+00
  0.00000000E+00  0.00000000E+00  0.00000000E+00
  0.00000000E+00  0.00000000E+00  0.00000000E+00
  0.00000000E+00  0.00000000E+00  0.00000000E+00
  0.00000000E+00  0.00000000E+00  0.00000000E+00
  0.00000000E+00  0.00000000E+00  0.00000000E+00
  0.00000000E+00  0.00000000E+00  0.00000000E+00
  0.00000000E+00  0.00000000E+00  0.00000000E+00
  0.00000000E+00  0.00000000E+00  0.00000000E+00
  0.00000000E+00  0.00000000E+00  0.00000000E+00
  0.00000000E+00  0.00000000E+00  0.00000000E+00
  0.00000000E+00  0.00000000E+00  0.00000000E+00
  0.00000000E+00  0.00000000E+00  0.00000000E+00
