K16 Mn16 P16 O64
1.0
  10.7728852059819609   -0.0000050613082268    0.0000187999473376
  -0.0000069055551934   14.6986865872121797   -0.0000020733128218
   0.0000164403199818   -0.0000013247518202    9.3893222540781149
K Mn P O
15 16 16 64
direct
   0.5147889072651719    0.6250000680368176    0.6605713516747871 K
   0.0147889072651719    0.1250000680368176    0.6605713516747870 K
   0.0147889072651719    0.6250000680368176    0.6605713516747871 K
   0.5147889072651719    0.1250000680368176    0.6605713516747870 K
   0.2647885967811565    0.3749998043438060    0.8394292383253431 K
   0.2647885967811565    0.8749998043438061    0.8394292383253431 K
   0.7647885967811565    0.8749998043438061    0.8394292383253431 K
   0.4852109852793947    0.3750001892250100    0.3394285772207992 K
   0.4852109852793948    0.8750001892250100    0.3394285772207992 K
   0.9852109852793947    0.3750001892250099    0.3394285772207992 K
   0.9852109852793948    0.8750001892250099    0.3394285772207992 K
   0.2352116557220607    0.1250001914254899    0.1605707621105686 K
   0.2352116557220607    0.6250001914254899    0.1605707621105686 K
   0.7352116557220606    0.1250001914254899    0.1605707621105686 K
   0.7352116557220606    0.6250001914254900    0.1605707621105686 K
   0.2500001157932829    0.0000001482812949    0.5000000355367870 Mn
   0.2500001157932829    0.5000001482812950    0.5000000355367870 Mn
   0.7500001157932829    0.0000001482812950    0.5000000355367870 Mn
   0.7500001157932829    0.5000001482812950    0.5000000355367870 Mn
   0.0000000912023056    0.0000000786904358    0.9999999855163620 Mn
   0.0000000912023056    0.5000000786904358    0.9999999855163620 Mn
   0.5000000912023056    0.0000000786904358    0.9999999855163620 Mn
   0.5000000912023056    0.5000000786904358    0.9999999855163620 Mn
   0.2500001461526428    0.2500001512061599    0.4999999392899669 Mn
   0.2500001461526429    0.7500001512061599    0.4999999392899669 Mn
   0.7500001461526429    0.2500001512061599    0.4999999392899669 Mn
   0.7500001461526428    0.7500001512061599    0.4999999392899669 Mn
   0.4999997011774765    0.2500000891499669    0.9999998962360835 Mn
   0.4999997011774764    0.7500000891499670    0.9999998962360835 Mn
   0.9999997011774764    0.2500000891499669    0.9999998962360835 Mn
   0.9999997011774765    0.7500000891499669    0.9999998962360835 Mn
   0.0267622081923660    0.3749997995695023    0.6686038013902971 P
   0.0267622081923660    0.8749997995695024    0.6686038013902971 P
   0.5267622081923660    0.3749997995695022    0.6686038013902971 P
   0.5267622081923660    0.8749997995695021    0.6686038013902971 P
   0.2767631825715634    0.1250002671734096    0.8314056465437970 P
   0.2767631825715634    0.6250002671734097    0.8314056465437970 P
   0.7767631825715633    0.1250002671734096    0.8314056465437970 P
   0.7767631825715634    0.6250002671734095    0.8314056465437970 P
   0.4732373270504974    0.1250002518163676    0.3313961375761522 P
   0.4732373270504974    0.6250002518163676    0.3313961375761522 P
   0.9732373270504974    0.1250002518163676    0.3313961375761522 P
   0.9732373270504975    0.6250002518163676    0.3313961375761522 P
   0.2232381568735240    0.3750000792906879    0.1685939500128116 P
   0.2232381568735240    0.8750000792906878    0.1685939500128116 P
   0.7232381568735240    0.3750000792906879    0.1685939500128116 P
   0.7232381568735241    0.8750000792906879    0.1685939500128116 P
   0.0193924569804485    0.3749999987602554    0.8360950235847817 O
   0.0193924569804485    0.8749999987602555    0.8360950235847817 O
   0.5193924569804486    0.3749999987602554    0.8360950235847817 O
   0.5193924569804484    0.8749999987602554    0.8360950235847817 O
   0.2693941605046392    0.1249997088331475    0.6639020195605746 O
   0.2693941605046392    0.6249997088331474    0.6639020195605747 O
   0.7693941605046392    0.1249997088331475    0.6639020195605746 O
   0.7693941605046392    0.6249997088331475    0.6639020195605746 O
   0.4806076864772423    0.1250000629166625    0.1639048282117473 O
   0.4806076864772424    0.6250000629166624    0.1639048282117473 O
   0.9806076864772423    0.1250000629166625    0.1639048282117473 O
   0.9806076864772423    0.6250000629166625    0.1639048282117473 O
   0.2306055819584077    0.3749999955961736    0.3360983114492112 O
   0.2306055819584078    0.8749999955961736    0.3360983114492112 O
   0.7306055819584077    0.3749999955961736    0.3360983114492112 O
   0.7306055819584076    0.8749999955961736    0.3360983114492112 O
   0.3559223455245553    0.3750000904326262    0.1029412782848028 O
   0.3559223455245553    0.8750000904326262    0.1029412782848028 O
   0.8559223455245553    0.3750000904326262    0.1029412782848028 O
   0.8559223455245553    0.8750000904326262    0.1029412782848028 O
   0.1059246356636986    0.1250001212362363    0.3970593134069491 O
   0.1059246356636986    0.6250001212362363    0.3970593134069491 O
   0.6059246356636986    0.1250001212362363    0.3970593134069491 O
   0.6059246356636987    0.6250001212362364    0.3970593134069491 O
   0.1440767282361525    0.1249995268028374    0.8970592408378338 O
   0.1440767282361525    0.6249995268028374    0.8970592408378338 O
   0.6440767282361524    0.1249995268028374    0.8970592408378337 O
   0.6440767282361525    0.6249995268028374    0.8970592408378338 O
   0.3940758279571830    0.3749999858842256    0.6029407338104961 O
   0.3940758279571831    0.8749999858842256    0.6029407338104961 O
   0.8940758279571830    0.3749999858842256    0.6029407338104961 O
   0.8940758279571830    0.8749999858842256    0.6029407338104961 O
   0.3975601698166328    0.0402601783981720    0.3811079903882345 O
   0.3975601698166328    0.5402601783981720    0.3811079903882345 O
   0.8975601698166327    0.0402601783981721    0.3811079903882345 O
   0.8975601698166329    0.5402601783981720    0.3811079903882345 O
   0.1475603691857702    0.4597387402758245    0.1188926034398545 O
   0.1475603691857702    0.9597387402758244    0.1188926034398545 O
   0.6475603691857701    0.4597387402758244    0.1188926034398545 O
   0.6475603691857701    0.9597387402758244    0.1188926034398545 O
   0.1024399727840436    0.2902602189753732    0.6188919521040009 O
   0.1024399727840436    0.7902602189753732    0.6188919521040009 O
   0.6024399727840436    0.2902602189753732    0.6188919521040009 O
   0.6024399727840436    0.7902602189753732    0.6188919521040009 O
   0.3524390882694131    0.2097380823445807    0.8811075158616589 O
   0.3524390882694131    0.7097380823445807    0.8811075158616590 O
   0.8524390882694129    0.2097380823445807    0.8811075158616589 O
   0.8524390882694132    0.7097380823445807    0.8811075158616590 O
   0.1024400842482620    0.4597400710028674    0.6188918443627177 O
   0.1024400842482620    0.9597400710028675    0.6188918443627177 O
   0.6024400842482619    0.4597400710028674    0.6188918443627177 O
   0.6024400842482620    0.9597400710028674    0.6188918443627177 O
   0.3524393840283706    0.0402609715357507    0.8811077022948799 O
   0.3524393840283706    0.5402609715357507    0.8811077022948799 O
   0.8524393840283705    0.0402609715357507    0.8811077022948799 O
   0.8524393840283705    0.5402609715357507    0.8811077022948799 O
   0.3975602829214120    0.2097398197471803    0.3811079028833456 O
   0.3975602829214122    0.7097398197471805    0.3811079028833456 O
   0.8975602829214120    0.2097398197471804    0.3811079028833456 O
   0.8975602829214121    0.7097398197471804    0.3811079028833456 O
   0.1475601593823260    0.2902613240491394    0.1188924490851558 O
   0.1475601593823261    0.7902613240491394    0.1188924490851558 O
   0.6475601593823260    0.2902613240491393    0.1188924490851558 O
   0.6475601593823260    0.7902613240491394    0.1188924490851558 O
