Zn1 Ni16 O32                            
   1.00000000000000     
     8.0228209641838522   -0.0001563197557645    0.0000679959030952
     0.0002526161053548    8.0228483823650194   -0.0002460426008751
    -0.0001787372116255   -0.0001704922618236    8.0228439177535726
   Zn   Ni   O 
     1    16    32
Direct
  0.5000118250055732  0.5000055859066359  0.4999978618559246
  0.3746429474870349  0.8778648686346192  0.6253579779285056
  0.8778649077335519  0.6253574723379148  0.3746432456801280
  0.1247680546295667  0.8752316429629051  0.8752326641202014
  0.6253552741512974  0.6253585762272406  0.1221346059628579
  0.3746423887518745  0.3746425273909117  0.1221344517700054
  0.8752318087761940  0.1247664207071329  0.8752338405775053
  0.1221354636245059  0.3746410254104810  0.3746418955337502
  0.6253571166075956  0.1221361983755550  0.6253575303156677
  0.8752310737747010  0.8752324653977510  0.1247690135334976
  0.3746426288711101  0.6253564597365364  0.8778648832126390
  0.6253564214279698  0.8778648007160514  0.3746437388461851
  0.1221349596317390  0.6253556935062505  0.6253575576269857
  0.8778634806790792  0.3746410982299941  0.6253574639233351
  0.3746435762025251  0.1221355138802283  0.3746413431493480
  0.6253564869563260  0.3746425576289537  0.8778633264781427
  0.1247662170168673  0.1247667706789604  0.1247675297279510
  0.1098165302380289  0.8901842143735635  0.1098182093593051
  0.6398863334001940  0.6398865837873576  0.3601175468113638
  0.8604217781340864  0.8604193292011321  0.3596731897458602
  0.8604190221868749  0.6403286758120733  0.1395813895279307
  0.3900345709966521  0.8890445800430359  0.3900356420805632
  0.3900389434088121  0.1109587619161380  0.6099597525409789
  0.1395809997522965  0.8604198235676948  0.6403298514636350
  0.6099582886725230  0.1109571364797165  0.3900418947223226
  0.1109521099579073  0.3900361566232597  0.6099616292829892
  0.6403311800504269  0.1395860077058017  0.8604179756348430
  0.8604206204032950  0.3596717938451094  0.8604209109426837
  0.8604197218857642  0.1395805354684454  0.6403309306580344
  0.3900377740151845  0.3900378112582705  0.8890449176727188
  0.3900370793084204  0.6099629690775007  0.1109546374963076
  0.1395821813059846  0.3596679935565647  0.1395786623643617
  0.6099554078358266  0.6099547265874958  0.8890416904367466
  0.6099617339953597  0.8890468783864500  0.6099618467858328
  0.1395843269864002  0.6403318788995241  0.8604193317695452
  0.3596724662917481  0.8604216980985943  0.8604241413551703
  0.3601210366791351  0.6398835249091460  0.6398857996019633
  0.8901808842694477  0.8901796918419745  0.8901809998992170
  0.8901810617030281  0.1098175836086409  0.1098197823286609
  0.6403275783634881  0.8604200618019462  0.1395818384852405
  0.1098144097957661  0.1098140051515802  0.8901861119373671
  0.6099598847939317  0.3900417553771762  0.1109513171062587
  0.1395867011374332  0.1395813414504151  0.3596666418938322
  0.3601199874931312  0.3601144649174868  0.3601124507288134
  0.3596707678864936  0.1395785059357502  0.1395791480883656
  0.8890397639980100  0.3900374117273502  0.3900366288593467
  0.8890392120652068  0.6099612109531599  0.6099622707526580
  0.6398877172911130  0.3601156703936801  0.6398854768864415
  0.1109562943705160  0.6099575395158578  0.3900404525380138
 
  0.00000000E+00  0.00000000E+00  0.00000000E+00
  0.00000000E+00  0.00000000E+00  0.00000000E+00
  0.00000000E+00  0.00000000E+00  0.00000000E+00
  0.00000000E+00  0.00000000E+00  0.00000000E+00
  0.00000000E+00  0.00000000E+00  0.00000000E+00
  0.00000000E+00  0.00000000E+00  0.00000000E+00
  0.00000000E+00  0.00000000E+00  0.00000000E+00
  0.00000000E+00  0.00000000E+00  0.00000000E+00
  0.00000000E+00  0.00000000E+00  0.00000000E+00
  0.00000000E+00  0.00000000E+00  0.00000000E+00
  0.00000000E+00  0.00000000E+00  0.00000000E+00
  0.00000000E+00  0.00000000E+00  0.00000000E+00
  0.00000000E+00  0.00000000E+00  0.00000000E+00
  0.00000000E+00  0.00000000E+00  0.00000000E+00
  0.00000000E+00  0.00000000E+00  0.00000000E+00
  0.00000000E+00  0.00000000E+00  0.00000000E+00
  0.00000000E+00  0.00000000E+00  0.00000000E+00
  0.00000000E+00  0.00000000E+00  0.00000000E+00
  0.00000000E+00  0.00000000E+00  0.00000000E+00
  0.00000000E+00  0.00000000E+00  0.00000000E+00
  0.00000000E+00  0.00000000E+00  0.00000000E+00
  0.00000000E+00  0.00000000E+00  0.00000000E+00
  0.00000000E+00  0.00000000E+00  0.00000000E+00
  0.00000000E+00  0.00000000E+00  0.00000000E+00
  0.00000000E+00  0.00000000E+00  0.00000000E+00
  0.00000000E+00  0.00000000E+00  0.00000000E+00
  0.00000000E+00  0.00000000E+00  0.00000000E+00
  0.00000000E+00  0.00000000E+00  0.00000000E+00
  0.00000000E+00  0.00000000E+00  0.00000000E+00
  0.00000000E+00  0.00000000E+00  0.00000000E+00
  0.00000000E+00  0.00000000E+00  0.00000000E+00
  0.00000000E+00  0.00000000E+00  0.00000000E+00
  0.00000000E+00  0.00000000E+00  0.00000000E+00
  0.00000000E+00  0.00000000E+00  0.00000000E+00
  0.00000000E+00  0.00000000E+00  0.00000000E+00
  0.00000000E+00  0.00000000E+00  0.00000000E+00
  0.00000000E+00  0.00000000E+00  0.00000000E+00
  0.00000000E+00  0.00000000E+00  0.00000000E+00
  0.00000000E+00  0.00000000E+00  0.00000000E+00
  0.00000000E+00  0.00000000E+00  0.00000000E+00
  0.00000000E+00  0.00000000E+00  0.00000000E+00
  0.00000000E+00  0.00000000E+00  0.00000000E+00
  0.00000000E+00  0.00000000E+00  0.00000000E+00
  0.00000000E+00  0.00000000E+00  0.00000000E+00
  0.00000000E+00  0.00000000E+00  0.00000000E+00
  0.00000000E+00  0.00000000E+00  0.00000000E+00
  0.00000000E+00  0.00000000E+00  0.00000000E+00
  0.00000000E+00  0.00000000E+00  0.00000000E+00
  0.00000000E+00  0.00000000E+00  0.00000000E+00
