Na64 Mn32 O96
1.0
10.347997 0.000000 0.000000
0.000000 17.931614 0.000000
-3.540894 0.000000 10.566164
Na Mn O
63 32 96
direct
0.500000 0.671478 0.500000 Na
0.000000 0.000000 0.000000 Na
1.000000 0.000000 0.500000 Na
0.000000 0.500000 0.000000 Na
1.000000 0.500000 0.500000 Na
0.500000 0.000000 0.000000 Na
0.500000 0.000000 0.500000 Na
0.500000 0.500000 0.000000 Na
0.500000 0.500000 0.500000 Na
0.000000 0.328522 0.000000 Na
1.000000 0.328522 0.500000 Na
0.000000 0.828522 0.000000 Na
1.000000 0.828522 0.500000 Na
0.500000 0.328522 0.000000 Na
0.500000 0.328522 0.500000 Na
0.500000 0.828522 0.000000 Na
0.500000 0.828522 0.500000 Na
0.250000 0.421478 0.000000 Na
0.250000 0.421478 0.500000 Na
0.250000 0.921478 0.000000 Na
0.250000 0.921478 0.500000 Na
0.750000 0.421478 0.000000 Na
0.750000 0.421478 0.500000 Na
0.750000 0.921478 0.000000 Na
0.750000 0.921478 0.500000 Na
0.250000 0.000000 0.250000 Na
0.250000 0.000000 0.750000 Na
0.250000 0.500000 0.250000 Na
0.250000 0.500000 0.750000 Na
0.750000 0.000000 0.250000 Na
0.750000 0.000000 0.750000 Na
0.750000 0.500000 0.250000 Na
0.750000 0.500000 0.750000 Na
0.250000 0.250000 0.000000 Na
0.250000 0.250000 0.500000 Na
0.250000 0.750000 0.000000 Na
0.250000 0.750000 0.500000 Na
0.750000 0.250000 0.000000 Na
0.750000 0.250000 0.500000 Na
0.750000 0.750000 0.000000 Na
0.250000 0.078522 0.000000 Na
0.250000 0.078522 0.500000 Na
0.250000 0.578522 0.000000 Na
0.250000 0.578522 0.500000 Na
0.750000 0.078522 0.000000 Na
0.750000 0.078522 0.500000 Na
0.750000 0.578522 0.000000 Na
0.750000 0.578522 0.500000 Na
0.000000 0.171478 0.000000 Na
1.000000 0.171478 0.500000 Na
0.000000 0.671478 0.000000 Na
1.000000 0.671478 0.500000 Na
0.500000 0.171478 0.000000 Na
0.500000 0.171478 0.500000 Na
0.500000 0.671478 0.000000 Na
1.000000 0.250000 0.250000 Na
0.000000 0.250000 0.750000 Na
1.000000 0.750000 0.250000 Na
0.000000 0.750000 0.750000 Na
0.500000 0.250000 0.250000 Na
0.500000 0.250000 0.750000 Na
0.500000 0.750000 0.250000 Na
0.500000 0.750000 0.750000 Na
1.000000 0.416317 0.250000 Mn
0.000000 0.416317 0.750000 Mn
1.000000 0.916317 0.250000 Mn
0.000000 0.916317 0.750000 Mn
0.500000 0.416317 0.250000 Mn
0.500000 0.416317 0.750000 Mn
0.500000 0.916317 0.250000 Mn
0.500000 0.916317 0.750000 Mn
0.250000 0.333683 0.250000 Mn
0.250000 0.333683 0.750000 Mn
0.250000 0.833683 0.250000 Mn
0.250000 0.833683 0.750000 Mn
0.750000 0.333683 0.250000 Mn
0.750000 0.333683 0.750000 Mn
0.750000 0.833683 0.250000 Mn
0.750000 0.833683 0.750000 Mn
0.250000 0.166317 0.250000 Mn
0.250000 0.166317 0.750000 Mn
0.250000 0.666317 0.250000 Mn
0.250000 0.666317 0.750000 Mn
0.750000 0.166317 0.250000 Mn
0.750000 0.166317 0.750000 Mn
0.750000 0.666317 0.250000 Mn
0.750000 0.666317 0.750000 Mn
1.000000 0.083683 0.250000 Mn
0.000000 0.083683 0.750000 Mn
1.000000 0.583683 0.250000 Mn
0.000000 0.583683 0.750000 Mn
0.500000 0.083683 0.250000 Mn
0.500000 0.083683 0.750000 Mn
0.500000 0.583683 0.250000 Mn
0.500000 0.583683 0.750000 Mn
0.127998 0.343930 0.350261 O
0.127998 0.343930 0.850261 O
0.127998 0.843930 0.350261 O
0.127998 0.843930 0.850261 O
0.627998 0.343930 0.350261 O
0.627998 0.343930 0.850261 O
0.627998 0.843930 0.350261 O
0.627998 0.843930 0.850261 O
0.122002 0.406070 0.149739 O
0.122002 0.406070 0.649739 O
0.122002 0.906070 0.149739 O
0.122002 0.906070 0.649739 O
0.622002 0.406070 0.149739 O
0.622002 0.406070 0.649739 O
0.622002 0.906070 0.149739 O
0.622002 0.906070 0.649739 O
0.403139 0.000000 0.149629 O
0.403139 0.000000 0.649629 O
0.403139 0.500000 0.149629 O
0.403139 0.500000 0.649629 O
0.903139 0.000000 0.149629 O
0.903139 0.000000 0.649629 O
0.903139 0.500000 0.149629 O
0.903139 0.500000 0.649629 O
0.377998 0.406070 0.350261 O
0.377998 0.406070 0.850261 O
0.377998 0.906070 0.350261 O
0.377998 0.906070 0.850261 O
0.877998 0.406070 0.350261 O
0.877998 0.406070 0.850261 O
0.877998 0.906070 0.350261 O
0.877998 0.906070 0.850261 O
0.372002 0.343930 0.149739 O
0.372002 0.343930 0.649739 O
0.372002 0.843930 0.149739 O
0.372002 0.843930 0.649739 O
0.872002 0.343930 0.149739 O
0.872002 0.343930 0.649739 O
0.872002 0.843930 0.149739 O
0.872002 0.843930 0.649739 O
0.096861 0.000000 0.350371 O
0.096861 0.000000 0.850371 O
0.096861 0.500000 0.350371 O
0.096861 0.500000 0.850371 O
0.596861 0.000000 0.350371 O
0.596861 0.000000 0.850371 O
0.596861 0.500000 0.350371 O
0.596861 0.500000 0.850371 O
0.377998 0.093930 0.350261 O
0.377998 0.093930 0.850261 O
0.377998 0.593930 0.350261 O
0.377998 0.593930 0.850261 O
0.877998 0.093930 0.350261 O
0.877998 0.093930 0.850261 O
0.877998 0.593930 0.350261 O
0.877998 0.593930 0.850261 O
0.372002 0.156070 0.149739 O
0.372002 0.156070 0.649739 O
0.372002 0.656070 0.149739 O
0.372002 0.656070 0.649739 O
0.872002 0.156070 0.149739 O
0.872002 0.156070 0.649739 O
0.872002 0.656070 0.149739 O
0.872002 0.656070 0.649739 O
0.153139 0.250000 0.149629 O
0.153139 0.250000 0.649629 O
0.153139 0.750000 0.149629 O
0.153139 0.750000 0.649629 O
0.653139 0.250000 0.149629 O
0.653139 0.250000 0.649629 O
0.653139 0.750000 0.149629 O
0.653139 0.750000 0.649629 O
0.127998 0.156070 0.350261 O
0.127998 0.156070 0.850261 O
0.127998 0.656070 0.350261 O
0.127998 0.656070 0.850261 O
0.627998 0.156070 0.350261 O
0.627998 0.156070 0.850261 O
0.627998 0.656070 0.350261 O
0.627998 0.656070 0.850261 O
0.122002 0.093930 0.149739 O
0.122002 0.093930 0.649739 O
0.122002 0.593930 0.149739 O
0.122002 0.593930 0.649739 O
0.622002 0.093930 0.149739 O
0.622002 0.093930 0.649739 O
0.622002 0.593930 0.149739 O
0.622002 0.593930 0.649739 O
0.346861 0.250000 0.350371 O
0.346861 0.250000 0.850371 O
0.346861 0.750000 0.350371 O
0.346861 0.750000 0.850371 O
0.846861 0.250000 0.350371 O
0.846861 0.250000 0.850371 O
0.846861 0.750000 0.350371 O
0.846861 0.750000 0.850371 O
