Na14 P6 O22                             
   1.00000000000000     
     5.6123047272829192    0.0549809745853110    0.0524200701311907
    -2.2462415640398299   10.4261196207795006   -0.0580547021229674
    -2.6341616080958667   -3.8627299291463140    9.9062277927079965
   Na   P    O 
    13     6    22
Direct
  0.5752708004308438  0.6743092478231595  0.0711624908767291
  0.1955103533729405  0.0097074700041990  0.7905930516347532
  0.6822905738385037  0.3115672030874492  0.5024083320936320
  0.5796711744112106  0.8524415592997501  0.8701029795077379
  0.6708702730047794  0.0692453207933536  0.6451713589916883
  0.3291426486058302  0.9307609975538885  0.3548342006788351
  0.8044837407640235  0.9902881923847446  0.2094059688411738
  0.9987497116127457  0.5364505344027605  0.1418737828725666
  0.9888564255908195  0.6751688862249402  0.6851270559210799
  0.0012397703043243  0.4635482241440305  0.8581284427901416
  0.4203229509865032  0.1475573140997103  0.1299014490903736
  0.3177234680522810  0.6884375976136295  0.4975893096194928
  0.0111453518843169  0.3248340768493272  0.3148784078085030
  0.5456274017132491  0.4953372900120474  0.2919439857633243
  0.8497173259808830  0.7966187797346359  0.4496244913798996
  0.8671255245638647  0.1810666387580783  0.9711966520487995
  0.1328712582774243  0.8189323653397667  0.0288059865704665
  0.4543736098154705  0.5046658088198488  0.7080573092337431
  0.1502968225163473  0.2033791042687750  0.5503787815101542
  0.9116223798226331  0.8146460999396886  0.3265038970877164
  0.2878863488526286  0.5107564732997283  0.3096737453905539
  0.7667066948359685  0.6266033521079407  0.4191405082518656
  0.3747670126473874  0.1510055323689903  0.5215157191990112
  0.5802547595631772  0.5053202796931764  0.1606950050462160
  0.4197303329819472  0.4946721336778773  0.8392930512182402
  0.6252545720754974  0.8490036591389928  0.4784855814893322
  0.0831059180837628  0.8414594481295711  0.5763809803861152
  0.3512690046168901  0.9350415594187377  0.1523797892786947
  0.1335815514477312  0.1672240905301657  0.9626089159577665
  0.6060617500756970  0.3695051219981605  0.3177288309527716
  0.9169107066453248  0.1585405551506037  0.4236142823766006
  0.2332843761249269  0.3733957618652288  0.5808495191750929
  0.8305693037096654  0.1666566740411480  0.1039641594854712
  0.6487258041441701  0.0649577117638091  0.8476240584395266
  0.8664111748754059  0.8327710922025167  0.0373932256327140
  0.0883870009360035  0.1853522329752853  0.6734873915624959
  0.8475739983496188  0.3237545874311745  0.9655650734414571
  0.7121055014711877  0.4892471472226013  0.6903237222722851
  0.3939325557222297  0.6304917102099802  0.6822704052428640
  0.1694226099560696  0.8333436148909337  0.8960396998604937
  0.1524253010635734  0.6762458381856863  0.0344404105921412
 
  0.00000000E+00  0.00000000E+00  0.00000000E+00
  0.00000000E+00  0.00000000E+00  0.00000000E+00
  0.00000000E+00  0.00000000E+00  0.00000000E+00
  0.00000000E+00  0.00000000E+00  0.00000000E+00
  0.00000000E+00  0.00000000E+00  0.00000000E+00
  0.00000000E+00  0.00000000E+00  0.00000000E+00
  0.00000000E+00  0.00000000E+00  0.00000000E+00
  0.00000000E+00  0.00000000E+00  0.00000000E+00
  0.00000000E+00  0.00000000E+00  0.00000000E+00
  0.00000000E+00  0.00000000E+00  0.00000000E+00
  0.00000000E+00  0.00000000E+00  0.00000000E+00
  0.00000000E+00  0.00000000E+00  0.00000000E+00
  0.00000000E+00  0.00000000E+00  0.00000000E+00
  0.00000000E+00  0.00000000E+00  0.00000000E+00
  0.00000000E+00  0.00000000E+00  0.00000000E+00
  0.00000000E+00  0.00000000E+00  0.00000000E+00
  0.00000000E+00  0.00000000E+00  0.00000000E+00
  0.00000000E+00  0.00000000E+00  0.00000000E+00
  0.00000000E+00  0.00000000E+00  0.00000000E+00
  0.00000000E+00  0.00000000E+00  0.00000000E+00
  0.00000000E+00  0.00000000E+00  0.00000000E+00
  0.00000000E+00  0.00000000E+00  0.00000000E+00
  0.00000000E+00  0.00000000E+00  0.00000000E+00
  0.00000000E+00  0.00000000E+00  0.00000000E+00
  0.00000000E+00  0.00000000E+00  0.00000000E+00
  0.00000000E+00  0.00000000E+00  0.00000000E+00
  0.00000000E+00  0.00000000E+00  0.00000000E+00
  0.00000000E+00  0.00000000E+00  0.00000000E+00
  0.00000000E+00  0.00000000E+00  0.00000000E+00
  0.00000000E+00  0.00000000E+00  0.00000000E+00
  0.00000000E+00  0.00000000E+00  0.00000000E+00
  0.00000000E+00  0.00000000E+00  0.00000000E+00
  0.00000000E+00  0.00000000E+00  0.00000000E+00
  0.00000000E+00  0.00000000E+00  0.00000000E+00
  0.00000000E+00  0.00000000E+00  0.00000000E+00
  0.00000000E+00  0.00000000E+00  0.00000000E+00
  0.00000000E+00  0.00000000E+00  0.00000000E+00
  0.00000000E+00  0.00000000E+00  0.00000000E+00
  0.00000000E+00  0.00000000E+00  0.00000000E+00
  0.00000000E+00  0.00000000E+00  0.00000000E+00
  0.00000000E+00  0.00000000E+00  0.00000000E+00
  0.00000000E+00  0.00000000E+00  0.00000000E+00
