Na24 I8 O8
1.0
   9.4826967778692772    0.0000007343882056    0.0000006816936966
   0.0000007337463556    9.4826982080827094   -0.0000000679008680
   0.0000006836275016   -0.0000000672207450    9.4826994478757261
Na I O
23 8 8
direct
   0.2500000046892517    0.5000000005516867    0.7500000059101133 Na
   0.4999999968734661    0.2499999984295940    0.2500000015232153 Na
   0.4999999968734661    0.2499999984295939    0.7500000015232153 Na
   0.4999999968734662    0.7499999984295940    0.2500000015232153 Na
   0.9999999968734663    0.2499999984295939    0.2500000015232153 Na
   0.9999999968734661    0.2499999984295940    0.7500000015232154 Na
   0.9999999968734662    0.7499999984295940    0.2500000015232153 Na
   0.9999999968734661    0.7499999984295940    0.7500000015232152 Na
   0.2500000046892517    0.0000000005516867    0.2500000059101133 Na
   0.2500000046892517    0.0000000005516867    0.7500000059101133 Na
   0.2500000046892516    0.5000000005516867    0.2500000059101133 Na
   0.7500000046892515    0.0000000005516867    0.2500000059101132 Na
   0.7500000046892517    0.0000000005516867    0.7500000059101133 Na
   0.7500000046892517    0.5000000005516867    0.2500000059101133 Na
   0.7500000046892515    0.5000000005516867    0.7500000059101133 Na
   0.2500000042009133    0.2500000021505926    0.0000000004918270 Na
   0.2500000042009133    0.2500000021505926    0.5000000004918270 Na
   0.2500000042009133    0.7500000021505926    0.0000000004918270 Na
   0.2500000042009134    0.7500000021505926    0.5000000004918270 Na
   0.7500000042009134    0.2500000021505926    0.0000000004918270 Na
   0.7500000042009132    0.2500000021505926    0.5000000004918270 Na
   0.7500000042009133    0.7500000021505926    0.0000000004918270 Na
   0.7500000042009133    0.7500000021505925    0.5000000004918270 Na
   0.4999999900061204    0.4999999894105329    0.0000000083722505 I
   0.4999999900061204    0.4999999894105329    0.5000000083722504 I
   0.4999999900061205    0.9999999894105327    0.0000000083722504 I
   0.4999999900061204    0.9999999894105329    0.5000000083722504 I
   0.9999999900061204    0.4999999894105329    0.0000000083722505 I
   0.9999999900061205    0.4999999894105329    0.5000000083722504 I
   0.9999999900061204    0.9999999894105330    0.0000000083722505 I
   0.9999999900061205    0.9999999894105329    0.5000000083722504 I
   0.2500000042302482    0.2500000094575938    0.2499999837025939 O
   0.2500000042302480    0.2500000094575938    0.7499999837025939 O
   0.2500000042302480    0.7500000094575938    0.2499999837025939 O
   0.2500000042302481    0.7500000094575937    0.7499999837025939 O
   0.7500000042302480    0.2500000094575938    0.2499999837025939 O
   0.7500000042302479    0.2500000094575939    0.7499999837025940 O
   0.7500000042302482    0.7500000094575938    0.2499999837025939 O
   0.7500000042302480    0.7500000094575938    0.7499999837025938 O
