Ca7 Ni16 F48                            
   1.00000000000000     
    11.2070790000000002   -0.0000360000000000   -0.0094630000000000
    -0.0000170000000000    7.6787320000000001    0.0001160000000000
    -0.0082780000000000    0.0001640000000000   10.7101199999999999
   Ca   Ni   F 
     7    16    48
Direct
  0.4868448501434329  0.7499984704580939  0.5225662093568496
  0.0238441788362049  0.2500027069133079  0.4915711731654864
  0.0407520278341547  0.2499977547762820  0.9782443921064391
  0.5396732844578143  0.2499949346380579  0.9926848618433770
  0.2124091286897918  0.7499973886742402  0.2411147830675841
  0.2080565818921319  0.7499965450452418  0.7443020913752694
  0.7146322391171334  0.7499917504019644  0.2358140683293649
  0.4982295689247375  0.4899160709515203  0.2586462868306555
  0.5070988738208787  0.4951374845101650  0.7537817881354333
  0.9940460170860278  0.4994253695055917  0.2453392559154105
  0.9851620419407683  0.5052594212299991  0.7457400583243998
  0.2547084017992769  0.0086480733493307  0.5012799967668891
  0.2615684379942512 -0.0013915903683630  1.0027834100985162
  0.7521847058646384  0.0067293274382057  0.5022907645351155
  0.7558612729251730  0.9963613906250968  0.9960045043300418
  0.4982239038581691  0.0100773313740232  0.2586436328033248
  0.5070935711851183  0.0048690525930889  0.7537903540239993
  0.9940518567185722  0.0005721021356670  0.2453304162678878
  0.9851719634698475  0.9947379948717797  0.7457491080512700
  0.2547063968175453  0.4913543739624502  0.5012819866764781
  0.2615711617268305  0.5013883701638969  1.0027834345859374
  0.7521873382219542  0.4932835278154601  0.5022934564428371
  0.7558637689093625  0.5036369214547836  0.9960033069139581
  0.4825207151400197  0.2500059940496283  0.1967782018361191
  0.4802058125932585  0.2500076290763543  0.7243848358132874
  0.9896247966094321  0.2500094979858446  0.1853358529941735
  0.9923330830828683  0.2500086024457355  0.7009774974444529
  0.2368167059007728  0.2499970525500675  0.0431027258473234
  0.2240814806735008  0.2499985872207255  0.5510210964389518
  0.7424366240573073  0.2500033813583393  0.0442774078327402
  0.7699092158030856  0.2500133754401981  0.5435674409614447
  0.0152190224757499  0.7499927581122556  0.2954653596388916
  0.0100928839936182  0.7499895447670842  0.7943583430249156
  0.5164399381376924  0.7499914033976091  0.3071124414516891
  0.5196841696294781  0.7499892258931719  0.7687564133610284
  0.2721496327031586  0.7499970154940140  0.4483242566367039
  0.2686752621248970  0.7500002901481947  0.9471986405922199
  0.7412450949799269  0.7499760894504852  0.4546186874268839
  0.7529574921983075  0.7499983065615130  0.9572550097178392
  0.3478927037487485  0.5546633336504367  0.1645809766894923
  0.3533950857784383  0.5670452159943976  0.6531497099804583
  0.8483491385366128  0.5581938181574631  0.1503827388367343
  0.8462137310350289  0.5506624999394992  0.6461827374552404
  0.1100045717478580  0.9499111899073092  0.1032556719972978
  0.1066370526927719  0.9495572265265443  0.6041944360497811
  0.6040399243829088  0.9598888007763968  0.1066813559073142
  0.5983612789642134  0.9733346720597910  0.5960905955008311
  0.1437239533646918  0.0480409943468408  0.3536207730847453
  0.1452832748568547  0.0349518881016926  0.8528709062589486
  0.6587357890581665  0.0260505656195048  0.3453732432039756
  0.6449424613533871  0.0621785628640263  0.8609435533025332
  0.4113057605827793  0.4750503142402592  0.4181097926152640
  0.4110163857033251  0.4557718658393253  0.9120189423086806
  0.9040958961160137  0.4525098030431376  0.4009310323548841
  0.9047074312049060  0.4455275591072415  0.9051840695713420
  0.1437300293337910  0.4519710293733680  0.3536169932115919
  0.1452851226902563  0.4650502847723844  0.8528691755013410
  0.6587484222469864  0.4739700558697426  0.3453892216571710
  0.6449403387807007  0.4378223611632795  0.8609477220667020
  0.4113048241755562  0.0249516122005670  0.4181081716330601
  0.4110142618475379  0.0442226778710360  0.9120147432245725
  0.9040973023923015  0.0474989034478639  0.4009195407213446
  0.9047078326047664  0.0544725624639091  0.9051817979920448
  0.3478946588931436  0.9453305319736569  0.1645763225771654
  0.3533979972223182  0.9329551146847495  0.6531461149072582
  0.8483506830018642  0.9418071981972892  0.1503817876506444
  0.8462196974788712  0.9493343098046774  0.6461871734368896
  0.1100045866217171  0.5500909875899214  0.1032502734859666
  0.1066361736006190  0.5504385297500746  0.6041934675736117
  0.6040411068451126  0.5401112213141941  0.1066824532706506
  0.5983637445353197  0.5266717947860990  0.5960860935142992
 
             NaN             NaN             NaN
             NaN             NaN             NaN
             NaN             NaN             NaN
             NaN             NaN             NaN
             NaN             NaN             NaN
             NaN             NaN             NaN
             NaN             NaN             NaN
             NaN             NaN             NaN
             NaN             NaN             NaN
             NaN             NaN             NaN
             NaN             NaN             NaN
             NaN             NaN             NaN
             NaN             NaN             NaN
             NaN             NaN             NaN
             NaN             NaN             NaN
             NaN             NaN             NaN
             NaN             NaN             NaN
             NaN             NaN             NaN
             NaN             NaN             NaN
             NaN             NaN             NaN
             NaN             NaN             NaN
             NaN             NaN             NaN
             NaN             NaN             NaN
             NaN             NaN             NaN
             NaN             NaN             NaN
             NaN             NaN             NaN
             NaN             NaN             NaN
             NaN             NaN             NaN
             NaN             NaN             NaN
             NaN             NaN             NaN
             NaN             NaN             NaN
             NaN             NaN             NaN
             NaN             NaN             NaN
             NaN             NaN             NaN
             NaN             NaN             NaN
             NaN             NaN             NaN
             NaN             NaN             NaN
             NaN             NaN             NaN
             NaN             NaN             NaN
             NaN             NaN             NaN
             NaN             NaN             NaN
             NaN             NaN             NaN
             NaN             NaN             NaN
             NaN             NaN             NaN
             NaN             NaN             NaN
             NaN             NaN             NaN
             NaN             NaN             NaN
             NaN             NaN             NaN
             NaN             NaN             NaN
             NaN             NaN             NaN
             NaN             NaN             NaN
             NaN             NaN             NaN
             NaN             NaN             NaN
             NaN             NaN             NaN
             NaN             NaN             NaN
             NaN             NaN             NaN
             NaN             NaN             NaN
             NaN             NaN             NaN
             NaN             NaN             NaN
             NaN             NaN             NaN
             NaN             NaN             NaN
             NaN             NaN             NaN
             NaN             NaN             NaN
             NaN             NaN             NaN
             NaN             NaN             NaN
             NaN             NaN             NaN
             NaN             NaN             NaN
             NaN             NaN             NaN
             NaN             NaN             NaN
             NaN             NaN             NaN
             NaN             NaN             NaN
