Ca7 Ni16 F48
1.0
11.207079 -0.000036 -0.009463
-0.000017 7.678732 0.000116
-0.008278 0.000164 10.710120
Ca Ni F
7 16 48
direct
0.506887 0.750006 0.540189 Ca
0.031631 0.250001 0.489087 Ca
0.038029 0.249994 0.983837 Ca
0.540473 0.249984 0.988060 Ca
0.209821 0.749994 0.233235 Ca
0.209960 0.749984 0.741841 Ca
0.714755 0.750005 0.238727 Ca
0.496888 0.490408 0.253734 Ni
0.504430 0.496446 0.749902 Ni
0.990610 0.499465 0.249386 Ni
0.985504 0.504179 0.744767 Ni
0.255086 0.008275 0.497362 Ni
0.259387 0.001047 0.999361 Ni
0.749635 0.007661 0.503854 Ni
0.755373 0.995520 0.995711 Ni
0.496883 0.009587 0.253734 Ni
0.504432 0.003566 0.749899 Ni
0.990608 0.000540 0.249395 Ni
0.985502 0.995818 0.744768 Ni
0.255090 0.491726 0.497365 Ni
0.259394 0.498952 0.999368 Ni
0.749640 0.492337 0.503864 Ni
0.755369 0.504486 0.995712 Ni
0.482901 0.250000 0.192414 F
0.487994 0.249997 0.710886 F
0.985349 0.250007 0.189678 F
0.987819 0.249995 0.694687 F
0.234821 0.249997 0.044793 F
0.229143 0.249997 0.550493 F
0.740591 0.250001 0.043568 F
0.738114 0.250002 0.548310 F
0.014694 0.749998 0.297863 F
0.013924 0.749998 0.795161 F
0.512908 0.749996 0.298663 F
0.504109 0.750003 0.784903 F
0.267329 0.750001 0.441016 F
0.264111 0.750004 0.946256 F
0.754538 0.749996 0.449204 F
0.761380 0.749997 0.952199 F
0.346590 0.554291 0.159464 F
0.350729 0.567053 0.648583 F
0.847970 0.556797 0.151215 F
0.843518 0.552305 0.651151 F
0.106475 0.953580 0.103056 F
0.106170 0.950739 0.602817 F
0.604781 0.961387 0.102998 F
0.599115 0.951142 0.597888 F
0.142528 0.052424 0.352746 F
0.143603 0.041348 0.851732 F
0.656222 0.019525 0.342341 F
0.643585 0.054269 0.858564 F
0.409912 0.471673 0.412901 F
0.407368 0.447042 0.906809 F
0.901476 0.443847 0.405992 F
0.903905 0.445246 0.903535 F
0.142530 0.447598 0.352745 F
0.143613 0.458670 0.851732 F
0.656214 0.480477 0.342343 F
0.643595 0.445729 0.858572 F
0.409914 0.028334 0.412908 F
0.407364 0.052955 0.906801 F
0.901484 0.056151 0.406003 F
0.903904 0.054751 0.903529 F
0.346583 0.945707 0.159467 F
0.350731 0.932946 0.648587 F
0.847974 0.943208 0.151222 F
0.843533 0.947680 0.651163 F
0.106481 0.546432 0.103053 F
0.106175 0.549250 0.602812 F
0.604783 0.538609 0.103001 F
0.599120 0.548865 0.597883 F
