Ca8 Sc16 S32                            
   1.00000000000000     
    11.0541921889758719   -0.0000001355645193    0.0000002581214375
    -0.0000001360889471   11.0541919282942498   -0.0000005532284640
     0.0000002584422298   -0.0000005533443815   11.0541952675010418
Ca   Sc   Ca   S 
1    16     6    32
Direct
  0.7499999580174403  0.2500000001997407  0.2499999830482338
  0.1250043794439293  0.8749956717365706  0.8749956318139169
  0.8749957043073451  0.1250043012815638  0.8749957039396961
  0.8749956714866087  0.8749957521505252  0.1250042886440568
  0.1250043814356872  0.1250043746839751  0.1250043433691772
  0.1250042997730958  0.3749956439520261  0.3749955995808847
  0.8749956640867893  0.6250043726917696  0.3749955985715587
  0.8749955995189680  0.3749956201644906  0.6250044443717755
  0.1250042710622594  0.6250043151162430  0.6250043968180776
  0.6250044586170631  0.8749956913657826  0.3749956014335964
  0.3749956355567221  0.1250042718378950  0.3749956020792951
  0.3749956881697472  0.8749956409877626  0.6250044537879305
  0.6250043617225813  0.1250042876992197  0.6250043984823677
  0.6250043694403189  0.3749956476366734  0.8749956771671918
  0.3749956009331470  0.6250043146990478  0.8749956537730910
  0.3749956163973920  0.3749956617285051  0.1250042144099623
  0.6250043367748219  0.6250043964718657  0.1250043014202902
  0.7499999883664401  0.7500000712831252  0.7499999768308285
  0.5000000081365243  0.0000000544348140  0.0000000045117972
  0.2499999827798050  0.7500000138099878  0.2499999827330655
  0.0000000249359573  0.4999999552775876  0.0000000009174315
  0.2500000713391941  0.2500000103957447  0.7500000210126458
  0.9999999774131112  0.9999998621734889  0.5000000314595425
  0.8893898438756196  0.1106101623426383  0.1106101290571928
  0.1106101199178511  0.8893899165887262  0.1106100949118343
  0.1106101764014795  0.1106101124064196  0.8893899057963353
  0.8893898862554366  0.8893899522992683  0.8893898919803505
  0.3606145199543320  0.1393854805347416  0.1393854457473225
  0.1393854722383807  0.3606144977861589  0.1393854867173516
  0.1393854373988148  0.1393854720131387  0.3606144859272646
  0.3606145117792465  0.3606145123426856  0.3606144545937582
  0.8893898981125261  0.6106101699463480  0.6106100434473518
  0.1106101214486372  0.3893899403204699  0.6106101131704520
  0.1106101028597095  0.6106101002701863  0.3893899367625338
  0.8893898782380987  0.3893899281170121  0.3893898738209458
  0.3606144679323933  0.6393854445002702  0.6393855504822810
  0.1393854819910416  0.8606144621746807  0.6393855758958935
  0.1393855094967265  0.6393854878330671  0.8606144974097631
  0.3606145088671795  0.8606145482880763  0.8606145343696170
  0.3893898975780772  0.1106101043277263  0.6106101769884518
  0.6106101341589323  0.8893898853546673  0.6106101071607668
  0.6106101204877135  0.1106100699832524  0.3893898575813424
  0.3893898942171461  0.8893898665739997  0.3893898659842208
  0.8606145234082945  0.1393854439143993  0.6393855105529127
  0.6393854826315319  0.3606144527159998  0.6393855441219785
  0.6393854840645687  0.1393854785788662  0.8606144990410911
  0.8606145018377234  0.3606144637125936  0.8606145306839750
  0.3893898844107540  0.6106101421015637  0.1106101192943569
  0.6106101060559794  0.3893898493219865  0.1106101182499515
  0.6106101169560318  0.6106101465690372  0.8893898852560653
  0.3893898631208614  0.3893898559862379  0.8893899193985817
  0.8606144783601408  0.6393855193962850  0.1393855267817585
  0.6393854829666168  0.8606145515648649  0.1393854834800408
  0.6393855231544308  0.6393855450878689  0.3606144686171575
  0.8606145009157160  0.8606145081700660  0.3606144660448578
 
  0.00000000E+00  0.00000000E+00  0.00000000E+00
  0.00000000E+00  0.00000000E+00  0.00000000E+00
  0.00000000E+00  0.00000000E+00  0.00000000E+00
  0.00000000E+00  0.00000000E+00  0.00000000E+00
  0.00000000E+00  0.00000000E+00  0.00000000E+00
  0.00000000E+00  0.00000000E+00  0.00000000E+00
  0.00000000E+00  0.00000000E+00  0.00000000E+00
  0.00000000E+00  0.00000000E+00  0.00000000E+00
  0.00000000E+00  0.00000000E+00  0.00000000E+00
  0.00000000E+00  0.00000000E+00  0.00000000E+00
  0.00000000E+00  0.00000000E+00  0.00000000E+00
  0.00000000E+00  0.00000000E+00  0.00000000E+00
  0.00000000E+00  0.00000000E+00  0.00000000E+00
  0.00000000E+00  0.00000000E+00  0.00000000E+00
  0.00000000E+00  0.00000000E+00  0.00000000E+00
  0.00000000E+00  0.00000000E+00  0.00000000E+00
  0.00000000E+00  0.00000000E+00  0.00000000E+00
  0.00000000E+00  0.00000000E+00  0.00000000E+00
  0.00000000E+00  0.00000000E+00  0.00000000E+00
  0.00000000E+00  0.00000000E+00  0.00000000E+00
  0.00000000E+00  0.00000000E+00  0.00000000E+00
  0.00000000E+00  0.00000000E+00  0.00000000E+00
  0.00000000E+00  0.00000000E+00  0.00000000E+00
  0.00000000E+00  0.00000000E+00  0.00000000E+00
  0.00000000E+00  0.00000000E+00  0.00000000E+00
  0.00000000E+00  0.00000000E+00  0.00000000E+00
  0.00000000E+00  0.00000000E+00  0.00000000E+00
  0.00000000E+00  0.00000000E+00  0.00000000E+00
  0.00000000E+00  0.00000000E+00  0.00000000E+00
  0.00000000E+00  0.00000000E+00  0.00000000E+00
  0.00000000E+00  0.00000000E+00  0.00000000E+00
  0.00000000E+00  0.00000000E+00  0.00000000E+00
  0.00000000E+00  0.00000000E+00  0.00000000E+00
  0.00000000E+00  0.00000000E+00  0.00000000E+00
  0.00000000E+00  0.00000000E+00  0.00000000E+00
  0.00000000E+00  0.00000000E+00  0.00000000E+00
  0.00000000E+00  0.00000000E+00  0.00000000E+00
  0.00000000E+00  0.00000000E+00  0.00000000E+00
  0.00000000E+00  0.00000000E+00  0.00000000E+00
  0.00000000E+00  0.00000000E+00  0.00000000E+00
  0.00000000E+00  0.00000000E+00  0.00000000E+00
  0.00000000E+00  0.00000000E+00  0.00000000E+00
  0.00000000E+00  0.00000000E+00  0.00000000E+00
  0.00000000E+00  0.00000000E+00  0.00000000E+00
  0.00000000E+00  0.00000000E+00  0.00000000E+00
  0.00000000E+00  0.00000000E+00  0.00000000E+00
  0.00000000E+00  0.00000000E+00  0.00000000E+00
  0.00000000E+00  0.00000000E+00  0.00000000E+00
  0.00000000E+00  0.00000000E+00  0.00000000E+00
  0.00000000E+00  0.00000000E+00  0.00000000E+00
  0.00000000E+00  0.00000000E+00  0.00000000E+00
  0.00000000E+00  0.00000000E+00  0.00000000E+00
  0.00000000E+00  0.00000000E+00  0.00000000E+00
  0.00000000E+00  0.00000000E+00  0.00000000E+00
  0.00000000E+00  0.00000000E+00  0.00000000E+00
  0.00000000E+00  0.00000000E+00  0.00000000E+00
