Li48 P16 O64
1.0
10.490000 0.000000 0.000000
0.000000 12.240000 0.000000
0.000000 0.000000 9.853200
Li P O
47 16 64
direct
0.423700 0.375000 0.602800 Li
0.163900 0.250650 0.150650 Li
0.163900 0.250650 0.650650 Li
0.163900 0.750650 0.150650 Li
0.163900 0.750650 0.650650 Li
0.836100 0.249350 0.349350 Li
0.836100 0.249350 0.849350 Li
0.836100 0.749350 0.349350 Li
0.836100 0.749350 0.849350 Li
0.336100 0.249350 0.400650 Li
0.336100 0.249350 0.900650 Li
0.336100 0.749350 0.400650 Li
0.336100 0.749350 0.900650 Li
0.663900 0.250650 0.099350 Li
0.663900 0.250650 0.599350 Li
0.663900 0.750650 0.099350 Li
0.663900 0.750650 0.599350 Li
0.836100 0.000650 0.349350 Li
0.836100 0.000650 0.849350 Li
0.836100 0.500650 0.349350 Li
0.836100 0.500650 0.849350 Li
0.163900 0.499350 0.150650 Li
0.163900 0.499350 0.650650 Li
0.163900 0.999350 0.150650 Li
0.163900 0.999350 0.650650 Li
0.663900 0.499350 0.099350 Li
0.663900 0.499350 0.599350 Li
0.663900 0.999350 0.099350 Li
0.663900 0.999350 0.599350 Li
0.336100 0.000650 0.400650 Li
0.336100 0.000650 0.900650 Li
0.336100 0.500650 0.900650 Li
0.423700 0.375000 0.102800 Li
0.423700 0.875000 0.102800 Li
0.423700 0.875000 0.602800 Li
0.576300 0.125000 0.397200 Li
0.576300 0.125000 0.897200 Li
0.576300 0.625000 0.397200 Li
0.576300 0.625000 0.897200 Li
0.076300 0.125000 0.352800 Li
0.076300 0.125000 0.852800 Li
0.076300 0.625000 0.352800 Li
0.076300 0.625000 0.852800 Li
0.923700 0.375000 0.147200 Li
0.923700 0.375000 0.647200 Li
0.923700 0.875000 0.147200 Li
0.923700 0.875000 0.647200 Li
0.411510 0.125000 0.154390 P
0.411510 0.125000 0.654390 P
0.411510 0.625000 0.154390 P
0.411510 0.625000 0.654390 P
0.588490 0.375000 0.345610 P
0.588490 0.375000 0.845610 P
0.588490 0.875000 0.345610 P
0.588490 0.875000 0.845610 P
0.088490 0.375000 0.404390 P
0.088490 0.375000 0.904390 P
0.088490 0.875000 0.404390 P
0.088490 0.875000 0.904390 P
0.911510 0.125000 0.095610 P
0.911510 0.125000 0.595610 P
0.911510 0.625000 0.095610 P
0.911510 0.625000 0.595610 P
0.341670 0.021945 0.102850 O
0.341670 0.021945 0.602850 O
0.341670 0.521945 0.102850 O
0.341670 0.521945 0.602850 O
0.658330 0.478055 0.397150 O
0.658330 0.478055 0.897150 O
0.658330 0.978055 0.397150 O
0.658330 0.978055 0.897150 O
0.158330 0.478055 0.352850 O
0.158330 0.478055 0.852850 O
0.158330 0.978055 0.352850 O
0.158330 0.978055 0.852850 O
0.841670 0.021945 0.147150 O
0.841670 0.021945 0.647150 O
0.841670 0.521945 0.147150 O
0.841670 0.521945 0.647150 O
0.658330 0.271945 0.397150 O
0.658330 0.271945 0.897150 O
0.658330 0.771945 0.397150 O
0.658330 0.771945 0.897150 O
0.341670 0.228055 0.102850 O
0.341670 0.228055 0.602850 O
0.341670 0.728055 0.102850 O
0.341670 0.728055 0.602850 O
0.841670 0.228055 0.147150 O
0.841670 0.228055 0.647150 O
0.841670 0.728055 0.147150 O
0.841670 0.728055 0.647150 O
0.158330 0.271945 0.352850 O
0.158330 0.271945 0.852850 O
0.158330 0.771945 0.352850 O
0.158330 0.771945 0.852850 O
0.050420 0.125000 0.146850 O
0.050420 0.125000 0.646850 O
0.050420 0.625000 0.146850 O
0.050420 0.625000 0.646850 O
0.949580 0.375000 0.353150 O
0.949580 0.375000 0.853150 O
0.949580 0.875000 0.353150 O
0.949580 0.875000 0.853150 O
0.449580 0.375000 0.396850 O
0.449580 0.375000 0.896850 O
0.449580 0.875000 0.396850 O
0.449580 0.875000 0.896850 O
0.550420 0.125000 0.103150 O
0.550420 0.125000 0.603150 O
0.550420 0.625000 0.103150 O
0.550420 0.625000 0.603150 O
0.089640 0.375000 0.061150 O
0.089640 0.375000 0.561150 O
0.089640 0.875000 0.061150 O
0.089640 0.875000 0.561150 O
0.910360 0.125000 0.438850 O
0.910360 0.125000 0.938850 O
0.910360 0.625000 0.438850 O
0.910360 0.625000 0.938850 O
0.410360 0.125000 0.311150 O
0.410360 0.125000 0.811150 O
0.410360 0.625000 0.311150 O
0.410360 0.625000 0.811150 O
0.589640 0.375000 0.188850 O
0.589640 0.375000 0.688850 O
0.589640 0.875000 0.188850 O
0.589640 0.875000 0.688850 O
