Ca8 Mo48 S64                            
    1.000000000000000     
    12.9842107087383472   -0.1318995908981371   -0.0488947174930749
    -0.0485871600855095   12.9847912493078592   -0.0488933694209615
    -0.1327439575113317   -0.1318871110923325   12.9836237279677320
   Ca   Mo   S 
     1    48    64
Direct
   0.4999948509372913    0.5000599744650316    0.9999461494551269 Ca
  0.2186681538128639  0.3897131709119463  0.2935843043156368
  0.2251884437587606  0.3910256670564394  0.7932723487858411
  0.2225157247369083  0.8899782735813417  0.2971288452369691
  0.2255355700956372  0.8930914689855030  0.7979206123973910
  0.7213076546044448  0.3915800362319288  0.2958801659825241
  0.7249579577185017  0.3954871466460403  0.7983006748084804
  0.7230258814865778  0.8931446170967305  0.2984711059683605
  0.7261916610200174  0.8957352490429500  0.7992274160341921
  0.2935837134794212  0.2186680515113792  0.3897120605920037
  0.2971306991714542  0.2225128017594855  0.8899734336192182
  0.2958797238904012  0.7213089674726731  0.3915691860733119
  0.2984742993273883  0.7230245745272086  0.8931354375397405
  0.7932661018634377  0.2251930628858219  0.3910379042594201
  0.7979216746313327  0.2255364852594397  0.8930985591586236
  0.7983003380028748  0.7249567423089545  0.3954898764220971
  0.7992306331977090  0.7261919753124602  0.8957324098290087
  0.3897112040606103  0.2935844023631091  0.2186646437560071
  0.3915668544057880  0.2958805555903723  0.7213074397610626
  0.3910362718127800  0.7932704233150574  0.2251870883166305
  0.3954842886908168  0.7983039768731572  0.7249547539865873
  0.8899833976628315  0.2971273076597214  0.2225151673369083
  0.8931417370259851  0.2984728476744110  0.7230272957291390
  0.8931008798515379  0.7979169057381412  0.2255372788696661
  0.8957341951722171  0.7992297179912740  0.7261912258026300
  0.2738077664884671  0.1042662525227627  0.2007715081001749
  0.2769750550770169  0.1068631126671775  0.7015273129631581
  0.2750437799622958  0.6045115680929456  0.2016979105703669
  0.2786925405444691  0.6084342311115023  0.7041191562521050
  0.7744623110164994  0.1069004378759217  0.2020817349303599
  0.7774872206346544  0.1100206440113567  0.7028719148789406
  0.7748065992459487  0.6089596414791174  0.2067296310371702
  0.7813360487642740  0.6102909111347685  0.7064150570050529
  0.2007726116354434  0.2738084252205013  0.1042651092148077
  0.2016972791250780  0.2750432366180604  0.6045153230052946
  0.2020824838761612  0.7744627388928293  0.1069053111588971
  0.2067275969637947  0.7748125704307043  0.6089712329389556
  0.7015282782704233  0.2769744195282300  0.1068550300340902
  0.7041188688773943  0.2786921199931527  0.6084256798077305
  0.7028729634136539  0.7774854889174350  0.1100151415048245
  0.7064158153932425  0.7813362024802188  0.6102864650197972
  0.1042666037219178  0.2007713293691751  0.2738085015337930
  0.1069082278022222  0.2020776321623146  0.7744660839447235
  0.1068592729553401  0.7015266594758103  0.2769752757953796
  0.1100277355438095  0.7028694868042251  0.7774868604876417
  0.6045080234553737  0.2016999970157940  0.2750424962481972
  0.6089702051343835  0.2067285805188774  0.7748099529884698
  0.6084200257002976  0.7041206003506773  0.2786882465259808
  0.6102877191734208  0.7064164773462025  0.7813303641044058
  0.1305239786915067  0.3014632991294164  0.4319622935162357
  0.1338474063724391  0.3047294561608851  0.9315409526741760
  0.1327959902758806  0.8030640115723671  0.4360410019824599
  0.1344932399104479  0.8047008079380120  0.9345404789290868
  0.6273811139503920  0.3056980220619891  0.4351531805473883
  0.6337977182143035  0.3060182815326655  0.9335728288582033
  0.6351171868084293  0.8060765626542192  0.4371574953701867
  0.6355600969918100  0.8089053482001347  0.9372997383667823
  0.4319615168782818  0.1305238277198626  0.3014643742652510
  0.4360436371543912  0.1327931745539956  0.8030694575887551
  0.4351532351875775  0.6273836501023311  0.3056950738664312
  0.4371633465483029  0.6351153027887406  0.8060778834928897
  0.9315378691860943  0.1338517107341914  0.3047254416523089
  0.9345414350200016  0.1344948279561180  0.8046994977892084
  0.9335694294196415  0.6337971571529337  0.3060106999605310
  0.9373065404636307  0.6355614301008075  0.8089037820674534
  0.3014648476409931  0.4319642379804449  0.1305222699005597
  0.3056976668085838  0.4351523125676309  0.6273790814247420
  0.3047260348865208  0.9315406718899979  0.1338491827482073
  0.3060161443073426  0.9335733026871225  0.6337962950115212
  0.8030661754261459  0.4360403492227789  0.1327968738433398
  0.8060809207527839  0.4371593777422689  0.6351154333062752
  0.8046981949557477  0.9345394730113910  0.1344969163612362
  0.8089047354797430  0.9373043838752437  0.6355584095679063
  0.3644379824703066  0.1910992737423101  0.0626952420347280
  0.3648854455578530  0.1939203628581367  0.5628391398655239
  0.3662019961519221  0.6939855676868731  0.0664269159611806
  0.3726201715922031  0.6942999184002261  0.5648466020028167
  0.8655032879196085  0.1953067213014492  0.0654610676763454
  0.8672052057753845  0.1969309474589664  0.5639594265431853
  0.8661487186151362  0.6952769544417876  0.0684599129549994
  0.8694788616317410  0.6985339343048977  0.5680339917856685
  0.0626990422141915  0.3644407369623579  0.1910982430027630
  0.0664270243863427  0.3662020840221487  0.6939832974815801
  0.0654620062177642  0.8655049600184626  0.1953027934179588
  0.0684583387921052  0.8661526914164028  0.6952704833452970
  0.5628422719185693  0.3648823139335704  0.1939221866488481
  0.5648473660546571  0.3726201749431581  0.6943006917412902
  0.5639605453099392  0.8672037191370450  0.1969325177641466
  0.5680348572795140  0.8694788442931625  0.6985322393308522
  0.1910984508880631  0.0626965096366163  0.3644404969319908
  0.1953026267556126  0.0654590234743040  0.8655083371950383
  0.1939220994700506  0.5628394210824794  0.3648835582759702
  0.1969324362945386  0.5639584354785043  0.8672074834218790
  0.6939843846813361  0.0664283821943172  0.3662010798111766
  0.6952744532459221  0.0684600841423233  0.8661518398148047
  0.6942990151882356  0.5648478850140464  0.3726143510521993
  0.6985343979018879  0.5680374852847834  0.8694749645717863
  0.3816377419610930  0.3816380866743572  0.3816321522596624
  0.3882686347646356  0.3855995087164885  0.8853181647950663
  0.3855966074968649  0.8853194253678183  0.3882635335660609
  0.3888852707322101  0.8875844244305213  0.8893694742858571
  0.8853167145610286  0.3882622793862964  0.3855969179395089
  0.8893708710530959  0.3888857574147977  0.8875821224931855
  0.8875794470723406  0.8893669025871631  0.3888817303998877
  0.8900581874492275  0.8900566675544539  0.8900550351072738
  0.1099457203665892  0.1099443541933809  0.1099438711031411
  0.1124162519181553  0.1106271033427504  0.6111185182872561
  0.1106320404696746  0.6111178983776142  0.1124176573022098
  0.1146788157497909  0.6117309411765035  0.6144027840370612
  0.6111180759505217  0.1124220886195033  0.1106305874773170
  0.6144019675410490  0.1146811854227323  0.6117341505945859
  0.6117355007501004  0.6144068275688426  0.1146772324829328
  0.6183657881931452  0.6183663502730710  0.6183587689384993
 
  0.00000000E+00  0.00000000E+00  0.00000000E+00
  0.00000000E+00  0.00000000E+00  0.00000000E+00
  0.00000000E+00  0.00000000E+00  0.00000000E+00
  0.00000000E+00  0.00000000E+00  0.00000000E+00
  0.00000000E+00  0.00000000E+00  0.00000000E+00
  0.00000000E+00  0.00000000E+00  0.00000000E+00
  0.00000000E+00  0.00000000E+00  0.00000000E+00
  0.00000000E+00  0.00000000E+00  0.00000000E+00
  0.00000000E+00  0.00000000E+00  0.00000000E+00
  0.00000000E+00  0.00000000E+00  0.00000000E+00
  0.00000000E+00  0.00000000E+00  0.00000000E+00
  0.00000000E+00  0.00000000E+00  0.00000000E+00
  0.00000000E+00  0.00000000E+00  0.00000000E+00
  0.00000000E+00  0.00000000E+00  0.00000000E+00
  0.00000000E+00  0.00000000E+00  0.00000000E+00
  0.00000000E+00  0.00000000E+00  0.00000000E+00
  0.00000000E+00  0.00000000E+00  0.00000000E+00
  0.00000000E+00  0.00000000E+00  0.00000000E+00
  0.00000000E+00  0.00000000E+00  0.00000000E+00
  0.00000000E+00  0.00000000E+00  0.00000000E+00
  0.00000000E+00  0.00000000E+00  0.00000000E+00
  0.00000000E+00  0.00000000E+00  0.00000000E+00
  0.00000000E+00  0.00000000E+00  0.00000000E+00
  0.00000000E+00  0.00000000E+00  0.00000000E+00
  0.00000000E+00  0.00000000E+00  0.00000000E+00
  0.00000000E+00  0.00000000E+00  0.00000000E+00
  0.00000000E+00  0.00000000E+00  0.00000000E+00
  0.00000000E+00  0.00000000E+00  0.00000000E+00
  0.00000000E+00  0.00000000E+00  0.00000000E+00
  0.00000000E+00  0.00000000E+00  0.00000000E+00
  0.00000000E+00  0.00000000E+00  0.00000000E+00
  0.00000000E+00  0.00000000E+00  0.00000000E+00
  0.00000000E+00  0.00000000E+00  0.00000000E+00
  0.00000000E+00  0.00000000E+00  0.00000000E+00
  0.00000000E+00  0.00000000E+00  0.00000000E+00
  0.00000000E+00  0.00000000E+00  0.00000000E+00
  0.00000000E+00  0.00000000E+00  0.00000000E+00
  0.00000000E+00  0.00000000E+00  0.00000000E+00
  0.00000000E+00  0.00000000E+00  0.00000000E+00
  0.00000000E+00  0.00000000E+00  0.00000000E+00
  0.00000000E+00  0.00000000E+00  0.00000000E+00
  0.00000000E+00  0.00000000E+00  0.00000000E+00
  0.00000000E+00  0.00000000E+00  0.00000000E+00
  0.00000000E+00  0.00000000E+00  0.00000000E+00
  0.00000000E+00  0.00000000E+00  0.00000000E+00
  0.00000000E+00  0.00000000E+00  0.00000000E+00
  0.00000000E+00  0.00000000E+00  0.00000000E+00
  0.00000000E+00  0.00000000E+00  0.00000000E+00
  0.00000000E+00  0.00000000E+00  0.00000000E+00
  0.00000000E+00  0.00000000E+00  0.00000000E+00
  0.00000000E+00  0.00000000E+00  0.00000000E+00
  0.00000000E+00  0.00000000E+00  0.00000000E+00
  0.00000000E+00  0.00000000E+00  0.00000000E+00
  0.00000000E+00  0.00000000E+00  0.00000000E+00
  0.00000000E+00  0.00000000E+00  0.00000000E+00
  0.00000000E+00  0.00000000E+00  0.00000000E+00
  0.00000000E+00  0.00000000E+00  0.00000000E+00
  0.00000000E+00  0.00000000E+00  0.00000000E+00
  0.00000000E+00  0.00000000E+00  0.00000000E+00
  0.00000000E+00  0.00000000E+00  0.00000000E+00
  0.00000000E+00  0.00000000E+00  0.00000000E+00
  0.00000000E+00  0.00000000E+00  0.00000000E+00
  0.00000000E+00  0.00000000E+00  0.00000000E+00
  0.00000000E+00  0.00000000E+00  0.00000000E+00
  0.00000000E+00  0.00000000E+00  0.00000000E+00
  0.00000000E+00  0.00000000E+00  0.00000000E+00
  0.00000000E+00  0.00000000E+00  0.00000000E+00
  0.00000000E+00  0.00000000E+00  0.00000000E+00
  0.00000000E+00  0.00000000E+00  0.00000000E+00
  0.00000000E+00  0.00000000E+00  0.00000000E+00
  0.00000000E+00  0.00000000E+00  0.00000000E+00
  0.00000000E+00  0.00000000E+00  0.00000000E+00
  0.00000000E+00  0.00000000E+00  0.00000000E+00
  0.00000000E+00  0.00000000E+00  0.00000000E+00
  0.00000000E+00  0.00000000E+00  0.00000000E+00
  0.00000000E+00  0.00000000E+00  0.00000000E+00
  0.00000000E+00  0.00000000E+00  0.00000000E+00
  0.00000000E+00  0.00000000E+00  0.00000000E+00
  0.00000000E+00  0.00000000E+00  0.00000000E+00
  0.00000000E+00  0.00000000E+00  0.00000000E+00
  0.00000000E+00  0.00000000E+00  0.00000000E+00
  0.00000000E+00  0.00000000E+00  0.00000000E+00
  0.00000000E+00  0.00000000E+00  0.00000000E+00
  0.00000000E+00  0.00000000E+00  0.00000000E+00
  0.00000000E+00  0.00000000E+00  0.00000000E+00
  0.00000000E+00  0.00000000E+00  0.00000000E+00
  0.00000000E+00  0.00000000E+00  0.00000000E+00
  0.00000000E+00  0.00000000E+00  0.00000000E+00
  0.00000000E+00  0.00000000E+00  0.00000000E+00
  0.00000000E+00  0.00000000E+00  0.00000000E+00
  0.00000000E+00  0.00000000E+00  0.00000000E+00
  0.00000000E+00  0.00000000E+00  0.00000000E+00
  0.00000000E+00  0.00000000E+00  0.00000000E+00
  0.00000000E+00  0.00000000E+00  0.00000000E+00
  0.00000000E+00  0.00000000E+00  0.00000000E+00
  0.00000000E+00  0.00000000E+00  0.00000000E+00
  0.00000000E+00  0.00000000E+00  0.00000000E+00
  0.00000000E+00  0.00000000E+00  0.00000000E+00
  0.00000000E+00  0.00000000E+00  0.00000000E+00
  0.00000000E+00  0.00000000E+00  0.00000000E+00
  0.00000000E+00  0.00000000E+00  0.00000000E+00
  0.00000000E+00  0.00000000E+00  0.00000000E+00
  0.00000000E+00  0.00000000E+00  0.00000000E+00
  0.00000000E+00  0.00000000E+00  0.00000000E+00
  0.00000000E+00  0.00000000E+00  0.00000000E+00
  0.00000000E+00  0.00000000E+00  0.00000000E+00
  0.00000000E+00  0.00000000E+00  0.00000000E+00
  0.00000000E+00  0.00000000E+00  0.00000000E+00
  0.00000000E+00  0.00000000E+00  0.00000000E+00
  0.00000000E+00  0.00000000E+00  0.00000000E+00
  0.00000000E+00  0.00000000E+00  0.00000000E+00
  0.00000000E+00  0.00000000E+00  0.00000000E+00
  0.00000000E+00  0.00000000E+00  0.00000000E+00
