Na32 Fe32 P32 O128
1.0
9.875144 0.000000 0.000000
0.000000 12.328802 0.000000
0.000000 0.000000 20.642878
Na Fe P O
31 32 32 128
direct
0.500000 0.500000 0.500000 Na
0.000000 0.000000 0.000000 Na
0.000000 0.000000 0.500000 Na
0.000000 0.500000 0.000000 Na
0.000000 0.500000 0.500000 Na
0.500000 0.000000 0.000000 Na
0.500000 0.000000 0.500000 Na
0.500000 0.500000 0.000000 Na
0.250000 0.000000 0.250000 Na
0.250000 0.000000 0.750000 Na
0.250000 0.500000 0.250000 Na
0.250000 0.500000 0.750000 Na
0.750000 0.000000 0.250000 Na
0.750000 0.000000 0.750000 Na
0.750000 0.500000 0.250000 Na
0.750000 0.500000 0.750000 Na
0.000000 0.250000 0.000000 Na
0.000000 0.250000 0.500000 Na
0.000000 0.750000 0.000000 Na
0.000000 0.750000 0.500000 Na
0.500000 0.250000 0.000000 Na
0.500000 0.750000 0.000000 Na
0.500000 0.750000 0.500000 Na
0.250000 0.250000 0.250000 Na
0.250000 0.250000 0.750000 Na
0.250000 0.750000 0.250000 Na
0.250000 0.750000 0.750000 Na
0.750000 0.250000 0.250000 Na
0.750000 0.250000 0.750000 Na
0.750000 0.750000 0.250000 Na
0.750000 0.750000 0.750000 Na
0.010718 0.375000 0.143467 Fe
0.010718 0.375000 0.643467 Fe
0.010718 0.875000 0.143467 Fe
0.010718 0.875000 0.643467 Fe
0.510718 0.375000 0.143467 Fe
0.510718 0.375000 0.643467 Fe
0.510718 0.875000 0.143467 Fe
0.510718 0.875000 0.643467 Fe
0.239282 0.375000 0.393467 Fe
0.239282 0.375000 0.893467 Fe
0.239282 0.875000 0.393467 Fe
0.239282 0.875000 0.893467 Fe
0.739282 0.375000 0.393467 Fe
0.739282 0.375000 0.893467 Fe
0.739282 0.875000 0.393467 Fe
0.739282 0.875000 0.893467 Fe
0.489282 0.125000 0.356533 Fe
0.489282 0.125000 0.856533 Fe
0.489282 0.625000 0.356533 Fe
0.489282 0.625000 0.856533 Fe
0.989282 0.125000 0.356533 Fe
0.989282 0.125000 0.856533 Fe
0.989282 0.625000 0.356533 Fe
0.989282 0.625000 0.856533 Fe
0.260718 0.125000 0.106533 Fe
0.260718 0.125000 0.606533 Fe
0.260718 0.625000 0.106533 Fe
0.260718 0.625000 0.606533 Fe
0.760718 0.125000 0.106533 Fe
0.760718 0.125000 0.606533 Fe
0.760718 0.625000 0.106533 Fe
0.760718 0.625000 0.606533 Fe
0.279944 0.375000 0.053864 P
0.279944 0.375000 0.553864 P
0.279944 0.875000 0.053864 P
0.279944 0.875000 0.553864 P
0.779944 0.375000 0.053864 P
0.779944 0.375000 0.553864 P
0.779944 0.875000 0.053864 P
0.779944 0.875000 0.553864 P
0.470056 0.375000 0.303864 P
0.470056 0.375000 0.803864 P
0.470056 0.875000 0.303864 P
0.470056 0.875000 0.803864 P
0.970056 0.375000 0.303864 P
0.970056 0.375000 0.803864 P
0.970056 0.875000 0.303864 P
0.970056 0.875000 0.803864 P
0.220056 0.125000 0.446136 P
0.220056 0.125000 0.946136 P
0.220056 0.625000 0.446136 P
0.220056 0.625000 0.946136 P
0.720056 0.125000 0.446136 P
0.720056 0.125000 0.946136 P
0.720056 0.625000 0.446136 P
0.720056 0.625000 0.946136 P
0.029944 0.125000 0.196136 P
0.029944 0.125000 0.696136 P
0.029944 0.625000 0.196136 P
0.029944 0.625000 0.696136 P
0.529944 0.125000 0.196136 P
0.529944 0.125000 0.696136 P
0.529944 0.625000 0.196136 P
0.529944 0.625000 0.696136 P
0.374064 0.125000 0.444157 O
0.374064 0.125000 0.944157 O
0.374064 0.625000 0.444157 O
0.374064 0.625000 0.944157 O
0.874064 0.125000 0.444157 O
0.874064 0.125000 0.944157 O
0.874064 0.625000 0.444157 O
0.874064 0.625000 0.944157 O
0.093903 0.223904 0.160892 O
0.093903 0.223904 0.660892 O
0.093903 0.723904 0.160892 O
0.093903 0.723904 0.660892 O
0.593903 0.223904 0.160892 O
0.593903 0.223904 0.660892 O
0.593903 0.723904 0.160892 O
0.593903 0.723904 0.660892 O
0.343903 0.276096 0.089108 O
0.343903 0.276096 0.589108 O
0.343903 0.776096 0.089108 O
0.343903 0.776096 0.589108 O
0.843903 0.276096 0.089108 O
0.843903 0.276096 0.589108 O
0.843903 0.776096 0.089108 O
0.843903 0.776096 0.589108 O
0.406097 0.473904 0.339108 O
0.406097 0.473904 0.839108 O
0.406097 0.973904 0.339108 O
0.406097 0.973904 0.839108 O
0.906097 0.473904 0.339108 O
0.906097 0.473904 0.839108 O
0.906097 0.973904 0.339108 O
0.906097 0.973904 0.839108 O
0.156097 0.026096 0.410892 O
0.156097 0.026096 0.910892 O
0.156097 0.526096 0.410892 O
0.156097 0.526096 0.910892 O
0.656097 0.026096 0.410892 O
0.656097 0.026096 0.910892 O
0.656097 0.526096 0.410892 O
0.656097 0.526096 0.910892 O
0.406097 0.276096 0.339108 O
0.406097 0.276096 0.839108 O
0.406097 0.776096 0.339108 O
0.406097 0.776096 0.839108 O
0.906097 0.276096 0.339108 O
0.906097 0.276096 0.839108 O
0.906097 0.776096 0.339108 O
0.906097 0.776096 0.839108 O
0.156097 0.223904 0.410892 O
0.156097 0.223904 0.910892 O
0.156097 0.723904 0.410892 O
0.156097 0.723904 0.910892 O
0.656097 0.223904 0.410892 O
0.656097 0.223904 0.910892 O
0.656097 0.723904 0.410892 O
0.656097 0.723904 0.910892 O
0.093903 0.026096 0.160892 O
0.093903 0.026096 0.660892 O
0.093903 0.526096 0.160892 O
0.093903 0.526096 0.660892 O
0.593903 0.026096 0.160892 O
0.593903 0.026096 0.660892 O
0.593903 0.526096 0.160892 O
0.593903 0.526096 0.660892 O
0.125936 0.375000 0.055843 O
0.125936 0.375000 0.555843 O
0.125936 0.875000 0.055843 O
0.125936 0.875000 0.555843 O
0.625936 0.375000 0.055843 O
0.625936 0.375000 0.555843 O
0.625936 0.875000 0.055843 O
0.625936 0.875000 0.555843 O
0.375936 0.125000 0.194157 O
0.375936 0.125000 0.694157 O
0.375936 0.625000 0.194157 O
0.375936 0.625000 0.694157 O
0.875936 0.125000 0.194157 O
0.875936 0.125000 0.694157 O
0.875936 0.625000 0.194157 O
0.875936 0.625000 0.694157 O
0.343903 0.473904 0.089108 O
0.343903 0.473904 0.589108 O
0.343903 0.973904 0.089108 O
0.343903 0.973904 0.589108 O
0.843903 0.473904 0.089108 O
0.843903 0.473904 0.589108 O
0.843903 0.973904 0.089108 O
0.843903 0.973904 0.589108 O
0.124064 0.375000 0.305843 O
0.124064 0.375000 0.805843 O
0.124064 0.875000 0.305843 O
0.124064 0.875000 0.805843 O
0.624064 0.375000 0.305843 O
0.624064 0.375000 0.805843 O
0.624064 0.875000 0.305843 O
0.624064 0.875000 0.805843 O
0.332125 0.375000 0.483769 O
0.332125 0.375000 0.983769 O
0.332125 0.875000 0.483769 O
0.332125 0.875000 0.983769 O
0.832125 0.375000 0.483769 O
0.832125 0.375000 0.983769 O
0.832125 0.875000 0.483769 O
0.832125 0.875000 0.983769 O
0.167875 0.125000 0.016231 O
0.167875 0.125000 0.516231 O
0.167875 0.625000 0.016231 O
0.167875 0.625000 0.516231 O
0.667875 0.125000 0.016231 O
0.667875 0.125000 0.516231 O
0.667875 0.625000 0.016231 O
0.667875 0.625000 0.516231 O
0.082125 0.125000 0.266231 O
0.082125 0.125000 0.766231 O
0.082125 0.625000 0.266231 O
0.082125 0.625000 0.766231 O
0.582125 0.125000 0.266231 O
0.582125 0.125000 0.766231 O
0.582125 0.625000 0.266231 O
0.582125 0.625000 0.766231 O
0.417875 0.375000 0.233769 O
0.417875 0.375000 0.733769 O
0.417875 0.875000 0.233769 O
0.417875 0.875000 0.733769 O
0.917875 0.375000 0.233769 O
0.917875 0.375000 0.733769 O
0.917875 0.875000 0.233769 O
0.917875 0.875000 0.733769 O
