Li24 Cl8 O8
1.0
   7.8166742323999996    0.0000000000000000    0.0000000000000000
   0.0000000000000000    7.8166742323999996    0.0000000000000000
   0.0000000000000000    0.0000000000000000    7.8166742323999996
Li Cl O
23 8 8
direct
   0.4999999999999999    0.7499999999999999   -0.2500000000000001 Li
   0.0000000000000000    0.2500000000000000    0.2500000000000000 Li
   0.0000000000000000    0.2500000000000000    0.7499999999999999 Li
   0.0000000000000000    0.7499999999999999    0.2500000000000000 Li
   0.0000000000000000    0.7499999999999999    0.7499999999999999 Li
   0.4999999999999999    0.2500000000000000    0.2500000000000000 Li
   0.4999999999999999    0.2500000000000000    0.7499999999999999 Li
   0.4999999999999999    0.7499999999999999    0.2500000000000000 Li
   0.2500000000000000    0.0000000000000000    0.2500000000000000 Li
   0.2500000000000000    0.0000000000000000    0.7499999999999999 Li
   0.2500000000000000    0.4999999999999999    0.2500000000000000 Li
   0.2500000000000000    0.4999999999999999    0.7499999999999999 Li
   0.7499999999999999    0.0000000000000000    0.2500000000000000 Li
   0.7499999999999999    0.0000000000000000    0.7499999999999999 Li
   0.7499999999999999    0.4999999999999999    0.2500000000000000 Li
   0.7499999999999999    0.4999999999999999    0.7499999999999999 Li
   0.2500000000000000    0.2500000000000000    0.0000000000000000 Li
   0.2500000000000000    0.2500000000000000    0.4999999999999999 Li
   0.2500000000000000    0.7499999999999999    0.0000000000000000 Li
   0.2500000000000000    0.7499999999999999    0.4999999999999999 Li
   0.7499999999999999    0.2500000000000000    0.0000000000000000 Li
   0.7499999999999999    0.2500000000000000    0.4999999999999999 Li
   0.7499999999999999    0.7499999999999999    0.4999999999999999 Li
   0.0000000000000000    0.0000000000000000    0.0000000000000000 Cl
   0.0000000000000000    0.0000000000000000    0.4999999999999999 Cl
   0.0000000000000000    0.4999999999999999    0.0000000000000000 Cl
   0.0000000000000000    0.4999999999999999    0.4999999999999999 Cl
   0.4999999999999999    0.0000000000000000    0.0000000000000000 Cl
   0.4999999999999999    0.0000000000000000    0.4999999999999999 Cl
   0.4999999999999999    0.4999999999999999    0.0000000000000000 Cl
   0.4999999999999999    0.4999999999999999    0.4999999999999999 Cl
   0.2500000000000000    0.2500000000000000    0.2500000000000000 O
   0.2500000000000000    0.2500000000000000    0.7499999999999999 O
   0.2500000000000000    0.7499999999999999    0.2500000000000000 O
   0.2500000000000000    0.7499999999999999    0.7499999999999999 O
   0.7499999999999999    0.2500000000000000    0.2500000000000000 O
   0.7499999999999999    0.2500000000000000    0.7499999999999999 O
   0.7499999999999999    0.7499999999999999    0.2500000000000000 O
   0.7499999999999999    0.7499999999999999    0.7499999999999999 O
