Ca8 Ti16 S32                            
   1.00000000000000     
     9.8958762433604424    0.0000019109614086    0.0000108755885368
     0.0000019117998491    9.8958726877792653    0.0000012571769615
     0.0000108779947687    0.0000012577128145    9.8958568687196902
   Zn   Ti   S 
     1    16    32
Direct
   0.2500004200156760   -0.2499998049987757   -0.2499996067593106 Zn
  0.1281129634715402  0.6146281786840950  0.1281245872859955
  0.1281170815565594  0.8718534982498414  0.3853618476805706
  0.3767264218347440  0.6232441124176783  0.3767357859366717
  0.3853640379606713  0.8718539000147896  0.1281289037110176
  0.1281177184977988  0.1281478320539444  0.6146368407573914
  0.1281142415592493  0.3853722216425454  0.8718730749601749
  0.3853650188878218  0.1281451432968217  0.8718699684840705
  0.3767262095698963  0.3767537244206274  0.6232629758918756
  0.6232759854018720  0.6232437355869848  0.6232642764682322
  0.6146356540320776  0.8718534470151266  0.8718709697851921
  0.8718854204253673  0.6146270149056152  0.8718763272535234
  0.8718806925500683  0.8718544174844747  0.6146380921760224
  0.6146364698046476  0.1281459515330767  0.1281296665749021
  0.6232755206748514  0.3767540732476829  0.3767364662811816
  0.8718816238727499  0.1281467072502606  0.3853624217030578
  0.8718842110138441  0.3853722621496550  0.1281254067635313
  0.3726270938674885  0.8714033493118984  0.3726362245906269
  0.3757508222777973  0.1206208912314725  0.1206244046131147
  0.1206291605413844  0.1206232404816994  0.3757437467341931
  0.1206245213483229  0.3757454526277842  0.1206225434331809
  0.6273701363103681  0.1286005865778245  0.3726408593330148
  0.1334402935587027  0.8665474120087514  0.1334413678330797
  0.3780363416455374  0.3780253320419363  0.3780299494138669
  0.8665639813970599  0.1334559515832267  0.1334402185898504
  0.3726283861155816  0.3726545199214137  0.8714157455617537
  0.3780341171629153  0.6219714749751845  0.6219729606165738
  0.1206260528241516  0.6242529924123630  0.8793760116461240
  0.1206296220408058  0.8793754119610334  0.6242547114162466
  0.6273711552991006  0.6273468159938385  0.8714190517736841
  0.1285733596146660  0.3726592755035800  0.6273589183540212
  0.3757541757833405  0.8793767954652197  0.8793773731803509
  0.8714314567615977  0.6273438679772778  0.6273611198863940
  0.8665611390841098  0.8665449570165755  0.8665606211777253
  0.8793676593490123  0.1206255297319137  0.6242576849412663
  0.6242487342973504  0.1206208458892079  0.8793742463616063
  0.6219643906688681  0.3780246847866213  0.6219709790703640
  0.1334390708584874  0.1334543644453263  0.8665605914725457
  0.6273703312584306  0.8714027914471280  0.6273627791389247
  0.8793739299241869  0.3757467014145896  0.8793776207006067
  0.3726292682441383  0.1285997482887375  0.6273612783724370
  0.8714267883311203  0.3726580473291111  0.3726398014816032
  0.8793713753195874  0.6242527648401252  0.1206224000985663
  0.6219665408813452  0.6219716481633140  0.3780260068387169
  0.6242468412310918  0.8793754866593977  0.1206224258279576
  0.1285706289034315  0.6273423268469738  0.3726420185283875
  0.6273723311752762  0.3726561155899785  0.1285840871348960
  0.8793703845901584  0.8793762276744486  0.3757437709079683
  0.3726294358960995  0.6273481558636115  0.1285805834871754
 
  0.00000000E+00  0.00000000E+00  0.00000000E+00
  0.00000000E+00  0.00000000E+00  0.00000000E+00
  0.00000000E+00  0.00000000E+00  0.00000000E+00
  0.00000000E+00  0.00000000E+00  0.00000000E+00
  0.00000000E+00  0.00000000E+00  0.00000000E+00
  0.00000000E+00  0.00000000E+00  0.00000000E+00
  0.00000000E+00  0.00000000E+00  0.00000000E+00
  0.00000000E+00  0.00000000E+00  0.00000000E+00
  0.00000000E+00  0.00000000E+00  0.00000000E+00
  0.00000000E+00  0.00000000E+00  0.00000000E+00
  0.00000000E+00  0.00000000E+00  0.00000000E+00
  0.00000000E+00  0.00000000E+00  0.00000000E+00
  0.00000000E+00  0.00000000E+00  0.00000000E+00
  0.00000000E+00  0.00000000E+00  0.00000000E+00
  0.00000000E+00  0.00000000E+00  0.00000000E+00
  0.00000000E+00  0.00000000E+00  0.00000000E+00
  0.00000000E+00  0.00000000E+00  0.00000000E+00
  0.00000000E+00  0.00000000E+00  0.00000000E+00
  0.00000000E+00  0.00000000E+00  0.00000000E+00
  0.00000000E+00  0.00000000E+00  0.00000000E+00
  0.00000000E+00  0.00000000E+00  0.00000000E+00
  0.00000000E+00  0.00000000E+00  0.00000000E+00
  0.00000000E+00  0.00000000E+00  0.00000000E+00
  0.00000000E+00  0.00000000E+00  0.00000000E+00
  0.00000000E+00  0.00000000E+00  0.00000000E+00
  0.00000000E+00  0.00000000E+00  0.00000000E+00
  0.00000000E+00  0.00000000E+00  0.00000000E+00
  0.00000000E+00  0.00000000E+00  0.00000000E+00
  0.00000000E+00  0.00000000E+00  0.00000000E+00
  0.00000000E+00  0.00000000E+00  0.00000000E+00
  0.00000000E+00  0.00000000E+00  0.00000000E+00
  0.00000000E+00  0.00000000E+00  0.00000000E+00
  0.00000000E+00  0.00000000E+00  0.00000000E+00
  0.00000000E+00  0.00000000E+00  0.00000000E+00
  0.00000000E+00  0.00000000E+00  0.00000000E+00
  0.00000000E+00  0.00000000E+00  0.00000000E+00
  0.00000000E+00  0.00000000E+00  0.00000000E+00
  0.00000000E+00  0.00000000E+00  0.00000000E+00
  0.00000000E+00  0.00000000E+00  0.00000000E+00
  0.00000000E+00  0.00000000E+00  0.00000000E+00
  0.00000000E+00  0.00000000E+00  0.00000000E+00
  0.00000000E+00  0.00000000E+00  0.00000000E+00
  0.00000000E+00  0.00000000E+00  0.00000000E+00
  0.00000000E+00  0.00000000E+00  0.00000000E+00
  0.00000000E+00  0.00000000E+00  0.00000000E+00
  0.00000000E+00  0.00000000E+00  0.00000000E+00
  0.00000000E+00  0.00000000E+00  0.00000000E+00
  0.00000000E+00  0.00000000E+00  0.00000000E+00
  0.00000000E+00  0.00000000E+00  0.00000000E+00
