Ca4 Co4 P6 O24
1.0
2.574343 7.319485 4.409179
-0.026874 0.076035 8.654422
7.581779 0.104741 4.170812
Ca Co P O
4 4 6 24
direct
0.533617 0.475834 0.497457 Ca
0.962429 0.997452 0.020931 Ca
0.389047 0.742810 0.086303 Ca
0.108272 0.409402 0.752648 Ca
0.649853 0.645667 0.633008 Co
0.155431 0.143925 0.154932 Co
0.846021 0.864071 0.849180 Co
0.340539 0.340930 0.351459 Co
0.247656 0.548021 0.948091 P
0.040070 0.751420 0.448436 P
0.961694 0.244266 0.556576 P
0.456260 0.047716 0.744400 P
0.534214 0.939241 0.251898 P
0.748013 0.458565 0.037137 P
0.568043 0.758455 0.412710 O
0.263975 0.071302 0.910911 O
0.411463 0.560345 0.763963 O
0.914021 0.275371 0.049340 O
0.779900 0.408616 0.559422 O
0.074736 0.906966 0.259438 O
0.927982 0.083677 0.737756 O
0.582286 0.445794 0.220713 O
0.715874 0.936575 0.087327 O
0.232362 0.585155 0.424503 O
0.083667 0.731718 0.935841 O
0.421384 0.236621 0.588786 O
0.197835 0.385445 0.980540 O
0.888355 0.698614 0.477291 O
0.027349 0.188688 0.384784 O
0.487241 0.874224 0.713278 O
0.391863 0.943555 0.198307 O
0.696484 0.497067 0.875861 O
0.297663 0.516380 0.110158 O
0.009567 0.783016 0.621432 O
0.103882 0.298221 0.552001 O
0.607690 0.019754 0.797028 O
0.468139 0.111303 0.307153 O
0.798451 0.620806 0.998219 O
