Mg16 Si16 Ni16 O64
1.0
   9.5869463306128999    0.0000000976370848   -0.0000002599261210
   0.0000001036992130   10.1438132578722549   -0.0000001117704036
  -0.0000003183888274   -0.0000001248167740   12.0557924785547961
Mg Ni Si O
15 16 16 64
direct
   0.5000000114590581    0.0000000336651746    0.4999999935637283 Mg
   0.2499999860276008    0.5000000239116434    0.2500000047097231 Mg
   0.2499999860276008    0.5000000239116436    0.7500000047097231 Mg
   0.7499999860276008    0.5000000239116434    0.2500000047097232 Mg
   0.7499999860276008    0.5000000239116434    0.7500000047097232 Mg
   0.2499999852955523    0.5000000240912966    0.4999999948044529 Mg
   0.2499999852955523    0.5000000240912966    0.9999999948044530 Mg
   0.7499999852955521    0.5000000240912966    0.4999999948044528 Mg
   0.7499999852955522    0.5000000240912966    0.9999999948044528 Mg
   0.0000000118837173    0.0000000342816563    0.2500000069945372 Mg
   0.0000000118837173    0.0000000342816563    0.7500000069945373 Mg
   0.5000000118837171    0.0000000342816563    0.2500000069945372 Mg
   0.0000000114590582    0.0000000336651746    0.4999999935637283 Mg
   0.0000000114590582    0.0000000336651746    0.9999999935637284 Mg
   0.5000000114590581    0.0000000336651746    0.9999999935637283 Mg
   0.4983372671212747    0.2732359083633937    0.1250000010147887 Ni
   0.4983372671212747    0.2732359083633937    0.6250000010147887 Ni
   0.9983372671212747    0.2732359083633937    0.1250000010147887 Ni
   0.9983372671212747    0.2732359083633937    0.6250000010147887 Ni
   0.2483377995345523    0.2267632133681403    0.3749999995837105 Ni
   0.2483377995345523    0.2267632133681403    0.8749999995837106 Ni
   0.7483377995345524    0.2267632133681403    0.3749999995837105 Ni
   0.7483377995345524    0.2267632133681403    0.8749999995837106 Ni
   0.0016621883402407    0.7267631661066949    0.3749999993855087 Ni
   0.0016621883402407    0.7267631661066949    0.8749999993855088 Ni
   0.5016621883402406    0.7267631661066949    0.3749999993855087 Ni
   0.5016621883402407    0.7267631661066949    0.8749999993855087 Ni
   0.2516627310792088    0.7732358945406614    0.1250000019260865 Ni
   0.2516627310792088    0.7732358945406613    0.6250000019260865 Ni
   0.7516627310792087    0.7732358945406613    0.1250000019260865 Ni
   0.7516627310792086    0.7732358945406613    0.6250000019260865 Ni
   0.0348923905339843    0.5956404713485292    0.1250000021185637 Si
   0.0348923905339843    0.5956404713485293    0.6250000021185637 Si
   0.5348923905339842    0.5956404713485292    0.1250000021185637 Si
   0.5348923905339842    0.5956404713485293    0.6250000021185637 Si
   0.2151075929852895    0.0956404815360299    0.1249999970227537 Si
   0.2151075929852895    0.0956404815360299    0.6249999970227538 Si
   0.7151075929852895    0.0956404815360299    0.1249999970227537 Si
   0.7151075929852895    0.0956404815360299    0.6249999970227538 Si
   0.4651077845512350    0.4043595173771340    0.3749999965926087 Si
   0.4651077845512349    0.4043595173771340    0.8749999965926087 Si
   0.9651077845512350    0.4043595173771340    0.3749999965926087 Si
   0.9651077845512349    0.4043595173771340    0.8749999965926087 Si
   0.2848922233074177    0.9043595239504603    0.3750000028276636 Si
   0.2848922233074177    0.9043595239504603    0.8750000028276637 Si
   0.7848922233074177    0.9043595239504603    0.3750000028276636 Si
   0.7848922233074176    0.9043595239504604    0.8750000028276637 Si
   0.3649661207149196    0.5909112786800991    0.1250000006533200 O
   0.3649661207149195    0.5909112786800992    0.6250000006533201 O
   0.8649661207149194    0.5909112786800991    0.1250000006533200 O
   0.8649661207149193    0.5909112786800992    0.6250000006533201 O
   0.3850339013299225    0.0909112812205063    0.1249999985679332 O
   0.3850339013299226    0.0909112812205063    0.6249999985679331 O
   0.8850339013299224    0.0909112812205063    0.1249999985679332 O
   0.8850339013299223    0.0909112812205063    0.6249999985679331 O
   0.1350337989330723    0.4090888459109484    0.3749999984323959 O
   0.1350337989330723    0.4090888459109484    0.8749999984323960 O
   0.6350337989330722    0.4090888459109484    0.3749999984323958 O
   0.6350337989330721    0.4090888459109484    0.8749999984323958 O
   0.1149661895627727    0.9090888466096309    0.3750000013283958 O
   0.1149661895627727    0.9090888466096307    0.8750000013283959 O
   0.6149661895627727    0.9090888466096307    0.3750000013283958 O
   0.6149661895627726    0.9090888466096309    0.8750000013283957 O
   0.1400794683050930    0.9463799172383708    0.1249999978039678 O
   0.1400794683050930    0.9463799172383708    0.6249999978039678 O
   0.6400794683050930    0.9463799172383708    0.1249999978039678 O
   0.6400794683050930    0.9463799172383710    0.6249999978039678 O
   0.1099205309171035    0.4463799131083990    0.1250000012638819 O
   0.1099205309171035    0.4463799131083991    0.6250000012638820 O
   0.6099205309171035    0.4463799131083990    0.1250000012638819 O
   0.6099205309171034    0.4463799131083990    0.6250000012638819 O
   0.3599206532390974    0.0536205853989028    0.3750000017569179 O
   0.3599206532390974    0.0536205853989028    0.8750000017569178 O
   0.8599206532390975    0.0536205853989028    0.3750000017569179 O
   0.8599206532390974    0.0536205853989028    0.8750000017569179 O
   0.3900793434243295    0.5536205807764004    0.3749999993348932 O
   0.3900793434243296    0.5536205807764004    0.8749999993348931 O
   0.8900793434243294    0.5536205807764004    0.3749999993348932 O
   0.8900793434243294    0.5536205807764003    0.8749999993348933 O
   0.1108789552371945    0.6641569810860132    0.0153379109651842 O
   0.1108789552371945    0.6641569810860132    0.5153379109651842 O
   0.6108789552371945    0.6641569810860132    0.0153379109651842 O
   0.6108789552371945    0.6641569810860132    0.5153379109651842 O
   0.1391210569200201    0.1641569836089700    0.2346620892463529 O
   0.1391210569200201    0.1641569836089700    0.7346620892463529 O
   0.6391210569200200    0.1641569836089700    0.2346620892463529 O
   0.6391210569200201    0.1641569836089700    0.7346620892463528 O
   0.3891210315041087    0.3358431313761717    0.2653378953870665 O
   0.3891210315041087    0.3358431313761717    0.7653378953870666 O
   0.8891210315041087    0.3358431313761717    0.2653378953870666 O
   0.8891210315041087    0.3358431313761717    0.7653378953870665 O
   0.3608789663379141    0.8358431330762836    0.4846621067791415 O
   0.3608789663379142    0.8358431330762834    0.9846621067791415 O
   0.8608789663379142    0.8358431330762836    0.4846621067791415 O
   0.8608789663379142    0.8358431330762836    0.9846621067791416 O
   0.3891210349288258    0.3358431297371842    0.4846620968399620 O
   0.3891210349288258    0.3358431297371842    0.9846620968399621 O
   0.8891210349288258    0.3358431297371842    0.4846620968399620 O
   0.8891210349288257    0.3358431297371842    0.9846620968399621 O
   0.3608789622463249    0.8358431335307365    0.2653379001543540 O
   0.3608789622463249    0.8358431335307364    0.7653379001543540 O
   0.8608789622463248    0.8358431335307364    0.2653379001543540 O
   0.8608789622463248    0.8358431335307365    0.7653379001543541 O
   0.1108789613393230    0.6641569823220626    0.2346620969531759 O
   0.1108789613393231    0.6641569823220626    0.7346620969531761 O
   0.6108789613393231    0.6641569823220626    0.2346620969531759 O
   0.6108789613393231    0.6641569823220626    0.7346620969531759 O
   0.1391210529408392    0.1641569837785160    0.0153379039889319 O
   0.1391210529408392    0.1641569837785160    0.5153379039889320 O
   0.6391210529408391    0.1641569837785160    0.0153379039889319 O
   0.6391210529408391    0.1641569837785160    0.5153379039889320 O
