Na32 V32 P64 O224
1.0
14.228400 0.000000 0.000000
0.000000 20.141800 0.000000
-5.286490 0.000000 15.274229
Na V P O
31 32 64 224
direct
0.574500 0.408950 0.785150 Na
0.425500 0.091050 0.214850 Na
0.425500 0.091050 0.714850 Na
0.425500 0.591050 0.214850 Na
0.425500 0.591050 0.714850 Na
0.925500 0.091050 0.214850 Na
0.925500 0.091050 0.714850 Na
0.925500 0.591050 0.214850 Na
0.925500 0.591050 0.714850 Na
0.074500 0.408950 0.285150 Na
0.074500 0.408950 0.785150 Na
0.074500 0.908950 0.285150 Na
0.074500 0.908950 0.785150 Na
0.574500 0.408950 0.285150 Na
0.574500 0.908950 0.285150 Na
0.574500 0.908950 0.785150 Na
0.074500 0.341050 0.035150 Na
0.074500 0.341050 0.535150 Na
0.074500 0.841050 0.035150 Na
0.074500 0.841050 0.535150 Na
0.574500 0.341050 0.035150 Na
0.574500 0.841050 0.035150 Na
0.574500 0.841050 0.535150 Na
0.425500 0.158950 0.464850 Na
0.425500 0.158950 0.964850 Na
0.425500 0.658950 0.464850 Na
0.425500 0.658950 0.964850 Na
0.925500 0.158950 0.464850 Na
0.925500 0.158950 0.964850 Na
0.925500 0.658950 0.464850 Na
0.925500 0.658950 0.964850 Na
0.116450 0.051100 0.130850 V
0.116450 0.051100 0.630850 V
0.116450 0.551100 0.130850 V
0.116450 0.551100 0.630850 V
0.616450 0.051100 0.130850 V
0.616450 0.051100 0.630850 V
0.616450 0.551100 0.130850 V
0.616450 0.551100 0.630850 V
0.383550 0.448900 0.369150 V
0.383550 0.448900 0.869150 V
0.383550 0.948900 0.369150 V
0.383550 0.948900 0.869150 V
0.883550 0.448900 0.369150 V
0.883550 0.448900 0.869150 V
0.883550 0.948900 0.369150 V
0.883550 0.948900 0.869150 V
0.383550 0.301100 0.119150 V
0.383550 0.301100 0.619150 V
0.383550 0.801100 0.119150 V
0.383550 0.801100 0.619150 V
0.883550 0.301100 0.119150 V
0.883550 0.301100 0.619150 V
0.883550 0.801100 0.119150 V
0.883550 0.801100 0.619150 V
0.116450 0.198900 0.380850 V
0.116450 0.198900 0.880850 V
0.116450 0.698900 0.380850 V
0.116450 0.698900 0.880850 V
0.616450 0.198900 0.380850 V
0.616450 0.198900 0.880850 V
0.616450 0.698900 0.380850 V
0.616450 0.698900 0.880850 V
0.072050 0.202050 0.163950 P
0.072050 0.202050 0.663950 P
0.072050 0.702050 0.163950 P
0.072050 0.702050 0.663950 P
0.572050 0.202050 0.163950 P
0.572050 0.202050 0.663950 P
0.572050 0.702050 0.163950 P
0.572050 0.702050 0.663950 P
0.427950 0.297950 0.336050 P
0.427950 0.297950 0.836050 P
0.427950 0.797950 0.336050 P
0.427950 0.797950 0.836050 P
0.927950 0.297950 0.336050 P
0.927950 0.297950 0.836050 P
0.927950 0.797950 0.336050 P
0.927950 0.797950 0.836050 P
0.427950 0.452050 0.086050 P
0.427950 0.452050 0.586050 P
0.427950 0.952050 0.086050 P
0.427950 0.952050 0.586050 P
0.927950 0.452050 0.086050 P
0.927950 0.452050 0.586050 P
0.927950 0.952050 0.086050 P
0.927950 0.952050 0.586050 P
0.072050 0.047950 0.413950 P
0.072050 0.047950 0.913950 P
0.072050 0.547950 0.413950 P
0.072050 0.547950 0.913950 P
0.572050 0.047950 0.413950 P
0.572050 0.047950 0.913950 P
0.572050 0.547950 0.413950 P
0.572050 0.547950 0.913950 P
0.230500 0.178200 0.100150 P
0.230500 0.178200 0.600150 P
0.230500 0.678200 0.100150 P
0.230500 0.678200 0.600150 P
0.730500 0.178200 0.100150 P
0.730500 0.178200 0.600150 P
0.730500 0.678200 0.100150 P
0.730500 0.678200 0.600150 P
0.269500 0.321800 0.399850 P
0.269500 0.321800 0.899850 P
0.269500 0.821800 0.399850 P
0.269500 0.821800 0.899850 P
0.769500 0.321800 0.399850 P
0.769500 0.321800 0.899850 P
0.769500 0.821800 0.399850 P
0.769500 0.821800 0.899850 P
0.269500 0.428200 0.149850 P
0.269500 0.428200 0.649850 P
0.269500 0.928200 0.149850 P
0.269500 0.928200 0.649850 P
0.769500 0.428200 0.149850 P
0.769500 0.428200 0.649850 P
0.769500 0.928200 0.149850 P
0.769500 0.928200 0.649850 P
0.230500 0.071800 0.350150 P
0.230500 0.071800 0.850150 P
0.230500 0.571800 0.350150 P
0.230500 0.571800 0.850150 P
0.730500 0.071800 0.350150 P
0.730500 0.071800 0.850150 P
0.730500 0.571800 0.350150 P
0.730500 0.571800 0.850150 P
0.069000 0.200250 0.257000 O
0.069000 0.200250 0.757000 O
0.069000 0.700250 0.257000 O
0.069000 0.700250 0.757000 O
0.569000 0.200250 0.257000 O
0.569000 0.200250 0.757000 O
0.569000 0.700250 0.257000 O
0.569000 0.700250 0.757000 O
0.431000 0.299750 0.243000 O
0.431000 0.299750 0.743000 O
0.431000 0.799750 0.243000 O
0.431000 0.799750 0.743000 O
0.931000 0.299750 0.243000 O
0.931000 0.299750 0.743000 O
0.931000 0.799750 0.243000 O
0.931000 0.799750 0.743000 O
0.431000 0.450250 0.493000 O
0.431000 0.450250 0.993000 O
0.431000 0.950250 0.493000 O
0.431000 0.950250 0.993000 O
0.931000 0.450250 0.493000 O
0.931000 0.450250 0.993000 O
0.931000 0.950250 0.493000 O
0.931000 0.950250 0.993000 O
0.069000 0.049750 0.007000 O
0.069000 0.049750 0.507000 O
0.069000 0.549750 0.007000 O
0.069000 0.549750 0.507000 O
0.569000 0.049750 0.007000 O
0.569000 0.049750 0.507000 O
0.569000 0.549750 0.007000 O
0.569000 0.549750 0.507000 O
0.156500 0.187200 0.008000 O
0.156500 0.187200 0.508000 O
0.156500 0.687200 0.008000 O
0.156500 0.687200 0.508000 O
0.656500 0.187200 0.008000 O
0.656500 0.187200 0.508000 O
0.656500 0.687200 0.008000 O
0.656500 0.687200 0.508000 O
0.343500 0.312800 0.492000 O
0.343500 0.312800 0.992000 O
0.343500 0.812800 0.492000 O
0.343500 0.812800 0.992000 O
0.843500 0.312800 0.492000 O
0.843500 0.312800 0.992000 O
0.843500 0.812800 0.492000 O
0.843500 0.812800 0.992000 O
0.343500 0.437200 0.242000 O
0.343500 0.437200 0.742000 O
0.343500 0.937200 0.242000 O
0.343500 0.937200 0.742000 O
0.843500 0.437200 0.242000 O
0.843500 0.437200 0.742000 O
0.843500 0.937200 0.242000 O
0.843500 0.937200 0.742000 O
0.156500 0.062800 0.258000 O
0.156500 0.062800 0.758000 O
0.156500 0.562800 0.258000 O
0.156500 0.562800 0.758000 O
0.656500 0.062800 0.258000 O
0.656500 0.062800 0.758000 O
0.656500 0.562800 0.258000 O
0.656500 0.562800 0.758000 O
0.005500 0.257500 0.107000 O
0.005500 0.257500 0.607000 O
0.005500 0.757500 0.107000 O
0.005500 0.757500 0.607000 O
0.505500 0.257500 0.107000 O
0.505500 0.257500 0.607000 O
0.505500 0.757500 0.107000 O
0.505500 0.757500 0.607000 O
0.494500 0.242500 0.393000 O
0.494500 0.242500 0.893000 O
0.494500 0.742500 0.393000 O
0.494500 0.742500 0.893000 O
0.994500 0.242500 0.393000 O
0.994500 0.242500 0.893000 O
0.994500 0.742500 0.393000 O
0.994500 0.742500 0.893000 O
0.494500 0.007500 0.143000 O
0.494500 0.007500 0.643000 O
0.494500 0.507500 0.143000 O
0.494500 0.507500 0.643000 O
0.994500 0.007500 0.143000 O
0.994500 0.007500 0.643000 O
0.994500 0.507500 0.143000 O
0.994500 0.507500 0.643000 O
0.005500 0.492500 0.357000 O
0.005500 0.492500 0.857000 O
0.005500 0.992500 0.357000 O
0.005500 0.992500 0.857000 O
0.505500 0.492500 0.357000 O
0.505500 0.492500 0.857000 O
0.505500 0.992500 0.357000 O
0.505500 0.992500 0.857000 O
0.231000 0.106050 0.126000 O
0.231000 0.106050 0.626000 O
0.231000 0.606050 0.126000 O
0.231000 0.606050 0.626000 O
0.731000 0.106050 0.126000 O
0.731000 0.106050 0.626000 O
0.731000 0.606050 0.126000 O
0.731000 0.606050 0.626000 O
0.269000 0.393950 0.374000 O
0.269000 0.393950 0.874000 O
0.269000 0.893950 0.374000 O
0.269000 0.893950 0.874000 O
0.769000 0.393950 0.374000 O
0.769000 0.393950 0.874000 O
0.769000 0.893950 0.374000 O
0.769000 0.893950 0.874000 O
0.269000 0.356050 0.124000 O
0.269000 0.356050 0.624000 O
0.269000 0.856050 0.124000 O
0.269000 0.856050 0.624000 O
0.769000 0.356050 0.124000 O
0.769000 0.356050 0.624000 O
0.769000 0.856050 0.124000 O
0.769000 0.856050 0.624000 O
0.231000 0.143950 0.376000 O
0.231000 0.143950 0.876000 O
0.231000 0.643950 0.376000 O
0.231000 0.643950 0.876000 O
0.731000 0.143950 0.376000 O
0.731000 0.143950 0.876000 O
0.731000 0.643950 0.376000 O
0.731000 0.643950 0.876000 O
0.336500 0.210500 0.116500 O
0.336500 0.210500 0.616500 O
0.336500 0.710500 0.116500 O
0.336500 0.710500 0.616500 O
0.836500 0.210500 0.116500 O
0.836500 0.210500 0.616500 O
0.836500 0.710500 0.116500 O
0.836500 0.710500 0.616500 O
0.163500 0.289500 0.383500 O
0.163500 0.289500 0.883500 O
0.163500 0.789500 0.383500 O
0.163500 0.789500 0.883500 O
0.663500 0.289500 0.383500 O
0.663500 0.289500 0.883500 O
0.663500 0.789500 0.383500 O
0.663500 0.789500 0.883500 O
0.163500 0.460500 0.133500 O
0.163500 0.460500 0.633500 O
0.163500 0.960500 0.133500 O
0.163500 0.960500 0.633500 O
0.663500 0.460500 0.133500 O
0.663500 0.460500 0.633500 O
0.663500 0.960500 0.133500 O
0.663500 0.960500 0.633500 O
0.336500 0.039500 0.366500 O
0.336500 0.039500 0.866500 O
0.336500 0.539500 0.366500 O
0.336500 0.539500 0.866500 O
0.836500 0.039500 0.366500 O
0.836500 0.039500 0.866500 O
0.836500 0.539500 0.366500 O
0.836500 0.539500 0.866500 O
0.044000 0.136050 0.118000 O
0.044000 0.136050 0.618000 O
0.044000 0.636050 0.118000 O
0.044000 0.636050 0.618000 O
0.544000 0.136050 0.118000 O
0.544000 0.136050 0.618000 O
0.544000 0.636050 0.118000 O
0.544000 0.636050 0.618000 O
0.456000 0.363950 0.382000 O
0.456000 0.363950 0.882000 O
0.456000 0.863950 0.382000 O
0.456000 0.863950 0.882000 O
0.956000 0.363950 0.382000 O
0.956000 0.363950 0.882000 O
0.956000 0.863950 0.382000 O
0.956000 0.863950 0.882000 O
0.456000 0.386050 0.132000 O
0.456000 0.386050 0.632000 O
0.456000 0.886050 0.132000 O
0.456000 0.886050 0.632000 O
0.956000 0.386050 0.132000 O
0.956000 0.386050 0.632000 O
0.956000 0.886050 0.132000 O
0.956000 0.886050 0.632000 O
0.044000 0.113950 0.368000 O
0.044000 0.113950 0.868000 O
0.044000 0.613950 0.368000 O
0.044000 0.613950 0.868000 O
0.544000 0.113950 0.368000 O
0.544000 0.113950 0.868000 O
0.544000 0.613950 0.368000 O
0.544000 0.613950 0.868000 O
0.182500 0.215050 0.163500 O
0.182500 0.215050 0.663500 O
0.182500 0.715050 0.163500 O
0.182500 0.715050 0.663500 O
0.682500 0.215050 0.163500 O
0.682500 0.215050 0.663500 O
0.682500 0.715050 0.163500 O
0.682500 0.715050 0.663500 O
0.317500 0.284950 0.336500 O
0.317500 0.284950 0.836500 O
0.317500 0.784950 0.336500 O
0.317500 0.784950 0.836500 O
0.817500 0.284950 0.336500 O
0.817500 0.284950 0.836500 O
0.817500 0.784950 0.336500 O
0.817500 0.784950 0.836500 O
0.317500 0.465050 0.086500 O
0.317500 0.465050 0.586500 O
0.317500 0.965050 0.086500 O
0.317500 0.965050 0.586500 O
0.817500 0.465050 0.086500 O
0.817500 0.465050 0.586500 O
0.817500 0.965050 0.086500 O
0.817500 0.965050 0.586500 O
0.182500 0.034950 0.413500 O
0.182500 0.034950 0.913500 O
0.182500 0.534950 0.413500 O
0.182500 0.534950 0.913500 O
0.682500 0.034950 0.413500 O
0.682500 0.034950 0.913500 O
0.682500 0.534950 0.413500 O
0.682500 0.534950 0.913500 O
