Li16 Fe16 B16 O48                       
   1.00000000000000     
    -0.0581082157994119   10.2501131868921966   -0.2337593978499677
     9.0148269777977763   -0.0519959694209432   -0.0323718928670981
     0.0382548635303396   -0.0054272153952932  -10.6293613435058170
   Li   Fe   B    O 
     1    16    16    48
Direct
   0.6543604992118830    0.2435111088776836    0.9485392495480980 Li
  0.3783974565489071  0.0775912651084222  0.5433279659280871
  0.8685528366427484  0.4184001856732090  0.5488353765223021
  0.1230601905157558  0.5755020600395881  0.4543241958825516
  0.6278948466777169  0.9166383458521288  0.4530282316210662
  0.3728416945875860  0.5739854341399270  0.2970681282733248
  0.8773454292683608  0.9181483112081473  0.2980535089960003
  0.1286523158484658  0.0783845903416195  0.2007117094379085
  0.6224059264040452  0.4173620615628570  0.2009126020729157
  0.3796718753288688  0.0814331720484823  0.0500857545871846
  0.8725030031373748  0.4195451279619949  0.0475702633413648
  0.1230534281591902  0.5855942464510112  0.9528930584720953
  0.6287988375481716  0.9209284483057113  0.9542941246212850
  0.3721958189996563  0.5948784188867813  0.7958087289348593
  0.8762614448874571  0.9203411802813813  0.7967206419514690
  0.1235059829968878  0.0840139418175168  0.6982692474607611
  0.6224285336944451  0.4200151322494936  0.7063278909943526
  0.3705595510443027  0.4143467576595322  0.5484756446454635
  0.8730592116429945  0.0819917344800655  0.5429560497492647
  0.1265566192928805  0.9142501618961949  0.4565596247231291
  0.6202174033307396  0.5773434034496920  0.4553061349186552
  0.3769128956813377  0.9133068657536250  0.2934673204405662
  0.8733553482067273  0.5795561363006850  0.2940740111169545
  0.1255484344750254  0.4180525352261212  0.2050805827024081
  0.6278380870738617  0.0812950462231162  0.2078426079772555
  0.3749009621886463  0.4174929977626776  0.0376186616617320
  0.8770785768782307  0.0803899209613714  0.0441714210270569
  0.1285104162257423  0.9234057580248114  0.9539137479081209
  0.6231527565976526  0.5832600027114944  0.9551612559514988
  0.3775325170683339  0.9286503675324134  0.7947743727003125
  0.8726962015019074  0.5821503653132493  0.7940695902560937
  0.1288611204888969  0.4230343283822148  0.7065059122660463
  0.6220485538681078  0.0819685764561835  0.7069289460080630
  0.0630340451553280  0.4467059698911880  0.5953103065269384
  0.5705281385226459  0.0462587592209955  0.5906062170425199
  0.1289244341460653  0.7718177465127338  0.4967271711145249
  0.6278051668187880  0.7189895144195181  0.4957251536718830
  0.1831345964026187  0.0268743997356047  0.5283407613470064
  0.6676985883190545  0.4611776258074634  0.5284892965639393
  0.3231349222540157  0.5326418651224548  0.4789359296765470
  0.8250936119787098  0.9609347540696767  0.4766629980764491
  0.3733508947843451  0.2750947292123457  0.5013191886963856
  0.8606265651960188  0.2228543878142461  0.5009781764409944
  0.4356556449364941  0.9483207144644683  0.4066836908135770
  0.9299045276907197  0.5435380005132094  0.4085249067528735
  0.0688400273388871  0.9536098572697693  0.3441526039085990
  0.5645991784826142  0.5432947376278204  0.3401221910965396
  0.1362238029679984  0.2752596492479387  0.2426231531571872
  0.6293493534671603  0.2221590162627526  0.2507367276973073
  0.1762456189171205  0.5328619289843136  0.2778525806332224
  0.6812932468357370  0.9648127391658134  0.2759806784129922
  0.3249235216346323  0.0301670857671260  0.2238116232926304
  0.8198535618764707  0.4647413254609641  0.2234508267920266
  0.3702130491687506  0.7716654298003812  0.2529428404504151
  0.8705155659170511  0.7220210901679287  0.2535203036878180
  0.4264150799833261  0.4429192222304066  0.1556035894575112
  0.9367284114677457  0.0460680012563726  0.1571946273227523
  0.0657745738154960  0.4549392142018356  0.0926421227764278
  0.5711380254017872  0.0492196109633852  0.0927689280681692
  0.1329452859862519  0.7819183261058885  0.9968218836595339
  0.6295691498893331  0.7236048860920002  0.9987551032091417
  0.1820612374065244  0.0405280926670656  0.0217767115785301
  0.6737787883631616  0.4642977864648052  0.0229055962218286
  0.3216007345202390  0.5361137186086424  0.9714791413560850
  0.8260914816394980  0.9631498003971799  0.9745130233354454
  0.3759311551218426  0.2789748017141390  0.9845249182455992
  0.8682502353860696  0.2225993440160566  0.0036655769521711
  0.4346726647840920  0.9535968106463468  0.9104300973881654
  0.9312801858494699  0.5484864615273610  0.9078049336526584
  0.0701401161296269  0.9564206042698000  0.8396746327564976
  0.5643902494411631  0.5536963734808800  0.8400845637360385
  0.1572414771878742  0.2824133923762017  0.7462285081594977
  0.6105190795745156  0.2220814989979964  0.7528238175783606
  0.1726771658885648  0.5451192341897277  0.7742998187743447
  0.6801573545799490  0.9699608310860023  0.7763858956788733
  0.3311832341796147  0.0535831521161322  0.7302646577725903
  0.8181305268057775  0.4647684604375791  0.7263088908757125
  0.3680047775215546  0.7908487007954569  0.7460621995160194
  0.8681952841148745  0.7238435141062179  0.7515868127539838
  0.4151059935509611  0.4384663368734423  0.6714443412238271
  0.9343854437394665  0.0547695378721437  0.6572460070382108
 
  0.00000000E+00  0.00000000E+00  0.00000000E+00
  0.00000000E+00  0.00000000E+00  0.00000000E+00
  0.00000000E+00  0.00000000E+00  0.00000000E+00
  0.00000000E+00  0.00000000E+00  0.00000000E+00
  0.00000000E+00  0.00000000E+00  0.00000000E+00
  0.00000000E+00  0.00000000E+00  0.00000000E+00
  0.00000000E+00  0.00000000E+00  0.00000000E+00
  0.00000000E+00  0.00000000E+00  0.00000000E+00
  0.00000000E+00  0.00000000E+00  0.00000000E+00
  0.00000000E+00  0.00000000E+00  0.00000000E+00
  0.00000000E+00  0.00000000E+00  0.00000000E+00
  0.00000000E+00  0.00000000E+00  0.00000000E+00
  0.00000000E+00  0.00000000E+00  0.00000000E+00
  0.00000000E+00  0.00000000E+00  0.00000000E+00
  0.00000000E+00  0.00000000E+00  0.00000000E+00
  0.00000000E+00  0.00000000E+00  0.00000000E+00
  0.00000000E+00  0.00000000E+00  0.00000000E+00
  0.00000000E+00  0.00000000E+00  0.00000000E+00
  0.00000000E+00  0.00000000E+00  0.00000000E+00
  0.00000000E+00  0.00000000E+00  0.00000000E+00
  0.00000000E+00  0.00000000E+00  0.00000000E+00
  0.00000000E+00  0.00000000E+00  0.00000000E+00
  0.00000000E+00  0.00000000E+00  0.00000000E+00
  0.00000000E+00  0.00000000E+00  0.00000000E+00
  0.00000000E+00  0.00000000E+00  0.00000000E+00
  0.00000000E+00  0.00000000E+00  0.00000000E+00
  0.00000000E+00  0.00000000E+00  0.00000000E+00
  0.00000000E+00  0.00000000E+00  0.00000000E+00
  0.00000000E+00  0.00000000E+00  0.00000000E+00
  0.00000000E+00  0.00000000E+00  0.00000000E+00
  0.00000000E+00  0.00000000E+00  0.00000000E+00
  0.00000000E+00  0.00000000E+00  0.00000000E+00
  0.00000000E+00  0.00000000E+00  0.00000000E+00
  0.00000000E+00  0.00000000E+00  0.00000000E+00
  0.00000000E+00  0.00000000E+00  0.00000000E+00
  0.00000000E+00  0.00000000E+00  0.00000000E+00
  0.00000000E+00  0.00000000E+00  0.00000000E+00
  0.00000000E+00  0.00000000E+00  0.00000000E+00
  0.00000000E+00  0.00000000E+00  0.00000000E+00
  0.00000000E+00  0.00000000E+00  0.00000000E+00
  0.00000000E+00  0.00000000E+00  0.00000000E+00
  0.00000000E+00  0.00000000E+00  0.00000000E+00
  0.00000000E+00  0.00000000E+00  0.00000000E+00
  0.00000000E+00  0.00000000E+00  0.00000000E+00
  0.00000000E+00  0.00000000E+00  0.00000000E+00
  0.00000000E+00  0.00000000E+00  0.00000000E+00
  0.00000000E+00  0.00000000E+00  0.00000000E+00
  0.00000000E+00  0.00000000E+00  0.00000000E+00
  0.00000000E+00  0.00000000E+00  0.00000000E+00
  0.00000000E+00  0.00000000E+00  0.00000000E+00
  0.00000000E+00  0.00000000E+00  0.00000000E+00
  0.00000000E+00  0.00000000E+00  0.00000000E+00
  0.00000000E+00  0.00000000E+00  0.00000000E+00
  0.00000000E+00  0.00000000E+00  0.00000000E+00
  0.00000000E+00  0.00000000E+00  0.00000000E+00
  0.00000000E+00  0.00000000E+00  0.00000000E+00
  0.00000000E+00  0.00000000E+00  0.00000000E+00
  0.00000000E+00  0.00000000E+00  0.00000000E+00
  0.00000000E+00  0.00000000E+00  0.00000000E+00
  0.00000000E+00  0.00000000E+00  0.00000000E+00
  0.00000000E+00  0.00000000E+00  0.00000000E+00
  0.00000000E+00  0.00000000E+00  0.00000000E+00
  0.00000000E+00  0.00000000E+00  0.00000000E+00
  0.00000000E+00  0.00000000E+00  0.00000000E+00
  0.00000000E+00  0.00000000E+00  0.00000000E+00
  0.00000000E+00  0.00000000E+00  0.00000000E+00
  0.00000000E+00  0.00000000E+00  0.00000000E+00
  0.00000000E+00  0.00000000E+00  0.00000000E+00
  0.00000000E+00  0.00000000E+00  0.00000000E+00
  0.00000000E+00  0.00000000E+00  0.00000000E+00
  0.00000000E+00  0.00000000E+00  0.00000000E+00
  0.00000000E+00  0.00000000E+00  0.00000000E+00
  0.00000000E+00  0.00000000E+00  0.00000000E+00
  0.00000000E+00  0.00000000E+00  0.00000000E+00
  0.00000000E+00  0.00000000E+00  0.00000000E+00
  0.00000000E+00  0.00000000E+00  0.00000000E+00
  0.00000000E+00  0.00000000E+00  0.00000000E+00
  0.00000000E+00  0.00000000E+00  0.00000000E+00
  0.00000000E+00  0.00000000E+00  0.00000000E+00
  0.00000000E+00  0.00000000E+00  0.00000000E+00
  0.00000000E+00  0.00000000E+00  0.00000000E+00
