Ca1 Cr12 F42                            
   1.00000000000000     
     7.2357800000000001   -0.0323450000000000   -0.0181190000000000
    -3.5963720000000001    6.3176560000000004   -0.1047990000000000
     0.0337330000000000   -0.2356240000000000   17.3703719999999997
   Ca   Cr   F 
     1    12    42
Direct
  0.7304542022703204  0.9382547813148097  0.8015618460380372
  0.2999595806724745  0.0087417572788811  0.3317180820871032
  0.6892593352292653  0.6741999924951203  0.0019021627590706
  0.0295812505262051  0.3411046730186836  0.6573230994714674
  0.3172199670894816  0.9661563540744487  0.8414286414639277
  0.6644959599213878  0.6788656727263727  0.4975735289694769
  0.9984233208784047  0.3433186694283510  0.1662199099373310
  0.6670191291167368  0.1789375350678798  0.4946843703609359
  0.4984459714564023  0.3435444786994916  0.1673589515805086
  0.8270357737080949  0.4698692743412988  0.8371332490206848
  0.3167151651825461  0.4577666087049959  0.8395811497904880
  0.1646821360358068  0.6822107696682989  0.4987277011562450
  0.4978818255130986  0.8436613265900477  0.1654736016621261
  0.5321714375795054  0.7822825275670809  0.0586129494044163
  0.2578158227585582  0.4931092907995817  0.7340969854363361
  0.2018175591940215  0.7601185004218066  0.3929326942255369
  0.4274805176836276  0.2596274862736641  0.2711068656175544
  0.8309974996067159  0.5512164070365273  0.9417674726383565
  0.7717251898753422  0.2076885330185293  0.5979406297354954
  0.9408472430243148  0.0877036704837765  0.7083142352802254
  0.1992929828688611  0.1241235060015728  0.3952403593125806
  0.9152343184541161  0.8208695159514312  0.0603796382167183
  0.1821279346324807  0.2801193055691598  0.5943635535165588
  0.0818383714499854  0.8783643158589680  0.2694522415802296
  0.7669811496055727  0.8749790431538479  0.9264740242255622
  0.1180290739394119  0.6047937100978210  0.6057833879286214
  0.4519348334992913  0.8955603598343880  0.2703890334698550
  0.4162142382038917  0.4648869221608464  0.9404826305341026
  0.8379140251164767  0.3865953795578234  0.7335068885320767
  0.5676805594587607  0.1447047308265924  0.3911036835881596
  0.5809945364154127  0.4315274878762199  0.0647553059209012
  0.3702167131844608  0.5909283241980244  0.4844980908175648
  0.1997117314226940  0.6369816054232582  0.1531914226199270
  0.3868905332498757  0.7458384694285526  0.8663627246298532
  0.6174092832798638  0.1817071114743309  0.8653046339117091
  0.5893842957535650  0.3908417773699375  0.5186984628677211
  0.7884865354692655  0.4229669072949448  0.1912951948327662
  0.6818721670748558  0.6286213751613646  0.3987661473594783
  0.9287174088953991  0.3157064144448205  0.0671743113119856
  0.4482653568952426 -0.0482656394559051  0.7480656390583605
  0.2386927592620806  0.9774997486852725  0.9375196034525409
  0.6470575158896563  0.7273784872337374  0.5977442216287060
  0.0679331113389175  0.3678063146885553  0.2647653520403033
  0.9610465948987758  0.7752192814372265  0.5115974547076654
  0.7949784972956973  0.0488604896606251  0.1781710990210055
  0.2472104560235391  0.1753141649038631  0.8113765652068985
  0.0305219676694486  0.7553983965225229  0.8092883865488728
  0.7461966178274668  0.9674933842231646  0.4747301311704103
  0.2101678658002260  0.2645005323806546  0.1421981056747081
  0.6153349253418392  0.5580266347506986  0.8078121974397359
  0.9453384178475969  0.4003936628376963  0.4655081452426418
  0.4390839476863241  0.0623723767136320  0.1345296807755363
  0.3897722951548049  0.9632051433860213  0.5287967279422725
  0.5582346577983697  0.6262731995888061  0.1974058689158550
  0.0218960549247148  0.3635090968144356  0.8626503363219179
 
             NaN             NaN             NaN
             NaN             NaN             NaN
             NaN             NaN             NaN
             NaN             NaN             NaN
             NaN             NaN             NaN
             NaN             NaN             NaN
             NaN             NaN             NaN
             NaN             NaN             NaN
             NaN             NaN             NaN
             NaN             NaN             NaN
             NaN             NaN             NaN
             NaN             NaN             NaN
             NaN             NaN             NaN
             NaN             NaN             NaN
             NaN             NaN             NaN
             NaN             NaN             NaN
             NaN             NaN             NaN
             NaN             NaN             NaN
             NaN             NaN             NaN
             NaN             NaN             NaN
             NaN             NaN             NaN
             NaN             NaN             NaN
             NaN             NaN             NaN
             NaN             NaN             NaN
             NaN             NaN             NaN
             NaN             NaN             NaN
             NaN             NaN             NaN
             NaN             NaN             NaN
             NaN             NaN             NaN
             NaN             NaN             NaN
             NaN             NaN             NaN
             NaN             NaN             NaN
             NaN             NaN             NaN
             NaN             NaN             NaN
             NaN             NaN             NaN
             NaN             NaN             NaN
             NaN             NaN             NaN
             NaN             NaN             NaN
             NaN             NaN             NaN
             NaN             NaN             NaN
             NaN             NaN             NaN
             NaN             NaN             NaN
             NaN             NaN             NaN
             NaN             NaN             NaN
             NaN             NaN             NaN
             NaN             NaN             NaN
             NaN             NaN             NaN
             NaN             NaN             NaN
             NaN             NaN             NaN
             NaN             NaN             NaN
             NaN             NaN             NaN
             NaN             NaN             NaN
             NaN             NaN             NaN
             NaN             NaN             NaN
             NaN             NaN             NaN
