Ca1 Cr12 F42
1.0
7.235780 -0.032345 -0.018119
-3.596372 6.317656 -0.104799
0.033733 -0.235624 17.370372
Ca Cr F
1 12 42
direct
0.721622 0.939995 0.773607 Ca
0.284778 0.000743 0.332892 Cr
0.701407 0.685124 0.007902 Cr
0.016443 0.315245 0.659618 Cr
0.353559 0.995385 0.836550 Cr
0.653551 0.658102 0.495679 Cr
0.991447 0.343420 0.168732 Cr
0.654923 0.159923 0.495160 Cr
0.489568 0.340653 0.168705 Cr
0.854650 0.495883 0.835704 Cr
0.353165 0.492557 0.835316 Cr
0.153663 0.660650 0.497349 Cr
0.492803 0.842788 0.169193 Cr
0.555572 0.802707 0.065025 F
0.270595 0.448625 0.727454 F
0.174695 0.748199 0.393597 F
0.426989 0.253412 0.272946 F
0.819159 0.547752 0.941527 F
0.752096 0.199650 0.601376 F
0.884135 0.074932 0.718442 F
0.194726 0.123369 0.397826 F
0.919395 0.789296 0.071637 F
0.130032 0.210235 0.595249 F
0.066082 0.881479 0.270433 F
0.810336 0.910240 0.944966 F
0.139402 0.580597 0.604435 F
0.425552 0.876223 0.272545 F
0.440979 0.549214 0.939494 F
0.890331 0.444757 0.730385 F
0.554763 0.121220 0.392042 F
0.554031 0.425789 0.063951 F
0.360651 0.574957 0.475766 F
0.199283 0.632758 0.148603 F
0.452917 0.790452 0.817519 F
0.656381 0.198480 0.850368 F
0.569386 0.367499 0.515493 F
0.783794 0.428326 0.188880 F
0.690322 0.619059 0.397480 F
0.916575 0.299556 0.069998 F
0.382518 0.045171 0.732787 F
0.327108 0.938827 0.936645 F
0.617261 0.699190 0.597105 F
0.066749 0.386036 0.267065 F
0.946194 0.743755 0.519473 F
0.785161 0.052444 0.188742 F
0.251249 0.196097 0.850043 F
0.052007 0.792181 0.819931 F
0.740068 0.950964 0.478344 F
0.196981 0.254755 0.148430 F
0.638259 0.563971 0.805235 F
0.933306 0.378944 0.465574 F
0.433170 0.060503 0.137016 F
0.380442 0.939512 0.530953 F
0.549669 0.622395 0.200384 F
0.068916 0.424403 0.864477 F
