Ca1 Ti12 F42                            
   1.00000000000000     
     7.5133409999999996   -0.0002450000000000    0.0473430000000000
    -3.7464189999999999    6.5013350000000001   -0.0068540000000000
    -0.0118680000000000    0.0274610000000000   17.6741470000000014
   Ca   Ti   F 
     1    12    42
Direct
  0.8196001865270497  0.5705166278880982  0.3002952967121345
  0.2989001241180846  0.0141701147677373  0.3352384538496567
  0.7284304030402816  0.7313760098080524  0.9971988868763374
  0.0077634934353618  0.2760433048508829  0.6684374653069052
  0.3604173109929024  1.0050537194352163  0.8331927129703295
  0.6468432190565347  0.6568576216114160  0.5099646552801108
  0.9812466831680554  0.3403612086206377  0.1636602082642181
  0.6497609466776916  0.1548519983993822  0.5046008351352260
  0.4794342681731976  0.3405728331150137  0.1555770120266138
  0.8610858596832340  0.5029482296238924  0.8319967970313382
  0.3626809797792299  0.5065453134188892  0.8329446337998213
  0.1480366698436635  0.6530537707908557  0.5046346327547386
  0.4906251299352096  0.8440189169005493  0.1662847417585143
  0.5765879367436257  0.8217795407594299  0.0630051317278415
  0.2566784108113461  0.4261918912346305  0.7288868415454728
  0.1611188524741346  0.7486317960594604  0.3960181621879556
  0.4650290862429468  0.2720888722901696  0.2695517983324407
  0.8285090726459304  0.5810059328749654  0.9364233010470605
  0.7579144123052148  0.1788799772091486  0.6074155379395331
  0.8925106191976298  0.0682804304264774  0.7336079726837248
  0.1813098937379454  0.1263443239353124  0.3903780184700961
  0.9221423832566757  0.8019654095104088  0.0673821904944114
  0.1219136078310458  0.1877081058844445  0.6008807448394480
  0.0697879384901723  0.8767445271013137  0.2660445178007085
  0.8310197929089569  0.9480426390037364  0.9363366152306342
  0.1156773654602706  0.5428646335586065  0.6055481707337145
  0.4272411488750672  0.8822163045498314  0.2724178500353743
  0.4681505444917987  0.5854529888591771  0.9348015526536856
  0.8949334731333189  0.4304181325594795  0.7298973419683680
  0.5541105428524331  0.1316988661902901  0.3988354215400444
  0.5480258290999483  0.4527025375313672  0.0566959594364885
  0.3592121058737432  0.5805124008471049  0.4822657627470955
  0.2105547189989584  0.6282884959116776  0.1479539315959379
  0.4362494413434184  0.7893897765986650  0.8108300255503669
  0.6523125686825826  0.2199534816623011  0.8542960701331289
  0.5752073878726385  0.3642226725223962  0.5253177182995760
  0.7758647174718396  0.4474747316866883  0.1762083539861412
  0.6885480547392597  0.6175903319125505  0.4031935902643551
  0.9032826544395487  0.3034692219629879  0.0669933442604657
  0.3977040665136400  0.0823337780365768  0.7343987177565369
  0.3215366754527841  0.9293895924904576  0.9323086613900324
  0.6103833825631433  0.6948107956508894  0.6070542463241106
 -0.0040514239163694  0.4052795817925876  0.2704989895761900
  0.9402265595311855  0.7310488466517203  0.5240365005570665
  0.7732132069446276  0.0524009439704149  0.1903109737152362
  0.2852686394358770  0.2219910197115486  0.8547608006247439
  0.0687325416232305  0.7890580162487225  0.8127972376212380
  0.7278642891379090  0.9469405376765919  0.4829142859937391
  0.1903424071672486  0.2570993746411035  0.1569706551656658
  0.6369878658257456  0.5543574202392364  0.8026550307049805
  0.9235086830619733  0.3805052045777769  0.4700938972067190
  0.4399203487801842  0.0672162958765662  0.1364912532397296
  0.3726358696306400  0.9292868307738753  0.5299629255165290
  0.5503200448664483  0.6201344493432165  0.2013284079943354
  0.0864043288610225  0.4547351369663586  0.8623348681867140
 
             NaN             NaN             NaN
             NaN             NaN             NaN
             NaN             NaN             NaN
             NaN             NaN             NaN
             NaN             NaN             NaN
             NaN             NaN             NaN
             NaN             NaN             NaN
             NaN             NaN             NaN
             NaN             NaN             NaN
             NaN             NaN             NaN
             NaN             NaN             NaN
             NaN             NaN             NaN
             NaN             NaN             NaN
             NaN             NaN             NaN
             NaN             NaN             NaN
             NaN             NaN             NaN
             NaN             NaN             NaN
             NaN             NaN             NaN
             NaN             NaN             NaN
             NaN             NaN             NaN
             NaN             NaN             NaN
             NaN             NaN             NaN
             NaN             NaN             NaN
             NaN             NaN             NaN
             NaN             NaN             NaN
             NaN             NaN             NaN
             NaN             NaN             NaN
             NaN             NaN             NaN
             NaN             NaN             NaN
             NaN             NaN             NaN
             NaN             NaN             NaN
             NaN             NaN             NaN
             NaN             NaN             NaN
             NaN             NaN             NaN
             NaN             NaN             NaN
             NaN             NaN             NaN
             NaN             NaN             NaN
             NaN             NaN             NaN
             NaN             NaN             NaN
             NaN             NaN             NaN
             NaN             NaN             NaN
             NaN             NaN             NaN
             NaN             NaN             NaN
             NaN             NaN             NaN
             NaN             NaN             NaN
             NaN             NaN             NaN
             NaN             NaN             NaN
             NaN             NaN             NaN
             NaN             NaN             NaN
             NaN             NaN             NaN
             NaN             NaN             NaN
             NaN             NaN             NaN
             NaN             NaN             NaN
             NaN             NaN             NaN
             NaN             NaN             NaN
