Ca1 Ti12 F42
1.0
7.513341 -0.000245 0.047343
-3.746419 6.501335 -0.006854
-0.011868 0.027461 17.674147
Ca Ti F
1 12 42
direct
0.857239 0.622994 0.330898 Ca
0.286434 0.004288 0.334654 Ti
0.728814 0.728737 0.997459 Ti
0.000685 0.266204 0.668926 Ti
0.358127 0.997122 0.833242 Ti
0.649006 0.659002 0.504669 Ti
0.989092 0.344572 0.161870 Ti
0.648598 0.156733 0.501088 Ti
0.489740 0.348679 0.160725 Ti
0.857849 0.496813 0.832216 Ti
0.358138 0.497519 0.834488 Ti
0.151448 0.652499 0.507011 Ti
0.491796 0.847490 0.164549 Ti
0.570935 0.817508 0.061007 F
0.247793 0.414798 0.730554 F
0.178256 0.745427 0.398455 F
0.403444 0.243812 0.265786 F
0.830141 0.580722 0.936078 F
0.760537 0.178746 0.603081 F
0.879463 0.054557 0.732050 F
0.185132 0.115531 0.400362 F
0.931451 0.819671 0.064510 F
0.120401 0.181822 0.601960 F
0.044567 0.844281 0.278520 F
0.818647 0.937905 0.933034 F
0.112968 0.537012 0.606047 F
0.435019 0.891534 0.271880 F
0.462945 0.571576 0.936679 F
0.889234 0.421425 0.729978 F
0.568638 0.149922 0.390179 F
0.575231 0.459846 0.060934 F
0.358265 0.574122 0.481716 F
0.205660 0.639126 0.150035 F
0.432883 0.780089 0.811274 F
0.649186 0.213894 0.855068 F
0.575205 0.366633 0.521218 F
0.771706 0.423095 0.196741 F
0.694977 0.627540 0.399065 F
0.893631 0.319328 0.068309 F
0.398846 0.075574 0.734459 F
0.318089 0.918657 0.931969 F
0.616307 0.706966 0.601290 F
0.036704 0.366250 0.269660 F
0.940362 0.729270 0.521758 F
0.780105 0.048700 0.185767 F
0.280435 0.211864 0.854973 F
0.066980 0.781973 0.811278 F
0.728136 0.950966 0.474904 F
0.204353 0.275588 0.140943 F
0.632085 0.546029 0.803503 F
0.923697 0.386654 0.461914 F
0.446839 0.075808 0.136122 F
0.375544 0.928857 0.528400 F
0.542176 0.621387 0.196997 F
0.082205 0.447922 0.863598 F
