Mg16 Mn16 Si16 S64
1.0
  11.8656153353408911    0.0000000365021860   -0.0000001772718510
   0.0000000563946228   14.9483316332824181    0.0000001242189890
  -0.0000002027920198    0.0000001383016882   12.7183633964719789
Mg Mn Si S
15 16 16 64
direct
   0.7499999992785549    0.4999999988416075    0.5000000004440571 Mg
   0.0000000008169184    0.2499999998812749    0.0000000000490092 Mg
   0.0000000008169184    0.7499999998812749    0.0000000000490092 Mg
   0.5000000008169183    0.2499999998812749    0.0000000000490092 Mg
   0.5000000008169183    0.7499999998812749    0.0000000000490092 Mg
   0.0000000009984734    0.9999999999326372    0.0000000003730417 Mg
   0.0000000009984734    0.4999999999326371    0.0000000003730417 Mg
   0.5000000009984734    0.9999999999326372    0.0000000003730417 Mg
   0.5000000009984734    0.4999999999326371    0.0000000003730417 Mg
   0.2499999989554678    0.2500000003414012    0.5000000003890487 Mg
   0.2499999989554678    0.7500000003414011    0.5000000003890487 Mg
   0.7499999989554678    0.2500000003414012    0.5000000003890487 Mg
   0.2499999992785549    0.9999999988416074    0.5000000004440571 Mg
   0.2499999992785549    0.4999999988416074    0.5000000004440571 Mg
   0.7499999992785550    0.9999999988416074    0.5000000004440571 Mg
   0.0032386346780006    0.3749999770916063    0.2690199685997176 Mn
   0.0032386346780006    0.8749999770916062    0.2690199685997176 Mn
   0.5032386346780006    0.3749999770916063    0.2690199685997176 Mn
   0.5032386346780007    0.8749999770916062    0.2690199685997176 Mn
   0.4967613595787868    0.1250000258371499    0.7309800322084479 Mn
   0.4967613595787866    0.6250000258371498    0.7309800322084479 Mn
   0.9967613595787866    0.1250000258371499    0.7309800322084479 Mn
   0.9967613595787866    0.6250000258371499    0.7309800322084479 Mn
   0.2532386701424219    0.1250000269872408    0.2309800316395682 Mn
   0.2532386701424219    0.6250000269872408    0.2309800316395682 Mn
   0.7532386701424217    0.1250000269872408    0.2309800316395682 Mn
   0.7532386701424219    0.6250000269872407    0.2309800316395682 Mn
   0.2467613285786286    0.3749999734202873    0.7690199658778191 Mn
   0.2467613285786286    0.8749999734202873    0.7690199658778191 Mn
   0.7467613285786285    0.3749999734202873    0.7690199658778192 Mn
   0.7467613285786284    0.8749999734202873    0.7690199658778192 Mn
   0.2962466203879838    0.3750000051614131    0.0896122638465810 Si
   0.2962466203879838    0.8750000051614131    0.0896122638465810 Si
   0.7962466203879839    0.3750000051614131    0.0896122638465810 Si
   0.7962466203879839    0.8750000051614130    0.0896122638465810 Si
   0.2037533792403433    0.1249999952068022    0.9103877358006399 Si
   0.2037533792403433    0.6249999952068022    0.9103877358006399 Si
   0.7037533792403432    0.1249999952068022    0.9103877358006399 Si
   0.7037533792403432    0.6249999952068022    0.9103877358006399 Si
   0.0462466263977855    0.1249999958371920    0.4103877271037144 Si
   0.0462466263977855    0.6249999958371920    0.4103877271037144 Si
   0.5462466263977855    0.1249999958371921    0.4103877271037144 Si
   0.5462466263977854    0.6249999958371920    0.4103877271037144 Si
   0.4537533740189660    0.3750000037380974    0.5896122726491889 Si
   0.4537533740189659    0.8750000037380973    0.5896122726491889 Si
   0.9537533740189661    0.3750000037380974    0.5896122726491889 Si
   0.9537533740189658    0.8750000037380973    0.5896122726491889 Si
   0.3814337750669582    0.3750000000119207    0.4338742785696195 S
   0.3814337750669582    0.8750000000119208    0.4338742785696195 S
   0.8814337750669583    0.3750000000119207    0.4338742785696195 S
   0.8814337750669582    0.8750000000119208    0.4338742785696195 S
   0.1185662251581713    0.1249999984246882    0.5661257170166747 S
   0.1185662251581713    0.6249999984246882    0.5661257170166747 S
   0.6185662251581713    0.1249999984246882    0.5661257170166747 S
   0.6185662251581713    0.6249999984246882    0.5661257170166747 S
   0.1314337849315034    0.1249999985739534    0.0661257201323460 S
   0.1314337849315035    0.6249999985739534    0.0661257201323460 S
   0.6314337849315035    0.1249999985739534    0.0661257201323460 S
   0.6314337849315035    0.6249999985739534    0.0661257201323460 S
   0.3685662160678970    0.3750000013914246    0.9338742828419422 S
   0.3685662160678971    0.8750000013914246    0.9338742828419421 S
   0.8685662160678972    0.3750000013914246    0.9338742828419422 S
   0.8685662160678969    0.8750000013914245    0.9338742828419422 S
   0.1174323873384052    0.3750000009151724    0.0938278101669264 S
   0.1174323873384052    0.8750000009151723    0.0938278101669264 S
   0.6174323873384052    0.3750000009151725    0.0938278101669264 S
   0.6174323873384052    0.8750000009151724    0.0938278101669264 S
   0.3825676175695489    0.1250000014997400    0.9061721910465739 S
   0.3825676175695489    0.6250000014997399    0.9061721910465739 S
   0.8825676175695488    0.1250000014997401    0.9061721910465740 S
   0.8825676175695488    0.6250000014997400    0.9061721910465740 S
   0.3674323889402834    0.1250000010019084    0.4061721933172396 S
   0.3674323889402833    0.6250000010019083    0.4061721933172396 S
   0.8674323889402833    0.1250000010019084    0.4061721933172396 S
   0.8674323889402833    0.6250000010019083    0.4061721933172396 S
   0.1325676156045283    0.3749999970082022    0.5938278095181375 S
   0.1325676156045283    0.8749999970082023    0.5938278095181375 S
   0.6325676156045283    0.3749999970082022    0.5938278095181375 S
   0.6325676156045283    0.8749999970082022    0.5938278095181375 S
   0.3724865514458300    0.2621150187655681    0.1671415401493233 S
   0.3724865514458300    0.7621150187655681    0.1671415401493233 S
   0.8724865514458300    0.2621150187655681    0.1671415401493233 S
   0.8724865514458300    0.7621150187655681    0.1671415401493233 S
   0.1275134495763628    0.2378849849383164    0.8328584589339822 S
   0.1275134495763628    0.7378849849383163    0.8328584589339822 S
   0.6275134495763628    0.2378849849383163    0.8328584589339822 S
   0.6275134495763628    0.7378849849383163    0.8328584589339822 S
   0.1224865496010071    0.2378849827902129    0.3328584539884777 S
   0.1224865496010071    0.7378849827902129    0.3328584539884777 S
   0.6224865496010072    0.2378849827902129    0.3328584539884777 S
   0.6224865496010071    0.7378849827902129    0.3328584539884777 S
   0.1275134454828445    0.0121150164894785    0.8328584582187043 S
   0.1275134454828445    0.5121150164894784    0.8328584582187043 S
   0.6275134454828445    0.0121150164894786    0.8328584582187043 S
   0.6275134454828444    0.5121150164894785    0.8328584582187043 S
   0.3775134495656278    0.2621150142632475    0.6671415468945179 S
   0.3775134495656279    0.7621150142632476    0.6671415468945179 S
   0.8775134495656279    0.2621150142632475    0.6671415468945179 S
   0.8775134495656278    0.7621150142632475    0.6671415468945179 S
   0.3724865543258973    0.4878849804544615    0.1671415395512296 S
   0.3724865543258973    0.9878849804544615    0.1671415395512296 S
   0.8724865543258973    0.4878849804544615    0.1671415395512296 S
   0.8724865543258972    0.9878849804544614    0.1671415395512296 S
   0.3775134483289351    0.4878849840650220    0.6671415451228709 S
   0.3775134483289350    0.9878849840650219    0.6671415451228709 S
   0.8775134483289351    0.4878849840650220    0.6671415451228710 S
   0.8775134483289351    0.9878849840650219    0.6671415451228710 S
   0.1224865479238689    0.0121150171299760    0.3328584555506003 S
   0.1224865479238689    0.5121150171299759    0.3328584555506003 S
   0.6224865479238688    0.0121150171299760    0.3328584555506003 S
   0.6224865479238689    0.5121150171299760    0.3328584555506003 S
