Ca8 Ni12 F42                            
   1.00000000000000     
     7.2780980000000000   -0.0117990000000000    0.0040250000000000
    -3.6734290000000001    6.3300489999999998    0.0009250000000000
     0.0175640000000000    0.0090020000000000   18.2057240000000000
   Ca   Ni   F 
     8    12    42
Direct
  0.9453543288675228  0.8931353781253653  0.7443581237283187
  0.4699496189183651  0.8680979612818895  0.6534351745607812
  0.1773098936658725  0.6559162954766199  0.9754274506574249
  0.3515773979406552  0.5128798596931756  0.3217652992063486
  0.8368591753966068  0.0214316711439037  0.3456659233661671
  0.1509630922027827  0.1520640691800306 -0.0002239333807087
  0.9900425909582478  0.7965193981519887  0.1710042747117825
  0.1900621549116095  0.1744574185787514  0.5152049750610648
  0.3321508560215652  0.0086147297095128  0.3324745783288098
  0.9857095912090302  0.3548285979552154  0.6698074976507806
  0.6719557502537703  0.6526402758984251  0.9963649660674754
  0.3437925615335940  0.0012143387338404  0.8385196835498302
  0.9975388651391680  0.3150479572867564  0.1590734630169528
  0.6724905499031368  0.6832442302836711  0.4977027925385598
  0.4994430156858856  0.8192217449008582  0.1595214235529570
  0.1669790228655052  0.6713973817261137  0.4931622277996983
  0.3361259259720286  0.4982517703202816  0.8290250769403488
  0.8288067106641677  0.4862021421021184  0.8360983368278930
  0.6789975617188974  0.1893893273930054  0.4957856497250410
  0.4941423390504743  0.3130964680766505  0.1609860259132123
  0.7332795605797824  0.2124555236916427  0.6028836429184967
  0.7996383999462185  0.5083726978018959  0.9432594406933019
  0.4376346075909679  0.2643497599942846  0.2701703965280033
  0.2344642859781070  0.7366968031702469  0.3853650446320184
  0.4918147778941800  0.7516201985775685  0.0520449105826056
  0.2685132403073378  0.5240897936476787  0.7258667440033193
  0.8340342819862244  0.9211998685162275  0.9477072663755018
  0.0423189610558861  0.8899624453764380  0.2864825314240373
  0.1022802402454531  0.1821878487934327  0.6292476750214347
  0.9828474181169795  0.7890563033147824  0.0494352110541011
  0.7849122911257627  0.0690657340487762  0.7227747213142383
  0.2006252065389129  0.1760681807948015  0.3897201240681754
  0.5189898023138249  0.3868199017662547  0.0557699652650149
  0.6044676812421805  0.1351975146110487  0.3877270840285438
  0.8907425575019167  0.5217375553631384  0.7282474821935974
  0.3852981702997558  0.4855065219217388  0.9401687213255064
  0.1416529956154567  0.6096543072711509  0.6019736013417920
  0.5025206169853874  0.8747763037442593  0.2745752686252434
  0.7989754032166914  0.4232564526510429  0.1716373953566283
  0.5612476582575757  0.3747777863362280  0.5065184497222136
  0.6286156007910587  0.2011934557670236  0.8277734085020201
  0.4243799941646025  0.7912428564117757  0.8535226379818397
  0.3579686462070768  0.5545315690020426  0.4876158198596398
  0.1946996381155134  0.6227337775622879  0.1752575188768420
  0.0250778505966131  0.3001021796756799  0.2711295592976982
  0.6583065512394233  0.7358631860835415  0.6033094472862388
  0.3295264578929745  1.0081332332633417  0.9491685607545263
  0.2850883856066034  0.9590682174511167  0.7281009762749842
  0.6590496059685883  0.6781424116436732  0.3831445900096349
  0.0317226526952994  0.3628689493535751  0.0487323541291346
  0.1872723351534528  0.1966722933909860  0.1411345315543071
  0.7964514523285661  0.9964920531324755  0.4781938287668434
  0.0482635952697380  0.7824558915737674  0.8483303505815650
  0.2233422169147649  0.1874908266549960  0.8258135716937816
  0.9843716099893836  0.7963826616738243  0.4984287103053721
  0.8057139477305129  0.0028722744564409  0.1571955649216287
  0.0503926189192350  0.4192902105892474  0.8705526747913221
  0.5806346252492015  0.6104324062792160  0.1963210486929780
  0.3821814368628828  0.9677439422651489  0.5317388570213326
  0.3907706030817096  0.0107122147883950  0.1389554885929279
  0.6423934946047947  0.6041280474867683  0.8039480774179838
  0.9662803739130392  0.3845273206883238  0.4599951125263314
 
             NaN             NaN             NaN
             NaN             NaN             NaN
             NaN             NaN             NaN
             NaN             NaN             NaN
             NaN             NaN             NaN
             NaN             NaN             NaN
             NaN             NaN             NaN
             NaN             NaN             NaN
             NaN             NaN             NaN
             NaN             NaN             NaN
             NaN             NaN             NaN
             NaN             NaN             NaN
             NaN             NaN             NaN
             NaN             NaN             NaN
             NaN             NaN             NaN
             NaN             NaN             NaN
             NaN             NaN             NaN
             NaN             NaN             NaN
             NaN             NaN             NaN
             NaN             NaN             NaN
             NaN             NaN             NaN
             NaN             NaN             NaN
             NaN             NaN             NaN
             NaN             NaN             NaN
             NaN             NaN             NaN
             NaN             NaN             NaN
             NaN             NaN             NaN
             NaN             NaN             NaN
             NaN             NaN             NaN
             NaN             NaN             NaN
             NaN             NaN             NaN
             NaN             NaN             NaN
             NaN             NaN             NaN
             NaN             NaN             NaN
             NaN             NaN             NaN
             NaN             NaN             NaN
             NaN             NaN             NaN
             NaN             NaN             NaN
             NaN             NaN             NaN
             NaN             NaN             NaN
             NaN             NaN             NaN
             NaN             NaN             NaN
             NaN             NaN             NaN
             NaN             NaN             NaN
             NaN             NaN             NaN
             NaN             NaN             NaN
             NaN             NaN             NaN
             NaN             NaN             NaN
             NaN             NaN             NaN
             NaN             NaN             NaN
             NaN             NaN             NaN
             NaN             NaN             NaN
             NaN             NaN             NaN
             NaN             NaN             NaN
             NaN             NaN             NaN
             NaN             NaN             NaN
             NaN             NaN             NaN
             NaN             NaN             NaN
             NaN             NaN             NaN
             NaN             NaN             NaN
             NaN             NaN             NaN
             NaN             NaN             NaN
