Ca8 Ni12 F42
1.0
7.278098 -0.011799 0.004025
-3.673429 6.330049 0.000925
0.017564 0.009002 18.205724
Ca Ni F
8 12 42
direct
0.911314 0.898705 0.749420 Ca
0.486847 0.850255 0.653046 Ca
0.166249 0.655167 0.975856 Ca
0.347856 0.509623 0.318997 Ca
0.840240 0.011861 0.347090 Ca
0.148402 0.155875 0.004267 Ca
0.989170 0.794629 0.172940 Ca
0.204032 0.176173 0.512853 Ca
0.341312 0.008130 0.333393 Ni
0.988114 0.339426 0.669669 Ni
0.663128 0.655539 -0.001311 Ni
0.330839 0.007545 0.830696 Ni
0.995180 0.313815 0.160701 Ni
0.684077 0.678711 0.495925 Ni
0.497978 0.818958 0.161403 Ni
0.176804 0.671016 0.495447 Ni
0.329010 0.502401 0.828186 Ni
0.819653 0.496466 0.829450 Ni
0.689032 0.185343 0.495641 Ni
0.494563 0.311579 0.160843 Ni
0.740209 0.191096 0.601873 F
0.812087 0.547993 0.937577 F
0.438305 0.260747 0.269576 F
0.249615 0.735551 0.387230 F
0.474911 0.740984 0.055307 F
0.264953 0.523801 0.723918 F
0.817979 0.938746 0.956021 F
0.047312 0.884014 0.288834 F
0.121850 0.189325 0.624080 F
0.976455 0.790604 0.051529 F
0.807365 0.051107 0.721002 F
0.208276 0.179066 0.388619 F
0.520947 0.381115 0.054006 F
0.617228 0.140038 0.387450 F
0.860715 0.479873 0.723035 F
0.375200 0.490206 0.941234 F
0.131877 0.617414 0.604984 F
0.510981 0.878726 0.275236 F
0.799015 0.423357 0.172679 F
0.573567 0.372726 0.505276 F
0.626467 0.202573 0.840508 F
0.414478 0.795739 0.850080 F
0.373584 0.563324 0.501561 F
0.195514 0.619410 0.183334 F
0.019372 0.287414 0.271509 F
0.687079 0.726319 0.602239 F
0.288206 0.993959 0.941667 F
0.336593 -0.014096 0.722148 F
0.649861 0.667386 0.383213 F
0.025298 0.366878 0.050624 F
0.188269 0.200079 0.140883 F
0.801661 0.989823 0.477470 F
0.027893 0.800411 0.822794 F
0.223618 0.203009 0.823348 F
0.994787 0.795379 0.490607 F
0.804559 0.001287 0.154474 F
0.044551 0.433505 0.867016 F
0.583846 0.611012 0.196893 F
0.389377 0.967829 0.531152 F
0.383825 0.005740 0.139355 F
0.622594 0.597470 0.800430 F
0.984679 0.379199 0.464021 F
