V16 P16 O64 F16
1.0
  12.5192285767131217    0.0131569226935914   -0.0327658338673890
   0.0105632631298851   10.6018614218075271   -0.0242258894030154
  -0.0329104486690792   -0.0288972247555396   12.7999018451593560
Na V P O F
1  16 16 64 16
direct
   0.3877800000000000    0.3009200000000000    0.3783600000000000 Na
   0.2487317135738833    0.9998579182574600    0.3947201372488521 V
   0.7487317135738831    0.9998579182574600    0.3947201372488522 V
   0.2482776620158878    0.5074940946214853    0.6076199696458406 V
   0.7482776620158877    0.5074940946214854    0.6076199696458406 V
   0.0002156368545984    0.0026442812376222    0.8954205179375507 V
   0.5002156368545984    0.0026442812376222    0.8954205179375506 V
   0.0002176368924350    0.5039442094988001    0.1037044022221112 V
   0.5002176368924349    0.5039442094988000    0.1037044022221112 V
   0.1269854209326579    0.2512807577613873    0.2458048661977814 V
   0.6269854209326579    0.2512807577613873    0.2458048661977814 V
   0.3752272665419131    0.7546392314841517    0.7510960156385513 V
   0.8752272665419130    0.7546392314841517    0.7510960156385512 V
   0.1255103355292058    0.2534637050477773    0.7499199156169123 V
   0.6255103355292057    0.2534637050477773    0.7499199156169123 V
   0.3747563641397477    0.7538486453948693    0.2497759856335976 V
   0.8747563641397477    0.7538486453948692    0.2497759856335976 V
   0.1652993201689290    0.2542714243764203    0.5008560619342288 P
   0.6652993201689288    0.2542714243764203    0.5008560619342288 P
   0.3340521708848420    0.7538435580490824    0.5012651270828694 P
   0.8340521708848420    0.7538435580490824    0.5012651270828694 P
   0.0841394307407999    0.2544391952881335    0.9980451285188879 P
   0.5841394307407999    0.2544391952881335    0.9980451285188878 P
   0.4158463535203978    0.7540978798806370    0.9999228354148973 P
   0.9158463535203978    0.7540978798806371    0.9999228354148973 P
   0.2499811454921965    0.5046380249402246    0.1839046743636553 P
   0.7499811454921964    0.5046380249402246    0.1839046743636553 P
   0.2499970503360106    0.0048883014605740    0.8166077058637390 P
   0.7499970503360106    0.0048883014605740    0.8166077058637390 P
   0.9988945893948659    0.5034253464738435    0.6844102412676268 P
   0.4988945893948658    0.5034253464738435    0.6844102412676267 P
   0.9992156229954038    0.0047492026438382    0.3150857119692055 P
   0.4992156229954038    0.0047492026438382    0.3150857119692055 P
   0.2432848235183014    0.1408051316435644    0.4858681346005693 O
   0.7432848235183013    0.1408051316435644    0.4858681346005693 O
   0.2579686915526698    0.6376370042223909    0.5144514179452624 O
   0.7579686915526699    0.6376370042223908    0.5144514179452624 O
   0.0073207567900203    0.1403397729297546    0.9853561042084531 O
   0.5073207567900203    0.1403397729297546    0.9853561042084531 O
   0.4931503360760788    0.6396799091493234    0.0133737245015540 O
   0.9931503360760788    0.6396799091493234    0.0133737245015540 O
   0.2398823695226065    0.3718265957358080    0.5122981094151151 O
   0.7398823695226064    0.3718265957358080    0.5122981094151151 O
   0.2585558793259806    0.8718663864421945    0.4877885490672337 O
   0.7585558793259805    0.8718663864421946    0.4877885490672337 O
   0.0091368946586028    0.3729762650737631    0.0125606061238864 O
   0.5091368946586028    0.3729762650737630    0.0125606061238864 O
   0.4902278528759922    0.8733867923120914    0.9857776811946888 O
   0.9902278528759921    0.8733867923120915    0.9857776811946888 O
   0.0982013520368103    0.2729653658319543    0.4007750476363700 O
   0.5982013520368101    0.2729653658319543    0.4007750476363700 O
   0.4021074350862568    0.7724816740925134    0.5995421863483612 O
   0.9021074350862567    0.7724816740925134    0.5995421863483612 O
   0.1524177148723578    0.2748497132421560    0.9006371764207320 O
   0.6524177148723578    0.2748497132421560    0.9006371764207320 O
   0.3488355992833002    0.7742243899470049    0.0979218609659263 O
   0.8488355992833000    0.7742243899470050    0.0979218609659263 O
   0.0966681810784824    0.2356596202056083    0.5984014421797653 O
   0.5966681810784823    0.2356596202056083    0.5984014421797653 O
   0.4002009818368826    0.7346463495169304    0.4019575108283281 O
   0.9002009818368825    0.7346463495169305    0.4019575108283281 O
   0.1515954279243536    0.2361018053474563    0.0978002373998554 O
   0.6515954279243537    0.2361018053474563    0.0978002373998554 O
   0.3485156952014969    0.7368710941078467    0.9002083099079099 O
   0.8485156952014967    0.7368710941078468    0.9002083099079099 O
   0.1509415407768051    0.5295100712577299    0.1149793469587991 O
   0.6509415407768051    0.5295100712577299    0.1149793469587991 O
   0.3487616548688748    0.0323950580032341    0.8854973493783921 O
   0.8487616548688748    0.0323950580032341    0.8854973493783921 O
   0.0963105154849401    0.5291435988171104    0.6147825093126918 O
   0.5963105154849400    0.5291435988171103    0.6147825093126918 O
   0.4013414373684098    0.0331454857779000    0.3850637310914456 O
   0.9013414373684098    0.0331454857779000    0.3850637310914456 O
   0.3486353910637170    0.4824850006341712    0.1141152530541893 O
   0.8486353910637170    0.4824850006341712    0.1141152530541893 O
   0.1522007203144213    0.9816030025558004    0.8857537119430035 O
   0.6522007203144211    0.9816030025558004    0.8857537119430035 O
   0.4003657962010138    0.4747505676260249    0.6148793432119397 O
   0.9003657962010136    0.4747505676260249    0.6148793432119397 O
   0.0976231587323105    0.9816141426332909    0.3849845729574640 O
   0.5976231587323105    0.9816141426332909    0.3849845729574640 O
   0.2724688755865503    0.6216029319883110    0.2544937300437105 O
   0.7724688755865501    0.6216029319883110    0.2544937300437105 O
   0.2264639016727565    0.1204167677335124    0.7447897693687314 O
   0.7264639016727563    0.1204167677335124    0.7447897693687313 O
   0.4749481346301349    0.6202427189476927    0.7542702532050859 O
   0.9749481346301347    0.6202427189476928    0.7542702532050859 O
   0.0198689340870000    0.1207683735858070    0.2442569382741082 O
   0.5198689340869999    0.1207683735858070    0.2442569382741082 O
   0.2311680873681457    0.3879475658282564    0.2543388145993640 O
   0.7311680873681456    0.3879475658282564    0.2543388145993640 O
   0.2743841669683914    0.8876673600100239    0.7467353193908113 O
   0.7743841669683913    0.8876673600100240    0.7467353193908112 O
   0.0242286596990189    0.3878058604986607    0.7547276365789245 O
   0.5242286596990188    0.3878058604986606    0.7547276365789244 O
   0.4758152115412489    0.8864879176318825    0.2467183875978518 O
   0.9758152115412488    0.8864879176318825    0.2467183875978518 O
   0.2648891664218492    0.8792636178280128    0.2777349765103454 F
   0.7648891664218491    0.8792636178280128    0.2777349765103454 F
   0.2340898146609246    0.3817827493311317    0.7202201926308530 F
   0.7340898146609246    0.3817827493311317    0.7202201926308529 F
   0.4846876086512618    0.8805462791859976    0.7783054586113309 F
   0.9846876086512616    0.8805462791859977    0.7783054586113308 F
   0.0157546084256545    0.3805570233673317    0.2222008991297071 F
   0.5157546084256545    0.3805570233673316    0.2222008991297071 F
   0.2365690209305840    0.1262698512211445    0.2779362597795932 F
   0.7365690209305839    0.1262698512211445    0.2779362597795932 F
   0.2666387961258954    0.6270031142767766    0.7240891574293339 F
   0.7666387961258954    0.6270031142767767    0.7240891574293339 F
   0.0174225081171386    0.1246026604656396    0.7785750490026734 F
   0.5174225081171386    0.1246026604656396    0.7785750490026734 F
   0.4825737252361919    0.6248204169546784    0.2228848905675412 F
   0.9825737252361918    0.6248204169546783    0.2228848905675412 F
