Ca7 Ni16 F48                            
   1.00000000000000     
    11.2144980000000007   -0.0000340000000000    0.0001850000000000
    -0.0000160000000000    7.6756089999999997    0.0000520000000000
     0.0006800000000000    0.0000760000000000   10.6911889999999996
   Ca   Ni   F 
     7    16    48
Direct
  0.5720226208799049  0.7500423966488269  0.5546801781770208
  0.0326970822693962  0.2500258058587618  0.4910950952676265
  0.0383884635811907  0.2500172082268121  0.9683833308885821
  0.5343214150005474  0.2500056527887548  0.9989679805834507
  0.2115164998137526  0.7500008755008832  0.2482759950637116
  0.2067389751993945  0.7499701416567557  0.7427929837869072
  0.7113015128540761  0.7500032124662870  0.2277953026707518
  0.4953896049753653  0.4922568392519726  0.2633257446192729
  0.4978984858832347  0.4887311021493430  0.7560032883857050
  0.9949403684297402  0.4990702856687655  0.2404984891232406
  0.9803605838468000  0.5075844681929926  0.7410748998725880
  0.2601580727901512  0.0048403642120796  0.5024502134073816
  0.2578284701218483 -0.0029800777758289  1.0050500919004344
  0.7590711365741120  0.0204416626211076  0.4953674054238221
  0.7514366864660328  0.9983519136243590  0.9937681951375487
  0.4953688214268441  0.0077042930555502  0.2633158233427136
  0.4978764652807156  0.0112332001642308  0.7560379701452401
  0.9949300403168297  0.0009184353071362  0.2405295115091635
  0.9803796669977365  0.9924148669436417  0.7411063327913069
  0.2601833508206050  0.4951383867886585  0.5024296950449189
  0.2578268079464987  0.5029828124898197  1.0050443515640610
  0.7590351550818364  0.4796913078790388  0.4953454187629663
  0.7514363801617040  0.5016404026075882  0.9937580110823139
  0.4791827538618055  0.2499711898574218  0.2021546183367960
  0.4569030376509129  0.2500177203627620  0.7311942075031552
  0.9919859443330064  0.2499892203133796  0.1783915229861579
  0.9954902929644468  0.2499836807730466  0.7030569728760210
  0.2318050570836566  0.2499947126486158  0.0430814360592939
  0.2309922986707984  0.2499898020021536  0.5468152177228426
  0.7389609827963292  0.2499966335583869  0.0433279948788069
  0.7947771811866010  0.2499757742866151  0.5513902762002798
  0.0110926124911306  0.7500030190237739  0.2927442007376836
  0.0075463106249790  0.7500187109817511  0.7907156585869158
  0.5192531537616815  0.7499983830457190  0.3178147211442041
  0.5295411499985361  0.7500184348789256  0.7641915500619835
  0.2666531481122585  0.7499937249319953  0.4532255299949033
  0.2677492385821013  0.7500038020731638  0.9467483213387187
  0.7470542080015120  0.7499740338345886  0.4454618109586957
  0.7441183960725257  0.7500091761954105  0.9587584371291742
  0.3458158363366753  0.5565091765264890  0.1673460292805696
  0.3510965985652973  0.5629915438916575  0.6597905447345180
  0.8469509622060859  0.5561743650967786  0.1464099539569121
  0.8412090429468894  0.5608889423890342  0.6427851003466089
  0.1081177386620096  0.9439280669009746  0.1016161237320959
  0.1056991123122977  0.9553335515919087  0.6019679886281104
  0.5991082660056700  0.9621711955978559  0.1079126078072869
  0.6027093071563615  1.0198796959286409  0.5984092922690964
  0.1456743953369224  0.0429315499925938  0.3523358444811723
  0.1429020792357648  0.0320509591098049  0.8533814387317056
  0.6597531619687513  0.0312992121596987  0.3417487406337381
  0.6374215434338216  0.0653094716105402  0.8609496153494290
  0.4096213570072760  0.4582847944331262  0.4175534620999149
  0.4080056311347594  0.4594298350619200  0.9188576819556981
  0.9086862115192362  0.4471687154358903  0.3957116809013784
  0.8988286816095621  0.4464449773654925  0.8997850426402515
  0.1456760534350574  0.4570776952503188  0.3523249352026513
  0.1429216390011340  0.4679652801336674  0.8533735670000849
  0.6597519136253681  0.4686305655721052  0.3417255972910755
  0.6374384117944631  0.4347141090085362  0.8609298878426160
  0.4096097991726509  0.0416680048235780  0.4175516800840311
  0.4080004307064163  0.0406100916560169  0.9188685858957655
  0.9086607139159204  0.0529035896178516  0.3957607138394467
  0.8988492229842173  0.0535768893196813  0.8998002400571025
  0.3458171299538371  0.9434459241057576  0.1673454046788144
  0.3510856753026019  0.9369906884248455  0.6598004253108013
  0.8469569460070362  0.9437954187356220  0.1464249339600789
  0.8412166407362427  0.9391565593203034  0.6427863919329045
  0.1081105337703962  0.5560359038046532  0.1016049980815290
  0.1056874845555979  0.5446293739833638  0.6019335308442364
  0.5991024179591817  0.5377903984947086  0.1079053043545741
  0.6026789775409466  0.4801908981746464  0.5983940812922950
 
             NaN             NaN             NaN
             NaN             NaN             NaN
             NaN             NaN             NaN
             NaN             NaN             NaN
             NaN             NaN             NaN
             NaN             NaN             NaN
             NaN             NaN             NaN
             NaN             NaN             NaN
             NaN             NaN             NaN
             NaN             NaN             NaN
             NaN             NaN             NaN
             NaN             NaN             NaN
             NaN             NaN             NaN
             NaN             NaN             NaN
             NaN             NaN             NaN
             NaN             NaN             NaN
             NaN             NaN             NaN
             NaN             NaN             NaN
             NaN             NaN             NaN
             NaN             NaN             NaN
             NaN             NaN             NaN
             NaN             NaN             NaN
             NaN             NaN             NaN
             NaN             NaN             NaN
             NaN             NaN             NaN
             NaN             NaN             NaN
             NaN             NaN             NaN
             NaN             NaN             NaN
             NaN             NaN             NaN
             NaN             NaN             NaN
             NaN             NaN             NaN
             NaN             NaN             NaN
             NaN             NaN             NaN
             NaN             NaN             NaN
             NaN             NaN             NaN
             NaN             NaN             NaN
             NaN             NaN             NaN
             NaN             NaN             NaN
             NaN             NaN             NaN
             NaN             NaN             NaN
             NaN             NaN             NaN
             NaN             NaN             NaN
             NaN             NaN             NaN
             NaN             NaN             NaN
             NaN             NaN             NaN
             NaN             NaN             NaN
             NaN             NaN             NaN
             NaN             NaN             NaN
             NaN             NaN             NaN
             NaN             NaN             NaN
             NaN             NaN             NaN
             NaN             NaN             NaN
             NaN             NaN             NaN
             NaN             NaN             NaN
             NaN             NaN             NaN
             NaN             NaN             NaN
             NaN             NaN             NaN
             NaN             NaN             NaN
             NaN             NaN             NaN
             NaN             NaN             NaN
             NaN             NaN             NaN
             NaN             NaN             NaN
             NaN             NaN             NaN
             NaN             NaN             NaN
             NaN             NaN             NaN
             NaN             NaN             NaN
             NaN             NaN             NaN
             NaN             NaN             NaN
             NaN             NaN             NaN
             NaN             NaN             NaN
             NaN             NaN             NaN
