Ca7 Ni16 F48
1.0
11.214498 -0.000034 0.000185
-0.000016 7.675609 0.000052
0.000680 0.000076 10.691189
Ca Ni F
7 16 48
direct
0.565084 0.750004 0.596258 Ca
0.033127 0.250000 0.488438 Ca
0.039202 0.249994 0.984623 Ca
0.540732 0.249986 0.987299 Ca
0.210176 0.749994 0.234796 Ca
0.209845 0.749987 0.740186 Ca
0.712529 0.750001 0.240428 Ca
0.495830 0.491277 0.254945 Ni
0.501559 0.496060 0.747699 Ni
0.990570 0.499927 0.249374 Ni
0.987053 0.503254 0.745476 Ni
0.257405 0.007377 0.497064 Ni
0.259626 0.000829 0.999353 Ni
0.748484 0.008779 0.502137 Ni
0.755734 0.996640 0.997059 Ni
0.495820 0.008721 0.254950 Ni
0.501559 0.003954 0.747696 Ni
0.990568 0.000079 0.249381 Ni
0.987049 0.996745 0.745477 Ni
0.257401 0.492622 0.497069 Ni
0.259631 0.499170 0.999358 Ni
0.748489 0.491226 0.502146 Ni
0.755732 0.503363 0.997061 Ni
0.483922 0.249999 0.192021 F
0.487600 0.249996 0.707820 F
0.985110 0.250008 0.190219 F
0.987475 0.249997 0.694201 F
0.235489 0.249996 0.045477 F
0.229739 0.249994 0.549575 F
0.739390 0.250001 0.045006 F
0.737955 0.249995 0.548877 F
0.014734 0.749998 0.298118 F
0.013617 0.750000 0.795554 F
0.511679 0.749997 0.298239 F
0.505778 0.750001 0.786728 F
0.266166 0.750000 0.441843 F
0.264224 0.750004 0.945178 F
0.756905 0.749997 0.449925 F
0.762180 0.749997 0.949452 F
0.346298 0.554478 0.159444 F
0.348836 0.563875 0.650755 F
0.847213 0.558500 0.152425 F
0.843320 0.552388 0.652363 F
0.106380 0.953525 0.102867 F
0.106254 0.951591 0.602373 F
0.604058 0.959925 0.102442 F
0.601486 0.947924 0.600019 F
0.142887 0.051059 0.352566 F
0.144042 0.042443 0.851803 F
0.655974 0.020806 0.341466 F
0.644414 0.051566 0.856609 F
0.408932 0.462852 0.411541 F
0.407278 0.446291 0.906283 F
0.901422 0.443414 0.406165 F
0.904453 0.444320 0.904700 F
0.142889 0.448956 0.352565 F
0.144049 0.457570 0.851805 F
0.655970 0.479194 0.341467 F
0.644423 0.448435 0.856617 F
0.408931 0.037147 0.411543 F
0.407277 0.053707 0.906275 F
0.901426 0.056587 0.406175 F
0.904454 0.055678 0.904697 F
0.346292 0.945521 0.159447 F
0.348836 0.936123 0.650758 F
0.847217 0.941506 0.152432 F
0.843330 0.947600 0.652371 F
0.106385 0.546489 0.102865 F
0.106259 0.548405 0.602369 F
0.604060 0.540071 0.102443 F
0.601489 0.552085 0.600017 F
