Mg32 Ru16 O64
1.0
  10.5593385525339496    0.0000319196067314    0.0000242421716830
   0.0000400003204188   10.7395403442266009   -0.0000383893436100
   0.0000241792104172   -0.0000166224767316   10.5647594404516347
Mg Ru O
31 16 64
direct
   0.2378470934352918    0.4674732038211197    0.8416190038431619 Mg
   0.2378470934352918    0.9674732038211197    0.8416190038431618 Mg
   0.7378470934352918    0.4674732038211198    0.8416190038431619 Mg
   0.7378470934352916    0.9674732038211198    0.8416190038431619 Mg
   0.2621535409519136    0.2174668139373375    0.6583817050085236 Mg
   0.7621535409519133    0.7174668139373374    0.6583817050085236 Mg
   0.7621535409519136    0.2174668139373372    0.6583817050085236 Mg
   0.2621509929988430    0.0325249533885019    0.1583782665715520 Mg
   0.2621509929988430    0.5325249533885019    0.1583782665715520 Mg
   0.7621509929988430    0.0325249533885019    0.1583782665715520 Mg
   0.7621509929988430    0.5325249533885020    0.1583782665715520 Mg
   0.0121528774340927    0.2174720901567027    0.8416194893032423 Mg
   0.0121528774340927    0.7174720901567028    0.8416194893032422 Mg
   0.5121528774340927    0.2174720901567027    0.8416194893032423 Mg
   0.5121528774340927    0.7174720901567029    0.8416194893032423 Mg
   0.2378488336086119    0.2825313333515399    0.3416209706195509 Mg
   0.2378488336086119    0.7825313333515400    0.3416209706195509 Mg
   0.7378488336086119    0.2825313333515399    0.3416209706195509 Mg
   0.7378488336086119    0.7825313333515401    0.3416209706195509 Mg
   0.4878461638014294    0.4674666152554566    0.6583803475266172 Mg
   0.4878461638014294    0.9674666152554566    0.6583803475266172 Mg
   0.9878461638014293    0.4674666152554566    0.6583803475266172 Mg
   0.9878461638014295    0.9674666152554567    0.6583803475266172 Mg
   0.4878495324645843    0.2825263692613341    0.1583784688082431 Mg
   0.4878495324645844    0.7825263692613341    0.1583784688082431 Mg
   0.9878495324645842    0.2825263692613341    0.1583784688082431 Mg
   0.9878495324645843    0.7825263692613341    0.1583784688082431 Mg
   0.0121522507875028    0.0325322060665160    0.3416218131049352 Mg
   0.0121522507875028    0.5325322060665161    0.3416218131049352 Mg
   0.5121522507875028    0.0325322060665160    0.3416218131049353 Mg
   0.5121522507875029    0.5325322060665161    0.3416218131049352 Mg
   0.2500026746103481    0.0000030902052517    0.5000185186023768 Ru
   0.2500026746103481    0.5000030902052517    0.5000185186023768 Ru
   0.7500026746103481    0.0000030902052517    0.5000185186023768 Ru
   0.7500026746103482    0.5000030902052518    0.5000185186023769 Ru
   0.9999975527098856    0.2500036587909446    0.5000177322440930 Ru
   0.9999975527098856    0.7500036587909447    0.5000177322440930 Ru
   0.4999975527098854    0.2500036587909445    0.5000177322440930 Ru
   0.4999975527098854    0.7500036587909445    0.5000177322440930 Ru
   0.2499962928039059    0.2500044248298887    0.9999829751764371 Ru
   0.2499962928039059    0.7500044248298887    0.9999829751764371 Ru
   0.7499962928039059    0.2500044248298887    0.9999829751764371 Ru
   0.7499962928039059    0.7500044248298888    0.9999829751764371 Ru
   0.0000025699623373    0.0000029988855206    0.9999824314027882 Ru
   0.0000025699623373    0.5000029988855206    0.9999824314027882 Ru
   0.5000025699623373    0.0000029988855206    0.9999824314027882 Ru
   0.5000025699623374    0.5000029988855206    0.9999824314027882 Ru
   0.3375932149057365    0.1602503289441717    0.4536612434308065 O
   0.3375932149057365    0.6602503289441718    0.4536612434308065 O
   0.8375932149057363    0.1602503289441717    0.4536612434308065 O
   0.8375932149057365    0.6602503289441718    0.4536612434308065 O
   0.0875909913996984    0.0897581181552755    0.5463299258379707 O
   0.0875909913996984    0.5897581181552755    0.5463299258379707 O
   0.5875909913996984    0.0897581181552755    0.5463299258379707 O
   0.5875909913996984    0.5897581181552756    0.5463299258379707 O
   0.1624094344195342    0.4102466761202062    0.0463369592906139 O
   0.1624094344195343    0.9102466761202062    0.0463369592906139 O
   0.6624094344195343    0.4102466761202062    0.0463369592906139 O
   0.6624094344195343    0.9102466761202063    0.0463369592906139 O
   0.4124049306230180    0.3397483260318562    0.9536687747367865 O
   0.4124049306230181    0.8397483260318561    0.9536687747367864 O
   0.9124049306230180    0.3397483260318561    0.9536687747367865 O
   0.9124049306230180    0.8397483260318562    0.9536687747367864 O
   0.1624043550476965    0.3397501598155939    0.5463321106899728 O
   0.1624043550476965    0.8397501598155940    0.5463321106899728 O
   0.6624043550476965    0.3397501598155939    0.5463321106899728 O
   0.6624043550476965    0.8397501598155940    0.5463321106899728 O
   0.4124105488111134    0.4102413819603419    0.4536627434420248 O
   0.4124105488111135    0.9102413819603420    0.4536627434420248 O
   0.9124105488111134    0.4102413819603419    0.4536627434420248 O
   0.9124105488111135    0.9102413819603420    0.4536627434420248 O
   0.3375934353092063    0.0897523320146474    0.9536698408634292 O
   0.3375934353092063    0.5897523320146474    0.9536698408634291 O
   0.8375934353092064    0.0897523320146474    0.9536698408634292 O
   0.8375934353092063    0.5897523320146474    0.9536698408634291 O
   0.0875928027797707    0.1602508603029097    0.0463377935377256 O
   0.0875928027797707    0.6602508603029098    0.0463377935377256 O
   0.5875928027797707    0.1602508603029097    0.0463377935377256 O
   0.5875928027797707    0.6602508603029098    0.0463377935377256 O
   0.1905654467512308    0.4678161879902641    0.3225185242539134 O
   0.1905654467512308    0.9678161879902640    0.3225185242539134 O
   0.6905654467512309    0.4678161879902641    0.3225185242539135 O
   0.6905654467512308    0.9678161879902641    0.3225185242539134 O
   0.4405716750319117    0.2821829094806826    0.6774615583391667 O
   0.4405716750319117    0.7821829094806826    0.6774615583391667 O
   0.9405716750319117    0.2821829094806826    0.6774615583391667 O
   0.9405716750319117    0.7821829094806827    0.6774615583391667 O
   0.3094303696156361    0.2178197333164834    0.1774777519527195 O
   0.3094303696156361    0.7178197333164835    0.1774777519527195 O
   0.8094303696156360    0.2178197333164834    0.1774777519527195 O
   0.8094303696156361    0.7178197333164834    0.1774777519527195 O
   0.0594277779757207    0.0321808858739372    0.8225349408146235 O
   0.0594277779757207    0.5321808858739371    0.8225349408146235 O
   0.5594277779757207    0.0321808858739372    0.8225349408146236 O
   0.5594277779757207    0.5321808858739372    0.8225349408146235 O
   0.3094302607996262    0.0321823264440773    0.6774660860040768 O
   0.3094302607996262    0.5321823264440773    0.6774660860040768 O
   0.8094302607996262    0.0321823264440773    0.6774660860040768 O
   0.8094302607996261    0.5321823264440773    0.6774660860040768 O
   0.0594322643098246    0.2178159025856659    0.3225231822616412 O
   0.0594322643098246    0.7178159025856659    0.3225231822616412 O
   0.5594322643098245    0.2178159025856659    0.3225231822616412 O
   0.5594322643098246    0.7178159025856660    0.3225231822616412 O
   0.1905734927734606    0.2821785130774189    0.8225373112151478 O
   0.1905734927734606    0.7821785130774189    0.8225373112151478 O
   0.6905734927734605    0.2821785130774189    0.8225373112151479 O
   0.6905734927734606    0.7821785130774190    0.8225373112151478 O
   0.4405686238780683    0.4678175999363579    0.1774795311178468 O
   0.4405686238780684    0.9678175999363580    0.1774795311178468 O
   0.9405686238780683    0.4678175999363580    0.1774795311178468 O
   0.9405686238780682    0.9678175999363581    0.1774795311178468 O
