Ca8 Ni12 F42                            
   1.00000000000000     
     7.2805309999999999   -0.0183140000000000    0.0129640000000000
    -3.6802929999999998    6.3772810000000000    0.0000830000000000
     0.0400350000000000    0.0202150000000000   18.2674580000000013
   Ca   Ni   F 
     8    12    42
Direct
  0.4653832290691891  0.8533810026449741  0.6588521235168581
  0.1497903748152621  0.6452288229834793  0.9834970667379908
  0.3468609791628548  0.5047095587668504  0.3287237245798647
  0.8357557169988912  0.0165664164542235  0.3464758429102426
  0.1800611784884012  0.1671849308020955  0.0054212459040076
  0.9787166830714419  0.7896295441739110  0.1744860571717362
  0.8186110440758056  0.9796275808894616  0.8330678782290253
  0.1940768629446568  0.1517771903547338  0.5146044496578346
  0.3300251641029394  0.0020322170242710  0.3338148820019079
  0.9788417708404752  0.3417819150696663  0.6674462411517321
  0.6669575652575045  0.6679420250866681  0.0009892875551207
  0.3332038101650372  0.0173706178206637  0.8300333993598180
  0.9940544103124053  0.3118943841481818  0.1623488955629204
  0.6680243649782547  0.6702859616334267  0.4955601956881845
  0.4940616745003436  0.8178824706207738  0.1643101269205084
  0.1637073809276536  0.6568698187755727  0.4940941005408527
  0.3247986841376866  0.5063542393467391  0.8293652997949498
  0.8265972082741462  0.5071591272427881  0.8275578486492559
  0.6777429489972366  0.1759227493594178  0.4964224395924699
  0.4906317865422491  0.3108067740161918  0.1635984373331832
  0.7276625826072187  0.1935913303284879  0.6019188795110179
  0.8138836774330602  0.5624770255007923  0.9373666888608692
  0.4345684175159763  0.2591078899710954  0.2720744493706233
  0.2296002863927054  0.7304848180529213  0.3864616216647140
  0.4835500070401074  0.7540688149115650  0.0574898970973978
  0.2508297051665688  0.5098788693203642  0.7264218831381136
  0.8349850694028617  0.9559000268142032  0.9547390166726714
  0.0412510437220604  0.8857554765880722  0.2880082369228622
  0.1138411256464958  0.2126409273722856  0.6188059486121429
  0.9754499952846927  0.7977087648171778  0.0529272727336507
  0.8005966027211816  0.0668256411660123  0.7215139066524158
  0.1976110626760637  0.1656422943172107  0.3900464788406222
  0.5219047140614523  0.3881497207296045  0.0548500756475156
  0.6018169159742911  0.1260672081879758  0.3884909331867260
  0.8586547837700701  0.4759599492774489  0.7243908007260981
  0.3835030652619794  0.5200195873315793  0.9429634399461735
  0.1376109950219076  0.6016214407763197  0.6017421476384137
  0.4956757624347857  0.8666178260619325  0.2770711085171184
  0.7949057168052363  0.4200527445717347  0.1728469361436618
  0.5627903900601174  0.3642179816309002  0.5046336929566603
  0.6381584597958700  0.2100651447121065  0.8462323782384275
  0.4435708926699063  0.8160505944224459  0.8300271823217350
  0.3542857944697331  0.5401328082007745  0.4796002456349502
  0.1869282842476821  0.6211079975261758  0.1747820400870122
  0.0259079908211843  0.2997383573434608  0.2734698120983214
  0.6290737429077471  0.7172916561471296  0.5953152213282282
  0.2939017769796942  0.9768584078359523  0.9421215602934540
  0.3585021946052083  0.0353668173614376  0.7260501854162760
  0.6648589088423223  0.6729675647658013  0.3818193523902474
  0.0217559216218266  0.3502793958363101  0.0505907695019757
  0.1861530779460814  0.1981256516565513  0.1416831902722684
  0.7951748834642453  0.9846157233694235  0.4765546799717565
  0.0257337319162340  0.8136679649120805  0.8216519929334229
  0.2022686897191514  0.2021284776954150  0.8466752031973817
  0.9782070392006215  0.7789413234251205  0.4982327359860885
  0.8024323426458566  0.0010002205394043  0.1642384844025655
  0.0478035499537667  0.4498455290708039  0.8699059024378496
  0.5767840249430761  0.6069074619319559  0.1979733291311342
  0.3794045660058870  0.9540844948423880  0.5297224123465356
  0.3874351925728760  0.0104210712029421  0.1408540867397474
  0.6240782050167388  0.6055753270791158  0.8059649169249363
  0.9609156554891234  0.3746438160852096  0.4595712098250131
 
             NaN             NaN             NaN
             NaN             NaN             NaN
             NaN             NaN             NaN
             NaN             NaN             NaN
             NaN             NaN             NaN
             NaN             NaN             NaN
             NaN             NaN             NaN
             NaN             NaN             NaN
             NaN             NaN             NaN
             NaN             NaN             NaN
             NaN             NaN             NaN
             NaN             NaN             NaN
             NaN             NaN             NaN
             NaN             NaN             NaN
             NaN             NaN             NaN
             NaN             NaN             NaN
             NaN             NaN             NaN
             NaN             NaN             NaN
             NaN             NaN             NaN
             NaN             NaN             NaN
             NaN             NaN             NaN
             NaN             NaN             NaN
             NaN             NaN             NaN
             NaN             NaN             NaN
             NaN             NaN             NaN
             NaN             NaN             NaN
             NaN             NaN             NaN
             NaN             NaN             NaN
             NaN             NaN             NaN
             NaN             NaN             NaN
             NaN             NaN             NaN
             NaN             NaN             NaN
             NaN             NaN             NaN
             NaN             NaN             NaN
             NaN             NaN             NaN
             NaN             NaN             NaN
             NaN             NaN             NaN
             NaN             NaN             NaN
             NaN             NaN             NaN
             NaN             NaN             NaN
             NaN             NaN             NaN
             NaN             NaN             NaN
             NaN             NaN             NaN
             NaN             NaN             NaN
             NaN             NaN             NaN
             NaN             NaN             NaN
             NaN             NaN             NaN
             NaN             NaN             NaN
             NaN             NaN             NaN
             NaN             NaN             NaN
             NaN             NaN             NaN
             NaN             NaN             NaN
             NaN             NaN             NaN
             NaN             NaN             NaN
             NaN             NaN             NaN
             NaN             NaN             NaN
             NaN             NaN             NaN
             NaN             NaN             NaN
             NaN             NaN             NaN
             NaN             NaN             NaN
             NaN             NaN             NaN
             NaN             NaN             NaN
