Ca8 Ni12 F42
1.0
7.280531 -0.018314 0.012964
-3.680293 6.377281 0.000083
0.040035 0.020215 18.267458
Ca Ni F
8 12 42
direct
0.423909 0.853558 0.656366 Ca
0.155594 0.648437 0.979362 Ca
0.348570 0.508558 0.330369 Ca
0.841945 0.018261 0.345013 Ca
0.173920 0.165392 0.010197 Ca
0.979842 0.787502 0.174110 Ca
0.813514 0.982260 0.834292 Ca
0.203592 0.156430 0.514434 Ca
0.337355 0.007729 0.333030 Ni
0.990811 0.345470 0.667664 Ni
0.665052 0.661136 0.000790 Ni
0.327140 0.009029 0.830993 Ni
0.996995 0.315163 0.162599 Ni
0.679811 0.672753 0.492504 Ni
0.497046 0.819695 0.163083 Ni
0.173767 0.661830 0.493591 Ni
0.322662 0.501624 0.829641 Ni
0.821262 0.501340 0.827623 Ni
0.688419 0.180318 0.494960 Ni
0.493863 0.312563 0.164160 Ni
0.743796 0.197174 0.599978 F
0.811131 0.554272 0.937671 F
0.439360 0.265408 0.272253 F
0.236007 0.736197 0.385821 F
0.482900 0.752100 0.055969 F
0.259244 0.521111 0.727330 F
0.834319 0.951919 0.955420 F
0.049436 0.892180 0.286667 F
0.130561 0.215650 0.619998 F
0.974297 0.793101 0.052845 F
0.815311 0.065810 0.721275 F
0.203709 0.168235 0.389860 F
0.524772 0.385728 0.056103 F
0.610249 0.130266 0.387103 F
0.857829 0.472348 0.723931 F
0.374942 0.497638 0.943978 F
0.143972 0.603574 0.600670 F
0.501630 0.869741 0.276031 F
0.797214 0.420141 0.175263 F
0.571302 0.366665 0.502313 F
0.632474 0.203455 0.844206 F
0.431622 0.804760 0.849127 F
0.366472 0.547561 0.478289 F
0.191084 0.623136 0.176059 F
0.031225 0.302268 0.273295 F
0.651938 0.712567 0.593152 F
0.286379 0.985558 0.942875 F
0.354163 0.005542 0.727669 F
0.672773 0.674954 0.379409 F
0.023284 0.358540 0.051377 F
0.189047 0.201496 0.142151 F
0.804062 0.987428 0.475017 F
0.019219 0.806531 0.823772 F
0.199614 0.197051 0.834701 F
0.989321 0.783775 0.496825 F
0.805180 0.004280 0.162083 F
0.038859 0.433148 0.869295 F
0.584893 0.611912 0.195617 F
0.389820 0.959697 0.528278 F
0.387742 0.010970 0.141159 F
0.623478 0.609216 0.806066 F
0.972852 0.378790 0.458023 F
