Ca1 Ni12 F42                            
   1.00000000000000     
     7.0369919999999997   -0.0037760000000000    0.0171660000000000
    -3.5167890000000002    6.1575150000000001   -0.1241660000000000
    -0.0765980000000000   -0.2876420000000000   16.8300570000000000
   Ca   Ni   F 
     1    12    42
Direct
  0.8546438623246596  0.9933746071382625  0.8305469929643859
  0.2978441360295681  0.0004229362597108  0.3330026807765330
  0.6789944233040403  0.6513950102979017  0.0080503442027864
  0.0279885790179082  0.3445045604267889  0.6551857168931831
  0.3544797903480352  0.9942357506115900  0.8320690786526396
  0.6641103015135528  0.6788079185246074  0.4960620205812928
  0.9836445327179262  0.3232246566536581  0.1687921750485442
  0.6625319224466566  0.1785719205620920  0.4951335014866096
  0.4832139836572557  0.3229742985417898  0.1684704717503062
  0.8544832756442439  0.4943166127285029  0.8334423502142471
  0.3542750587501538  0.4943468729865605  0.8308359795248722
  0.1639065938303320  0.6775883797211621  0.4968260393075521
  0.4839477200718627  0.8233662189579324  0.1695940596546333
  0.5488460802108385  0.7888993115445645  0.0656704173666757
  0.2746136590850648  0.4380662655622740  0.7207297519007670
  0.1656704313204254  0.7493120354001009  0.3899447341062391
  0.4337841248515518  0.2513775421579619  0.2765363439837909
  0.7896962253663431  0.5120598870390595  0.9425331539249867
  0.7599097067866346  0.2442123391316215  0.5997895484218621
  0.8959108800873861  0.0926534715813459  0.7069252648018388
  0.1952615882000935  0.1244280556815725  0.3972606409543281
  0.9010952597885504  0.7447713345379872  0.0745415549553675
  0.1320005985795498  0.2315879096127363  0.5861320702044460
  0.0682657274660694  0.8915454296352850  0.2699151508660102
  0.8209353746077418  0.9000751066974275  0.9546401080196534
  0.1627535842026570  0.6050558892546178  0.6047477514409340
  0.4213401385827625  0.8560588347577816  0.2743254241481966
  0.4314934848021901  0.5523509042206827  0.9410399858381285
  0.9193087910028229  0.4817245275529428  0.7239172974438278
  0.5687998107330908  0.1186549251352348  0.3898770889456746
  0.5280874039063449  0.3941220638627555  0.0594086590235227
  0.3673441706025798  0.5939424331616525  0.4690527189337748
  0.1965482053043779  0.6251583000795218  0.1452532240187162
  0.4550429085510303  0.7937378855278109  0.8129188833996094
  0.6583386885385101  0.1914966059702580  0.8295112606369370
  0.5630144390941748  0.3752490530299291  0.5089484347446792
  0.7774872210445262  0.4183729489206576  0.1908703652409530
  0.7082066306794391  0.6527571951532477  0.3950750831364985
  0.9056895250467281  0.2776485187155803  0.0682620187102315
  0.3292990704188902  0.0138940771348202  0.7286734141777497
  0.3794977430347456  0.9745519320767652  0.9353953372422262
  0.6198021935213796  0.7048342988700000  0.5973743788607377
  0.0618578642548459  0.3698661322085995  0.2691422652249794
  0.9600250224190296  0.7617424804762136  0.5240729567744126
  0.7717083879302687  0.0220389480050743  0.1931846085146313
  0.2538761215707097  0.1950564220029220  0.8495343783641534
  0.0508202719684744  0.7968599322532701  0.8356576316728257
  0.7616860326517646  0.9812573107686152  0.4821050828065245
  0.1885570530024508  0.2266885839576313  0.1467995553818785
  0.6518504322982074  0.5864432797782738  0.8016371163920593
  0.9339706731351441  0.3920707444402672  0.4614947468661819
  0.4278072274443561  0.0385946210012253  0.1355373735853668
  0.3924458450318439  0.9657039596269646  0.5301736969513869
  0.5392987775117465  0.6068910902517668  0.2026106025282601
  0.0570103871640372  0.4007931620054571  0.8623487741410530
 
             NaN             NaN             NaN
             NaN             NaN             NaN
             NaN             NaN             NaN
             NaN             NaN             NaN
             NaN             NaN             NaN
             NaN             NaN             NaN
             NaN             NaN             NaN
             NaN             NaN             NaN
             NaN             NaN             NaN
             NaN             NaN             NaN
             NaN             NaN             NaN
             NaN             NaN             NaN
             NaN             NaN             NaN
             NaN             NaN             NaN
             NaN             NaN             NaN
             NaN             NaN             NaN
             NaN             NaN             NaN
             NaN             NaN             NaN
             NaN             NaN             NaN
             NaN             NaN             NaN
             NaN             NaN             NaN
             NaN             NaN             NaN
             NaN             NaN             NaN
             NaN             NaN             NaN
             NaN             NaN             NaN
             NaN             NaN             NaN
             NaN             NaN             NaN
             NaN             NaN             NaN
             NaN             NaN             NaN
             NaN             NaN             NaN
             NaN             NaN             NaN
             NaN             NaN             NaN
             NaN             NaN             NaN
             NaN             NaN             NaN
             NaN             NaN             NaN
             NaN             NaN             NaN
             NaN             NaN             NaN
             NaN             NaN             NaN
             NaN             NaN             NaN
             NaN             NaN             NaN
             NaN             NaN             NaN
             NaN             NaN             NaN
             NaN             NaN             NaN
             NaN             NaN             NaN
             NaN             NaN             NaN
             NaN             NaN             NaN
             NaN             NaN             NaN
             NaN             NaN             NaN
             NaN             NaN             NaN
             NaN             NaN             NaN
             NaN             NaN             NaN
             NaN             NaN             NaN
             NaN             NaN             NaN
             NaN             NaN             NaN
             NaN             NaN             NaN
