Ca1 Ni12 F42                            
   1.00000000000000     
     7.0369919999999997   -0.0037760000000000    0.0171660000000000
    -3.5167890000000002    6.1575150000000001   -0.1241660000000000
    -0.0765980000000000   -0.2876420000000000   16.8300570000000000
   Ca   Ni   F 
     1    12    42
Direct
  0.8511015415009899  0.9878103277816289  0.8296377449338291
  0.2983616065191150  1.0024185157960765  0.3317001667141369
  0.6797002080385711  0.6512219223236058  0.0084659687630046
  0.0263755921576276  0.3421226410599747  0.6553543422917840
  0.3522734545138190 -0.0096074725131436  0.8320589198943871
  0.6626567687730480  0.6803534487686921  0.4960441798206457
  0.9872368908648668  0.3259737151658469  0.1695401604352422
  0.6621410447864858  0.1802035752805524  0.4951253591412437
  0.4869450652337891  0.3256634789493332  0.1690837079197881
  0.8523650256122538  0.4902781362770451  0.8337868947759908
  0.3514042447376104  0.4901121606631099  0.8309487338949706
  0.1628995173620583  0.6793514918192329  0.4967108463221203
  0.4877477065152629  0.8259460978334758  0.1699897503683628
  0.5479868434632922  0.7879600985440991  0.0662570013776346
  0.2716653916813133  0.4341162775310899  0.7195189411781986
  0.1669502807404729  0.7541509032201743  0.3882275545435188
  0.4375806489003273  0.2578728105671478  0.2766967195284126
  0.7909353993783346  0.5121979652483236  0.9422326718836284
  0.7592459823654121  0.2420095550435621  0.6004407464993906
  0.8959187075808670  0.0890459706619172  0.7063926446546706
  0.1927197878591280  0.1245722340362183  0.3952395545957408
  0.9036175154913169  0.7467919902070111  0.0741586843990637
  0.1292664951000102  0.2313894300506774  0.5849098103687218
  0.0727808641913897  0.8940526312239749  0.2668392261863587
  0.8188751180204132  0.8982103905527045  0.9543133301799491
  0.1583882241063523  0.6020460228786695  0.6057942362967185
  0.4289238391321671  0.8620536431845793  0.2746559700381498
  0.4325062136236716  0.5491090942539705  0.9418533031448403
  0.9150818850458141  0.4759878611121427  0.7246979355195712
  0.5677186667166402  0.1237560711857907  0.3901095575913375
  0.5314596227464359  0.3933203155846096  0.0605940894193308
  0.3765930161019228  0.5978454802622890  0.4671321638710895
  0.1965880369900737  0.6230704613368170  0.1470096543883514
  0.4523692255894124  0.7895342922920805  0.8124318253050548
  0.6567381128776588  0.1875717091298506  0.8314954787961116
  0.5677361910058194  0.3850249255609913  0.5106397639997453
  0.7791088401916388  0.4187518418803385  0.1909533146953685
  0.7145826233470270  0.6520921548786354  0.3951165311221388
  0.9105988375343952  0.2803043928218082  0.0682930397543216
  0.3320835343850082  0.0153166686468802  0.7283975338914837
  0.3727679519674802  0.9665340067401694  0.9351711690607956
  0.6108565600991397  0.7080720603204844  0.5968130371302074
  0.0632510828562186  0.3711565609257470  0.2700700547782183
  0.9489563812647329  0.7617200606040526  0.5255073743192160
  0.7784627858137361  0.0287169272290759  0.1922108860170931
  0.2511167657140234  0.1911290071570984  0.8497817240107660
  0.0481799760855151  0.7931847875281093  0.8337248050583337
  0.7558666824876367  0.9745885209007742  0.4805188955479176
  0.1936433213426907  0.2309953431228731  0.1476370465397646
  0.6490063574226284  0.5812528441862495  0.8017719561545262
  0.9327707111553781  0.3879658684133510  0.4613006289358060
  0.4284476064889363  0.0380065946380748  0.1361094207789989
  0.3915784697071098  0.9730712845537737  0.5298987055695489
  0.5462468092603758  0.6127865874759832  0.2030124599423788
  0.0553836790955491  0.3981345614034802  0.8628266494876199
 
             NaN             NaN             NaN
             NaN             NaN             NaN
             NaN             NaN             NaN
             NaN             NaN             NaN
             NaN             NaN             NaN
             NaN             NaN             NaN
             NaN             NaN             NaN
             NaN             NaN             NaN
             NaN             NaN             NaN
             NaN             NaN             NaN
             NaN             NaN             NaN
             NaN             NaN             NaN
             NaN             NaN             NaN
             NaN             NaN             NaN
             NaN             NaN             NaN
             NaN             NaN             NaN
             NaN             NaN             NaN
             NaN             NaN             NaN
             NaN             NaN             NaN
             NaN             NaN             NaN
             NaN             NaN             NaN
             NaN             NaN             NaN
             NaN             NaN             NaN
             NaN             NaN             NaN
             NaN             NaN             NaN
             NaN             NaN             NaN
             NaN             NaN             NaN
             NaN             NaN             NaN
             NaN             NaN             NaN
             NaN             NaN             NaN
             NaN             NaN             NaN
             NaN             NaN             NaN
             NaN             NaN             NaN
             NaN             NaN             NaN
             NaN             NaN             NaN
             NaN             NaN             NaN
             NaN             NaN             NaN
             NaN             NaN             NaN
             NaN             NaN             NaN
             NaN             NaN             NaN
             NaN             NaN             NaN
             NaN             NaN             NaN
             NaN             NaN             NaN
             NaN             NaN             NaN
             NaN             NaN             NaN
             NaN             NaN             NaN
             NaN             NaN             NaN
             NaN             NaN             NaN
             NaN             NaN             NaN
             NaN             NaN             NaN
             NaN             NaN             NaN
             NaN             NaN             NaN
             NaN             NaN             NaN
             NaN             NaN             NaN
             NaN             NaN             NaN
