Ca9 Ti12 F42                            
   1.00000000000000     
     7.3756820000000003    0.0027560000000000   -0.0667320000000000
    -3.6444690000000000    6.3434340000000002    0.0301060000000000
     0.3004250000000000    0.0201460000000000   18.6898279999999986
   Ca   Ti   F 
     9    12    42
Direct
  0.9313674539371622  0.5082188510047645  0.3388079687924386
  0.5252060766147445  0.3522586173598876  0.6653767844777438
  0.1581784285522470  0.1724073116794197  0.0113289038158220
  0.0301369225652443  0.8450109112237660  0.6688004164258303
  0.8317871130665083  0.9630929016320076  0.3385235572135536
  0.6339137791426219  0.1367169405065592  0.0060833512892433
  0.0229739491721657  0.8081857003729241  0.1602991558082372
  0.8234942385671145  0.0008847529719182  0.8241708106092488
  0.2062693945565897  0.2060021358724636  0.4890413193935563
  0.3708722128810084  1.0151358937540993  0.3136019629230545
  0.0242229368000677  0.3497454271424476  0.6444019633842808
  0.6580467462592424  0.6596803060843478  0.9904388833228740
  0.3868922420661183  0.0842486033394075  0.8308824422180446
  0.9169338301827940  0.2628800340003034  0.1700196154473551
  0.7410967348572591  0.6516652180916066  0.5011335318241441
  0.5011326306599475  0.8509740878148793  0.1722651105103203
  0.1809676718924250  0.6528771690576700  0.5041464428891709
  0.3473109388563237  0.4944709820742362  0.8281021085276459
  0.7905859116152916  0.4834170629065014  0.8324668936812856
  0.7540552720667270  0.2240679620317400  0.5022661357549305
  0.4945880176808466  0.2687703804369985  0.1723196010512056
  0.7178415191008365  0.1953969106702385  0.6123653045500796
  0.8025432536243009  0.5007038615794401  0.9443423729483004
  0.4899998226612035  0.3102514426204431  0.2796204678548340
  0.2309875103893196  0.7676563653760652  0.3911979080687114
  0.5510762557577958  0.8114110216997311  0.0573684745101269
  0.2924982345975117  0.4550278223048062  0.7166055058380054
  0.8334985811926827  0.9938172583223006  0.9506859888542749
  0.0473640266504955  0.8275641845878263  0.2808736227603866
  0.1946752498972935  0.1885455668037759  0.6116886292481187
  0.9337338768947649  0.8164786613812565  0.0484150624431394
  0.9078054938012969  0.0731756299933124  0.7087009763097194
  0.1898333757941896  0.1106005319068669  0.3755273722022576
  0.5212453188292913  0.3643028517306208  0.0522926001432945
  0.6555080591450164  0.1605088317276243  0.3784123117751989
  0.8597489542691222  0.4770332694326618  0.7112094805692359
  0.3406604087134327  0.4809994380743392  0.9461452422534539
  0.1880668962199507  0.6683795156148101  0.6168176003010749
  0.4977759738604020  0.8242362311885172  0.2854627042907079
  0.8082591889397510  0.4622873995830875  0.1994667839063843
  0.5511948216614647  0.3388146236477229  0.5280922159033000
  0.6721674585611532  0.1741994382441052  0.8743515516972413
  0.4423362091695636  0.8218395896251161  0.8158114336695843
  0.4207804175982200  0.5740489593215256  0.4878272506106455
  0.1833310296526275  0.6105649935541384  0.1672129371381501
  0.9817088864348910  0.2757729746830357  0.2771962116421658
  0.7157030593962934  0.6749941986350191  0.6125167723620142
  0.3296817984091215  0.0406866396095627  0.9418222512388300
  0.3414457148698856  0.0427333765048042  0.7242239916401159
  0.7514972938466170  0.6522350443555971  0.3899841256236623
  0.9505672213880432  0.2954142405662432  0.0605404199999035
  0.1709239739693551  0.1869795232256650  0.1433935041712718
  0.8284465234026249  0.9840291524726275  0.4697592319233884
 -0.0252686461890004  0.7908977108882459  0.7951526535826300
  0.1722935209643153  0.1729958534547925  0.8477357998686489
  0.0512434350982408  0.8458585135579664  0.5255572966052646
  0.8109305515816555  0.9496944820472706  0.1977764208425211
  0.0363123841876806  0.4263160299564032  0.8280862731793763
  0.5314231112121515  0.5722995229665214  0.1729129511763615
  0.4469537392696775  0.9557876699805800  0.5117545715410543
  0.3592080171877609 -0.0081954029764328  0.1063851612957696
  0.6498819885542991  0.6596195522095762  0.8698289403159959
  0.0332926377725748  0.3758603009649336  0.4354029158600147
 
             NaN             NaN             NaN
             NaN             NaN             NaN
             NaN             NaN             NaN
             NaN             NaN             NaN
             NaN             NaN             NaN
             NaN             NaN             NaN
             NaN             NaN             NaN
             NaN             NaN             NaN
             NaN             NaN             NaN
             NaN             NaN             NaN
             NaN             NaN             NaN
             NaN             NaN             NaN
             NaN             NaN             NaN
             NaN             NaN             NaN
             NaN             NaN             NaN
             NaN             NaN             NaN
             NaN             NaN             NaN
             NaN             NaN             NaN
             NaN             NaN             NaN
             NaN             NaN             NaN
             NaN             NaN             NaN
             NaN             NaN             NaN
             NaN             NaN             NaN
             NaN             NaN             NaN
             NaN             NaN             NaN
             NaN             NaN             NaN
             NaN             NaN             NaN
             NaN             NaN             NaN
             NaN             NaN             NaN
             NaN             NaN             NaN
             NaN             NaN             NaN
             NaN             NaN             NaN
             NaN             NaN             NaN
             NaN             NaN             NaN
             NaN             NaN             NaN
             NaN             NaN             NaN
             NaN             NaN             NaN
             NaN             NaN             NaN
             NaN             NaN             NaN
             NaN             NaN             NaN
             NaN             NaN             NaN
             NaN             NaN             NaN
             NaN             NaN             NaN
             NaN             NaN             NaN
             NaN             NaN             NaN
             NaN             NaN             NaN
             NaN             NaN             NaN
             NaN             NaN             NaN
             NaN             NaN             NaN
             NaN             NaN             NaN
             NaN             NaN             NaN
             NaN             NaN             NaN
             NaN             NaN             NaN
             NaN             NaN             NaN
             NaN             NaN             NaN
             NaN             NaN             NaN
             NaN             NaN             NaN
             NaN             NaN             NaN
             NaN             NaN             NaN
             NaN             NaN             NaN
             NaN             NaN             NaN
             NaN             NaN             NaN
             NaN             NaN             NaN
