Ca9 Ti12 F42
1.0
7.375682 0.002756 -0.066732
-3.644469 6.343434 0.030106
0.300425 0.020146 18.689828
Ca Ti F
9 12 42
direct
0.983500 0.495836 0.337143 Ca
0.519786 0.348599 0.667756 Ca
0.167098 0.174342 0.004417 Ca
0.025883 0.836403 0.665937 Ca
0.836470 0.986899 0.330811 Ca
0.646007 0.150471 0.002442 Ca
0.034034 0.821572 0.158888 Ca
0.826619 0.004742 0.827367 Ca
0.196094 0.184758 0.491488 Ca
0.346181 0.995939 0.314264 Ti
0.019009 0.337519 0.655468 Ti
0.669861 0.667835 0.993050 Ti
0.357152 0.050915 0.830208 Ti
0.969289 0.301364 0.167458 Ti
0.714777 0.649298 0.496413 Ti
0.501989 0.835707 0.169052 Ti
0.153347 0.654074 0.493099 Ti
0.353147 0.487710 0.831331 Ti
0.796085 0.487119 0.831568 Ti
0.708990 0.209094 0.495108 Ti
0.499792 0.294005 0.170850 Ti
0.718474 0.203340 0.608788 F
0.802243 0.495055 0.945400 F
0.502044 0.301871 0.280419 F
0.196951 0.725398 0.382882 F
0.563417 0.826706 0.059905 F
0.287355 0.449601 0.720095 F
0.827934 -0.004347 0.950822 F
0.031200 0.840000 0.278398 F
0.184989 0.178472 0.614464 F
0.956060 0.829537 0.045348 F
0.896678 0.052144 0.712087 F
0.183657 0.121846 0.375577 F
0.526657 0.365231 0.053610 F
0.642151 0.139432 0.380271 F
0.857388 0.484625 0.714738 F
0.358122 0.497303 0.947919 F
0.156654 0.642847 0.608751 F
0.499643 0.832776 0.281085 F
0.817038 0.466458 0.189299 F
0.530671 0.342111 0.531863 F
0.660213 0.173927 0.867196 F
0.438494 0.807137 0.816514 F
0.390202 0.566081 0.479534 F
0.192313 0.622641 0.149360 F
0.998383 0.310891 0.278124 F
0.703771 0.670030 0.610861 F
0.333121 0.020584 0.944059 F
0.342779 0.028647 0.718789 F
0.704086 0.668743 0.384814 F
0.959160 0.290794 0.057913 F
0.185547 0.191260 0.139917 F
0.809417 0.984155 0.472222 F
0.018625 0.810532 0.803420 F
0.170820 0.174196 0.863168 F
0.023582 0.836463 0.527911 F
0.818607 0.979900 0.194716 F
0.035394 0.414516 0.827443 F
0.567609 0.597266 0.166376 F
0.400919 0.965271 0.497216 F
0.386335 0.009500 0.119801 F
0.662929 0.665256 0.868275 F
0.015612 0.343830 0.509155 F
