Fe8 C24 N24                             
   1.00000000000000     
     9.9084227455786511    0.0000050725390158   -0.0611863864714738
     0.0000050171043801    9.8901197555033278   -0.0000078728399593
    -0.0611654323499419   -0.0000078944502987    9.9081776059132931
   Na   Fe   C    N 
     1     8    24    24
Direct
  0.2499980555783229  0.5000005034404994  0.2499976281310389
  0.9999799746071587  0.9999994660548166  0.9999775123316466
  0.9996971385653068  0.9999996672568823  0.5003068098570512
  0.9970658966210382  0.4999996269032911  0.5029197818168104
  0.9998955873658211  0.4999996054946472  0.9999052134204854
  0.5000192845115682  0.0000003933956090  0.5000235578427541
  0.5003012766547107  0.0000004358244700  0.9996956537250181
  0.5029328677465684  0.5000005064010639  0.9970771052681012
  0.5001031571179798  0.5000003463094691  0.5000940092833493
  0.1912491166228590  0.9999998804438898  0.0000547859399092
  0.3087597506610940  0.0000001982745389  0.4999437032402869
  0.9976148881769862  0.6910829557030543  0.5023759646788821
  0.9976142739807660  0.3089166513241141  0.5023728233482050
  0.0000433848714981  0.9999998766553413  0.1912653489995579
  0.9995459943225917  0.9999987737371175  0.8088630962316515
  0.1880767572965116  0.4999993687639180  0.5069350389693519
  0.3119267402292702  0.5000008361189636  0.9930619864547360
  0.0001331304230867  0.1910045055069090  0.0001190845414695
  0.0001331259607470  0.8089946236217984  0.0001200981391487
  0.9977265484876582  0.4999990379371490  0.6929133234005167
  0.9930575284025882  0.5000004609052386  0.3118963014160743
  0.6911184715057723  0.9999999284913952  0.5004665959531344
  0.8088765813543369  0.9999999689598306  0.9995343042761012
  0.5023858535221576  0.6910858747087089  0.9976276677335243
  0.5023847129091601  0.3089151848861689  0.9976276046907232
  0.5004642769546952  0.0000005999596947  0.6911448601072945
  0.4999613095518853  0.0000006422961937  0.3087289401990436
  0.6928894228079079  0.4999991823870412  0.9977236042793141
  0.8071068520281767  0.5000000182413142  0.5022794193419958
  0.4998645394108480  0.1910029147859652  0.4998808765001446
  0.4998643660502237  0.8089978856998221  0.4998806353425829
  0.5069386324386682  0.5000007050048507  0.1880973340772764
  0.5022726593800362  0.4999992679554037  0.8070942840094253
  0.3094272582330384  0.0000004010362235  0.9992558389417602
  0.1905841608005663 -0.0000000074722612  0.5007428581854962
  0.9993722145140262  0.8094222508153072  0.5006244754901237
  0.9993712870111666  0.1905773390626561  0.5006223145449400
  0.9992445798602125  0.9999997490157285  0.3094445067933086
  0.0004603684141388  0.9999993899465592  0.6907252215401659
  0.3065005852507486  0.4999998145285699  0.5005465308413719
  0.1935035422238404  0.5000000344700571  0.9994499012914193
  0.0007170795221297  0.3094539635060742  0.0007118997555621
  0.0007166734351255  0.6905451724092092  0.0007132292600209
  0.9988567808896153  0.4999997932283667  0.8109776681299751
  0.9994443928960977  0.4999990410223789  0.1934710751194324
  0.8092525754773773  0.9999997906274857  0.4995443596709873
  0.6907392595197355  0.0000003584919300  0.0004556363247898
  0.5006288321694859  0.8094261210428287  0.9993783748790785
  0.5006284931786266  0.1905749490040076  0.9993784914319017
  0.4995437219732895  0.0000006054876500  0.8092811221502264
  0.5007568173273758  0.0000007140809211  0.1905511310375615
  0.8109518966052821  0.4999987777159342  0.9988526453544592
  0.6890428837545316  0.5000001380229566  0.5011454865277977
  0.4992802608884683  0.3094503371462460  0.4992855197609562
  0.4992799063816573  0.6905504440698571  0.4992856070077166
  0.5005533480592393  0.5000005038665661  0.3065218332271266
  0.5011409254961895  0.5000004254255339  0.6890293191872092
 
  0.00000000E+00  0.00000000E+00  0.00000000E+00
  0.00000000E+00  0.00000000E+00  0.00000000E+00
  0.00000000E+00  0.00000000E+00  0.00000000E+00
  0.00000000E+00  0.00000000E+00  0.00000000E+00
  0.00000000E+00  0.00000000E+00  0.00000000E+00
  0.00000000E+00  0.00000000E+00  0.00000000E+00
  0.00000000E+00  0.00000000E+00  0.00000000E+00
  0.00000000E+00  0.00000000E+00  0.00000000E+00
  0.00000000E+00  0.00000000E+00  0.00000000E+00
  0.00000000E+00  0.00000000E+00  0.00000000E+00
  0.00000000E+00  0.00000000E+00  0.00000000E+00
  0.00000000E+00  0.00000000E+00  0.00000000E+00
  0.00000000E+00  0.00000000E+00  0.00000000E+00
  0.00000000E+00  0.00000000E+00  0.00000000E+00
  0.00000000E+00  0.00000000E+00  0.00000000E+00
  0.00000000E+00  0.00000000E+00  0.00000000E+00
  0.00000000E+00  0.00000000E+00  0.00000000E+00
  0.00000000E+00  0.00000000E+00  0.00000000E+00
  0.00000000E+00  0.00000000E+00  0.00000000E+00
  0.00000000E+00  0.00000000E+00  0.00000000E+00
  0.00000000E+00  0.00000000E+00  0.00000000E+00
  0.00000000E+00  0.00000000E+00  0.00000000E+00
  0.00000000E+00  0.00000000E+00  0.00000000E+00
  0.00000000E+00  0.00000000E+00  0.00000000E+00
  0.00000000E+00  0.00000000E+00  0.00000000E+00
  0.00000000E+00  0.00000000E+00  0.00000000E+00
  0.00000000E+00  0.00000000E+00  0.00000000E+00
  0.00000000E+00  0.00000000E+00  0.00000000E+00
  0.00000000E+00  0.00000000E+00  0.00000000E+00
  0.00000000E+00  0.00000000E+00  0.00000000E+00
  0.00000000E+00  0.00000000E+00  0.00000000E+00
  0.00000000E+00  0.00000000E+00  0.00000000E+00
  0.00000000E+00  0.00000000E+00  0.00000000E+00
  0.00000000E+00  0.00000000E+00  0.00000000E+00
  0.00000000E+00  0.00000000E+00  0.00000000E+00
  0.00000000E+00  0.00000000E+00  0.00000000E+00
  0.00000000E+00  0.00000000E+00  0.00000000E+00
  0.00000000E+00  0.00000000E+00  0.00000000E+00
  0.00000000E+00  0.00000000E+00  0.00000000E+00
  0.00000000E+00  0.00000000E+00  0.00000000E+00
  0.00000000E+00  0.00000000E+00  0.00000000E+00
  0.00000000E+00  0.00000000E+00  0.00000000E+00
  0.00000000E+00  0.00000000E+00  0.00000000E+00
  0.00000000E+00  0.00000000E+00  0.00000000E+00
  0.00000000E+00  0.00000000E+00  0.00000000E+00
  0.00000000E+00  0.00000000E+00  0.00000000E+00
  0.00000000E+00  0.00000000E+00  0.00000000E+00
  0.00000000E+00  0.00000000E+00  0.00000000E+00
  0.00000000E+00  0.00000000E+00  0.00000000E+00
  0.00000000E+00  0.00000000E+00  0.00000000E+00
  0.00000000E+00  0.00000000E+00  0.00000000E+00
  0.00000000E+00  0.00000000E+00  0.00000000E+00
  0.00000000E+00  0.00000000E+00  0.00000000E+00
  0.00000000E+00  0.00000000E+00  0.00000000E+00
  0.00000000E+00  0.00000000E+00  0.00000000E+00
  0.00000000E+00  0.00000000E+00  0.00000000E+00
  0.00000000E+00  0.00000000E+00  0.00000000E+00
