Na2 Ca2 V4 P2 S4 O24                    
   1.00000000000000     
     8.9696809999999996    0.3270540000000000    0.1645360000000000
     4.2429940000000004    7.9130830000000003    0.1845480000000000
     4.1405789999999998    2.5906729999999998    7.4851640000000002
   Ca   Na   V    P    S    O 
     2     2     4     2     4    24
Direct
  0.8232976673841123  0.2469242337758171  0.5670794075249418
  0.0090761925178414  0.9807461279413328  0.0252915446218207
  0.4070782307108391  0.1046169891291442  0.7544358672110536
  0.5864573990989924  0.8543209678328041  0.2592857701102836
  0.3650399814581524  0.3658157558638269  0.3582924821389294
  0.6432907022333578  0.6585155488410912  0.6434569662242079
  0.1452066780279908  0.1501582569283002  0.1445693780831439
  0.8497633295025766  0.8369339224264210  0.8569173808052272
  0.7546415353394376  0.0371317208754861  0.4411804471237519
  0.4562290113154326  0.7533562292606925  0.0419237157784047
  0.0401866527127891  0.4424444411590429  0.7518444743256941
  0.9620359974132945  0.5518544559499482  0.2485034662509417
  0.2370209133279015  0.9802172517495814  0.5616973580729119
  0.5452142495918411  0.2541681717427958  0.9529092114846244
  0.2123114595721572  0.4415808280016951  0.5990576212441941
  0.7883996464790958  0.5601084670417978  0.4105218367068816
  0.5901172849814539  0.2168147500165390  0.4574381641059392
  0.3922713271192593  0.8076341266835191  0.5528465307866893
  0.4499392828795403  0.5808307057500340  0.2025122675822359
  0.5675185637778162  0.4112698860426753  0.7809209379168772
  0.9098551562998218  0.0804599629433236  0.2614106043234252
  0.0811038866964348  0.9498254929666977  0.7364972932462469
  0.0794448791672502  0.2553068625707794  0.8977855973623416
  0.9200145044319171  0.7322966143477617  0.1003995614244866
  0.2668702842067912  0.9151944215682054  0.0746141001802289
  0.7293816852745529  0.0987926649163554  0.9155554062932968
  0.5177024873752352  0.2789626749638119  0.1153128340519270
  0.4858449698491352  0.7495952100250445  0.8581792665959002
  0.1132614953471206  0.5310522460622813  0.2867047952193443
  0.8944546119991427  0.4616437198539873  0.7008937877917407
  0.2870042084439460  0.1184155996361412  0.5541444478275667
  0.7103351883716941  0.8903779896765361  0.4454461129512335
  0.3992733092452259  0.2047351618594967  0.9752781318436363
  0.6017870622870024  0.8143529641634298  0.0205266758664945
  0.1615137606594964  0.0571602861078867  0.4121181781852016
  0.8160426710960202  0.9780335547433839  0.6046454406802301
 -0.0071497237118068  0.3994548250458792  0.2030165780518503
  0.9834153381198120  0.5813694286061417  0.8284954740159426
 
             NaN             NaN             NaN
             NaN             NaN             NaN
             NaN             NaN             NaN
             NaN             NaN             NaN
             NaN             NaN             NaN
             NaN             NaN             NaN
             NaN             NaN             NaN
             NaN             NaN             NaN
             NaN             NaN             NaN
             NaN             NaN             NaN
             NaN             NaN             NaN
             NaN             NaN             NaN
             NaN             NaN             NaN
             NaN             NaN             NaN
             NaN             NaN             NaN
             NaN             NaN             NaN
             NaN             NaN             NaN
             NaN             NaN             NaN
             NaN             NaN             NaN
             NaN             NaN             NaN
             NaN             NaN             NaN
             NaN             NaN             NaN
             NaN             NaN             NaN
             NaN             NaN             NaN
             NaN             NaN             NaN
             NaN             NaN             NaN
             NaN             NaN             NaN
             NaN             NaN             NaN
             NaN             NaN             NaN
             NaN             NaN             NaN
             NaN             NaN             NaN
             NaN             NaN             NaN
             NaN             NaN             NaN
             NaN             NaN             NaN
             NaN             NaN             NaN
             NaN             NaN             NaN
             NaN             NaN             NaN
             NaN             NaN             NaN
