Na2 Ca2 V4 P2 S4 O24
1.0
8.969681 0.327054 0.164536
4.242994 7.913083 0.184548
4.140579 2.590673 7.485164
Ca Na V P S O
2 2 4 2 4 24
direct
0.806853 0.273813 0.574883 Ca
0.007166 0.976892 0.033136 Ca
0.413117 0.103112 0.752965 Na
0.586420 0.849200 0.260721 Na
0.361264 0.366459 0.356614 V
0.648991 0.654536 0.643365 V
0.147698 0.148335 0.144794 V
0.848887 0.839311 0.855625 V
0.754785 0.041644 0.442878 P
0.457562 0.751565 0.042284 P
0.040222 0.439632 0.751244 S
0.963289 0.552158 0.245915 S
0.242270 0.974490 0.561902 S
0.545437 0.253418 0.953680 S
0.213049 0.440678 0.599428 O
0.789526 0.556380 0.407636 O
0.583571 0.215723 0.450467 O
0.399073 0.801701 0.556123 O
0.447818 0.582097 0.207063 O
0.570148 0.408102 0.780275 O
0.911219 0.083100 0.263368 O
0.085279 0.945116 0.736395 O
0.079785 0.255378 0.898694 O
0.918198 0.733284 0.099725 O
0.269073 0.914562 0.071084 O
0.730051 0.096605 0.924587 O
0.511344 0.284776 0.114389 O
0.491037 0.740677 0.861286 O
0.109447 0.537559 0.287507 O
0.899950 0.450713 0.697539 O
0.288523 0.115410 0.553996 O
0.722431 0.883653 0.452266 O
0.402698 0.201163 0.973801 O
0.602209 0.813061 0.021481 O
0.172426 0.046095 0.410289 O
0.806685 0.996423 0.607950 O
1.004729 0.401248 0.193430 O
-0.025792 0.584250 0.823303 O
