Ca1 Ti12 F42
1.0
7.500188 -0.005528 0.021302
-3.744448 6.540717 -0.175197
-0.071606 -0.462377 17.840426
Ca Ti F
1 12 42
direct
0.864295 0.013573 0.835496 Ca
0.266685 1.000864 0.333229 Ti
0.708637 0.679326 0.012325 Ti
0.030587 0.323481 0.654507 Ti
0.354565 -0.007284 0.831687 Ti
0.651543 0.666887 0.497114 Ti
-0.014484 0.335223 0.169511 Ti
0.651780 0.167551 0.494946 Ti
0.484138 0.332890 0.169162 Ti
0.860688 0.503067 0.832340 Ti
0.361142 0.503374 0.834326 Ti
0.152670 0.669644 0.497458 Ti
0.485215 0.834611 0.171562 Ti
0.559006 0.791508 0.069085 F
0.264413 0.451508 0.730538 F
0.173941 0.761437 0.393982 F
0.412615 0.240022 0.272380 F
0.817501 0.553517 0.936529 F
0.768829 0.209958 0.597552 F
0.906191 0.098429 0.719148 F
0.180407 0.122803 0.398885 F
0.920825 0.770670 0.075451 F
0.152471 0.231544 0.592286 F
0.057593 0.878881 0.267825 F
0.811246 0.907183 0.948894 F
0.125608 0.579283 0.600335 F
0.418692 0.879844 0.272332 F
0.454490 0.546717 0.937526 F
0.911859 0.458130 0.729573 F
0.540221 0.122469 0.394096 F
0.547494 0.422097 0.065915 F
0.357909 0.589294 0.477608 F
0.201351 0.622531 0.149166 F
0.488825 0.807920 0.823018 F
0.661373 0.201592 0.842196 F
0.580227 0.379367 0.517639 F
0.769830 0.413221 0.189287 F
0.680109 0.614835 0.399125 F
0.908612 0.287905 0.070427 F
0.358103 -0.001367 0.730124 F
0.327399 0.936932 0.930695 F
0.623058 0.713245 0.596203 F
0.066759 0.386580 0.267476 F
0.946563 0.749535 0.517272 F
0.772354 0.047767 0.189686 F
0.256357 0.200370 0.842919 F
0.036151 0.809289 0.822234 F
0.725415 0.954216 0.476867 F
0.198029 0.252880 0.148971 F
0.642008 0.566700 0.803592 F
0.926066 0.390312 0.467712 F
0.432868 0.054186 0.140893 F
0.380002 0.948425 0.525497 F
0.536937 0.612008 0.198908 F
0.065919 0.414248 0.862242 F
