Na2 Ca2 V4 P4 S2 O24                    
   1.00000000000000     
     8.8866739999999993    0.2533200000000000    0.1703370000000000
     4.3669050000000000    7.8561810000000003    0.2188520000000000
     4.3409250000000004    2.7029380000000001    7.3714370000000002
   Ca   Na   V    P    S    O 
     2     2     4     4     2    24
Direct
  0.6553668548913063  0.3379951998758777  0.5528754932771540
  0.0294067483279593  0.9734854026470124  0.0011753618205870
  0.7512969025371848  0.3990090653597518  0.0998569608626404
  0.5975498841664743  0.8695459793145961  0.2404122748582694
  0.3590236948485168  0.3608550423812958  0.3515498441349349
  0.6388435010535911  0.6544195832474685  0.6522554351643371
  0.1475890858063751  0.1506256713313791  0.1463164357793622
  0.8596650292739709  0.8539317518995122  0.8488439353537925
  0.9566212767025479  0.5384416064201217  0.2543645762367246
  0.7581557900566053  0.0344533034512918  0.4442320844193557
  0.4574294437958816  0.7575806703748940  0.0394175956290698
  0.5509836990199161  0.2507533753174378  0.9712518709331084
  0.0517111096119351  0.4590262835144679  0.7442125841367215
  0.2493791634993146  0.9642401950242235  0.5471442125245153
  0.2259630551306693  0.4384136768349713  0.5876588257491815
  0.7729960966375540  0.5678824973265152  0.4231657265704932
  0.5915231657764616  0.2222173847892864  0.4280127940317168
  0.4137814929330761  0.7912541108336364  0.5537292276329383
  0.4439943685535166  0.5825085293012707  0.2148883388616353
  0.5614669146206522  0.4232946385570239  0.7902474891532635
  0.9165344429097230  0.0691560166313161  0.2547238594170192
  0.0963539252965198  0.9312596298532422  0.7294145219568637
  0.0674060549539817  0.2765919422522690  0.9067267962104533
  0.9312585677258052  0.7273143567377651  0.0906755324275297
  0.2754889898874438  0.9225082188903306  0.0697758304846017
  0.7384064769296044  0.0889526965961418  0.9295516951480481
  0.5417661034441608  0.2806096144272945  0.1295253406693812
  0.4819881728585713  0.7317011984469487  0.8705271763814941
  0.1278162589136735  0.4920677321712869  0.2898212119149829
  0.8898152179195911  0.4942998414262398  0.7072710313462675
  0.2905743640142506  0.1165561262492871  0.5226618764279656
  0.7131298624747074  0.8770888012392356  0.4745446659712758
  0.3883729313075590  0.2001514986778727  0.0178755849115147
  0.6253868466949937  0.7922426837000037  0.0108616152187261
  0.1931412271511814  0.0037128353369882  0.3986093667341953
  0.8041203434192010  1.0123299119193661  0.6017232699650742
  0.9565130954915856  0.3824239644086704  0.2241486212862582
  0.0204074963321156  0.6024639571101240  0.8011010483696271
 
             NaN             NaN             NaN
             NaN             NaN             NaN
             NaN             NaN             NaN
             NaN             NaN             NaN
             NaN             NaN             NaN
             NaN             NaN             NaN
             NaN             NaN             NaN
             NaN             NaN             NaN
             NaN             NaN             NaN
             NaN             NaN             NaN
             NaN             NaN             NaN
             NaN             NaN             NaN
             NaN             NaN             NaN
             NaN             NaN             NaN
             NaN             NaN             NaN
             NaN             NaN             NaN
             NaN             NaN             NaN
             NaN             NaN             NaN
             NaN             NaN             NaN
             NaN             NaN             NaN
             NaN             NaN             NaN
             NaN             NaN             NaN
             NaN             NaN             NaN
             NaN             NaN             NaN
             NaN             NaN             NaN
             NaN             NaN             NaN
             NaN             NaN             NaN
             NaN             NaN             NaN
             NaN             NaN             NaN
             NaN             NaN             NaN
             NaN             NaN             NaN
             NaN             NaN             NaN
             NaN             NaN             NaN
             NaN             NaN             NaN
             NaN             NaN             NaN
             NaN             NaN             NaN
             NaN             NaN             NaN
             NaN             NaN             NaN
