Na2 Ca2 V4 P4 S2 O24
1.0
8.886674 0.253320 0.170337
4.366905 7.856181 0.218852
4.340925 2.702938 7.371437
Ca Na V P S O
2 2 4 4 2 24
direct
0.655215 0.344906 0.556156 Ca
0.027748 0.975396 0.001694 Ca
0.751667 0.399860 0.107416 Na
0.598294 0.871282 0.241760 Na
0.363198 0.358528 0.351471 V
0.638097 0.655703 0.649845 V
0.148031 0.150108 0.145569 V
0.861130 0.848997 0.851628 V
0.958791 0.537788 0.254403 P
0.757777 0.033481 0.446004 P
0.458166 0.757656 0.038696 P
0.551045 0.252932 0.968228 P
0.049349 0.458395 0.745575 S
0.248992 0.963984 0.546459 S
0.221765 0.438084 0.587818 O
0.775379 0.565259 0.423237 O
0.596001 0.225196 0.435415 O
0.411416 0.788689 0.553071 O
0.442370 0.583723 0.215325 O
0.558290 0.425401 0.787452 O
0.916305 0.068846 0.255796 O
0.095934 0.933122 0.728925 O
0.065086 0.275092 0.906714 O
0.931086 0.728132 0.091865 O
0.276577 0.922735 0.067406 O
0.738417 0.093817 0.918935 O
0.548058 0.279790 0.125682 O
0.485865 0.730323 0.870074 O
0.130502 0.491438 0.288695 O
0.886113 0.497857 0.709049 O
0.295466 0.113320 0.520170 O
0.704406 0.884371 0.469093 O
0.387837 0.199305 0.022361 O
0.625128 0.791450 0.013524 O
0.190078 1.005152 0.399222 O
0.813203 0.990753 0.605252 O
0.962103 0.382414 0.220848 O
0.023024 0.598284 0.804178 O
