Ca8 Ni12 F42                            
   1.00000000000000     
     7.2768740000000003   -0.0045840000000000   -0.0048410000000000
    -3.6665559999999999    6.3655030000000004    0.0040800000000000
    -0.0047550000000000    0.0056610000000000   18.2872869999999992
   Ca   Ni   F 
     8    12    42
Direct
  0.3264812750899156  0.8140840747921633  0.6828868619829461
  0.1467307379724027  0.6428788461244451  0.9859408252007189
  0.3528863288454216  0.5053095094364010  0.3214733109094247
  0.8387340845520690  0.0173797242746521  0.3470826774005165
  0.1787145520520129  0.1659215772174750  0.0039164936738019
  0.9816946127810492  0.7924344620962920  0.1744054707494255
  0.8096854778959076  0.9730548340353873  0.8336216816995773
  0.2003567323774836  0.1618478271207497  0.5107753768655906
  0.3334329647917401  0.0005068305083833  0.3328919092756081
  0.9705407762905727  0.3187496504620914  0.6644354901838563
  0.6679517553800606  0.6708488162108710  0.0015181436248145
  0.3384403316976548  0.0334837728410843  0.8361895677285118
  0.9938534589580076  0.3110313671104324  0.1618120921672110
  0.6756662919548381  0.6702259234447124  0.4969000982898359
  0.4952174967712136  0.8191571316728021  0.1640791016891926
  0.1684486147216330  0.6569201191710025  0.4906315689169851
  0.3243099488716416  0.5047138014000963  0.8304751035229476
  0.8318260946075385  0.5114078310357674  0.8275210959319801
  0.6793880262837994  0.1710155454737757  0.4976987794115230
  0.4918311805249059  0.3106309037311584  0.1619871612606953
  0.7246272334960095  0.1898712183462063  0.6019858583003023
  0.8187448776801149  0.5721030757532952  0.9367750625251599
  0.4382653631153606  0.2561516884942210  0.2703190997372479
  0.2366617662269222  0.7246638124302565  0.3836500748260924
  0.4821079578824523  0.7519829292947294  0.0585938073406869
  0.2447143162806604  0.4855199299148648  0.7257800624616921
  0.8319506051242141  0.9572874061619546  0.9555463591037157
  0.0424027539956700  0.8836383318037465  0.2882130504467285
  0.1113976650747021  0.1900546804551856  0.6182014028629784
  0.9757351995455108  0.7990665938601836  0.0531813411149525
  0.8162602119174690  0.0749148075611005  0.7252370758273303
  0.2029496414946032  0.1712272084372419  0.3870878885251620
  0.5198349900895443  0.3879880881544508  0.0532995431068912
  0.6036415927425357  0.1226395600891935  0.3890604444618634
  0.8930464855174910  0.4953166908662373  0.7239448479633079
  0.3912644161147283  0.5385267620600245  0.9420914354277059
  0.1166803192110433  0.5857387034949186  0.5978882080684153
  0.5010286629015059  0.8722039501814430  0.2754553563166122
  0.7964357448280653  0.4225549293794438  0.1705991329953028
  0.5694679232711994  0.3634734605455167  0.5000381713589056
  0.6470641353346395  0.2114303990789345  0.8508405961361347
  0.4302987605898926  0.8173940395923670  0.8128105939889424
  0.3618099930405279  0.5428184103640339  0.4857069339312150
  0.1882867914324931  0.6210301482132755  0.1758313053813849
  0.0233378780909083  0.2970417145328714  0.2722574479602137
  0.6578191366142303  0.7071779535762709  0.5954198176316965
  0.2997267441335040  0.9720996029731033  0.9446419564288474
  0.3674755623551839  0.0964765587920975  0.7332487948994536
  0.6584691636663894  0.6736932308354884  0.3819252763033791
  0.0207194275389720  0.3468475807044675  0.0503723669317327
  0.1867407096010083  0.1977765449094689  0.1415460894987760
  0.7969038798525325  0.9816656237864553  0.4776330749326442
  0.0336013972862842  0.8228717412603145  0.8159002708204071
  0.1986064554674653  0.2042887761361788  0.8602866472786893
  0.9828118371494653  0.7785958476067727  0.4888447557060558
  0.8032755466808040 -0.0005206321287380  0.1628611437558135
  0.0554071662758065  0.4631635406698368  0.8709705468214658
  0.5746715019926147  0.6053191161383807  0.1991073958061843
  0.3735971405124262  0.9552848853103724  0.5277335105645653
  0.3873378526114186  0.0098780979566374  0.1388992233279696
  0.6234779650044513  0.6033223172829677  0.8084054347859004
  0.9670869517554332  0.3668296141591779  0.4600352423007557
 
             NaN             NaN             NaN
             NaN             NaN             NaN
             NaN             NaN             NaN
             NaN             NaN             NaN
             NaN             NaN             NaN
             NaN             NaN             NaN
             NaN             NaN             NaN
             NaN             NaN             NaN
             NaN             NaN             NaN
             NaN             NaN             NaN
             NaN             NaN             NaN
             NaN             NaN             NaN
             NaN             NaN             NaN
             NaN             NaN             NaN
             NaN             NaN             NaN
             NaN             NaN             NaN
             NaN             NaN             NaN
             NaN             NaN             NaN
             NaN             NaN             NaN
             NaN             NaN             NaN
             NaN             NaN             NaN
             NaN             NaN             NaN
             NaN             NaN             NaN
             NaN             NaN             NaN
             NaN             NaN             NaN
             NaN             NaN             NaN
             NaN             NaN             NaN
             NaN             NaN             NaN
             NaN             NaN             NaN
             NaN             NaN             NaN
             NaN             NaN             NaN
             NaN             NaN             NaN
             NaN             NaN             NaN
             NaN             NaN             NaN
             NaN             NaN             NaN
             NaN             NaN             NaN
             NaN             NaN             NaN
             NaN             NaN             NaN
             NaN             NaN             NaN
             NaN             NaN             NaN
             NaN             NaN             NaN
             NaN             NaN             NaN
             NaN             NaN             NaN
             NaN             NaN             NaN
             NaN             NaN             NaN
             NaN             NaN             NaN
             NaN             NaN             NaN
             NaN             NaN             NaN
             NaN             NaN             NaN
             NaN             NaN             NaN
             NaN             NaN             NaN
             NaN             NaN             NaN
             NaN             NaN             NaN
             NaN             NaN             NaN
             NaN             NaN             NaN
             NaN             NaN             NaN
             NaN             NaN             NaN
             NaN             NaN             NaN
             NaN             NaN             NaN
             NaN             NaN             NaN
             NaN             NaN             NaN
             NaN             NaN             NaN
