Ca8 Ni12 F42
1.0
7.276874 -0.004584 -0.004841
-3.666556 6.365503 0.004080
-0.004755 0.005661 18.287287
Ca Ni F
8 12 42
direct
0.304463 0.848189 0.661970 Ca
0.153005 0.646486 0.979726 Ca
0.349829 0.510074 0.325625 Ca
0.842932 0.017452 0.345866 Ca
0.171708 0.163807 0.009597 Ca
0.982873 0.789975 0.174320 Ca
0.802832 0.981103 0.834824 Ca
0.209771 0.169252 0.512396 Ca
0.340432 0.007993 0.333550 Ni
0.991171 0.342239 0.667127 Ni
0.662766 0.660004 0.000992 Ni
0.321798 0.007635 0.831418 Ni
0.995925 0.313898 0.162346 Ni
0.685131 0.677202 0.493206 Ni
0.497305 0.819586 0.162927 Ni
0.178411 0.667503 0.494713 Ni
0.316845 0.497983 0.829570 Ni
0.816616 0.499714 0.828091 Ni
0.691274 0.182692 0.495972 Ni
0.494182 0.311845 0.163609 Ni
0.746201 0.199671 0.600342 F
0.809173 0.554315 0.937629 F
0.439893 0.263161 0.271434 F
0.243621 0.735875 0.386352 F
0.479872 0.749339 0.056288 F
0.253276 0.509015 0.727444 F
0.830570 0.950364 0.955497 F
0.050320 0.889697 0.287653 F
0.128192 0.204594 0.619398 F
0.973118 0.791973 0.053012 F
0.832411 0.065583 0.722156 F
0.206935 0.174617 0.388497 F
0.522754 0.383934 0.055779 F
0.614619 0.134022 0.387403 F
0.859334 0.474756 0.723881 F
0.372977 0.498182 0.944094 F
0.132702 0.607076 0.601488 F
0.505313 0.873744 0.275647 F
0.798113 0.421848 0.174066 F
0.577052 0.371618 0.500904 F
0.628482 0.200776 0.843900 F
0.424268 0.801428 0.848387 F
0.373015 0.555664 0.486398 F
0.192633 0.621805 0.178427 F
0.027237 0.297965 0.272668 F
0.678507 0.716395 0.594218 F
0.284122 0.982536 0.943166 F
0.345554 0.007508 0.728165 F
0.665376 0.674535 0.380378 F
0.022157 0.357523 0.051462 F
0.188719 0.200461 0.142202 F
0.805748 0.989785 0.475662 F
0.012756 0.805994 0.821428 F
0.194866 0.194559 0.838362 F
0.993090 0.787715 0.491809 F
0.804903 0.002582 0.160407 F
0.034613 0.431568 0.869538 F
0.583850 0.610962 0.196704 F
0.389394 0.967584 0.525874 F
0.386496 0.009418 0.140203 F
0.617784 0.606191 0.806365 F
0.980022 0.380025 0.461247 F
