Li54 Cr54 O108                          
   1.00000000000000     
     4.0587974704996137   -7.0340855484468534   -0.0000754974068353
     4.0632405218736443    7.0366507506873095    0.0007902310519927
     0.0023264049317491    0.0016269376448844   27.1856456925263146
   Li   Cr   O 
     1    54   108
Direct
   0.6663024347720747    0.6666683456166521    0.5012281961902800 Li
  0.1088574568362107  0.2204581191033043  0.0979550731474733
  0.1176531579959766  0.2270633319247990  0.5781159068078503
  0.1110012627772431  0.5548488353980506  0.0981911876465279
  0.1136484318317202  0.5493668093621100  0.5775227482545302
  0.1114457361924599  0.8902976882351548  0.0977308327490897
  0.1131838835895719  0.8953742896752444  0.5775151279040722
  0.4456960459484504  0.2210005107100638  0.0979734114313175
  0.4443060156764557  0.2284811989697430  0.5781010421809031
  0.4460768437626387  0.5571726290163868  0.0981118729586363
  0.4425081121497393  0.5490062869507091  0.5781613493595866
  0.4480831953507293  0.8917212906701901  0.0976293195380821
  0.4458558525124957  0.8887297517273959  0.5775428239835979
  0.7756736714044744  0.2188170687104720  0.0978925611359313
  0.7778225751403838  0.2242308175395147  0.5774392749515284
  0.7763743656272234  0.5550652571194996  0.0980592976686990
  0.7684569736936827  0.5499919876828772  0.5774852442383561
  0.7767822280870124  0.8903118313760460  0.0975284218969001
  0.7762030197060155  0.8874007970222597  0.5774231061373710
  0.3358712210767951  0.3368452756249220  0.2679643079196577
  0.3329149283659417  0.3389975440428517  0.7223933936996924
  0.3350064620831361  0.6631639894395700  0.2679922793711228
  0.3304981435573845  0.6648189220525546  0.7227658981547050
  0.3359364817520372  0.0035376726668430  0.2680477340218515
  0.3312507156906686 -0.0067940255537783  0.7230441910488570
  0.6649640189280115  0.3342704523113111  0.2680655844100141
  0.6727608588217378  0.3386160998223685  0.7228056633600920
  0.6622250452099143  0.6629153395484313  0.2678806944915191
  0.6684381221336261  0.6704163855282673  0.7229919512120644
  0.6664210722378011 -0.0000771472115928  0.2678348414373322
  0.6674900568421213 -0.0030182848550542  0.7231988875931786
  0.0013800634061674  0.3334622209801361  0.2680422732587328
  0.0008393819096221  0.3361909367423624  0.7226540363225424
 -0.0024484343121890  0.6636263996273175  0.2680479811746937
  0.0005970022981681  0.6644912483036507  0.7231598113171441
  0.0001795656619390  0.0021461060008783  0.2678676931036108
 -0.0044351880678751 -0.0032960592992578  0.7231763451895037
  0.2221923214849294  0.1126368727080439  0.4267809566583172
  0.2163306215620878  0.1023493128919356  0.9067987173481082
  0.2221573703635022  0.4447059343205467  0.4268051389094644
  0.2252687670916369  0.4433025803927589  0.9063265193792159
  0.2219656595093412  0.7758605761912053  0.4273989211549276
  0.2275486535022733  0.7886559576739203  0.9064059860392963
  0.5555293447604319  0.1126286751086381  0.4274709355640529
  0.5527941233237268  0.1027382172935546  0.9069277327169439
  0.5554704960591956  0.4449799934909903  0.4268544957981968
  0.5583662317946485  0.4486071085748440  0.9065563386785206
  0.5538836580679904  0.7747120367103678  0.4274988786199044
  0.5654636935595893  0.7869421382277970  0.9068771133785440
  0.8914319770293211  0.1129665745535199  0.4275564082644780
  0.8815547333056676  0.0963750115251732  0.9065115445022643
  0.8896632761161243  0.4448555043293483  0.4275533510373237
  0.8840626374285480  0.4439671723522541  0.9059197291663068
  0.8878163837861668  0.7767476652919425  0.4275122451663472
  0.8890168304895558  0.7877151003254730  0.9065629069590136
 -0.0010378563029718 -0.0005851858756273  0.1273830484863658
  0.0024789515447075  0.0074438686699314  0.6101722435922354
 -0.0027251576218138  0.3311742930087036  0.1276449417338238
  0.0058960548794739  0.3322635378978870  0.6103447263016616
 -0.0002625789412937  0.6673777744835472  0.1276134240989402
 -0.0038279297410507  0.6626907980802347  0.6112002277625789
  0.3339586984493049 -0.0000797327407596  0.1274265435880883
  0.3380260264326719  0.0091416633150177  0.6102721197100218
  0.3338404184760184  0.3339866189007599  0.1279082984013555
  0.3341767803174606  0.3335026539661443  0.6078156423951158
  0.3353652920373159  0.6676762209060372  0.1276917515898050
  0.3350473504836275  0.6611001333373034  0.6105550515901387
  0.6673227343498570  0.0011893099099157  0.1269327736769500
  0.6672043791388481 -0.0010726177481201  0.6112616589573963
  0.6671375283594566  0.3316397761243900  0.1274350980498065
  0.6601664507116027  0.3341406514100062  0.6096376120421779
  0.6660729588185046  0.6673280973425846  0.1276308910770372
  0.6611298455051049  0.6611517741184052  0.6096771778453781
  0.2216137872448762  0.1096021523273006  0.0539440285275475
  0.2294043888595478  0.1252382030934542  0.5507725780902990
  0.2230981593262625  0.4443439486616536  0.0542125769180626
  0.2272591516945561  0.4384699789399628  0.5508809677055011
  0.2238277693726068  0.7803826320374299  0.0541265186953791
  0.2235118440258316  0.7760963922863950  0.5499123003611095
  0.5571359888866672  0.1104324826711934  0.0543820471652597
  0.5518200854425486  0.1162010170159305  0.5508769998270547
  0.5556061246440501  0.4450311586859249  0.0542546717336417
  0.5466825334480617  0.4390974168330455  0.5514099369346028
  0.5570340746489463  0.7796185189448378  0.0541525576015852
  0.5533988799504738  0.7706008425290610  0.5509974802381963
  0.8861279817008151  0.1097137493752782  0.0544489907192384
  0.8965393316682106  0.1142764694075826  0.5510691751888337
  0.8866864465512231  0.4416484976668282  0.0546396107933615
  0.8873603341396873  0.4446148533018688  0.5505078927309925
  0.8889871102370970  0.7797179244184897  0.0538122538716415
  0.8839148252029473  0.7750027835626732  0.5505203874401606
  0.2251203881727440  0.1139788906965960  0.2924955238910135
  0.2188527186148841  0.1090882738929511  0.7678910970004681
  0.2219218767426984  0.4427599524099995  0.2922803077928312
  0.2219295133518484  0.4497040175803192  0.7660991924659200
  0.2248748332289931  0.7792274956355044  0.2929287386165614
  0.2186830676420969  0.7707439912804537  0.7662621021348816
  0.5546492285023150  0.1131019329782448  0.2925107560935315
  0.5582385915818715  0.1093133824773781  0.7676749547037426
  0.5554676376659305  0.4460832453294482  0.2917915981948537
  0.5581996375015259  0.4484963134502729  0.7670157230411613
  0.5560176736809451  0.7738626050195475  0.2922793030545868
  0.5532186437107236  0.7774155278929903  0.7664365790838262
  0.8910115899803965  0.1145166126158024  0.2926027825791412
  0.8874267802856293  0.1105978038049908  0.7671221665601714
  0.8874416239273790  0.4408837675579709  0.2926047323801123
  0.8932273883096444  0.4490820131758753  0.7660082803676841
  0.8837120672762588  0.7754203868212585  0.2925609309970316
  0.8902004463764775  0.7757696732772916  0.7668289230583542
  0.1126174642132623  0.2255839639934834  0.2259040758430521
  0.1094352721813843  0.2234843213992854  0.7054448092127729
  0.1113969321964666  0.5517547877950080  0.2254489704558201
  0.1121924739523362  0.5572575281898113  0.7074462838075437
  0.1133119982567685  0.8912830654560707  0.2251591122970291
  0.1065065868708109  0.8829970132760536  0.7061868623477018
  0.4446738097038954  0.2237106691746689  0.2260059247970573
  0.4456896089401370  0.2243840255649707  0.7046913045935866
  0.4468193781310359  0.5551384872861862  0.2262648311949146
  0.4431521802590588  0.5590349288035144  0.7060592424231107
  0.4437556108852819  0.8887488964186716  0.2252715392827376
  0.4442587101641065  0.8832079416022687  0.7063598026196273
  0.7796238143873551  0.2248261466273573  0.2255036031663552
  0.7800503410416340  0.2222954260891127  0.7062303859618699
  0.7725534517098489  0.5543101417717228  0.2258858317098937
  0.7819885083727732  0.5583824147530091  0.7065584561032421
  0.7752306953721130  0.8847526443453259  0.2256045752799649
  0.7764982941923000  0.8883549157174672  0.7059723308616509
  0.1171604709215014  0.2259473366486390  0.4559831713075974
  0.1104142503151985  0.2177786918072430  0.9538683338433940
  0.1116576089929231  0.5532564942146120  0.4546629040749678
  0.1144052922387839  0.5568051186100298  0.9548238413982701
  0.1119727634848974  0.8912954765343978  0.4547832188245798
  0.1039731076370145  0.8895934050010267  0.9527942748706518
  0.4415316246979361  0.2254160716526590  0.4561309886977588
  0.4428978264462007  0.2138296980571426  0.9535899262814357
  0.4414410965013754  0.5506940248517310  0.4559632957859949
  0.4465864550829365  0.5615118931101759  0.9541274426894756
  0.4438304423113328  0.8873683662468950  0.4549515852012717
  0.4516518467159051  0.8952840593899813  0.9531453960071311
  0.7794050125163761  0.2247046064506387  0.4550356102212620
  0.7690267461446052  0.2129649623557363  0.9539607115272458
  0.7758341005146033  0.5539164194782259  0.4549680069241989
  0.7822296116815199  0.5673256992840928  0.9536892151198181
  0.7773478342333771  0.8877806230345011  0.4550958657065905
  0.7792470064041634  0.8851577043341664  0.9522182288970752
  0.0021182624535788  0.0013802555625220  0.3893130490193699
 -0.0042188827707813 -0.0084668316627179  0.8689216437556063
  0.0024047460755370  0.3351170845836438  0.3894098383937976
  0.0004519252251679  0.3299119248412100  0.8663954075795173
 -0.0007543604385629  0.6650763642162405  0.3893050530572065
 -0.0037324859150389  0.6745970568247678  0.8672514739157348
  0.3325100968096862  0.0014235741476191  0.3892801242749631
  0.3374646919990091  0.0035310546752762  0.8684069843391984
  0.3329116792624762  0.3337662054851010  0.3897616656678276
  0.3293267492114840  0.3297863469675340  0.8673013334799526
  0.3327815129892199  0.6639496432098629  0.3894382731588829
  0.3384558169127183  0.6692030281353336  0.8671506938518878
  0.6663720593429385 -0.0009842896074185  0.3890023076602156
  0.6632129101854335 -0.0017749187126671  0.8687289686542961
  0.6667572391254019  0.3349732546574914  0.3892163469672096
  0.6626447132139837  0.3252582856945731  0.8670572252504424
  0.6646509620466300  0.6648318752338288  0.3891524900746385
  0.6759559427490366  0.6775622858460197  0.8685169049621589
 
  0.00000000E+00  0.00000000E+00  0.00000000E+00
  0.00000000E+00  0.00000000E+00  0.00000000E+00
  0.00000000E+00  0.00000000E+00  0.00000000E+00
  0.00000000E+00  0.00000000E+00  0.00000000E+00
  0.00000000E+00  0.00000000E+00  0.00000000E+00
  0.00000000E+00  0.00000000E+00  0.00000000E+00
  0.00000000E+00  0.00000000E+00  0.00000000E+00
  0.00000000E+00  0.00000000E+00  0.00000000E+00
  0.00000000E+00  0.00000000E+00  0.00000000E+00
  0.00000000E+00  0.00000000E+00  0.00000000E+00
  0.00000000E+00  0.00000000E+00  0.00000000E+00
  0.00000000E+00  0.00000000E+00  0.00000000E+00
  0.00000000E+00  0.00000000E+00  0.00000000E+00
  0.00000000E+00  0.00000000E+00  0.00000000E+00
  0.00000000E+00  0.00000000E+00  0.00000000E+00
  0.00000000E+00  0.00000000E+00  0.00000000E+00
  0.00000000E+00  0.00000000E+00  0.00000000E+00
  0.00000000E+00  0.00000000E+00  0.00000000E+00
  0.00000000E+00  0.00000000E+00  0.00000000E+00
  0.00000000E+00  0.00000000E+00  0.00000000E+00
  0.00000000E+00  0.00000000E+00  0.00000000E+00
  0.00000000E+00  0.00000000E+00  0.00000000E+00
  0.00000000E+00  0.00000000E+00  0.00000000E+00
  0.00000000E+00  0.00000000E+00  0.00000000E+00
  0.00000000E+00  0.00000000E+00  0.00000000E+00
  0.00000000E+00  0.00000000E+00  0.00000000E+00
  0.00000000E+00  0.00000000E+00  0.00000000E+00
  0.00000000E+00  0.00000000E+00  0.00000000E+00
  0.00000000E+00  0.00000000E+00  0.00000000E+00
  0.00000000E+00  0.00000000E+00  0.00000000E+00
  0.00000000E+00  0.00000000E+00  0.00000000E+00
  0.00000000E+00  0.00000000E+00  0.00000000E+00
  0.00000000E+00  0.00000000E+00  0.00000000E+00
  0.00000000E+00  0.00000000E+00  0.00000000E+00
  0.00000000E+00  0.00000000E+00  0.00000000E+00
  0.00000000E+00  0.00000000E+00  0.00000000E+00
  0.00000000E+00  0.00000000E+00  0.00000000E+00
  0.00000000E+00  0.00000000E+00  0.00000000E+00
  0.00000000E+00  0.00000000E+00  0.00000000E+00
  0.00000000E+00  0.00000000E+00  0.00000000E+00
  0.00000000E+00  0.00000000E+00  0.00000000E+00
  0.00000000E+00  0.00000000E+00  0.00000000E+00
  0.00000000E+00  0.00000000E+00  0.00000000E+00
  0.00000000E+00  0.00000000E+00  0.00000000E+00
  0.00000000E+00  0.00000000E+00  0.00000000E+00
  0.00000000E+00  0.00000000E+00  0.00000000E+00
  0.00000000E+00  0.00000000E+00  0.00000000E+00
  0.00000000E+00  0.00000000E+00  0.00000000E+00
  0.00000000E+00  0.00000000E+00  0.00000000E+00
  0.00000000E+00  0.00000000E+00  0.00000000E+00
  0.00000000E+00  0.00000000E+00  0.00000000E+00
  0.00000000E+00  0.00000000E+00  0.00000000E+00
  0.00000000E+00  0.00000000E+00  0.00000000E+00
  0.00000000E+00  0.00000000E+00  0.00000000E+00
  0.00000000E+00  0.00000000E+00  0.00000000E+00
  0.00000000E+00  0.00000000E+00  0.00000000E+00
  0.00000000E+00  0.00000000E+00  0.00000000E+00
  0.00000000E+00  0.00000000E+00  0.00000000E+00
  0.00000000E+00  0.00000000E+00  0.00000000E+00
  0.00000000E+00  0.00000000E+00  0.00000000E+00
  0.00000000E+00  0.00000000E+00  0.00000000E+00
  0.00000000E+00  0.00000000E+00  0.00000000E+00
  0.00000000E+00  0.00000000E+00  0.00000000E+00
  0.00000000E+00  0.00000000E+00  0.00000000E+00
  0.00000000E+00  0.00000000E+00  0.00000000E+00
  0.00000000E+00  0.00000000E+00  0.00000000E+00
  0.00000000E+00  0.00000000E+00  0.00000000E+00
  0.00000000E+00  0.00000000E+00  0.00000000E+00
  0.00000000E+00  0.00000000E+00  0.00000000E+00
  0.00000000E+00  0.00000000E+00  0.00000000E+00
  0.00000000E+00  0.00000000E+00  0.00000000E+00
  0.00000000E+00  0.00000000E+00  0.00000000E+00
  0.00000000E+00  0.00000000E+00  0.00000000E+00
  0.00000000E+00  0.00000000E+00  0.00000000E+00
  0.00000000E+00  0.00000000E+00  0.00000000E+00
  0.00000000E+00  0.00000000E+00  0.00000000E+00
  0.00000000E+00  0.00000000E+00  0.00000000E+00
  0.00000000E+00  0.00000000E+00  0.00000000E+00
  0.00000000E+00  0.00000000E+00  0.00000000E+00
  0.00000000E+00  0.00000000E+00  0.00000000E+00
  0.00000000E+00  0.00000000E+00  0.00000000E+00
  0.00000000E+00  0.00000000E+00  0.00000000E+00
  0.00000000E+00  0.00000000E+00  0.00000000E+00
  0.00000000E+00  0.00000000E+00  0.00000000E+00
  0.00000000E+00  0.00000000E+00  0.00000000E+00
  0.00000000E+00  0.00000000E+00  0.00000000E+00
  0.00000000E+00  0.00000000E+00  0.00000000E+00
  0.00000000E+00  0.00000000E+00  0.00000000E+00
  0.00000000E+00  0.00000000E+00  0.00000000E+00
  0.00000000E+00  0.00000000E+00  0.00000000E+00
  0.00000000E+00  0.00000000E+00  0.00000000E+00
  0.00000000E+00  0.00000000E+00  0.00000000E+00
  0.00000000E+00  0.00000000E+00  0.00000000E+00
  0.00000000E+00  0.00000000E+00  0.00000000E+00
  0.00000000E+00  0.00000000E+00  0.00000000E+00
  0.00000000E+00  0.00000000E+00  0.00000000E+00
  0.00000000E+00  0.00000000E+00  0.00000000E+00
  0.00000000E+00  0.00000000E+00  0.00000000E+00
  0.00000000E+00  0.00000000E+00  0.00000000E+00
  0.00000000E+00  0.00000000E+00  0.00000000E+00
  0.00000000E+00  0.00000000E+00  0.00000000E+00
  0.00000000E+00  0.00000000E+00  0.00000000E+00
  0.00000000E+00  0.00000000E+00  0.00000000E+00
  0.00000000E+00  0.00000000E+00  0.00000000E+00
  0.00000000E+00  0.00000000E+00  0.00000000E+00
  0.00000000E+00  0.00000000E+00  0.00000000E+00
  0.00000000E+00  0.00000000E+00  0.00000000E+00
  0.00000000E+00  0.00000000E+00  0.00000000E+00
  0.00000000E+00  0.00000000E+00  0.00000000E+00
  0.00000000E+00  0.00000000E+00  0.00000000E+00
  0.00000000E+00  0.00000000E+00  0.00000000E+00
  0.00000000E+00  0.00000000E+00  0.00000000E+00
  0.00000000E+00  0.00000000E+00  0.00000000E+00
  0.00000000E+00  0.00000000E+00  0.00000000E+00
  0.00000000E+00  0.00000000E+00  0.00000000E+00
  0.00000000E+00  0.00000000E+00  0.00000000E+00
  0.00000000E+00  0.00000000E+00  0.00000000E+00
  0.00000000E+00  0.00000000E+00  0.00000000E+00
  0.00000000E+00  0.00000000E+00  0.00000000E+00
  0.00000000E+00  0.00000000E+00  0.00000000E+00
  0.00000000E+00  0.00000000E+00  0.00000000E+00
  0.00000000E+00  0.00000000E+00  0.00000000E+00
  0.00000000E+00  0.00000000E+00  0.00000000E+00
  0.00000000E+00  0.00000000E+00  0.00000000E+00
  0.00000000E+00  0.00000000E+00  0.00000000E+00
  0.00000000E+00  0.00000000E+00  0.00000000E+00
  0.00000000E+00  0.00000000E+00  0.00000000E+00
  0.00000000E+00  0.00000000E+00  0.00000000E+00
  0.00000000E+00  0.00000000E+00  0.00000000E+00
  0.00000000E+00  0.00000000E+00  0.00000000E+00
  0.00000000E+00  0.00000000E+00  0.00000000E+00
  0.00000000E+00  0.00000000E+00  0.00000000E+00
  0.00000000E+00  0.00000000E+00  0.00000000E+00
  0.00000000E+00  0.00000000E+00  0.00000000E+00
  0.00000000E+00  0.00000000E+00  0.00000000E+00
  0.00000000E+00  0.00000000E+00  0.00000000E+00
  0.00000000E+00  0.00000000E+00  0.00000000E+00
  0.00000000E+00  0.00000000E+00  0.00000000E+00
  0.00000000E+00  0.00000000E+00  0.00000000E+00
  0.00000000E+00  0.00000000E+00  0.00000000E+00
  0.00000000E+00  0.00000000E+00  0.00000000E+00
  0.00000000E+00  0.00000000E+00  0.00000000E+00
  0.00000000E+00  0.00000000E+00  0.00000000E+00
  0.00000000E+00  0.00000000E+00  0.00000000E+00
  0.00000000E+00  0.00000000E+00  0.00000000E+00
  0.00000000E+00  0.00000000E+00  0.00000000E+00
  0.00000000E+00  0.00000000E+00  0.00000000E+00
  0.00000000E+00  0.00000000E+00  0.00000000E+00
  0.00000000E+00  0.00000000E+00  0.00000000E+00
  0.00000000E+00  0.00000000E+00  0.00000000E+00
  0.00000000E+00  0.00000000E+00  0.00000000E+00
  0.00000000E+00  0.00000000E+00  0.00000000E+00
  0.00000000E+00  0.00000000E+00  0.00000000E+00
  0.00000000E+00  0.00000000E+00  0.00000000E+00
  0.00000000E+00  0.00000000E+00  0.00000000E+00
  0.00000000E+00  0.00000000E+00  0.00000000E+00
  0.00000000E+00  0.00000000E+00  0.00000000E+00
  0.00000000E+00  0.00000000E+00  0.00000000E+00
  0.00000000E+00  0.00000000E+00  0.00000000E+00
  0.00000000E+00  0.00000000E+00  0.00000000E+00
  0.00000000E+00  0.00000000E+00  0.00000000E+00
  0.00000000E+00  0.00000000E+00  0.00000000E+00
  0.00000000E+00  0.00000000E+00  0.00000000E+00
