Ca2 Mn4 S6 O24
1.0
7.807382 0.099381 4.559915
2.664560 7.339304 4.559912
0.139886 0.099371 9.040384
Ca Mn S O
2 4 6 24
direct
0.497497 0.497496 0.497497 Ca
0.997496 0.997497 0.997496 Ca
0.649190 0.649190 0.649188 Mn
0.149189 0.149190 0.149189 Mn
0.845799 0.845798 0.845799 Mn
0.345800 0.345799 0.345799 Mn
0.945593 0.247498 0.549640 S
0.445592 0.049639 0.747499 S
0.549638 0.945592 0.247499 S
0.747498 0.445592 0.049643 S
0.247498 0.549640 0.945590 S
0.049641 0.747500 0.445589 S
0.402547 0.567025 0.764279 O
0.902547 0.264281 0.067022 O
0.764281 0.402547 0.567024 O
0.067023 0.902548 0.264278 O
0.567025 0.764279 0.402545 O
0.264279 0.067025 0.902545 O
0.730843 0.927957 0.092327 O
0.230848 0.592331 0.427948 O
0.092329 0.730845 0.927954 O
0.427956 0.230844 0.592328 O
0.927953 0.092328 0.730846 O
0.592331 0.427948 0.230849 O
0.984176 0.190471 0.403696 O
0.484172 0.903695 0.690472 O
0.403695 0.984173 0.190472 O
0.690469 0.484177 0.903698 O
0.190472 0.403697 0.984169 O
0.903698 0.690470 0.484169 O
0.091153 0.304599 0.511919 O
0.591151 0.011914 0.804602 O
0.511912 0.091151 0.304604 O
0.804597 0.591152 0.011923 O
0.304602 0.511912 0.091152 O
0.011913 0.804600 0.591151 O
