Rb8 V8 P8 O32 F8                        
   1.00000000000000     
     6.2843755418820493   -0.0007647088626305    0.0192357432051053
    -0.0015414464741709   10.5746805282814087   -0.0150437827249176
     0.0405652682136337   -0.0229784905714829   12.8397880454881559
   Rb   V    P    O    F 
     1     8     8    32     8
Direct
   0.1903866169269929    0.8441937889381068    0.6004137307437449 Rb
  0.5021207956820476  0.0068801209106869  0.3960123252484173
  0.5014345391869742  0.5064563590843827  0.6061675095191338
 -0.0030840091582775  0.0075024631679414  0.8901828199366286
  0.9948868582462153  0.4997058425855394  0.1055178864358433
  0.2482942709939567  0.2537557134346408  0.2502281782774096
  0.7513579482710225  0.7530055788749082  0.7501518127730638
  0.2526682652441850  0.2542498146634969  0.7485235586445637
  0.7549800619988305  0.7504285018624701  0.2552228317073756
  0.3312964041208927  0.2573498637017498  0.4993424796986580
  0.6681921964337584  0.7555728273437481  0.5016460184632577
  0.1686952212579857  0.2529551442268960  0.9994834134200752
  0.8303212893337110  0.7535457019345468 -0.0017472873735014
  0.4984314993651148  0.5031614397554603  0.1835626107700011
  0.4993271247833428  0.0031879122179268  0.8166397818025870
  0.0001188028937214  0.5040530461748682  0.6828340444146137
 -0.0005452448237104  0.0062630763692914  0.3188572691828446
  0.4834329737147038  0.1400304337590838  0.4840649349886666
  0.5161795127761929  0.6392186871313169  0.5163573266709657
  0.0157602351742055  0.1377040799445828  0.9842779567628425
  0.9849554603221073  0.6398502965756008  0.0150826362052505
  0.4824184564542129  0.3726858066241264  0.5133954175585486
  0.5183359486950180  0.8714292078100165  0.4855867104358141
  0.0185379489898478  0.3713954016978923  0.0131840349237552
  0.9756347225378305  0.8725220686587194  0.9838098989272299
  0.1972532013939403  0.2747484032902615  0.4012473932808270
  0.8018366742470361  0.7746979432831905  0.5993618481618249
  0.3017224036220499  0.2742146330389998  0.9011072862259621
  0.7021777477376628  0.7731430202475689  0.0988360392157611
  0.2002832549121562  0.2331958151067581  0.5984418600783145
  0.8027922197672115  0.7329861099510673  0.4032816065556065
  0.2992947710389141  0.2329463083924460  0.0981645539165768
  0.6936791726686712  0.7327162565131232  0.9016987712396151
  0.3037370596548277  0.5318928462741388  0.1149706521744335
  0.6942859224558213  0.0292113909618854  0.8850802843498297
  0.1965584038605462  0.5305457102276657  0.6143311688945451
  0.8033847140601355  0.0294438577085717  0.3879516251749729
  0.6952331117040919  0.4814378344229542  0.1142424121815511
  0.3027496671259585  0.9754596100743080  0.8857910048148685
  0.8019087129645400  0.4797876381960405  0.6150048842107846
  0.1967177009353629  0.9808074758025936  0.3859502991759159
  0.5422553797993716  0.6202771076053016  0.2538582409129496
  0.4503258033762264  0.1208610218461949  0.7475317234858815
  0.9528855311421883  0.6207879264363731  0.7539781846474015
  0.0450039579928184  0.1220564412670439  0.2469123484984506
  0.4510832780862108  0.3856585646628975  0.2524754886376475
  0.5491461611135550  0.8879576443650061  0.7456985484222312
  0.0490729452416842  0.3873529355479702  0.7523660324325996
  0.9548970730088878  0.8894123031565656  0.2484623422642912
  0.5343438952629481  0.8823881447777442  0.2795908628837121
  0.4694398512189243  0.3822249443773991  0.7225948944091655
  0.9665089179700618  0.8819512935258355  0.7785096818891932
  0.0291042224340971  0.3792490014807979  0.2240998091246065
  0.4654611863856860  0.1254224472177188  0.2750849976323004
  0.5355252714137229  0.6263858901555897  0.7240435121410953
  0.0313653261400838  0.1288218714897662  0.7728669276420225
  0.9728938698604627  0.6242875384539118  0.2234396837019647
 
  0.00000000E+00  0.00000000E+00  0.00000000E+00
  0.00000000E+00  0.00000000E+00  0.00000000E+00
  0.00000000E+00  0.00000000E+00  0.00000000E+00
  0.00000000E+00  0.00000000E+00  0.00000000E+00
  0.00000000E+00  0.00000000E+00  0.00000000E+00
  0.00000000E+00  0.00000000E+00  0.00000000E+00
  0.00000000E+00  0.00000000E+00  0.00000000E+00
  0.00000000E+00  0.00000000E+00  0.00000000E+00
  0.00000000E+00  0.00000000E+00  0.00000000E+00
  0.00000000E+00  0.00000000E+00  0.00000000E+00
  0.00000000E+00  0.00000000E+00  0.00000000E+00
  0.00000000E+00  0.00000000E+00  0.00000000E+00
  0.00000000E+00  0.00000000E+00  0.00000000E+00
  0.00000000E+00  0.00000000E+00  0.00000000E+00
  0.00000000E+00  0.00000000E+00  0.00000000E+00
  0.00000000E+00  0.00000000E+00  0.00000000E+00
  0.00000000E+00  0.00000000E+00  0.00000000E+00
  0.00000000E+00  0.00000000E+00  0.00000000E+00
  0.00000000E+00  0.00000000E+00  0.00000000E+00
  0.00000000E+00  0.00000000E+00  0.00000000E+00
  0.00000000E+00  0.00000000E+00  0.00000000E+00
  0.00000000E+00  0.00000000E+00  0.00000000E+00
  0.00000000E+00  0.00000000E+00  0.00000000E+00
  0.00000000E+00  0.00000000E+00  0.00000000E+00
  0.00000000E+00  0.00000000E+00  0.00000000E+00
  0.00000000E+00  0.00000000E+00  0.00000000E+00
  0.00000000E+00  0.00000000E+00  0.00000000E+00
  0.00000000E+00  0.00000000E+00  0.00000000E+00
  0.00000000E+00  0.00000000E+00  0.00000000E+00
  0.00000000E+00  0.00000000E+00  0.00000000E+00
  0.00000000E+00  0.00000000E+00  0.00000000E+00
  0.00000000E+00  0.00000000E+00  0.00000000E+00
  0.00000000E+00  0.00000000E+00  0.00000000E+00
  0.00000000E+00  0.00000000E+00  0.00000000E+00
  0.00000000E+00  0.00000000E+00  0.00000000E+00
  0.00000000E+00  0.00000000E+00  0.00000000E+00
  0.00000000E+00  0.00000000E+00  0.00000000E+00
  0.00000000E+00  0.00000000E+00  0.00000000E+00
  0.00000000E+00  0.00000000E+00  0.00000000E+00
  0.00000000E+00  0.00000000E+00  0.00000000E+00
  0.00000000E+00  0.00000000E+00  0.00000000E+00
  0.00000000E+00  0.00000000E+00  0.00000000E+00
  0.00000000E+00  0.00000000E+00  0.00000000E+00
  0.00000000E+00  0.00000000E+00  0.00000000E+00
  0.00000000E+00  0.00000000E+00  0.00000000E+00
  0.00000000E+00  0.00000000E+00  0.00000000E+00
  0.00000000E+00  0.00000000E+00  0.00000000E+00
  0.00000000E+00  0.00000000E+00  0.00000000E+00
  0.00000000E+00  0.00000000E+00  0.00000000E+00
  0.00000000E+00  0.00000000E+00  0.00000000E+00
  0.00000000E+00  0.00000000E+00  0.00000000E+00
  0.00000000E+00  0.00000000E+00  0.00000000E+00
  0.00000000E+00  0.00000000E+00  0.00000000E+00
  0.00000000E+00  0.00000000E+00  0.00000000E+00
  0.00000000E+00  0.00000000E+00  0.00000000E+00
  0.00000000E+00  0.00000000E+00  0.00000000E+00
  0.00000000E+00  0.00000000E+00  0.00000000E+00
