Na2 Ca2 V4 Si4 P2 O24                   
   1.00000000000000     
     8.8467029999999998    0.1441480000000000    0.0433040000000000
     4.2890040000000003    7.6681169999999996    0.0436570000000000
     4.3983220000000003    2.5370740000000001    7.2253049999999996
   Ca   Na   V    Si   P    O 
     2     2     4     4     2    24
Direct
  0.4234293465372493  0.2370528514867942  0.7225719414356470
  1.0051031681500293  0.9932395570610051  0.0036210346030254
  0.1798497070998822  0.7445225842771153  0.4242253003360075
  0.8722208765943030  0.2539498645968112  0.5937157375804691
  0.3681071431245235  0.3672128232982824  0.3397912580605956
  0.6349712107492033  0.6436244729925534  0.6387733331301402
  0.1424275171518655  0.1521411127511484  0.1435081433210858
  0.8455437043944530  0.8531125484256947  0.8576511523162529
  0.0183353693667612  0.4651708876144416  0.7473659756481431
  0.7518812795008832  0.0318678854693638  0.4592547276058997
  0.4631220862349236  0.7493722692228746  0.0269313532188138
  0.5469353326914228  0.2511901007027610  0.9632688341194332
  0.9650378820903814  0.5442391777081225  0.2430224869152635
  0.2549837064970601  0.9713272952555888  0.5358885348015548
  0.2173872882397599  0.4391729730206668  0.5719646087532220
  0.7823792383984938  0.5681206312627228  0.4097358947586018
  0.5742056326556619  0.2241407109440378  0.4290586753621199
  0.4187773184405305  0.7874084253617235  0.5538865212376820
  0.4224615390284110  0.5859325367119962  0.2265927698443205
  0.5557657227015171  0.4098206766896223  0.7577073049159753
  0.9404890015235506  0.0415063748799877  0.2757056312171165
  0.0830549380510668  0.9555236661630316  0.7192997544407292
  0.0724151282957452  0.2766621268752492  0.9192622048522324
  0.9503821591317567  0.7207041975032626  0.0687551638028199
  0.2792938591399680  0.9367579576551827  0.0351400185807949
  0.7414613766380733  0.0738400583248913  0.9392461417979641
  0.5102119297454355  0.3069096405340526  0.1305887212402804
  0.5016709613209024  0.6956336540032169  0.8545286218941753
  0.1320613767648517  0.5109139451641747  0.2828649475664259
  0.8489327054033117  0.4725226459552918  0.7168176636558135
  0.2933106765313686  0.1420165375280255  0.4975867742862130
  0.7184730868282759  0.8441967277016726  0.5072451621583528
  0.3677527570917971  0.1945078769500205  1.0207127457225196
  0.6396680811561281  0.7904799367945006 -0.0037962454194679
  0.1984459753864500  1.0062097280044708  0.3785253583020608
  0.7608814068714774  0.0269029039669937  0.6448684378028668
 -0.0063972320101494  0.3702282385382603  0.2139705206312218
  0.9858385328452134  0.6603224211199088  0.7632909836208100
 
             NaN             NaN             NaN
             NaN             NaN             NaN
             NaN             NaN             NaN
             NaN             NaN             NaN
             NaN             NaN             NaN
             NaN             NaN             NaN
             NaN             NaN             NaN
             NaN             NaN             NaN
             NaN             NaN             NaN
             NaN             NaN             NaN
             NaN             NaN             NaN
             NaN             NaN             NaN
             NaN             NaN             NaN
             NaN             NaN             NaN
             NaN             NaN             NaN
             NaN             NaN             NaN
             NaN             NaN             NaN
             NaN             NaN             NaN
             NaN             NaN             NaN
             NaN             NaN             NaN
             NaN             NaN             NaN
             NaN             NaN             NaN
             NaN             NaN             NaN
             NaN             NaN             NaN
             NaN             NaN             NaN
             NaN             NaN             NaN
             NaN             NaN             NaN
             NaN             NaN             NaN
             NaN             NaN             NaN
             NaN             NaN             NaN
             NaN             NaN             NaN
             NaN             NaN             NaN
             NaN             NaN             NaN
             NaN             NaN             NaN
             NaN             NaN             NaN
             NaN             NaN             NaN
             NaN             NaN             NaN
             NaN             NaN             NaN
