Na2 Ca2 V4 Si4 P2 O24
1.0
8.846703 0.144148 0.043304
4.289004 7.668117 0.043657
4.398322 2.537074 7.225305
Ca Na V Si P O
2 2 4 4 2 24
direct
0.440460 0.314996 0.621761 Ca
-0.011291 0.995866 0.014136 Ca
0.290861 0.651871 0.430005 Na
0.879872 0.250601 0.604446 Na
0.358804 0.360414 0.346872 V
0.642870 0.647078 0.645721 V
0.143634 0.148830 0.138342 V
0.841571 0.854560 0.858063 V
0.029214 0.462399 0.749330 Si
0.747211 0.039203 0.461776 Si
0.458395 0.749506 0.038500 Si
0.534745 0.254156 0.956078 Si
0.961306 0.543999 0.244958 P
0.249270 0.963463 0.536891 P
0.226357 0.439932 0.574876 O
0.773734 0.557464 0.411253 O
0.566152 0.227167 0.438461 O
0.419339 0.784582 0.554389 O
0.434554 0.576436 0.229070 O
0.558181 0.428192 0.761529 O
0.926991 0.061031 0.273198 O
0.078965 0.945221 0.721639 O
0.058882 0.268602 0.923495 O
0.940944 0.725031 0.076574 O
0.263053 0.924730 0.055806 O
0.735206 0.083621 0.935062 O
0.479415 0.301715 0.139523 O
0.504182 0.714110 0.852728 O
0.116726 0.519066 0.296997 O
0.858243 0.485764 0.704957 O
0.279200 0.135980 0.508841 O
0.720211 0.850378 0.498530 O
0.364853 0.197937 -0.006839 O
0.628901 0.802967 1.004403 O
0.203037 0.995984 0.374618 O
0.771789 0.017702 0.644555 O
0.005030 0.372018 0.204344 O
0.981416 0.651064 0.784948 O
