Mg16 V32 O64
1.0
  11.8575359999999996    0.0000000000000000    0.0000000000000008
   0.0000000000000015    9.1695539999999998    0.0000000000000006
   0.0000000000000000    0.0000000000000000   10.5598340000000004
Mg V O
15 32 64
direct
   0.4375000000000000    0.2451840000000000    0.8488020000000001 Mg
   0.9375000000000001    0.2451840000000000    0.8488019999999999 Mg
   0.1875000000000001    0.2451840000000000    0.8488020000000001 Mg
   0.0625000000000000    0.7548159999999989    0.1511979999999990 Mg
   0.5625000000000000    0.7548159999999989    0.1511979999999990 Mg
   0.3125000000000000    0.7548159999999989    0.1511979999999990 Mg
   0.8125000000000001    0.7548159999999989    0.1511979999999990 Mg
   0.1875000000000001    0.7451840000000001    0.6511979999999991 Mg
   0.6875000000000001    0.7451840000000001    0.6511979999999991 Mg
   0.4375000000000000    0.7451840000000001    0.6511979999999991 Mg
   0.9375000000000000    0.7451840000000001    0.6511979999999991 Mg
   0.0625000000000000    0.2548159999999990    0.3488020000000000 Mg
   0.5625000000000001    0.2548159999999990    0.3488020000000000 Mg
   0.3125000000000000    0.2548159999999990    0.3488020000000000 Mg
   0.8125000000000000    0.2548159999999990    0.3488020000000000 Mg
   0.0625000000000000    0.4113990000000000    0.6029479999999990 V
   0.5625000000000001    0.4113990000000000    0.6029479999999990 V
   0.3125000000000000    0.4113990000000000    0.6029479999999990 V
   0.8125000000000000    0.4113990000000000    0.6029479999999990 V
   0.1875000000000001    0.0886009999999990    0.1029480000000000 V
   0.6875000000000001    0.0886009999999990    0.1029480000000000 V
   0.4375000000000001    0.0886009999999990    0.1029480000000000 V
   0.9375000000000001    0.0886009999999990    0.1029480000000000 V
   0.0625000000000000    0.9113990000000001    0.8970520000000001 V
   0.5625000000000001    0.9113990000000001    0.8970520000000000 V
   0.3125000000000001    0.9113990000000001    0.8970520000000000 V
   0.8125000000000001    0.9113990000000001    0.8970520000000000 V
   0.1875000000000001    0.5886009999999990    0.3970519999999990 V
   0.6875000000000001    0.5886009999999990    0.3970519999999990 V
   0.4375000000000001    0.5886009999999990    0.3970519999999990 V
   0.9375000000000000    0.5886009999999990    0.3970519999999990 V
   0.1875000000000001    0.5641159999999991    0.8820260000000001 V
   0.6875000000000001    0.5641159999999991    0.8820260000000000 V
   0.4375000000000001    0.5641159999999991    0.8820260000000001 V
   0.9375000000000000    0.5641159999999991    0.8820260000000000 V
   0.0625000000000000    0.4358839999999999    0.1179739999999990 V
   0.5625000000000001    0.4358839999999999    0.1179739999999990 V
   0.3125000000000000    0.4358839999999999    0.1179739999999990 V
   0.8125000000000000    0.4358839999999999    0.1179739999999990 V
   0.1875000000000001    0.0641159999999990    0.6179739999999990 V
   0.6875000000000001    0.0641159999999990    0.6179739999999990 V
   0.4375000000000001    0.0641159999999990    0.6179739999999990 V
   0.9375000000000001    0.0641159999999990    0.6179739999999990 V
   0.0625000000000000    0.9358839999999999    0.3820260000000000 V
   0.5625000000000001    0.9358839999999999    0.3820259999999999 V
   0.3125000000000001    0.9358839999999999    0.3820259999999999 V
   0.8125000000000001    0.9358839999999999    0.3820259999999999 V
   0.0625000000000000    0.9095959999999990    0.5733429999999990 O
   0.5625000000000001    0.9095959999999990    0.5733429999999990 O
   0.3125000000000001    0.9095959999999990    0.5733429999999990 O
   0.8125000000000001    0.9095959999999990    0.5733429999999990 O
   0.1875000000000001    0.0904040000000000    0.4266570000000000 O
   0.6875000000000001    0.0904040000000000    0.4266570000000000 O
   0.4375000000000001    0.0904040000000000    0.4266570000000000 O
   0.9375000000000001    0.0904040000000000    0.4266570000000000 O
   0.0625000000000000    0.4095959999999990    0.9266570000000011 O
   0.5625000000000001    0.4095959999999990    0.9266570000000011 O
   0.3125000000000000    0.4095959999999990    0.9266570000000011 O
   0.8125000000000000    0.4095959999999990    0.9266570000000010 O
   0.1875000000000001    0.5904039999999999    0.0733429999999990 O
   0.6875000000000001    0.5904039999999999    0.0733429999999990 O
   0.4375000000000001    0.5904039999999999    0.0733429999999990 O
   0.9375000000000000    0.5904039999999999    0.0733429999999990 O
   0.0625000000000000    0.0315949999999990    0.2156969999999990 O
   0.5625000000000000    0.0315949999999990    0.2156969999999990 O
   0.3125000000000000    0.0315949999999990    0.2156969999999990 O
   0.8125000000000000    0.0315949999999990    0.2156969999999990 O
   0.1875000000000001    0.9684050000000000    0.7843030000000001 O
   0.6875000000000001    0.9684050000000000    0.7843030000000000 O
   0.4375000000000001    0.9684050000000000    0.7843030000000001 O
   0.9375000000000000    0.9684050000000000    0.7843030000000000 O
   0.0625000000000000    0.5315949999999990    0.2843030000000000 O
   0.5625000000000000    0.5315949999999990    0.2843030000000000 O
   0.3125000000000000    0.5315949999999990    0.2843030000000000 O
   0.8124999999999999    0.5315949999999990    0.2843030000000000 O
   0.1875000000000001    0.4684050000000000    0.7156969999999990 O
   0.6875000000000001    0.4684050000000000    0.7156969999999990 O
   0.4375000000000001    0.4684050000000000    0.7156969999999990 O
   0.9375000000000000    0.4684050000000000    0.7156969999999989 O
   0.0625000000000000    0.6256710000000001    0.5344579999999990 O
   0.5625000000000000    0.6256710000000001    0.5344579999999990 O
   0.3125000000000000    0.6256710000000001    0.5344579999999990 O
   0.8124999999999999    0.6256710000000001    0.5344579999999990 O
   0.1875000000000001    0.3743289999999990    0.4655420000000010 O
   0.6875000000000002    0.3743289999999990    0.4655420000000010 O
   0.4375000000000001    0.3743289999999990    0.4655420000000010 O
   0.9375000000000001    0.3743289999999990    0.4655420000000010 O
   0.0625000000000000    0.1256710000000000    0.9655420000000011 O
   0.5625000000000001    0.1256710000000000    0.9655420000000011 O
   0.3125000000000001    0.1256710000000000    0.9655420000000011 O
   0.8125000000000000    0.1256710000000000    0.9655420000000011 O
   0.1875000000000001    0.8743289999999990    0.0344579999999980 O
   0.6875000000000001    0.8743289999999990    0.0344579999999980 O
   0.4375000000000000    0.8743289999999990    0.0344579999999980 O
   0.9375000000000000    0.8743289999999990    0.0344579999999980 O
   0.1875000000000001    0.7934620000000001    0.3154009999999990 O
   0.6875000000000001    0.7934620000000001    0.3154009999999990 O
   0.4375000000000000    0.7934620000000001    0.3154009999999990 O
   0.9375000000000000    0.7934620000000001    0.3154009999999990 O
   0.0625000000000000    0.2065379999999990    0.6845990000000001 O
   0.5625000000000001    0.2065379999999990    0.6845990000000001 O
   0.3125000000000001    0.2065379999999990    0.6845990000000001 O
   0.8125000000000002    0.2065379999999990    0.6845990000000001 O
   0.0625000000000000    0.7065379999999990    0.8154009999999990 O
   0.5625000000000000    0.7065379999999990    0.8154009999999990 O
   0.3124999999999999    0.7065379999999990    0.8154009999999990 O
   0.8124999999999999    0.7065379999999990    0.8154009999999989 O
   0.1875000000000001    0.2934620000000000    0.1845990000000000 O
   0.6875000000000002    0.2934620000000000    0.1845990000000000 O
   0.4375000000000000    0.2934620000000000    0.1845990000000000 O
   0.9375000000000001    0.2934620000000000    0.1845990000000000 O
