Ca1 Ni12 F42                            
   1.00000000000000     
     7.0176160000000003   -0.0306710000000000    0.0071810000000000
    -3.5315150000000002    6.1073060000000003   -0.0263030000000000
    -0.0987200000000000   -0.0302710000000000   16.9235770000000016
   Ca   Ni   F 
     1    12    42
Direct
  0.6054110483168044  0.4593016039725514  0.6682689964318712
  0.2905526960224316  1.0023773415486976  0.3295487582832838
  0.7006362649428379  0.7020628801668175  0.0071345458763449
  0.0115521512588708  0.3023546370123127  0.6614521280626728
  0.3504587389281199  0.9992860981858624  0.8351084634721982
  0.6436810632998541  0.6641196737904701  0.4926852717939608
  0.9964346139418826  0.3506974528046899  0.1685949373103215
  0.6463158000795821  0.1562309905360689  0.4947374063332319
  0.4962002688647046  0.3507521299668552  0.1686765396138557
  0.8557674241101935  0.4975118786059164  0.8438531465833724
  0.3480843803555153  0.4985528307600043  0.8394587089392408
  0.1441449267051836  0.6609355242334037  0.4967644610610070
  0.4966267044430758  0.8509197740781052  0.1682946960363004
  0.5551631602780888  0.8226501686510019  0.0625548204082419
  0.2656068375285485  0.4330437821994836  0.7266807866238232
  0.1642774172345941  0.7501721181457502  0.3877532062133998
  0.4271165851292306  0.2672939188502370  0.2734436573612622
  0.8341830263066915  0.5794421139242936  0.9503817440658177
  0.7444826449746115  0.1880758498700622  0.6025679526639822
  0.9099214566639964  0.0503394997022409  0.7111275638817836
  0.1718540162465071  0.1135721378749295  0.3908787442796915
  0.9249265653396728  0.8218472694124090  0.0724401450567709
  0.1574556097620063  0.2317415055175674  0.5942617527693114
  0.0671368697357559  0.8878230031952682  0.2641213985428198
  0.8119531528566186  0.9283163342941754  0.9444122025258713
  0.1056236174206672  0.5691127689278330  0.6091087413750346
  0.4372861078996160  0.8801019852336287  0.2732756154820674
  0.4418748039354674  0.5570042555404690  0.9460430472236603
  0.8671973656016603  0.4020025451311134  0.7319215981799257
  0.5531024158636444  0.1390656388658245  0.3899003078984087
  0.5640700740016369  0.4351978585153571  0.0645786866340325
  0.3546410992424101  0.5725242135867928  0.4666992900236498
  0.2036915728533299  0.6512309998797439  0.1455851697768105
  0.4413655058898309  0.7994292084480464  0.8108333314692338
  0.6336933164862095  0.2018866438958820  0.8691576145192199
  0.5661063055190139  0.3803676472086268  0.5277907988574216
  0.7863016246722587  0.4393570239917169  0.1942821731661810
  0.6922407627912942  0.6083577001651685  0.3962277079451410
  0.9162747500057249  0.3122992699958760  0.0690510368362870
  0.4131870432625458  0.1116304889518559  0.7342529624380068
  0.2915679618578018  0.8972282365820656  0.9321825002851203
  0.5905076508067353  0.7135967640966805  0.5947418292509055
  0.0764002623767924  0.3892184861433489  0.2681829383035784
  0.9286114294879423  0.7469732425245253  0.5251057318029893
  0.7892671439467215  0.0504235102992454  0.1913349318418025
  0.2530815272114806  0.1921815734920856  0.8587536203329162
  0.0665333005190758  0.7857955656848701  0.8048433560179112
  0.7337325446751624  0.9462915474112584  0.4651916890062068
  0.2060303707092772  0.2617272936513473  0.1432606505331977
  0.6354409287850248  0.5588883517113217  0.8013854265814713
  0.9232287942769628  0.3730005358613557  0.4634923790725328
  0.4381048254592860  0.0708384920193467  0.1355677816548790
  0.3693621892869318  0.9474671665581664  0.5298265560903502
  0.5548598735857927  0.6310201235614320  0.2014281890812572
  0.0659661705962395  0.4253788715341823  0.8750164784399496
 
             NaN             NaN             NaN
             NaN             NaN             NaN
             NaN             NaN             NaN
             NaN             NaN             NaN
             NaN             NaN             NaN
             NaN             NaN             NaN
             NaN             NaN             NaN
             NaN             NaN             NaN
             NaN             NaN             NaN
             NaN             NaN             NaN
             NaN             NaN             NaN
             NaN             NaN             NaN
             NaN             NaN             NaN
             NaN             NaN             NaN
             NaN             NaN             NaN
             NaN             NaN             NaN
             NaN             NaN             NaN
             NaN             NaN             NaN
             NaN             NaN             NaN
             NaN             NaN             NaN
             NaN             NaN             NaN
             NaN             NaN             NaN
             NaN             NaN             NaN
             NaN             NaN             NaN
             NaN             NaN             NaN
             NaN             NaN             NaN
             NaN             NaN             NaN
             NaN             NaN             NaN
             NaN             NaN             NaN
             NaN             NaN             NaN
             NaN             NaN             NaN
             NaN             NaN             NaN
             NaN             NaN             NaN
             NaN             NaN             NaN
             NaN             NaN             NaN
             NaN             NaN             NaN
             NaN             NaN             NaN
             NaN             NaN             NaN
             NaN             NaN             NaN
             NaN             NaN             NaN
             NaN             NaN             NaN
             NaN             NaN             NaN
             NaN             NaN             NaN
             NaN             NaN             NaN
             NaN             NaN             NaN
             NaN             NaN             NaN
             NaN             NaN             NaN
             NaN             NaN             NaN
             NaN             NaN             NaN
             NaN             NaN             NaN
             NaN             NaN             NaN
             NaN             NaN             NaN
             NaN             NaN             NaN
             NaN             NaN             NaN
             NaN             NaN             NaN
