Ca1 Ni12 F42
1.0
7.017616 -0.030671 0.007181
-3.531515 6.107306 -0.026303
-0.098720 -0.030271 16.923577
Ca Ni F
1 12 42
direct
0.508508 0.427960 0.661189 Ca
0.299189 0.997611 0.329434 Ni
0.701655 0.698831 0.006446 Ni
0.002834 0.311400 0.664558 Ni
0.342240 0.997056 0.839407 Ni
0.659120 0.658778 0.492572 Ni
0.998934 0.344939 0.167736 Ni
0.657996 0.151553 0.491369 Ni
0.499096 0.345776 0.167994 Ni
0.844153 0.498612 0.839066 Ni
0.341486 0.499248 0.842084 Ni
0.156271 0.655147 0.494858 Ni
0.499106 0.845522 0.167271 Ni
0.567017 0.828845 0.062375 F
0.256973 0.444937 0.729351 F
0.175373 0.742917 0.387781 F
0.432111 0.261154 0.272976 F
0.823667 0.569300 0.947272 F
0.745899 0.191217 0.601000 F
0.882136 0.074259 0.723630 F
0.192249 0.112941 0.394528 F
0.931549 0.816368 0.069358 F
0.145374 0.210046 0.606051 F
0.067433 0.885511 0.267582 F
0.813010 0.923835 0.942712 F
0.133611 0.570811 0.605575 F
0.430510 0.864002 0.271298 F
0.438103 0.560066 0.948211 F
0.860132 0.428613 0.724026 F
0.568273 0.123561 0.385497 F
0.565496 0.432540 0.063602 F
0.366709 0.570374 0.469372 F
0.207469 0.643437 0.142292 F
0.436798 0.800610 0.816840 F
0.634094 0.203375 0.862729 F
0.566115 0.363796 0.518033 F
0.790869 0.435906 0.192679 F
0.700365 0.618337 0.393249 F
0.916603 0.302457 0.068440 F
0.383982 0.074936 0.734788 F
0.301636 0.917583 0.938875 F
0.613384 0.689261 0.597533 F
0.080939 0.387140 0.267067 F
0.946454 0.739027 0.520836 F
0.790429 0.046793 0.192735 F
0.247377 0.193497 0.859387 F
0.053540 0.789167 0.812246 F
0.756863 0.949651 0.472291 F
0.207095 0.254562 0.143220 F
0.621652 0.548316 0.798172 F
0.941542 0.374777 0.461232 F
0.439306 0.066300 0.135213 F
0.377317 0.935662 0.529219 F
0.558838 0.625258 0.200218 F
0.053902 0.430128 0.873101 F
