Ca1 Mn4 P6 O24                          
   1.00000000000000     
     2.6786919999999999    7.0170000000000003    4.4932119999999998
     0.3612430000000000    0.2151800000000000    8.7302479999999996
     7.4814650000000000    0.2158510000000000    4.4378149999999996
   Ca   Mn   P    O 
     1     4     6    24
Direct
  0.2547121915963731  0.8123738755710538  0.5753509777931661
  0.6476091285453263  0.6428564658664460  0.6418382635960271
  0.1397129336163266  0.1559615536841841  0.1376295735458355
  0.8392324386053800  0.8435515551259912  0.8579855169091684
  0.3600719624633859  0.3456317897249006  0.3616365567503708
  0.2535495493579698  0.5189972823394693  0.9671260561510203
  0.0252996775008834  0.7461013999060248  0.4667982430793880
  0.9678431554798218  0.2559084868672804  0.5165952679637482
  0.4513320834182251  0.0253606991282831  0.7549380279651312
  0.5475385592513966  0.9742034621395256  0.2356553399916723
  0.7448792093600931  0.4650543372677411  0.0439196818324741
  0.5846453465568903  0.7694392283494232  0.4032107323480748
  0.2971353419623240  0.0156303098857141  0.9615009325507837
  0.4262981113962141  0.5644215090680861  0.7718632211946693
  0.9437532342488695  0.2949836857164149  0.0297748028350064
  0.7814387307841894  0.4101008683234627  0.5927108609061247
  0.0343205238383785  0.9508522227492966  0.3337858235928942
  0.9618498707628204  0.0482445866083915  0.6603581197342601
  0.5845008150912030  0.4096953613473872  0.2398774321676582
  0.7046830093009457  0.9757902174055222  0.0338316803566193
  0.2210816279276906  0.5909257485230694  0.4009074495101514
  0.0728643037245155  0.7059320268112451  0.9342009714524433
  0.3974898453566818  0.2310347936660783  0.6008692061080634
  0.2539889334872507  0.3432852942429073  0.9632535820892928
  0.8520244846436111  0.7338030848629797  0.4764992069351512
  0.9835186949336424  0.2944187613406339  0.3125783428909170
  0.4628556749233175  0.8737639447902332  0.7027997461178513
  0.3445919261934657  0.0098258385275575  0.2510495914305861
  0.7003490590791250  0.5184948715151821  0.8687134910266928
  0.2860146044591056  0.4831264602118654  0.1398411964519981
  0.0067551527886300  0.7076291586019939  0.6750931237557880
  0.1513904122544336  0.2519365519171675  0.5087055877889911
  0.6538779388890835  0.9834324909398887  0.7429697311047835
  0.5364445017562829  0.1250885217151871  0.2844915700625128
  0.7449878772002747  0.6455017972193570  0.0420915408734599
 
             NaN             NaN             NaN
             NaN             NaN             NaN
             NaN             NaN             NaN
             NaN             NaN             NaN
             NaN             NaN             NaN
             NaN             NaN             NaN
             NaN             NaN             NaN
             NaN             NaN             NaN
             NaN             NaN             NaN
             NaN             NaN             NaN
             NaN             NaN             NaN
             NaN             NaN             NaN
             NaN             NaN             NaN
             NaN             NaN             NaN
             NaN             NaN             NaN
             NaN             NaN             NaN
             NaN             NaN             NaN
             NaN             NaN             NaN
             NaN             NaN             NaN
             NaN             NaN             NaN
             NaN             NaN             NaN
             NaN             NaN             NaN
             NaN             NaN             NaN
             NaN             NaN             NaN
             NaN             NaN             NaN
             NaN             NaN             NaN
             NaN             NaN             NaN
             NaN             NaN             NaN
             NaN             NaN             NaN
             NaN             NaN             NaN
             NaN             NaN             NaN
             NaN             NaN             NaN
             NaN             NaN             NaN
             NaN             NaN             NaN
             NaN             NaN             NaN
