Li16 Fe16 B16 O48                       
   1.00000000000000     
    -0.0576021993256980   10.2502907131393481   -0.2303275493504392
     9.0154451972817018   -0.0515561852314786   -0.0322408421865145
     0.0380883432099506   -0.0089457532254469  -10.6276900723102870
   Li   Fe   B    O 
     1    16    16    48
Direct
  0.3449436365009220  0.2570618540741458  0.8015523614878576
  0.3783954285697162  0.0776514418277320  0.5433774860865273
  0.8685485792110959  0.4183823165749884  0.5488204730836830
  0.1230823634585962  0.5755334643570097  0.4542417236302155
  0.6278502554128498  0.9165918510879389  0.4529864421228959
  0.3729118862999989  0.5740871912826934  0.2970333035909660
  0.8773004326097509  0.9181489672590466  0.2981263684002225
  0.1286042750620427  0.0784326070868639  0.2007597272856803
  0.6224276235727988  0.4172868140427261  0.2008788017596492
  0.3796634654835753  0.0814598474593131  0.0500797055638951
  0.8725712645996490  0.4195034809376285  0.0475786345936769
  0.1230975314652467  0.5855940754835753  0.9528428269535362
  0.6287213888286178  0.9209288074046542  0.9543023045276889
  0.3721875436832580  0.5949367142241820  0.7958071956818080
  0.8762634005829260  0.9202127592399875  0.7967784089511981
  0.1234249089335337  0.0840252947431540  0.6983011812845507
  0.6223955897409652  0.4199611757808496  0.7063015359444419
  0.3705938349130157  0.4143095262111525  0.5484716895145931
  0.8730532980780832  0.0820085723363732  0.5429378523028491
  0.1265538654402476  0.9142202658367659  0.4565920834220676
  0.6202081379417551  0.5773652960962194  0.4553404437121393
  0.3769137571047277  0.9133057120917414  0.2934784393968073
  0.8733596624589747  0.5795770369706199  0.2940216035281912
  0.1255475378999836  0.4180521358658612  0.2051111076970734
  0.6278067644448450  0.0812771915704734  0.2078626289686091
  0.3749448715104358  0.4175160249963062  0.0376172415345309
  0.8770809087709776  0.0803963165692654  0.0441518925980102
  0.1285217642941873  0.9234408063728473  0.9539559083696482
  0.6231249130242902  0.5832438546112451  0.9551291203791485
  0.3775573675117881  0.9286586675995712  0.7947617407610575
  0.8727531912858478  0.5821455101442078  0.7940404552176483
  0.1288753066052668  0.4230154334919746  0.7064751983839618
  0.6220212199804679  0.0819863886198996  0.7069449693575172
  0.0630198989160189  0.4466919877165067  0.5952673803427652
  0.5704429037014211  0.0463009811881539  0.5906046900299826
  0.1289241555412295  0.7718014380838124  0.4967193780436511
  0.6277384133102974  0.7189958120211869  0.4958129797234320
  0.1831290815712754  0.0268729162653422  0.5283779131493115
  0.6677356743673826  0.4611783858165108  0.5284583051531316
  0.3231384251022493  0.5326000698594014  0.4789501392380118
  0.8250123992135977  0.9609425059733645  0.4766637052398217
  0.3733910635406500  0.2750786730292581  0.5013323647031854
  0.8607124811890923  0.2228666085442363  0.5009419051433842
  0.4356397334970201  0.9482831689615111  0.4067718252791785
  0.9299630360327379  0.5435720251417748  0.4085227897021479
  0.0687581367799507  0.9535633725151956  0.3441521325173105
  0.5646228211142600  0.5432816614060447  0.3400894016659521
  0.1362397304135610  0.2752391163475224  0.2426796972312575
  0.6293485175660614  0.2221367830485765  0.2507880730804768
  0.1762096913650021  0.5328987618886921  0.2778778876158504
  0.6812784786741310  0.9647838682030188  0.2759635230175557
  0.3248291694571393  0.0301046644114841  0.2237914909008818
  0.8198544030269568  0.4647166628490164  0.2234328681678783
  0.3702293529318619  0.7717208026629890  0.2529240750505350
  0.8705270240985133  0.7220295648932358  0.2534986528962687
  0.4264637231714454  0.4429523693988338  0.1556235941492470
  0.9367030818583949  0.0461617971127888  0.1572573920987259
  0.0657971371630161  0.4549049618313677  0.0926131816005602
  0.5710861278225164  0.0492637883766063  0.0927295061067303
  0.1329697572678070  0.7819248703538674 -0.0032593910728801
  0.6295767388715214  0.7236119173059354 -0.0012154940836200
  0.1820691851356448  0.0406048040584764  0.0218118367116734
  0.6738189589645269  0.4643139508425936  0.0228665474622443
  0.3216353322339466  0.5361327848461844  0.9714350165799915
  0.8260324875718457  0.9630991087449956  0.9745412566571243
  0.3759318168886585  0.2789802333904599  0.9845320193147178
  0.8682531877410354  0.2225568453449562  0.0036122926171823
  0.4346700047673906  0.9535300198682041  0.9104799332343145
  0.9313954036792880  0.5485376323877150  0.9078227601003436
  0.0701011759659519  0.9563861983116047  0.8396501297438576
  0.5643522887308757  0.5536796392896278  0.8400235775453588
  0.1573159439799486  0.2823946244682593  0.7462658349175011
  0.6105820754656395  0.2220840382015399  0.7528256899056426
  0.1726941936291934  0.5451481115534503  0.7742525516460099
  0.6801546303428568  0.9699782148098000  0.7764312364869418
  0.3311430395034403  0.0536150358927266  0.7303027774066174
  0.8181799459586850  0.4648000852122706  0.7262726604582627
  0.3679768323194916  0.7908636840538165  0.7460248252840364
  0.8681799699747980  0.7238297315164853  0.7515400185754193
  0.4151436062599932  0.4383869787576650  0.6715112857665242
  0.9343937880412339  0.0547253409919186  0.6572739268031561
 
  0.00000000E+00  0.00000000E+00  0.00000000E+00
  0.00000000E+00  0.00000000E+00  0.00000000E+00
  0.00000000E+00  0.00000000E+00  0.00000000E+00
  0.00000000E+00  0.00000000E+00  0.00000000E+00
  0.00000000E+00  0.00000000E+00  0.00000000E+00
  0.00000000E+00  0.00000000E+00  0.00000000E+00
  0.00000000E+00  0.00000000E+00  0.00000000E+00
  0.00000000E+00  0.00000000E+00  0.00000000E+00
  0.00000000E+00  0.00000000E+00  0.00000000E+00
  0.00000000E+00  0.00000000E+00  0.00000000E+00
  0.00000000E+00  0.00000000E+00  0.00000000E+00
  0.00000000E+00  0.00000000E+00  0.00000000E+00
  0.00000000E+00  0.00000000E+00  0.00000000E+00
  0.00000000E+00  0.00000000E+00  0.00000000E+00
  0.00000000E+00  0.00000000E+00  0.00000000E+00
  0.00000000E+00  0.00000000E+00  0.00000000E+00
  0.00000000E+00  0.00000000E+00  0.00000000E+00
  0.00000000E+00  0.00000000E+00  0.00000000E+00
  0.00000000E+00  0.00000000E+00  0.00000000E+00
  0.00000000E+00  0.00000000E+00  0.00000000E+00
  0.00000000E+00  0.00000000E+00  0.00000000E+00
  0.00000000E+00  0.00000000E+00  0.00000000E+00
  0.00000000E+00  0.00000000E+00  0.00000000E+00
  0.00000000E+00  0.00000000E+00  0.00000000E+00
  0.00000000E+00  0.00000000E+00  0.00000000E+00
  0.00000000E+00  0.00000000E+00  0.00000000E+00
  0.00000000E+00  0.00000000E+00  0.00000000E+00
  0.00000000E+00  0.00000000E+00  0.00000000E+00
  0.00000000E+00  0.00000000E+00  0.00000000E+00
  0.00000000E+00  0.00000000E+00  0.00000000E+00
  0.00000000E+00  0.00000000E+00  0.00000000E+00
  0.00000000E+00  0.00000000E+00  0.00000000E+00
  0.00000000E+00  0.00000000E+00  0.00000000E+00
  0.00000000E+00  0.00000000E+00  0.00000000E+00
  0.00000000E+00  0.00000000E+00  0.00000000E+00
  0.00000000E+00  0.00000000E+00  0.00000000E+00
  0.00000000E+00  0.00000000E+00  0.00000000E+00
  0.00000000E+00  0.00000000E+00  0.00000000E+00
  0.00000000E+00  0.00000000E+00  0.00000000E+00
  0.00000000E+00  0.00000000E+00  0.00000000E+00
  0.00000000E+00  0.00000000E+00  0.00000000E+00
  0.00000000E+00  0.00000000E+00  0.00000000E+00
  0.00000000E+00  0.00000000E+00  0.00000000E+00
  0.00000000E+00  0.00000000E+00  0.00000000E+00
  0.00000000E+00  0.00000000E+00  0.00000000E+00
  0.00000000E+00  0.00000000E+00  0.00000000E+00
  0.00000000E+00  0.00000000E+00  0.00000000E+00
  0.00000000E+00  0.00000000E+00  0.00000000E+00
  0.00000000E+00  0.00000000E+00  0.00000000E+00
  0.00000000E+00  0.00000000E+00  0.00000000E+00
  0.00000000E+00  0.00000000E+00  0.00000000E+00
  0.00000000E+00  0.00000000E+00  0.00000000E+00
  0.00000000E+00  0.00000000E+00  0.00000000E+00
  0.00000000E+00  0.00000000E+00  0.00000000E+00
  0.00000000E+00  0.00000000E+00  0.00000000E+00
  0.00000000E+00  0.00000000E+00  0.00000000E+00
  0.00000000E+00  0.00000000E+00  0.00000000E+00
  0.00000000E+00  0.00000000E+00  0.00000000E+00
  0.00000000E+00  0.00000000E+00  0.00000000E+00
  0.00000000E+00  0.00000000E+00  0.00000000E+00
  0.00000000E+00  0.00000000E+00  0.00000000E+00
  0.00000000E+00  0.00000000E+00  0.00000000E+00
  0.00000000E+00  0.00000000E+00  0.00000000E+00
  0.00000000E+00  0.00000000E+00  0.00000000E+00
  0.00000000E+00  0.00000000E+00  0.00000000E+00
  0.00000000E+00  0.00000000E+00  0.00000000E+00
  0.00000000E+00  0.00000000E+00  0.00000000E+00
  0.00000000E+00  0.00000000E+00  0.00000000E+00
  0.00000000E+00  0.00000000E+00  0.00000000E+00
  0.00000000E+00  0.00000000E+00  0.00000000E+00
  0.00000000E+00  0.00000000E+00  0.00000000E+00
  0.00000000E+00  0.00000000E+00  0.00000000E+00
  0.00000000E+00  0.00000000E+00  0.00000000E+00
  0.00000000E+00  0.00000000E+00  0.00000000E+00
  0.00000000E+00  0.00000000E+00  0.00000000E+00
  0.00000000E+00  0.00000000E+00  0.00000000E+00
  0.00000000E+00  0.00000000E+00  0.00000000E+00
  0.00000000E+00  0.00000000E+00  0.00000000E+00
  0.00000000E+00  0.00000000E+00  0.00000000E+00
  0.00000000E+00  0.00000000E+00  0.00000000E+00
  0.00000000E+00  0.00000000E+00  0.00000000E+00
