Ca1 V4 P6 O24
1.0
2.614065 7.134149 4.503198
0.193486 0.122573 8.840816
7.579293 0.118309 4.525634
Ca V P O
1 4 6 24
direct
0.247625 0.876019 0.616253 Ca
0.652471 0.636640 0.644231 V
0.133922 0.144308 0.141401 V
0.841494 0.850576 0.859185 V
0.360572 0.352972 0.352892 V
0.248029 0.527790 0.965870 P
0.036347 0.747224 0.466717 P
0.959879 0.253899 0.521275 P
0.457206 0.028231 0.748316 P
0.535255 0.973801 0.241943 P
0.746673 0.457908 0.039409 P
0.568918 0.790702 0.417187 O
0.295880 0.056140 0.932336 O
0.417935 0.563337 0.777693 O
0.924095 0.279103 0.053030 O
0.797719 0.434465 0.555822 O
0.066541 0.923261 0.287165 O
0.928532 0.075366 0.699986 O
0.572000 0.437645 0.219751 O
0.694864 0.946417 0.057441 O
0.200277 0.566777 0.432359 O
0.076820 0.715633 0.932823 O
0.423266 0.212339 0.576667 O
0.215258 0.358025 0.996303 O
0.846238 0.738953 0.513098 O
0.969025 0.241467 0.349142 O
0.460340 0.865490 0.723081 O
0.339011 0.004612 0.254731 O
0.705594 0.499790 0.868113 O
0.283368 0.492942 0.136159 O
0.033667 0.765213 0.633939 O
0.154498 0.242164 0.492887 O
0.649366 0.979314 0.754875 O
0.525958 0.140930 0.262559 O
0.784167 0.628783 0.002750 O
