Na2 Ca2 V4 Si4 P2 O24
1.0
8.847801 0.188731 -0.003058
4.327459 7.694567 0.030214
4.373048 2.568823 7.211103
Ca Na V Si P O
2 2 4 4 2 24
direct
0.383043 0.127510 0.744883 Ca
-0.023924 0.994186 0.026146 Ca
0.473262 0.553753 0.468448 Na
0.861504 0.251221 0.607127 Na
0.352749 0.366024 0.344753 V
0.638791 0.651948 0.637491 V
0.136247 0.152470 0.141530 V
0.837131 0.851348 0.863036 V
0.025323 0.467612 0.743874 Si
0.749189 0.035613 0.456663 Si
0.456611 0.749006 0.037190 Si
0.527281 0.258280 0.954404 Si
0.955382 0.544526 0.245397 P
0.242979 0.970434 0.541047 P
0.227246 0.435587 0.576678 O
0.769446 0.556777 0.409831 O
0.564737 0.224547 0.435434 O
0.413047 0.790443 0.553707 O
0.430559 0.571672 0.220643 O
0.553115 0.437545 0.765205 O
0.927017 0.066357 0.271826 O
0.070565 0.948633 0.721333 O
0.059304 0.266969 0.914531 O
0.936969 0.728798 0.078741 O
0.263589 0.930645 0.050195 O
0.728320 0.086031 0.933356 O
0.468185 0.292718 0.147255 O
0.503313 0.736104 0.838261 O
0.113047 0.509186 0.301135 O
0.853949 0.494224 0.698782 O
0.275921 0.134158 0.529697 O
0.719524 0.853871 0.482757 O
0.361514 0.206525 -0.022946 O
0.625058 0.798010 1.013802 O
0.198823 1.020942 0.369692 O
0.754718 0.012721 0.651652 O
-0.001952 0.381843 0.191138 O
0.977192 0.649044 0.790739 O
