Na24 S8 I8
1.0
  10.6429709257412739    0.0000003205790886   -0.0000000995083210
   0.0000003205383054   10.6429715368584752   -0.0000004567863702
  -0.0000000992165864   -0.0000004580176282   10.6429705587301040
Na I S
23 8 8
direct
   0.4999999902259588    0.2499999888263779    0.7499999978775806 Na
   0.4999999902259589    0.7499999888263778    0.2499999978775806 Na
   0.4999999902259588    0.2499999888263779    0.2499999978775805 Na
   0.9999999902259585    0.2499999888263779    0.2499999978775805 Na
   0.9999999902259585    0.2499999888263779    0.7499999978775806 Na
   0.9999999902259584    0.7499999888263778    0.2499999978775805 Na
   0.9999999902259586    0.7499999888263779    0.7499999978775806 Na
   0.2499999974715691    0.4999999727093786    0.2499999991467945 Na
   0.2499999974715691    0.4999999727093786    0.7499999991467946 Na
   0.2499999974715691    0.9999999727093786    0.2499999991467945 Na
   0.2499999974715691    0.9999999727093787    0.7499999991467946 Na
   0.7499999974715692    0.4999999727093787    0.2499999991467945 Na
   0.7499999974715691    0.4999999727093787    0.7499999991467946 Na
   0.7499999974715692    0.9999999727093788    0.2499999991467945 Na
   0.7499999974715691    0.9999999727093787    0.7499999991467946 Na
   0.2499999938002375    0.2499999846219900    0.4999999980068212 Na
   0.2499999938002375    0.2499999846219900    0.9999999980068212 Na
   0.2499999938002375    0.7499999846219898    0.4999999980068212 Na
   0.2499999938002374    0.7499999846219899    0.9999999980068213 Na
   0.7499999938002373    0.2499999846219900    0.4999999980068212 Na
   0.7499999938002373    0.2499999846219900    0.9999999980068213 Na
   0.7499999938002374    0.7499999846219900    0.4999999980068212 Na
   0.7499999938002374    0.7499999846219900    0.9999999980068214 Na
   0.4999999872274898    0.4999999942963774    0.0000000076789668 I
   0.4999999872274897    0.4999999942963775    0.5000000076789668 I
   0.4999999872274897    0.9999999942963774    0.0000000076789668 I
   0.4999999872274896    0.9999999942963774    0.5000000076789669 I
   0.9999999872274898    0.4999999942963774    0.0000000076789668 I
   0.9999999872274900    0.4999999942963774    0.5000000076789669 I
   0.9999999872274896    0.9999999942963773    0.0000000076789668 I
   0.9999999872274896    0.9999999942963773    0.5000000076789669 I
   0.2500000312747446    0.2500000595458756    0.2499999972898373 S
   0.2500000312747446    0.2500000595458756    0.7499999972898375 S
   0.2500000312747446    0.7500000595458757    0.2499999972898373 S
   0.2500000312747446    0.7500000595458756    0.7499999972898374 S
   0.7500000312747446    0.2500000595458758    0.2499999972898374 S
   0.7500000312747446    0.2500000595458757    0.7499999972898375 S
   0.7500000312747443    0.7500000595458756    0.2499999972898373 S
   0.7500000312747445    0.7500000595458757    0.7499999972898375 S
