Li16 V16 P16 O64 F16
1.0
  10.4754695891999994    0.0000000000000000    0.0000000000000000
  -1.4645434168000000   10.6828857024000001    0.0000000000000000
  -4.7729733687999998   -5.0110019253999996   13.1437817326000008
Li V P O F
15 16 16 64 16
direct
   0.8650299905000001    0.1921167525000000    0.4062030014999999 Li
   0.1349699945000000    0.3078832625000000    0.0937969985000000 Li
   0.1349699945000000    0.3078832625000000    0.5937969984999999 Li
   0.1349699945000000    0.8078832625000000    0.0937969985000000 Li
   0.1349699945000000    0.8078832624999999    0.5937969984999999 Li
   0.6349699944999999    0.3078832625000000    0.0937969985000000 Li
   0.6349699945000000    0.8078832625000000    0.0937969985000000 Li
   0.6349699944999999    0.8078832624999999    0.5937969984999999 Li
   0.3650299905000000    0.1921167525000000    0.4062030014999999 Li
   0.3650299905000000    0.1921167525000000    0.9062030014999999 Li
   0.3650299905000000    0.6921167524999999    0.4062030014999999 Li
   0.3650299905000000    0.6921167525000000    0.9062030014999999 Li
   0.8650299905000000    0.1921167525000000    0.9062030014999999 Li
   0.8650299905000001    0.6921167524999999    0.4062030014999999 Li
   0.8650299905000000    0.6921167525000000    0.9062030014999999 Li
   0.0000000000000000    0.0000000000000000    0.0000000000000000 V
   0.0000000000000000    0.0000000000000000    0.4999999999999999 V
   0.0000000000000000    0.5000000000000000    0.0000000000000000 V
   0.0000000000000000    0.5000000000000000    0.4999999999999999 V
   0.5000000000000000    0.0000000000000000    0.0000000000000000 V
   0.5000000000000000    0.0000000000000000    0.4999999999999999 V
   0.5000000000000000    0.5000000000000000    0.0000000000000000 V
   0.5000000000000000    0.5000000000000000    0.4999999999999999 V
   0.0000000000000000    0.0000000000000000    0.2500000000000000 V
   0.9999999999999999    0.9999999999999999    0.7499999999999999 V
   0.0000000000000000    0.5000000000000000    0.2500000000000000 V
   0.0000000000000000    0.4999999999999999    0.7499999999999999 V
   0.5000000000000000    0.0000000000000000    0.2500000000000000 V
   0.4999999999999999    0.9999999999999999    0.7499999999999999 V
   0.5000000000000000    0.5000000000000000    0.2500000000000000 V
   0.4999999999999999    0.4999999999999999    0.7499999999999999 V
   0.1612325015000000    0.3203907610000000    0.3814184965000000 P
   0.1612325014999999    0.3203907610000000    0.8814184964999998 P
   0.1612325015000000    0.8203907610000000    0.3814184965000000 P
   0.1612325014999999    0.8203907610000000    0.8814184964999998 P
   0.6612325015000000    0.3203907610000000    0.3814184965000000 P
   0.6612325014999999    0.3203907610000000    0.8814184964999998 P
   0.6612325015000000    0.8203907610000000    0.3814184965000000 P
   0.6612325014999999    0.8203907610000000    0.8814184964999998 P
   0.3387674984999999    0.1796092540000000    0.1185815035000000 P
   0.3387674984999999    0.1796092539999999    0.6185815034999999 P
   0.3387674985000000    0.6796092540000001    0.1185815035000000 P
   0.3387674984999999    0.6796092539999999    0.6185815034999999 P
   0.8387674985000000    0.1796092540000000    0.1185815035000000 P
   0.8387674985000000    0.1796092539999999    0.6185815034999999 P
   0.8387674985000000    0.6796092540000001    0.1185815035000000 P
   0.8387674985000000    0.6796092539999999    0.6185815034999999 P
   0.1534020005000000    0.1707230060000000    0.3282144965000000 O
   0.1534020004999999    0.1707230060000000    0.8282144964999999 O
   0.1534020005000000    0.6707230060000000    0.3282144965000000 O
   0.1534020004999999    0.6707230060000000    0.8282144964999999 O
   0.6534020005000000    0.1707230060000000    0.3282144965000000 O
   0.6534020005000000    0.1707230060000000    0.8282144964999999 O
   0.6534020005000000    0.6707230060000000    0.3282144965000000 O
   0.6534020005000000    0.6707230060000000    0.8282144964999999 O
   0.3465979995000000    0.3292770090000000    0.1717855035000000 O
   0.3465979995000000    0.3292770090000000    0.6717855035000000 O
   0.3465979995000000    0.8292770090000000    0.1717855035000000 O
   0.3465979995000000    0.8292770090000000    0.6717855035000000 O
   0.8465979994999999    0.3292770090000000    0.1717855035000000 O
   0.8465979994999999    0.3292770090000000    0.6717855035000000 O
   0.8465979995000000    0.8292770090000000    0.1717855035000000 O
   0.8465979995000000    0.8292770090000000    0.6717855035000000 O
   0.1839054970000000    0.1244229970000000    0.0432785005000000 O
   0.1839054970000000    0.1244229970000000    0.5432785004999999 O
   0.1839054970000000    0.6244229969999999    0.0432785005000000 O
   0.1839054970000000    0.6244229969999999    0.5432785004999999 O
   0.6839054970000000    0.1244229970000000    0.0432785005000000 O
   0.6839054969999999    0.1244229970000000    0.5432785004999999 O
   0.6839054969999999    0.6244229969999999    0.0432785005000000 O
   0.6839054970000000    0.6244229969999999    0.5432785004999999 O
   0.3160944880000000    0.3755770030000001    0.4567215145000000 O
   0.3160944880000000    0.3755770030000000    0.9567215144999999 O
   0.3160944880000000    0.8755770030000000    0.4567215145000000 O
   0.3160944880000000    0.8755770030000001    0.9567215144999999 O
   0.8160944880000001    0.3755770030000001    0.4567215145000000 O
   0.8160944880000000    0.3755770030000000    0.9567215144999999 O
   0.8160944880000001    0.8755770030000000    0.4567215145000000 O
   0.8160944880000000    0.8755770030000001    0.9567215144999999 O
   0.3745310010000000    0.1070215030000000    0.1944852470000000 O
   0.3745310010000000    0.1070215030000000    0.6944852469999999 O
   0.3745310010000000    0.6070215030000000    0.1944852470000000 O
   0.3745310010000000    0.6070215030000000    0.6944852469999999 O
   0.8745310010000000    0.1070215030000000    0.1944852470000000 O
   0.8745310009999999    0.1070215030000000    0.6944852469999999 O
   0.8745310010000000    0.6070215030000000    0.1944852470000000 O
   0.8745310010000000    0.6070215030000000    0.6944852469999999 O
   0.1254689990000000    0.3929784895000000    0.3055147530000000 O
   0.1254689990000000    0.3929784895000000    0.8055147530000000 O
   0.1254689990000000    0.8929784895000000    0.3055147530000000 O
   0.1254689990000000    0.8929784894999999    0.8055147530000000 O
   0.6254689990000000    0.3929784895000000    0.3055147530000000 O
   0.6254689990000000    0.3929784895000000    0.8055147530000000 O
   0.6254689990000001    0.8929784895000000    0.3055147530000000 O
   0.6254689990000001    0.8929784894999999    0.8055147530000000 O
   0.0651540010000000    0.3328779935000000    0.4442747535000000 O
   0.0651540010000000    0.3328779935000000    0.9442747534999999 O
   0.0651540010000000    0.8328779935000000    0.4442747535000000 O
   0.0651540009999999    0.8328779935000000    0.9442747534999999 O
   0.5651540010000000    0.3328779935000000    0.4442747535000000 O
   0.5651540010000000    0.3328779935000000    0.9442747534999999 O
   0.5651540010000000    0.8328779935000000    0.4442747535000000 O
   0.5651540010000000    0.8328779935000000    0.9442747534999999 O
   0.4348460140000000    0.1671220065000000    0.0557252505000000 O
   0.4348460140000000    0.1671220065000000    0.5557252504999999 O
   0.4348460140000001    0.6671220065000001    0.0557252505000000 O
   0.4348460140000000    0.6671220065000000    0.5557252504999999 O
   0.9348460139999999    0.1671220065000000    0.0557252505000000 O
   0.9348460139999999    0.1671220065000000    0.5557252504999999 O
   0.9348460140000001    0.6671220065000001    0.0557252505000000 O
   0.9348460140000000    0.6671220065000000    0.5557252504999999 O
   0.0651305020000000    0.4632412495000000    0.1312910020000000 F
   0.0651305020000000    0.4632412495000000    0.6312910020000000 F
   0.0651305020000000    0.9632412495000001    0.1312910020000000 F
   0.0651305020000000    0.9632412495000000    0.6312910020000000 F
   0.5651305019999999    0.4632412495000000    0.1312910020000000 F
   0.5651305020000000    0.4632412495000000    0.6312910020000000 F
   0.5651305020000000    0.9632412495000001    0.1312910020000000 F
   0.5651305020000000    0.9632412495000000    0.6312910020000000 F
   0.4348694979999999    0.0367587505000000    0.3687089980000000 F
   0.4348694979999999    0.0367587505000000    0.8687089980000000 F
   0.4348694979999999    0.5367587505000000    0.3687089980000000 F
   0.4348694979999999    0.5367587505000000    0.8687089980000000 F
   0.9348694979999999    0.0367587505000000    0.3687089980000000 F
   0.9348694980000000    0.0367587505000000    0.8687089980000000 F
   0.9348694979999999    0.5367587505000000    0.3687089980000000 F
   0.9348694979999999    0.5367587505000000    0.8687089980000000 F
