Ca9 Mn12 F42                            
   1.00000000000000     
     7.6053600000000001   -0.0762590000000000    0.0101510000000000
    -3.8738400000000000    6.6452700000000000    0.0290320000000000
     0.0426870000000000    0.1111090000000000   18.6505529999999986
   Ca   Mn   F 
     9    12    42
Direct
  0.5011874909987195  0.4037457252997124  0.3265806665372173
  0.5043518020794251  0.8760530863633150  0.6804970398748497
  0.2210650662691057  0.6852040951734579  0.0240410315619452
  0.5300709248050712  0.3816742101344948  0.6702501132187950
  0.8357308894694938  0.0153352167260937  0.3323452519067100
  0.1651783599007570  0.1409437571942793  0.0035274785163803
  0.8621089846861248  0.0585836448636134  0.8363321551036164
  0.0589496897976804  0.8483335924470552  0.1814647663625308
  0.1695917915543708  0.1983328194901411  0.5030905103240516
  0.2777267170870538  0.9143200381857048  0.3519483649877712
  0.0365203754434728  0.3763195422666346  0.6605000461458651
  0.6959431929192863  0.6598905440960513 -0.0005134255620484
  0.3464500500693920  0.0259864822033565  0.8430727850744280
  1.0014646530306948  0.3032668938924803  0.1662786862065683
  0.6626840517939375  0.7056212691492318  0.5011536106211776
  0.5005112823306959  0.7924859256231522  0.1818609714859283
  0.1457106054084423  0.6793631631835606  0.5093127835550942
  0.3596273369402969  0.5266252030546043  0.8362567924513064
  0.8568143018361359  0.5260325963413754  0.8313238761584061
  0.6670041379388789  0.1971096116148031  0.4913499291263584
  0.4990264883979841  0.2875397827044185  0.1490326458644719
  0.5841859401920876  0.1374219363478707  0.6029733324960558
  0.8775232318204504  0.5770413030545316  0.9433491311860336
  0.3676453246215852  0.1219187711200945  0.2523393397169799
  0.0898149540419095  0.6437814444639205  0.4008974479383858
  0.5329845217737603  0.7316643048285552  0.0750446599492470
  0.3133028033807292  0.5189849933254711  0.7207987537717904
  0.8480767002963757  0.9519617934921693  0.9513809706430028
 -0.0075352296849557  0.8330371896846773  0.2962961853721711
  0.2115645081656315  0.2495930905115644  0.6189536905529621
  0.9859991074097502  0.7988278936599091  0.0632604871788272
  0.8456696174610231  0.0932464689326916  0.7156346551313882
  0.2118277272962218  0.1647086174513840  0.3847274212044835
  0.5015054958784559  0.3607341911946886  0.0396029994397204
  0.6346840779498162  0.2184223460608753  0.3732811890189681
  0.8522211233066763  0.4658869861440819  0.7093414445173332
  0.4059887822912073  0.5991880865202255  0.9447368085408835
  0.2097858807892310  0.6931379019947841  0.6175522884584823
  0.4853208078365643  0.8517759768635562  0.2929876009662966
  0.7957133874667622  0.4076524420845410  0.1736715724585789
  0.5544614080040975  0.3886473700398670  0.5070072214225662
  0.6602331253402234  0.2080445751714584  0.8589120533038507
  0.5077733633246568  0.8385179056385306  0.8105502099047061
  0.3430013302968435  0.5621699228659328  0.4889152671922639
  0.1846316650964619  0.6267603369470407  0.1612639712868116
  0.0574543151402623  0.2997431571161798  0.2725821632130059
  0.6210073261498619  0.6972764394952463  0.6135673559771867
  0.2940218124664738  0.9486899642968459  0.9525731825941521
  0.3959398434007864  0.0822790276938479  0.7343395224308359
  0.6624402571540682  0.6886051938211908  0.3876107985229826
  0.0497850073129576  0.3486412603631456  0.0493282296838514
  0.1786444501579161  0.1676856193115810  0.1326123745676209
  0.8174611371390520  1.0411514492018992  0.4576288723317509
  0.0191923501927141  0.8453706492005779  0.8204557785747133
  0.2293655876840409  0.2181090476132663  0.8792396326156877
  0.9774551689055077  0.8358964109882637  0.5187877813711977
  0.8140696181663754  0.9720791109733516  0.1956256932210148
  0.0506617756392016  0.4124849237329847  0.8360774690939857
  0.5259154258377166  0.5356299353426186  0.2146691254952877
  0.3638860937701675  0.9735529686086304  0.4695534856539734
  0.4029333247679323  0.9848257988660191  0.1215141841607993
  0.5963151079758870  0.5096168540802326  0.7919928382216861
  0.9602917348318437  0.3574372496268862  0.5423210171827482
 
             NaN             NaN             NaN
             NaN             NaN             NaN
             NaN             NaN             NaN
             NaN             NaN             NaN
             NaN             NaN             NaN
             NaN             NaN             NaN
             NaN             NaN             NaN
             NaN             NaN             NaN
             NaN             NaN             NaN
             NaN             NaN             NaN
             NaN             NaN             NaN
             NaN             NaN             NaN
             NaN             NaN             NaN
             NaN             NaN             NaN
             NaN             NaN             NaN
             NaN             NaN             NaN
             NaN             NaN             NaN
             NaN             NaN             NaN
             NaN             NaN             NaN
             NaN             NaN             NaN
             NaN             NaN             NaN
             NaN             NaN             NaN
             NaN             NaN             NaN
             NaN             NaN             NaN
             NaN             NaN             NaN
             NaN             NaN             NaN
             NaN             NaN             NaN
             NaN             NaN             NaN
             NaN             NaN             NaN
             NaN             NaN             NaN
             NaN             NaN             NaN
             NaN             NaN             NaN
             NaN             NaN             NaN
             NaN             NaN             NaN
             NaN             NaN             NaN
             NaN             NaN             NaN
             NaN             NaN             NaN
             NaN             NaN             NaN
             NaN             NaN             NaN
             NaN             NaN             NaN
             NaN             NaN             NaN
             NaN             NaN             NaN
             NaN             NaN             NaN
             NaN             NaN             NaN
             NaN             NaN             NaN
             NaN             NaN             NaN
             NaN             NaN             NaN
             NaN             NaN             NaN
             NaN             NaN             NaN
             NaN             NaN             NaN
             NaN             NaN             NaN
             NaN             NaN             NaN
             NaN             NaN             NaN
             NaN             NaN             NaN
             NaN             NaN             NaN
             NaN             NaN             NaN
             NaN             NaN             NaN
             NaN             NaN             NaN
             NaN             NaN             NaN
             NaN             NaN             NaN
             NaN             NaN             NaN
             NaN             NaN             NaN
             NaN             NaN             NaN
