Ca9 Mn12 F42
1.0
7.605360 -0.076259 0.010151
-3.873840 6.645270 0.029032
0.042687 0.111109 18.650553
Ca Mn F
9 12 42
direct
0.579157 0.490487 0.332699 Ca
0.511499 0.854915 0.682611 Ca
0.159977 0.641234 1.003040 Ca
0.530526 0.356141 0.664222 Ca
0.830007 0.000424 0.332151 Ca
0.184075 0.151720 0.002541 Ca
0.865412 0.068249 0.838395 Ca
1.000643 0.805645 0.172620 Ca
0.157533 0.155412 0.506199 Ca
0.324207 0.976513 0.342231 Mn
0.030316 0.371514 0.654399 Mn
0.679149 0.671230 0.002039 Mn
0.338624 0.017376 0.838273 Mn
-0.011577 0.304821 0.157752 Mn
0.661348 0.671495 0.503735 Mn
0.488014 0.806757 0.172411 Mn
0.167804 0.671669 0.497547 Mn
0.354345 0.518282 0.834462 Mn
0.844106 0.522998 0.826616 Mn
0.663357 0.170994 0.498570 Mn
0.483482 0.309607 0.172819 Mn
0.608267 0.124295 0.609279 F
0.842804 0.568141 0.941878 F
0.457704 0.255976 0.288919 F
0.147245 0.670882 0.385153 F
0.525498 0.785336 0.061661 F
0.276979 0.520037 0.725928 F
0.855687 0.957275 0.950353 F
0.031224 0.861611 0.286465 F
0.204617 0.241600 0.620404 F
0.993863 0.811753 0.054541 F
0.852594 0.096144 0.718305 F
0.126936 0.149622 0.389999 F
0.505848 0.379449 0.054872 F
0.697757 0.177624 0.387204 F
0.857294 0.466785 0.708022 F
0.387940 0.558277 0.946694 F
0.240938 0.691250 0.605658 F
0.486133 0.847415 0.289365 F
0.801428 0.436644 0.178795 F
0.548598 0.361430 0.525909 F
0.654454 0.207751 0.852026 F
0.519673 0.830939 0.814164 F
0.344414 0.531515 0.478081 F
0.174186 0.625435 0.136972 F
0.023245 0.318250 0.267039 F
0.619918 0.672111 0.618591 F
0.294898 0.944896 0.948065 F
0.386774 0.055046 0.730229 F
0.692087 0.686527 0.388344 F
0.023243 0.319429 0.042222 F
0.173584 0.172174 0.138627 F
0.785496 0.984273 0.490441 F
0.010723 0.837046 0.818594 F
0.223875 0.209212 0.872929 F
0.977839 0.789646 0.517410 F
0.803701 -0.004363 0.185391 F
0.053998 0.435819 0.857863 F
0.578333 0.602296 0.199908 F
0.352743 -0.003619 0.462844 F
0.374899 0.999939 0.171438 F
0.576049 0.488713 0.782624 F
0.966887 0.362836 0.535683 F
