Ca1 Ni12 F42                            
   1.00000000000000     
     7.0296519999999996   -0.0094810000000000   -0.0278950000000000
    -3.5189080000000001    6.1112109999999999   -0.0367680000000000
    -0.1817920000000000   -0.1092910000000000   16.7601610000000001
   Ca   Ni   F 
     1    12    42
Direct
  0.9592200987859199  0.8438536339611376  0.6756768610512490
  0.3076121185208371  0.0035710394867798  0.3314997921397950
  0.6852146530764980  0.6774185342748253  0.0058579741061910
  0.0025992172440624  0.3265251884875545  0.6668833981536141
  0.3368897911014741  0.9924757732596803  0.8368227158617099
  0.6621060610590446  0.6721889973172641  0.4990402882783679
  0.9996503267898150  0.3427542183664761  0.1692536031989881
  0.6582492045630103  0.1714775443694683  0.4977349172929208
  0.4980854990403311  0.3417125499551795  0.1699924621692424
  0.8351252569653210  0.4894236588416761  0.8410294881799482
  0.3393629847779953  0.4948745098408819  0.8387621832292996
  0.1651519163839455  0.6690037455600242  0.4971670705061508
  0.5006733489927649  0.8427131116368733  0.1686033526609359
  0.5748037370514373  0.8290538993673487  0.0628698939036992
  0.2554959813214661  0.4224406595958360  0.7325368062429344
  0.1685830178759862  0.7512679073893624  0.3885963758767933
  0.4591176759062214  0.2668051254945643  0.2769734255383326
  0.7803477553037527  0.5164769538882871  0.9496096344748844
  0.7437409598979069  0.2278360339222550  0.6040593172343676
  0.8623670420941193  0.0843367826396243  0.7269665559345978
  0.2063017084026391  0.1281593890189814  0.3949445849465530
  0.9161666877659960  0.7803279849559928  0.0689180124971021
  0.0964176892602619  0.1770744847971206  0.6077923475259204
  0.0815156769534491  0.9028186580406811  0.2662795232552361
  0.8097504267894642  0.8990334191347581  0.9415594818764877
  0.1511197928353608  0.5831865692487395  0.6090932175199740
  0.4295450416934027  0.8601672478646161  0.2736757199010705
  0.4202303309903655  0.5614967224707239  0.9461266360247303
  0.9008895515521725  0.4860490092995035  0.7257770342623920
  0.5733769112914836  0.1137639220498728  0.3910189448489401
  0.5304952565406330  0.4171269792925949  0.0638339219458638
  0.3760785006703366  0.5873167039480339  0.4709160303288310
  0.2127593173056677  0.6370257271263345  0.1409716639411101
  0.4071166093414243  0.7796981490947757  0.8094236894550200
  0.6345049759377048  0.1847223821827933  0.8370452377827600
  0.5613448467762493  0.3753539464869776  0.5118318165817108
  0.7954414265687931  0.4412750045480963  0.1872338652516721
  0.7149000484571965  0.6564392222775021  0.3978645416778819
  0.9218672102994373  0.2918371017088675  0.0681884232794947
  0.3088508049463675  0.0288907623165123  0.7293608849714255
  0.3496510620125957  0.9470084366626570  0.9391531397764231
  0.6269561787798031  0.6959567878402600  0.6065860700255978
  0.0778348285327349  0.3941620754108341  0.2702469293068547
  0.9514361092298137  0.7509672737628402  0.5313883083991604
  0.7884086302902851  0.0476846789790936  0.1963339624551191
  0.2645363286967486  0.2044109434430205  0.8631410608039956
  0.0348426462749209  0.7979461549763728  0.8293682758479406
  0.7604966856823805  0.9692203239990904  0.4883549580112090
  0.2011512232746147  0.2413344681292791  0.1524349265336918
  0.6207184417901230  0.5641569372055062  0.8041243487717918
  0.9352803812423156  0.3822327286371970  0.4648072005135128
  0.4394707089945745  0.0595195761722917  0.1359834189588588
  0.3841888501430447  0.9574257874230159  0.5325469933287941
  0.5605774289721072  0.6257884078773396  0.2025027545032730
  0.0570273980382143  0.4216340615435867  0.8705407236552342
 
             NaN             NaN             NaN
             NaN             NaN             NaN
             NaN             NaN             NaN
             NaN             NaN             NaN
             NaN             NaN             NaN
             NaN             NaN             NaN
             NaN             NaN             NaN
             NaN             NaN             NaN
             NaN             NaN             NaN
             NaN             NaN             NaN
             NaN             NaN             NaN
             NaN             NaN             NaN
             NaN             NaN             NaN
             NaN             NaN             NaN
             NaN             NaN             NaN
             NaN             NaN             NaN
             NaN             NaN             NaN
             NaN             NaN             NaN
             NaN             NaN             NaN
             NaN             NaN             NaN
             NaN             NaN             NaN
             NaN             NaN             NaN
             NaN             NaN             NaN
             NaN             NaN             NaN
             NaN             NaN             NaN
             NaN             NaN             NaN
             NaN             NaN             NaN
             NaN             NaN             NaN
             NaN             NaN             NaN
             NaN             NaN             NaN
             NaN             NaN             NaN
             NaN             NaN             NaN
             NaN             NaN             NaN
             NaN             NaN             NaN
             NaN             NaN             NaN
             NaN             NaN             NaN
             NaN             NaN             NaN
             NaN             NaN             NaN
             NaN             NaN             NaN
             NaN             NaN             NaN
             NaN             NaN             NaN
             NaN             NaN             NaN
             NaN             NaN             NaN
             NaN             NaN             NaN
             NaN             NaN             NaN
             NaN             NaN             NaN
             NaN             NaN             NaN
             NaN             NaN             NaN
             NaN             NaN             NaN
             NaN             NaN             NaN
             NaN             NaN             NaN
             NaN             NaN             NaN
             NaN             NaN             NaN
             NaN             NaN             NaN
             NaN             NaN             NaN
