Ca1 Ni12 F42                            
   1.00000000000000     
     7.0296519999999996   -0.0094810000000000   -0.0278950000000000
    -3.5189080000000001    6.1112109999999999   -0.0367680000000000
    -0.1817920000000000   -0.1092910000000000   16.7601610000000001
   Ca   Ni   F 
     1    12    42
Direct
  0.9616345401917487  0.8442525713536605  0.6753383965174568
  0.3055597257888941  1.0021394230480496  0.3312694287185530
  0.6878197496057028  0.6795266834351413  0.0071104775683707
  0.0025495354294370  0.3264437140154761  0.6668408140966378
  0.3394144253343973  0.9945734301225787  0.8360938686348351
  0.6612395606972690  0.6709370621456675  0.4988942045464054
  0.9971901103881566  0.3413028411722286  0.1692909473010135
  0.6572676718100386  0.1701637105741863  0.4976132648857404
  0.4955545828443564  0.3402692174453978  0.1699086117200347
  0.8384195471721323  0.4912793025656526  0.8421960496755422
  0.3427312426089804  0.4974274918210798  0.8381135728986153
  0.1641793705093160  0.6679380940538434  0.4967542662203323
  0.4983365691390029  0.8413237639306546  0.1685565072171652
  0.5725332345567365  0.8283383113305535  0.0625989750772685
  0.2558531802134281  0.4230646776226206  0.7319098541488139
  0.1669773230404438  0.7497264256677785  0.3880976041321867
  0.4560836001242693  0.2651607054948860  0.2770224023907958
  0.7884081887254388  0.5228369117684404  0.9515106291396485
  0.7436536397532780  0.2260213470483277  0.6042615451334594
  0.8640428442648916  0.0842483896302253  0.7270713285112897
  0.2040263815803746  0.1262139375868983  0.3948684707169522
  0.9142752391548018  0.7810753559803575  0.0720136899583506
  0.0963098313162902  0.1778583959159861  0.6075617615610193
  0.0798414146677994  0.9020009193642141  0.2661857746676262
  0.8166491804168845  0.9033771341851112  0.9437841949474906
  0.1496157721160997  0.5827380442272316  0.6089281727740271
  0.4271135925189339  0.8587782760625459  0.2735333863047106
  0.4267717864614440  0.5656317455255061  0.9454050625889719
  0.9013460450260098  0.4859017886284797  0.7257209958319252
  0.5707534175067692  0.1122020615277144  0.3908554907021529
  0.5291744160902799  0.4173313173809688  0.0638033734938350
  0.3751976685425331  0.5856102980567190  0.4710035042866947
  0.2102475901405153  0.6356248651390609  0.1409156644600139
  0.4069221138845162  0.7812544788840193  0.8080893792576763
  0.6361507380988815  0.1847678235696799  0.8376367045701798
  0.5609707671548664  0.3747830211926539  0.5126477629575538
  0.7929680529209875  0.4391002225536885  0.1876226025467502
  0.7131427894901604  0.6531297077477395  0.3979583968804569
  0.9186169583209576  0.2904033850010973  0.0681002345599461
  0.3129917630802506  0.0335806243866392  0.7284954216356445
  0.3492268408703890  0.9454778965242917  0.9383104060149229
  0.6276769589428466  0.6969443354647661  0.6066922136719972
  0.0758729674677871  0.3923972979156155  0.2700815344600218
  0.9506450626801779  0.7505435720849934  0.5310920079095394
  0.7861862007533434  0.0462060279454412  0.1962746125035273
  0.2703829711366995  0.2074044031596082  0.8630047004629728
  0.0379066444207665  0.8023716706150947  0.8279483548361161
  0.7592253984718381  0.9674051889470355  0.4876089056810303
  0.1986982753299369  0.2403962849717207  0.1519696884780284
  0.6219472489557447  0.5683127253192091  0.8041269663553824
  0.9337912315294591  0.3803078770188208  0.4646569949784435
  0.4371000833370176  0.0595525334534064  0.1360129473586140
  0.3834069383309845  0.9565974533627454  0.5324209255987447
  0.5578067574648898  0.6228945417818471  0.2024635617393166
  0.0633969892196303  0.4221329761532226  0.8709208497657195
 
             NaN             NaN             NaN
             NaN             NaN             NaN
             NaN             NaN             NaN
             NaN             NaN             NaN
             NaN             NaN             NaN
             NaN             NaN             NaN
             NaN             NaN             NaN
             NaN             NaN             NaN
             NaN             NaN             NaN
             NaN             NaN             NaN
             NaN             NaN             NaN
             NaN             NaN             NaN
             NaN             NaN             NaN
             NaN             NaN             NaN
             NaN             NaN             NaN
             NaN             NaN             NaN
             NaN             NaN             NaN
             NaN             NaN             NaN
             NaN             NaN             NaN
             NaN             NaN             NaN
             NaN             NaN             NaN
             NaN             NaN             NaN
             NaN             NaN             NaN
             NaN             NaN             NaN
             NaN             NaN             NaN
             NaN             NaN             NaN
             NaN             NaN             NaN
             NaN             NaN             NaN
             NaN             NaN             NaN
             NaN             NaN             NaN
             NaN             NaN             NaN
             NaN             NaN             NaN
             NaN             NaN             NaN
             NaN             NaN             NaN
             NaN             NaN             NaN
             NaN             NaN             NaN
             NaN             NaN             NaN
             NaN             NaN             NaN
             NaN             NaN             NaN
             NaN             NaN             NaN
             NaN             NaN             NaN
             NaN             NaN             NaN
             NaN             NaN             NaN
             NaN             NaN             NaN
             NaN             NaN             NaN
             NaN             NaN             NaN
             NaN             NaN             NaN
             NaN             NaN             NaN
             NaN             NaN             NaN
             NaN             NaN             NaN
             NaN             NaN             NaN
             NaN             NaN             NaN
             NaN             NaN             NaN
             NaN             NaN             NaN
             NaN             NaN             NaN
