Ca1 Mn12 F42                            
   1.00000000000000     
     7.3740920000000001   -0.0208370000000000   -0.0793700000000000
    -3.7045360000000001    6.3397769999999998    0.0559400000000000
     0.0397330000000000    0.0385440000000000   17.4938250000000011
   Ca   Mn   F 
     1    12    42
Direct
  0.3787452559375641  0.4975511349622846  0.3329546702096401
  0.2905779521134040  0.9876519154778655  0.3328057978127365
  0.7177881256718593  0.6998825010901524  0.9964936280437323
  1.0087667041058457  0.3034426160039078  0.6717556209336658
  0.3661551799039970  0.0085814131654705  0.8327275478317286
  0.6548130555682656  0.6684246132279603  0.5071881001050180
  0.9894068628347400  0.3249574794128344  0.1595909969475988
  0.6504472089422585  0.1650382358069309  0.5042025401655759
  0.4949836568780240  0.3278356750784117  0.1531996556968456
  0.8665410742346491  0.5083144692419470  0.8328462682140144
  0.3664313935455044  0.5086064572440082  0.8324104321178768
  0.1503302516013140  0.6622837391596497  0.5105414794267016
  0.4875183330218941  0.8265942010350911  0.1627631886657937
  0.5786337546764062  0.7906717537805596  0.0592993592427679
  0.2676605659211108  0.4451021290456668  0.7308723010697135
  0.1762646223823669  0.7597303474867637  0.4077750743438806
  0.4254301910428971  0.2344473999258647  0.2590246555141420
  0.8318015784678475  0.5654289539456526  0.9352618150735225
  0.7699120381821184  0.2051311474613692  0.6106538660218005
  0.8964942678845502  0.0917974638392634  0.7349788927626538
  0.2092012594714471  0.1578704971175083  0.3804356448841399
  0.9269601878946113  0.7894983682547195  0.0604394505397757
  0.1175616123227880  0.1986382890075163  0.6109149425434457
  0.0615398856449393  0.8578492339706233  0.2768340830855393
  0.8262337809845182  0.9223989298125181  0.9384427908673930
  0.1372263028684796  0.5656252356807817  0.6119438119643809
  0.4053994243672042  0.8346651658069726  0.2818234586919101
  0.4609247442950092  0.5682234575069358  0.9341039304840369
  0.8999749086937842  0.4520652070264565  0.7307871257044857
  0.5415281000987869  0.1245031134672018  0.3932679839801512
  0.5685751942438008  0.4299248953060005  0.0522194152528144
  0.3637975734943720  0.5812571607189969  0.4760411348313828
  0.2039421508402421  0.6194764333928054  0.1404939647370094
  0.4420908851851095  0.7948613001528652  0.8148293439814803
  0.6584891714342255  0.2218622075455471  0.8498412888340507
  0.5714660942713702  0.3756303289565501  0.5212692119771184
  0.7768016568240994  0.4065947749889793  0.1798599294252417
  0.6813271558815748  0.6351481099877767  0.4028119581533849
  0.9100356921564635  0.2835641948042449  0.0639929283894784
  0.3944170165574075  0.0701520135076164  0.7339760598490143
  0.3383272593074134  0.9473469612624715  0.9315247024607646
  0.6081307692408535  0.6942510755422527  0.6029799207869030
  0.0810612345745970  0.3701078510774961  0.2608432633530869
  0.9356321619896507  0.7399566087109648  0.5278420599795894
  0.7715742673341032  0.0364796073072855  0.1871607720374986
  0.2899710435125405  0.2219952690680833  0.8501052502215778
  0.0734905993657613  0.7958131490906802  0.8161408627540969
  0.7311288437259668  0.9548848867638998  0.4859827760798392
  0.2103637584466893  0.2562171859888590  0.1372258624925765
  0.6318645516308310  0.5668629499468009  0.8023026408844123
  0.9274602167737217  0.3861385725526683  0.4742336279318918
  0.4331012510817682  0.0352183069752168  0.1299680488116309
  0.3808862539348664  0.9429382798016636  0.5362062198917138
  0.5331545311124168  0.6086690992016716  0.2056788809856394
  0.1009227153010159  0.4508905671308611  0.8629135843443858
 
             NaN             NaN             NaN
             NaN             NaN             NaN
             NaN             NaN             NaN
             NaN             NaN             NaN
             NaN             NaN             NaN
             NaN             NaN             NaN
             NaN             NaN             NaN
             NaN             NaN             NaN
             NaN             NaN             NaN
             NaN             NaN             NaN
             NaN             NaN             NaN
             NaN             NaN             NaN
             NaN             NaN             NaN
             NaN             NaN             NaN
             NaN             NaN             NaN
             NaN             NaN             NaN
             NaN             NaN             NaN
             NaN             NaN             NaN
             NaN             NaN             NaN
             NaN             NaN             NaN
             NaN             NaN             NaN
             NaN             NaN             NaN
             NaN             NaN             NaN
             NaN             NaN             NaN
             NaN             NaN             NaN
             NaN             NaN             NaN
             NaN             NaN             NaN
             NaN             NaN             NaN
             NaN             NaN             NaN
             NaN             NaN             NaN
             NaN             NaN             NaN
             NaN             NaN             NaN
             NaN             NaN             NaN
             NaN             NaN             NaN
             NaN             NaN             NaN
             NaN             NaN             NaN
             NaN             NaN             NaN
             NaN             NaN             NaN
             NaN             NaN             NaN
             NaN             NaN             NaN
             NaN             NaN             NaN
             NaN             NaN             NaN
             NaN             NaN             NaN
             NaN             NaN             NaN
             NaN             NaN             NaN
             NaN             NaN             NaN
             NaN             NaN             NaN
             NaN             NaN             NaN
             NaN             NaN             NaN
             NaN             NaN             NaN
             NaN             NaN             NaN
             NaN             NaN             NaN
             NaN             NaN             NaN
             NaN             NaN             NaN
             NaN             NaN             NaN
