Ca1 Mn12 F42
1.0
7.374092 -0.020837 -0.079370
-3.704536 6.339777 0.055940
0.039733 0.038544 17.493825
Ca Mn F
1 12 42
direct
0.426296 0.503667 0.334426 Ca
0.296906 0.997270 0.333151 Mn
0.711991 0.704944 0.995278 Mn
-0.001350 0.295744 0.671415 Mn
0.352375 0.000728 0.833189 Mn
0.643113 0.653890 0.505575 Mn
0.998235 0.341683 0.159876 Mn
0.642553 0.152347 0.504727 Mn
0.504498 0.347205 0.158034 Mn
0.853145 0.499493 0.833106 Mn
0.354235 0.502063 0.833592 Mn
0.140368 0.651487 0.508093 Mn
0.497633 0.843835 0.162749 Mn
0.580603 0.806141 0.058643 F
0.254368 0.440507 0.731604 F
0.172764 0.751268 0.404249 F
0.443080 0.256838 0.263852 F
0.820078 0.562227 0.935247 F
0.757557 0.191485 0.608858 F
0.887871 0.081591 0.733677 F
0.212171 0.157500 0.383967 F
0.928590 0.804093 0.056268 F
0.111642 0.195830 0.610086 F
0.072355 0.876392 0.274000 F
0.812931 0.919266 0.933271 F
0.119862 0.556501 0.610434 F
0.414849 0.851440 0.279606 F
0.449940 0.562252 0.935873 F
0.882424 0.436999 0.730971 F
0.546341 0.120642 0.394781 F
0.569409 0.443213 0.056088 F
0.351576 0.568973 0.475618 F
0.212149 0.634511 0.142086 F
0.431327 0.788930 0.815958 F
0.644219 0.213929 0.852034 F
0.562098 0.362009 0.520400 F
0.790821 0.427109 0.180322 F
0.671629 0.621767 0.401371 F
0.927495 0.302546 0.063451 F
0.384915 0.064559 0.734617 F
0.319695 0.936716 0.931743 F
0.596682 0.680044 0.601350 F
0.073165 0.383434 0.262945 F
0.926505 0.728249 0.524400 F
0.783760 0.054000 0.185586 F
0.275767 0.214140 0.850512 F
0.061023 0.786185 0.814422 F
0.720762 0.941343 0.484749 F
0.216143 0.269895 0.143767 F
0.620515 0.557747 0.803403 F
0.918743 0.375470 0.471808 F
0.444821 0.058820 0.133720 F
0.370070 0.929322 0.534773 F
0.543383 0.624191 0.204938 F
0.086491 0.445110 0.863593 F
