Na2 Ca2 V4 P4 S2 O24                    
   1.00000000000000     
     8.8845259999999993    0.2480810000000000    0.1617790000000000
     4.3614439999999997    7.8454910000000000    0.2077430000000000
     4.3316889999999999    2.6913260000000001    7.3619190000000003
   Ca   Na   V    P    S    O 
     2     2     4     4     2    24
Direct
  0.6252175034102536  0.3595152967741141  0.5480308526812927
  0.0291205683331872  0.9718889092142882  0.0028239997215634
  0.7517841501380284  0.3974869852729949  0.0984956220088047
  0.5992036315814162  0.8706820485219900  0.2408234845164779
  0.3575552522024628  0.3608951509416621  0.3512573379136220
  0.6416434349313580  0.6524512674478256  0.6520193122380009
  0.1482559251792715  0.1501574425092274  0.1462216681846389
  0.8584341138063373  0.8564611616731876  0.8486569295525420
  0.9560112534433284  0.5378366067460200  0.2538377378891662
  0.7585667252809595  0.0350025000511090  0.4457402269120328
  0.4585926978743328  0.7564000382210024  0.0409779538978940
  0.5516710577301442  0.2496923553422503  0.9706895154976949
  0.0534748034778552  0.4587599025866609  0.7436473037395724
  0.2496924452252695  0.9630211917297450  0.5473822251519772
  0.2310900562921295  0.4361524903831635  0.5894951390032498
  0.7709362594548137  0.5674776771356529  0.4215120072506687
  0.5907421547625600  0.2210219139541803  0.4249267556498757
  0.4144833495269789  0.7895851257260024  0.5547136734482214
  0.4455449767181485  0.5821922119242511  0.2184284935333520
  0.5653050728180357  0.4205582275364763  0.7887753248564306
  0.9174908819870311  0.0683683921150919  0.2562519398329217
  0.0968500385402811  0.9306032177943218  0.7295791260468379
  0.0671972646460312  0.2772207354307680  0.9069550060752638
  0.9319323412782110  0.7270154421147268  0.0902022059756651
  0.2760004063342559  0.9213669258019863  0.0696729231020834
  0.7385493823720859  0.0856657149121085  0.9363338083689783
  0.5376465457137344  0.2840882883098358  0.1286411343716079
  0.4851808081341037  0.7265021427675369  0.8734136662655848
  0.1251585021359760  0.4927564404990030  0.2923525644270994
  0.8954105547222433  0.4928024928129618  0.7018180565220804
  0.2913448855189520  0.1154879422973890  0.5220296401432358
  0.7160196915578582  0.8749991225865346  0.4774997333247462
  0.3893812735818997  0.2003001952051439  0.0139404723955451
  0.6254821184549140  0.7930611988973102  0.0118370113675791
  0.1944416338257714  0.0011766356344576  0.3984573049980970
  0.7990807949418781  1.0197247806716729  0.6035126878866471
  0.9591952590609574  0.3832014401598473  0.2191378818384513
  0.0196863644716869  0.6043971459160022  0.7992418868550926
 
             NaN             NaN             NaN
             NaN             NaN             NaN
             NaN             NaN             NaN
             NaN             NaN             NaN
             NaN             NaN             NaN
             NaN             NaN             NaN
             NaN             NaN             NaN
             NaN             NaN             NaN
             NaN             NaN             NaN
             NaN             NaN             NaN
             NaN             NaN             NaN
             NaN             NaN             NaN
             NaN             NaN             NaN
             NaN             NaN             NaN
             NaN             NaN             NaN
             NaN             NaN             NaN
             NaN             NaN             NaN
             NaN             NaN             NaN
             NaN             NaN             NaN
             NaN             NaN             NaN
             NaN             NaN             NaN
             NaN             NaN             NaN
             NaN             NaN             NaN
             NaN             NaN             NaN
             NaN             NaN             NaN
             NaN             NaN             NaN
             NaN             NaN             NaN
             NaN             NaN             NaN
             NaN             NaN             NaN
             NaN             NaN             NaN
             NaN             NaN             NaN
             NaN             NaN             NaN
             NaN             NaN             NaN
             NaN             NaN             NaN
             NaN             NaN             NaN
             NaN             NaN             NaN
             NaN             NaN             NaN
             NaN             NaN             NaN
