Na2 Ca2 V4 P4 S2 O24
1.0
8.884526 0.248081 0.161779
4.361444 7.845491 0.207743
4.331689 2.691326 7.361919
Ca Na V P S O
2 2 4 4 2 24
direct
0.630139 0.366802 0.550176 Ca
0.026488 0.975561 0.002199 Ca
0.750577 0.399153 0.107351 Na
0.599750 0.875343 0.242351 Na
0.361749 0.358498 0.351181 V
0.638864 0.655047 0.648835 V
0.147331 0.150394 0.145061 V
0.859210 0.850560 0.852128 V
0.957636 0.537958 0.253734 P
0.756548 0.034379 0.446995 P
0.458371 0.757374 0.040043 P
0.550332 0.253437 0.966734 P
0.048514 0.458593 0.745208 S
0.248072 0.963239 0.546122 S
0.222667 0.437253 0.588690 O
0.772888 0.566361 0.421014 O
0.594510 0.226083 0.435213 O
0.410358 0.786963 0.553335 O
0.441708 0.584437 0.218366 O
0.558961 0.424635 0.785154 O
0.915255 0.069329 0.256587 O
0.095438 0.933109 0.728631 O
0.063301 0.275653 0.906442 O
0.931622 0.728519 0.091058 O
0.276115 0.922426 0.066492 O
0.737600 0.092836 0.922199 O
0.544872 0.283211 0.124076 O
0.489719 0.725951 0.872311 O
0.127884 0.491380 0.290851 O
0.887897 0.497627 0.705179 O
0.296315 0.111837 0.518863 O
0.703146 0.885290 0.469065 O
0.387104 0.200169 0.020003 O
0.623602 0.792940 0.016142 O
0.189462 1.003724 0.398775 O
0.811242 0.990863 0.606864 O
0.963212 0.383652 0.216850 O
0.021161 0.599340 0.803557 O
