Ca1 Ni16 F48                            
   1.00000000000000     
    10.4532190000000007   -0.0000900000000000   -0.0274930000000000
    -0.0001780000000000    7.2693950000000003   -0.0058510000000000
    -0.0256440000000000    0.0133610000000000   10.0665910000000007
   Ca   Ni   F 
     1    16    48
Direct
  0.5045390556905875  0.0805750303940722  0.5092006743517595
 -0.0006080661606052  0.4998570378807536  0.2485536687407979
  0.0006497723884323  0.4996288497801620  0.7517054152827614
  0.4998252058644516  0.5055879174466920  0.2455998187072856
  0.5003917361795045  0.4969133334911674  0.7547610040844284
  0.2429949110052702  0.9972838736946710 -0.0027572632704701
  0.2290204856983762 -0.0015213834621974  0.4941861328264293
  0.7571365748758164  0.0025192700507055  1.0025341008658644
  0.7715851442268079  0.9896454425034222  0.5049634688427436
 -0.0037925142652383  0.0003880987355203  0.2431639679683544
  0.0035677961269817  0.9991793181508040  0.7570825546790744
  0.4954713310741896  1.0039702636664374  0.2254429389191119
  0.5047979728572245  0.9853356312611112  0.7763131626169588
  0.2481686594314838  0.4971863325489439 -0.0006378430521474
  0.2486634509303713  0.5010846999578183  0.4996883322764101
  0.7519076976568098  0.5024649479718130  1.0008060225369932
  0.7513364506430715  0.4975266890598452  0.5007942597719336
  0.4933499848491771  0.2557639261667363  0.1784732068963361
  0.4962622428948070  0.2385738706594952  0.7005784492453957
  0.9841552311225731  0.2465978547107279  0.1888335874731255
  0.9888422066152964  0.2436891149279782  0.6976160630046175
  0.2338078553232170  0.2510073779066819  0.0570614488725067
  0.2412200568933555  0.2529841342757589  0.5535626757187813
  0.7430529835278281  0.2565286471861636  0.0601102229897216
  0.7337238262557472  0.2461569026764227  0.5533621085134889
  0.0109497989287648  0.7558048077853269  0.3022315397658273
  0.0157878124157599  0.7530173317678731  0.8113987195689323
  0.5034143734916623  0.7621740495825275  0.3012086557151212
  0.5069088249116124  0.7381593799828965  0.8256297544088113
  0.2604213815963537  0.7467332538019772  0.4442640190710830
  0.2566908977554555  0.7433010390947101  0.9396774026271149
  0.7636607663810751  0.7418568169323693  0.4444899672043257
  0.7663646431240239  0.7483912532696412  0.9429735558717725
  0.3448767148295310  0.5561037732296462  0.1492142824479899
  0.3497211045310687  0.5529517256391632  0.6504127589292251
  0.8471441980215617  0.5595487387573497  0.1515476689161133
  0.8484131239828541  0.5524386229044567  0.6521003174053370
  0.0911376643711457  0.9411121740018238  0.0906219736463921
  0.0917314984241597  0.9356393464905740  0.6033331174852901
  0.6050749810007962  0.9387398488049780  0.0888424707751009
  0.6287562438782647  0.9170630894041562  0.6329505957285839
  0.1385447057009823  0.0613257582047078  0.3369456511509514
  0.1543423770250032  0.0606192585733810  0.8424068850890060
  0.6455785662633015  0.0508509037753967  0.3509633477173927
  0.6572436141660321  0.0656427389178592  0.8599933611522130
  0.4002296296815632  0.4445873238038052  0.4044484443438393
  0.3963372182922563  0.4363134700696565  0.9061567779152452
  0.8994284604183176  0.4444063218406406  0.4045779825507719
  0.9002708723346615  0.4454316097666026  0.9070599055343219
  0.1515594010195313  0.4456872326925932  0.3480583988257427
  0.1528217754392187  0.4401319586939085  0.8486865249840791
  0.6491441551200542  0.4443481506160201  0.3508160989442911
  0.6551621061397122  0.4430690365855854  0.8511348614718861
  0.3649388686282094  0.0714369491445739  0.3587880991073690
  0.3948316585997912  0.0599761555042046  0.9104775591384449
  0.9074386456372328  0.0628700332481410  0.3971148464739822
  0.9090433949953832  0.0590373460581360  0.9095620980073179
  0.3433662616787976  0.9313681850363497  0.1382508149712525
  0.3588664244187462  0.9452281267804283  0.6415567299877004
  0.8456797654049358  0.9391613606790737  0.1572412260837679
  0.8597573282997442  0.9378872545464124  0.6649580644511701
  0.0997105160844533  0.5542640586289006  0.0931826068491490
  0.1005724207997624  0.5534973413491052  0.5954442993919645
  0.6034996368788104  0.5629668949949143  0.0937115643510711
  0.6005766331980175  0.5485731272392738  0.5965508638716056
 
             NaN             NaN             NaN
             NaN             NaN             NaN
             NaN             NaN             NaN
             NaN             NaN             NaN
             NaN             NaN             NaN
             NaN             NaN             NaN
             NaN             NaN             NaN
             NaN             NaN             NaN
             NaN             NaN             NaN
             NaN             NaN             NaN
             NaN             NaN             NaN
             NaN             NaN             NaN
             NaN             NaN             NaN
             NaN             NaN             NaN
             NaN             NaN             NaN
             NaN             NaN             NaN
             NaN             NaN             NaN
             NaN             NaN             NaN
             NaN             NaN             NaN
             NaN             NaN             NaN
             NaN             NaN             NaN
             NaN             NaN             NaN
             NaN             NaN             NaN
             NaN             NaN             NaN
             NaN             NaN             NaN
             NaN             NaN             NaN
             NaN             NaN             NaN
             NaN             NaN             NaN
             NaN             NaN             NaN
             NaN             NaN             NaN
             NaN             NaN             NaN
             NaN             NaN             NaN
             NaN             NaN             NaN
             NaN             NaN             NaN
             NaN             NaN             NaN
             NaN             NaN             NaN
             NaN             NaN             NaN
             NaN             NaN             NaN
             NaN             NaN             NaN
             NaN             NaN             NaN
             NaN             NaN             NaN
             NaN             NaN             NaN
             NaN             NaN             NaN
             NaN             NaN             NaN
             NaN             NaN             NaN
             NaN             NaN             NaN
             NaN             NaN             NaN
             NaN             NaN             NaN
             NaN             NaN             NaN
             NaN             NaN             NaN
             NaN             NaN             NaN
             NaN             NaN             NaN
             NaN             NaN             NaN
             NaN             NaN             NaN
             NaN             NaN             NaN
             NaN             NaN             NaN
             NaN             NaN             NaN
             NaN             NaN             NaN
             NaN             NaN             NaN
             NaN             NaN             NaN
             NaN             NaN             NaN
             NaN             NaN             NaN
             NaN             NaN             NaN
             NaN             NaN             NaN
             NaN             NaN             NaN
