Ca1 Ni16 F48
1.0
10.453219 -0.000090 -0.027493
-0.000178 7.269395 -0.005851
-0.025644 0.013361 10.066591
Ca Ni F
1 16 48
direct
0.506833 0.062439 0.497969 Ca
0.000203 0.499945 0.247262 Ni
0.000168 0.500122 0.753067 Ni
0.500813 0.500945 0.237883 Ni
0.498650 0.502277 0.761115 Ni
0.246562 0.999480 1.000333 Ni
0.241363 1.000083 0.501030 Ni
0.753336 0.000391 0.999358 Ni
0.759682 0.997105 0.499734 Ni
0.000234 0.000326 0.247410 Ni
0.000076 0.999681 0.752986 Ni
0.500648 0.998412 0.238912 Ni
0.498742 0.998661 0.760336 Ni
0.246740 0.500258 1.000386 Ni
0.242450 0.499999 0.500826 Ni
0.753176 0.499839 0.999182 Ni
0.758669 0.502571 0.499756 Ni
0.484496 0.248422 0.191747 F
0.482757 0.249593 0.707609 F
0.987330 0.248027 0.192449 F
0.987707 0.247868 0.697787 F
0.234723 0.251956 0.055635 F
0.245944 0.251370 0.554870 F
0.740169 0.252475 0.055127 F
0.744625 0.250785 0.553305 F
0.012318 0.752218 0.302036 F
0.013447 0.751941 0.808134 F
0.516530 0.750585 0.293328 F
0.515866 0.751450 0.810275 F
0.254425 0.748864 0.446426 F
0.258814 0.747756 0.944039 F
0.758255 0.748952 0.443804 F
0.766286 0.747800 0.944309 F
0.343638 0.556856 0.150842 F
0.349875 0.558036 0.651567 F
0.846566 0.554750 0.153318 F
0.850362 0.557247 0.655928 F
0.095040 0.944647 0.094422 F
0.092829 0.945406 0.599095 F
0.600378 0.945539 0.089248 F
0.598834 0.962324 0.598603 F
0.149498 0.056176 0.342633 F
0.151793 0.055371 0.844739 F
0.648316 0.057663 0.347998 F
0.653695 0.055755 0.847656 F
0.398930 0.460549 0.400233 F
0.398994 0.446030 0.912060 F
0.905871 0.447011 0.402313 F
0.903628 0.444179 0.907227 F
0.150023 0.443647 0.345527 F
0.153222 0.444032 0.846693 F
0.648884 0.441794 0.349106 F
0.656000 0.444589 0.848385 F
0.399408 0.039375 0.399626 F
0.399722 0.053117 0.910449 F
0.907497 0.054861 0.401279 F
0.904892 0.055768 0.905583 F
0.345557 0.942674 0.151475 F
0.350660 0.942697 0.653495 F
0.848234 0.945802 0.155587 F
0.850577 0.942924 0.658497 F
0.096362 0.555210 0.092806 F
0.094701 0.552811 0.598029 F
0.601002 0.555260 0.087202 F
0.599538 0.537802 0.597915 F
