Ca1 V16 F48                             
   1.00000000000000     
    15.6514720000000001   -0.0000220000000000   -0.0000660000000000
     0.0000210000000000    7.8235250000000001   -0.0000960000000000
    -0.0000530000000000   -0.0002450000000000    7.8218560000000004
   Ca   V    F 
     1    16    48
Direct
  0.5452285112023997  0.4999875291740314  0.5000188933943369
  0.1252856409718244  0.2498077400197238  0.2498003803724618
  0.6299211633835844  0.2428995556713854  0.2429284131708564
  0.1252817153122333  0.2498063903407614  0.7501921399070562
  0.6299357503275455  0.2429153169264915  0.7570692395726101
  0.1252861811528336  0.7501982028117921  0.2497985848786650
  0.6299278269858409  0.7570994201285236  0.2429262676169197
  0.1252887233264550  0.7501956842993134  0.7501886446402172
  0.6299184534968392  0.7571091378905804  0.7570925099852056
  0.3736816179507124  0.2488502239970532  0.2488521284366741
  0.8773430761783360  0.2500012344881117  0.2499995389948033
  0.3736813416462965  0.2488377454756515  0.7511581376138349
  0.8773362732123331  0.2499862581858596  0.7500120256517967
  0.3736896964906621  0.7511632346980354  0.2488366926747739
  0.8773272334853622  0.7500128964811416  0.2499845507536273
  0.3736819221160482  0.7511483499125802  0.7511474762652443
  0.8773339983130360  0.7499969310021956  0.7499962424081743
  0.0010727541040723  0.2480951711373370  0.2480825160408293
  0.5025720231710055  0.2715903096492450  0.2716169351760640
  0.0010914857529227  0.2480829718966665  0.7519175576679188
  0.5025601371139281  0.2715669060043305  0.7284101551288691
  0.0010770236290084  0.7519176969363901  0.2480757970917294
  0.5025706711058261  0.7284323825882322  0.2715769687983782
  0.0010838251491028  0.7519143749334568  0.7519088657149329
  0.5025606891682433  0.7284108353615995  0.7284043905840705
  0.2499067592780012  0.2464690452276321  0.2464498116888142
  0.7526687726818605  0.2523167672905365  0.2523227350838190
  0.2498989259600418  0.2464666374075780  0.7535438160055262
  0.7526894146873284  0.2523014590154127  0.7477045230507500
  0.2499017093468325  0.7535376533614416  0.2464529629131924
  0.7526825763359662  0.7477015730735317  0.2522949429806677
  0.2499051989463042  0.7535350268304539  0.7535357429011071
  0.7526755329599073  0.7476717106182952  0.7476874950748810
  0.1250731274742035  0.2503832320346633  0.9999594943453169
  0.6228155598049900  0.2481974896655118  0.0000188556808486
  0.1256069933503869  0.2503436800820366  0.5000305307710063
  0.6273624092887625  0.2521382538632135  0.4999794399627955
  0.1250695023946476  0.7496217214601868  0.0000170184699793
  0.6228195457442428  0.7518282680300052  1.0000235656535850
  0.1256025542618910  0.7496613613296872  0.4999718233290285
  0.6273645113642338  0.7478243658195355  0.5000331916875962
  0.3803744447803997  0.2500321825237128 -0.0000239875695252
  0.8740281748861214  0.2497602492026102  1.0000098431338336
  0.3750108234058142  0.2539168137208309  0.5000331716664876
  0.8771515357532257  0.2501841076664849  0.5000087903441948
  0.3803724003663527  0.7499695750123579 -0.0000126880841094
  0.8740246617085053  0.7502420172610926 -0.0000213291316796
  0.3750200440834710  0.7460855839624281  0.4999921857149422
  0.8771439382804189  0.7498173821625242  0.4999998318559549
  0.1250731146466401  0.9999755420610135  0.2503652880980914
  0.6228259170432678  0.9999991966739770  0.2484465211079883
  0.1250718938342517  0.0000335154048223  0.7496249239726632
  0.6228280072270809 -0.0000009198231546  0.7515477149283472
  0.1256045837743513  0.5000300963736197  0.2503488031668464
  0.6273442995783876  0.4999485678998801  0.2520618070936274
  0.1256022804670774  0.4999721992083164  0.7496414661818630
  0.6273430594891964  0.5000016475812008  0.7479827718991066
  0.3803643567282769  1.0000044412688158  0.2501493446927160
  0.8740326860462548  1.0000129553055892  0.2498712414030206
  0.3803625110197422  0.0000146615996440  0.7498431886231638
  0.8740271845635955 -0.0000182670642245  0.7501234261330340
  0.3750298460129747  0.5000106725987116  0.2537954493677766
  0.8771428454609489  0.5000107682236866  0.2500677077448594
  0.3750313971473365  0.4999698100546325  0.7461961216457478
  0.8771435553020671  0.5000014809979982  0.7499264069484769
 
             NaN             NaN             NaN
             NaN             NaN             NaN
             NaN             NaN             NaN
             NaN             NaN             NaN
             NaN             NaN             NaN
             NaN             NaN             NaN
             NaN             NaN             NaN
             NaN             NaN             NaN
             NaN             NaN             NaN
             NaN             NaN             NaN
             NaN             NaN             NaN
             NaN             NaN             NaN
             NaN             NaN             NaN
             NaN             NaN             NaN
             NaN             NaN             NaN
             NaN             NaN             NaN
             NaN             NaN             NaN
             NaN             NaN             NaN
             NaN             NaN             NaN
             NaN             NaN             NaN
             NaN             NaN             NaN
             NaN             NaN             NaN
             NaN             NaN             NaN
             NaN             NaN             NaN
             NaN             NaN             NaN
             NaN             NaN             NaN
             NaN             NaN             NaN
             NaN             NaN             NaN
             NaN             NaN             NaN
             NaN             NaN             NaN
             NaN             NaN             NaN
             NaN             NaN             NaN
             NaN             NaN             NaN
             NaN             NaN             NaN
             NaN             NaN             NaN
             NaN             NaN             NaN
             NaN             NaN             NaN
             NaN             NaN             NaN
             NaN             NaN             NaN
             NaN             NaN             NaN
             NaN             NaN             NaN
             NaN             NaN             NaN
             NaN             NaN             NaN
             NaN             NaN             NaN
             NaN             NaN             NaN
             NaN             NaN             NaN
             NaN             NaN             NaN
             NaN             NaN             NaN
             NaN             NaN             NaN
             NaN             NaN             NaN
             NaN             NaN             NaN
             NaN             NaN             NaN
             NaN             NaN             NaN
             NaN             NaN             NaN
             NaN             NaN             NaN
             NaN             NaN             NaN
             NaN             NaN             NaN
             NaN             NaN             NaN
             NaN             NaN             NaN
             NaN             NaN             NaN
             NaN             NaN             NaN
             NaN             NaN             NaN
             NaN             NaN             NaN
             NaN             NaN             NaN
             NaN             NaN             NaN
