Ca1 V16 F48
1.0
15.651472 -0.000022 -0.000066
0.000021 7.823525 -0.000096
-0.000053 -0.000245 7.821856
Ca V F
1 16 48
direct
0.562500 0.499995 0.500001 Ca
0.124490 0.250060 0.250033 V
0.626410 0.246701 0.246763 V
0.124493 0.250062 0.749966 V
0.626411 0.246706 0.753232 V
0.124492 0.749939 0.250034 V
0.626411 0.753293 0.246767 V
0.124491 0.749939 0.749967 V
0.626408 0.753293 0.753234 V
0.372632 0.247545 0.247585 V
0.876469 0.249223 0.249216 V
0.372631 0.247546 0.752412 V
0.876467 0.249223 0.750783 V
0.372630 0.752454 0.247583 V
0.876466 0.750776 0.249217 V
0.372633 0.752455 0.752417 V
0.876468 0.750777 0.750785 V
0.000307 0.250064 0.250084 F
0.499690 0.261373 0.261289 F
0.000308 0.250064 0.749918 F
0.499690 0.261366 0.738720 F
0.000308 0.749936 0.250078 F
0.499692 0.738638 0.261283 F
0.000307 0.749936 0.749920 F
0.499690 0.738630 0.738711 F
0.249077 0.250663 0.250699 F
0.750925 0.254431 0.254432 F
0.249080 0.250663 0.749300 F
0.750923 0.254429 0.745566 F
0.249079 0.749338 0.250701 F
0.750921 0.745570 0.254437 F
0.249078 0.749338 0.749300 F
0.750925 0.745571 0.745566 F
0.124756 0.250018 0.999997 F
0.624630 0.252668 0.000001 F
0.124776 0.250015 0.500003 F
0.621557 0.264938 0.500004 F
0.124757 0.749981 0.000003 F
0.624633 0.747334 -0.000001 F
0.124774 0.749984 0.499997 F
0.621560 0.735059 0.499995 F
0.375422 0.252015 -0.000000 F
0.875190 0.250681 -0.000002 F
0.380054 0.261211 0.500004 F
0.873613 0.253744 0.500002 F
0.375421 0.747985 1.000004 F
0.875189 0.749320 1.000001 F
0.380050 0.738798 0.499999 F
0.873615 0.746255 0.500001 F
0.124754 0.999997 0.250012 F
0.624620 0.999992 0.252893 F
0.124753 0.000004 0.749990 F
0.624620 0.000002 0.747108 F
0.124775 0.500002 0.250017 F
0.621604 0.500008 0.264654 F
0.124774 0.499997 0.749983 F
0.621606 0.499998 0.735344 F
0.375436 -0.000006 0.252177 F
0.875190 -0.000001 0.250717 F
0.375437 1.000003 0.747823 F
0.875189 1.000001 0.749279 F
0.379981 0.500002 0.260995 F
0.873640 0.500002 0.253681 F
0.379981 0.499998 0.739005 F
0.873638 0.499998 0.746317 F
