Li6 Mo12 P18 O72                        
   1.00000000000000     
     8.7679191693469551   -0.0000026778203409   -0.0000007276165084
    -4.3839619028981351    7.5932399869483760    0.0000007759203437
    -0.0000017850290934    0.0000011648751332   21.3490550100054932
   Li   Mo   P    O 
     5    12    18    72
Direct
  0.6666669706464508  0.3333330982920617  0.3333228548348455
  0.9999999321291431  0.0000000155153859  0.0000023227941277
  0.0000000072931961  0.0000000385578356  0.5000024747549340
  0.6666671068792657  0.3333329536725849  0.8333280326905631
  0.3333329487815718  0.6666671002994018  0.6666811488811516
  0.9999999052131877  0.9999999796659444  0.1407116203481906
  0.0000000759651694  0.0000000898124853  0.8592887351756926
 -0.0000000136788078 -0.0000001390635679  0.3592889951055053
  0.0000000320103439  0.0000000973740254  0.6407115841495151
  0.6666667871967127  0.3333333920336744  0.4740334877356711
  0.6666667411131625  0.3333332587286771  0.1926337199994979
  0.6666667078566694  0.3333333074352089  0.6926337056544472
  0.6666666808464340  0.3333333866843399  0.9740347863168938
  0.3333333124657336  0.6666666958793201  0.8073673700590551
  0.3333332699064702  0.6666667394231041  0.5259650785975690
  0.3333331247473101  0.6666665829806957  0.0259651536043203
  0.3333332364683523  0.6666667504241208  0.3073671673908926
  0.2909477977165238  0.0000015505526387  0.2500006440561197
  0.7090492814899634  0.0000016353222508  0.7499994334970289
  0.9999984533543109  0.2909463007144485  0.2500006453096402
 -0.0000015481023539  0.7090476730935222  0.7499994505938754
  0.7090535048389398  0.7090520095764192  0.2500006482263286
  0.2909525761306532  0.2909509439849766  0.7499994445186535
  0.9576038808896826  0.3333614174061961  0.5833426461001798
  0.3757619701665981  0.3333636350516412  0.0833380834557489
  0.6666385569581373  0.6242425978105736  0.5833426589555041
  0.6666364762462256  0.0423983218437227  0.0833380246338745
  0.3757573650755032  0.0423959450930658  0.5833426816794300
  0.9576017249701884  0.6242380942387762  0.0833381218897697
  0.6242435273522349  0.6666382675428575  0.9166588804413535
  0.0423987575922546  0.6666430963066896  0.4166617090199754
  0.3333616988368819  0.9576052525357730  0.9166588813162656
  0.3333558293267896  0.3757544308811748  0.4166617566778319
  0.0423944427275020  0.3757564459083376  0.9166588408910663
  0.6242456662262679  0.9576014837107351  0.4166617348090699
  0.1902638958588680  0.9955147023719692  0.1904328895823966
  0.8097367521358331  0.0044861131151373  0.8095657637821199
  0.0044852197302046  0.1947492302666212  0.1904328618421448
  0.9955140006053012  0.8052506943328985  0.8095657595806796
  0.8052506129028303  0.8097360149089423  0.1904328802046807
  0.1947494959503546  0.1902633952821704  0.8095657545260337
  0.9955147593703580  0.1902628126466499  0.3095675713426890
  0.0044845501229008  0.8097355239431600  0.6904327704599519
  0.1947480272484698  0.0044852188651150  0.3095675853850151
  0.8052510284148169  0.9955155555536279  0.6904327732380724
  0.8097371314849381  0.8052518656756491  0.3095675706408036
  0.1902645980877521  0.1947491484932941  0.6904327686360677
  0.8569127606924341  0.3288583997496705  0.5237674607020310
  0.4764800867363864  0.3378169489137016  0.1428927953481604
  0.6711415706402398  0.5280545058782808  0.5237675040112280
  0.6621843626000143  0.1386628312709772  0.1428929627823883
  0.4719455419661091  0.1430871087412116  0.5237674706449664
  0.8613368249556546  0.5235199498293022  0.1428928506323838
  0.6621821143950181  0.5235259327845464  0.6428896159342439
  0.6711408318558860  0.1430852521571934  0.0237689776421865
  0.8613436017632684  0.3378178142742295  0.6428896591045780
  0.4719442743616868  0.3288591227286041  0.0237690343945822
  0.4764741294807883  0.1386562667891864  0.6428896693147506
  0.8569148609696063  0.5280557143024286  0.0237690124957102
  0.5235207208492583  0.6621841359631178  0.8571068197198525
  0.1430861213299199  0.6711441190282053  0.4762322452148047
  0.3378157832786131  0.8613364089750174  0.8571068124644234
  0.3288558614778669  0.4719416987849475  0.4762321367234718
  0.1386634984781238  0.4764793645907341  0.8571067942175308
  0.5280582566652923  0.8569141744006630  0.4762321783930231
  0.3288597605120598  0.8569123514549007  0.9762312767161396
  0.3378147674411678  0.4764760618209886  0.3571077310887885
  0.5280524786490950  0.6711401709320747  0.9762312239640828
  0.1386616757936684  0.6621852371683120  0.3571076480006674
  0.1430870528151321  0.4719476396215524  0.9762313071453149
  0.5235239122674492  0.8613386690645437  0.3571076701201523
  0.1892673227935404  0.1679123629367255  0.0803837558721952
  0.8107326131095630  0.8320842123950882  0.9196144397432926
  0.8320876340787872  0.0213548046629777  0.0803836211589630
  0.1679157569490909  0.9786484017576507  0.9196144164938211
  0.9786451314422746  0.8107327769351785  0.0803837871819867
  0.0213515767126487  0.1892674059588117  0.9196144453470261
  0.1679154243660526  0.1892707436183498  0.4196165467169570
  0.8320823923711537  0.8107280937709773  0.5803838899980384
  0.0213550591826035  0.8320850862450011  0.4196163182493424
  0.9786456430800422  0.1679174652286153  0.5803839113631177
  0.8107293656728127  0.9786447362976055  0.4196165094206761
  0.1892718574633036  0.0213542402692316  0.5803839262034352
  0.8559589967563944  0.5010772208485736  0.4136854914708821
  0.4774349640522630  0.1655044437788838  0.2529618132168642
  0.4989222461070010  0.3548817326028786  0.4136854984573441
  0.8344955424054269  0.3119304721628297  0.2529618039850673
  0.6451183565506732  0.1440408841559374  0.4136854631167498
  0.6880693954200492  0.5225650243372360  0.2529617947025952
  0.8345041494473714  0.5225690684797816  0.7529604745830614
  0.4989229874390884  0.1440359960438671  0.9136844005509531
  0.6880650351777845  0.1654959674749364  0.7529604724990434
  0.6451129581777710  0.5010771844903864  0.9136844565717592
  0.4774309355073058  0.3119351565193988  0.7529604588888967
  0.8559637508838878  0.3548868640951815  0.9136843054960379
  0.5225662250037580  0.8344973455005905  0.7470387653442357
  0.1440344717008348  0.4989203775847798  0.5863147516853021
  0.1655027210223206  0.6880689952622194  0.7470387739069128
  0.5010798754880263  0.6451141009740720  0.5863147091701676
  0.3119312055219129  0.4774338129437660  0.7470387894424914
  0.3548858370296787  0.8559655142373594  0.5863147639739114
  0.5010778177461344  0.8559638757447651  0.0863144392146092
  0.1655011967758400  0.4774357913744361  0.2470386236224714
  0.3548860213006615  0.4989219356653303  0.0863144037439358
  0.3119345120154827  0.8344987704778404  0.2470386370043433
  0.1440361084555342  0.6451140616042048  0.0863145103619791
  0.5225642399770132  0.6880653544420239  0.2470386546801847
 
  0.00000000E+00  0.00000000E+00  0.00000000E+00
  0.00000000E+00  0.00000000E+00  0.00000000E+00
  0.00000000E+00  0.00000000E+00  0.00000000E+00
  0.00000000E+00  0.00000000E+00  0.00000000E+00
  0.00000000E+00  0.00000000E+00  0.00000000E+00
  0.00000000E+00  0.00000000E+00  0.00000000E+00
  0.00000000E+00  0.00000000E+00  0.00000000E+00
  0.00000000E+00  0.00000000E+00  0.00000000E+00
  0.00000000E+00  0.00000000E+00  0.00000000E+00
  0.00000000E+00  0.00000000E+00  0.00000000E+00
  0.00000000E+00  0.00000000E+00  0.00000000E+00
  0.00000000E+00  0.00000000E+00  0.00000000E+00
  0.00000000E+00  0.00000000E+00  0.00000000E+00
  0.00000000E+00  0.00000000E+00  0.00000000E+00
  0.00000000E+00  0.00000000E+00  0.00000000E+00
  0.00000000E+00  0.00000000E+00  0.00000000E+00
  0.00000000E+00  0.00000000E+00  0.00000000E+00
  0.00000000E+00  0.00000000E+00  0.00000000E+00
  0.00000000E+00  0.00000000E+00  0.00000000E+00
  0.00000000E+00  0.00000000E+00  0.00000000E+00
  0.00000000E+00  0.00000000E+00  0.00000000E+00
  0.00000000E+00  0.00000000E+00  0.00000000E+00
  0.00000000E+00  0.00000000E+00  0.00000000E+00
  0.00000000E+00  0.00000000E+00  0.00000000E+00
  0.00000000E+00  0.00000000E+00  0.00000000E+00
  0.00000000E+00  0.00000000E+00  0.00000000E+00
  0.00000000E+00  0.00000000E+00  0.00000000E+00
  0.00000000E+00  0.00000000E+00  0.00000000E+00
  0.00000000E+00  0.00000000E+00  0.00000000E+00
  0.00000000E+00  0.00000000E+00  0.00000000E+00
  0.00000000E+00  0.00000000E+00  0.00000000E+00
  0.00000000E+00  0.00000000E+00  0.00000000E+00
  0.00000000E+00  0.00000000E+00  0.00000000E+00
  0.00000000E+00  0.00000000E+00  0.00000000E+00
  0.00000000E+00  0.00000000E+00  0.00000000E+00
  0.00000000E+00  0.00000000E+00  0.00000000E+00
  0.00000000E+00  0.00000000E+00  0.00000000E+00
  0.00000000E+00  0.00000000E+00  0.00000000E+00
  0.00000000E+00  0.00000000E+00  0.00000000E+00
  0.00000000E+00  0.00000000E+00  0.00000000E+00
  0.00000000E+00  0.00000000E+00  0.00000000E+00
  0.00000000E+00  0.00000000E+00  0.00000000E+00
  0.00000000E+00  0.00000000E+00  0.00000000E+00
  0.00000000E+00  0.00000000E+00  0.00000000E+00
  0.00000000E+00  0.00000000E+00  0.00000000E+00
  0.00000000E+00  0.00000000E+00  0.00000000E+00
  0.00000000E+00  0.00000000E+00  0.00000000E+00
  0.00000000E+00  0.00000000E+00  0.00000000E+00
  0.00000000E+00  0.00000000E+00  0.00000000E+00
  0.00000000E+00  0.00000000E+00  0.00000000E+00
  0.00000000E+00  0.00000000E+00  0.00000000E+00
  0.00000000E+00  0.00000000E+00  0.00000000E+00
  0.00000000E+00  0.00000000E+00  0.00000000E+00
  0.00000000E+00  0.00000000E+00  0.00000000E+00
  0.00000000E+00  0.00000000E+00  0.00000000E+00
  0.00000000E+00  0.00000000E+00  0.00000000E+00
  0.00000000E+00  0.00000000E+00  0.00000000E+00
  0.00000000E+00  0.00000000E+00  0.00000000E+00
  0.00000000E+00  0.00000000E+00  0.00000000E+00
  0.00000000E+00  0.00000000E+00  0.00000000E+00
  0.00000000E+00  0.00000000E+00  0.00000000E+00
  0.00000000E+00  0.00000000E+00  0.00000000E+00
  0.00000000E+00  0.00000000E+00  0.00000000E+00
  0.00000000E+00  0.00000000E+00  0.00000000E+00
  0.00000000E+00  0.00000000E+00  0.00000000E+00
  0.00000000E+00  0.00000000E+00  0.00000000E+00
  0.00000000E+00  0.00000000E+00  0.00000000E+00
  0.00000000E+00  0.00000000E+00  0.00000000E+00
  0.00000000E+00  0.00000000E+00  0.00000000E+00
  0.00000000E+00  0.00000000E+00  0.00000000E+00
  0.00000000E+00  0.00000000E+00  0.00000000E+00
  0.00000000E+00  0.00000000E+00  0.00000000E+00
  0.00000000E+00  0.00000000E+00  0.00000000E+00
  0.00000000E+00  0.00000000E+00  0.00000000E+00
  0.00000000E+00  0.00000000E+00  0.00000000E+00
  0.00000000E+00  0.00000000E+00  0.00000000E+00
  0.00000000E+00  0.00000000E+00  0.00000000E+00
  0.00000000E+00  0.00000000E+00  0.00000000E+00
  0.00000000E+00  0.00000000E+00  0.00000000E+00
  0.00000000E+00  0.00000000E+00  0.00000000E+00
  0.00000000E+00  0.00000000E+00  0.00000000E+00
  0.00000000E+00  0.00000000E+00  0.00000000E+00
  0.00000000E+00  0.00000000E+00  0.00000000E+00
  0.00000000E+00  0.00000000E+00  0.00000000E+00
  0.00000000E+00  0.00000000E+00  0.00000000E+00
  0.00000000E+00  0.00000000E+00  0.00000000E+00
  0.00000000E+00  0.00000000E+00  0.00000000E+00
  0.00000000E+00  0.00000000E+00  0.00000000E+00
  0.00000000E+00  0.00000000E+00  0.00000000E+00
  0.00000000E+00  0.00000000E+00  0.00000000E+00
  0.00000000E+00  0.00000000E+00  0.00000000E+00
  0.00000000E+00  0.00000000E+00  0.00000000E+00
  0.00000000E+00  0.00000000E+00  0.00000000E+00
  0.00000000E+00  0.00000000E+00  0.00000000E+00
  0.00000000E+00  0.00000000E+00  0.00000000E+00
  0.00000000E+00  0.00000000E+00  0.00000000E+00
  0.00000000E+00  0.00000000E+00  0.00000000E+00
  0.00000000E+00  0.00000000E+00  0.00000000E+00
  0.00000000E+00  0.00000000E+00  0.00000000E+00
  0.00000000E+00  0.00000000E+00  0.00000000E+00
  0.00000000E+00  0.00000000E+00  0.00000000E+00
  0.00000000E+00  0.00000000E+00  0.00000000E+00
  0.00000000E+00  0.00000000E+00  0.00000000E+00
  0.00000000E+00  0.00000000E+00  0.00000000E+00
  0.00000000E+00  0.00000000E+00  0.00000000E+00
  0.00000000E+00  0.00000000E+00  0.00000000E+00
  0.00000000E+00  0.00000000E+00  0.00000000E+00
  0.00000000E+00  0.00000000E+00  0.00000000E+00
