Na2 Ca2 V4 P2 S4 O24                    
   1.00000000000000     
     8.9686520000000005    0.3140730000000000    0.2160120000000000
     4.2266420000000000    7.9406540000000003    0.2742620000000000
     4.1764409999999996    2.6589060000000000    7.4691559999999999
   Ca   Na   V    P    S    O 
     2     2     4     2     4    24
Direct
  0.7312011304417799  0.4138859635137382  0.1635806853052217
  0.0148151951886896  0.9825577918975792  0.0140129508589686
  0.4294950409494023  0.1337717591057037  0.7456295882733114
  0.5856345482852496  0.8753355538220122  0.2525199872970482
  0.3418933074239544  0.3521822275678296  0.3682826282491953
  0.6373039729657199  0.6564679908109465  0.6376082204660241
  0.1482688201901287  0.1496393910711323  0.1548056058135775
  0.8505389933073423  0.8516044897360532  0.8533242856637543
  0.7488702295844897  0.0334831120356128  0.4457581460622774
  0.4502900044295308  0.7573095030110327  0.0364529550645403
  0.0343647303976927  0.4566892828013004  0.7525655558927649
  0.9459149633758197  0.5491941227304933  0.2583015506685997
  0.2381188692934778  0.9677724759441552  0.5667632295182210
  0.5545681208580606  0.2490843547594093  0.9616970294754623
  0.2148384627812525  0.4238871650145513  0.6107310184841410
  0.7654582334062352  0.5640770772437698  0.4039116211213818
  0.5864511935087156  0.2214967200063176  0.4290400366791605
  0.3984876360605104  0.7989257273312077  0.5559166065074388
  0.4253883866648764  0.5805775421544583  0.1982751046319289
  0.5640974765685851  0.4107713691247816  0.7973855743373348
  0.9076735147979791  0.0876650370526367  0.2634006710376808
  0.0883546662189355  0.9248739121692664  0.7441181115430365
  0.0405369111923219  0.2792036939112055  0.9224925331010704
  0.9292743885198808  0.7312740547094689  0.1020743773362382
  0.2754570047563986  0.9263024207913197  0.0655956788733742
  0.7325420882032172  0.0897612784283041  0.9399891918124200
  0.5254956164506436  0.2751994558017611  0.1268290655081353
  0.4862716896082276  0.7575274106108431  0.8512280514541327
  0.0920229979042171  0.5069927062923225  0.3163295258454500
  0.8856044171762647  0.4900933328762300  0.7012339164862659
  0.2814761107213831  0.1069867156266941  0.5680746520911654
  0.7152200698847244  0.8886733925010936  0.4342737398712848
  0.4095914980420835  0.1881625533157499 -0.0041395599783124
  0.6191989670108368  0.7669635748450537  0.0392534351643622
  0.1777051285738216  0.0396975698135090  0.4102815062528501
  0.7792724294365593  0.9788914226756268  0.6217125588507451
  0.9823951865300131  0.4091590726296445  0.1897637706531991
 -0.0003690551872195  0.5989267341177769  0.8127761116421689
 
             NaN             NaN             NaN
             NaN             NaN             NaN
             NaN             NaN             NaN
             NaN             NaN             NaN
             NaN             NaN             NaN
             NaN             NaN             NaN
             NaN             NaN             NaN
             NaN             NaN             NaN
             NaN             NaN             NaN
             NaN             NaN             NaN
             NaN             NaN             NaN
             NaN             NaN             NaN
             NaN             NaN             NaN
             NaN             NaN             NaN
             NaN             NaN             NaN
             NaN             NaN             NaN
             NaN             NaN             NaN
             NaN             NaN             NaN
             NaN             NaN             NaN
             NaN             NaN             NaN
             NaN             NaN             NaN
             NaN             NaN             NaN
             NaN             NaN             NaN
             NaN             NaN             NaN
             NaN             NaN             NaN
             NaN             NaN             NaN
             NaN             NaN             NaN
             NaN             NaN             NaN
             NaN             NaN             NaN
             NaN             NaN             NaN
             NaN             NaN             NaN
             NaN             NaN             NaN
             NaN             NaN             NaN
             NaN             NaN             NaN
             NaN             NaN             NaN
             NaN             NaN             NaN
             NaN             NaN             NaN
             NaN             NaN             NaN
