Na2 Ca2 V4 P2 S4 O24
1.0
8.968652 0.314073 0.216012
4.226642 7.940654 0.274262
4.176441 2.658906 7.469156
Ca Na V P S O
2 2 4 2 4 24
direct
0.702473 0.421378 0.190324 Ca
0.020082 0.979833 0.008828 Ca
0.441059 0.143694 0.741599 Na
0.587210 0.872068 0.248645 Na
0.346879 0.352784 0.361673 V
0.639647 0.653539 0.634553 V
0.146798 0.149729 0.150024 V
0.854569 0.849344 0.849329 V
0.750367 0.033177 0.442658 P
0.452876 0.754545 0.035982 P
0.038270 0.455988 0.746997 S
0.947878 0.545409 0.253110 S
0.241465 0.964762 0.559330 S
0.559385 0.250282 0.956772 S
0.220300 0.417577 0.607493 O
0.767702 0.566674 0.399337 O
0.589581 0.222407 0.425369 O
0.399376 0.792291 0.554250 O
0.418931 0.589113 0.211708 O
0.574233 0.400512 0.781130 O
0.911048 0.080711 0.259925 O
0.089997 0.928092 0.737086 O
0.040546 0.280369 0.917601 O
0.935599 0.726861 0.095909 O
0.283353 0.932047 0.048289 O
0.732961 0.085439 0.946155 O
0.532567 0.298141 0.106790 O
0.489861 0.731439 0.862516 O
0.096534 0.497217 0.310589 O
0.890795 0.492347 0.692358 O
0.290307 0.103560 0.553402 O
0.710769 0.889365 0.436255 O
0.410256 0.189091 1.004032 O
0.622189 0.768760 0.031396 O
0.181672 0.030803 0.404175 O
0.780493 0.980350 0.618641 O
0.975928 0.406631 0.188380 O
0.008963 0.599511 0.801975 O
