Mg8 Rh16 O32
1.0
        8.5557975769         0.0000000000         0.0000000000
        0.0000000000         8.5557975769         0.0000000000
        0.0000000000         0.0000000000         8.5557975769
   Mg   Rh    O
    7   16   32
Direct
     0.250000000         0.750000000         0.750000000
     0.250000000         0.250000000         0.250000000
     0.000000000         0.500000000         0.500000000
     0.000000000         0.000000000         0.000000000
     0.750000000         0.250000000         0.750000000
     0.750000000         0.750000000         0.250000000
     0.500000000         0.000000000         0.500000000
     0.875000000         0.875000000         0.625000000
     0.875000000         0.625000000         0.875000000
     0.625000000         0.875000000         0.875000000
     0.625000000         0.625000000         0.625000000
     0.875000000         0.375000000         0.125000000
     0.875000000         0.125000000         0.375000000
     0.625000000         0.375000000         0.375000000
     0.625000000         0.125000000         0.125000000
     0.375000000         0.875000000         0.125000000
     0.375000000         0.625000000         0.375000000
     0.125000000         0.875000000         0.375000000
     0.125000000         0.625000000         0.125000000
     0.375000000         0.375000000         0.625000000
     0.375000000         0.125000000         0.875000000
     0.125000000         0.375000000         0.875000000
     0.125000000         0.125000000         0.625000000
     0.114958167         0.385041833         0.114958167
     0.135041833         0.635041833         0.364958167
     0.864958167         0.364958167         0.364958167
     0.864958167         0.635041833         0.635041833
     0.385041833         0.385041833         0.385041833
     0.385041833         0.114958167         0.114958167
     0.135041833         0.364958167         0.635041833
     0.114958167         0.114958167         0.385041833
     0.114958167         0.885041833         0.614958167
     0.135041833         0.135041833         0.864958167
     0.864958167         0.864958167         0.864958167
     0.864958167         0.135041833         0.135041833
     0.385041833         0.885041833         0.885041833
     0.385041833         0.614958167         0.614958167
     0.135041833         0.864958167         0.135041833
     0.114958167         0.614958167         0.885041833
     0.614958167         0.385041833         0.614958167
     0.635041833         0.635041833         0.864958167
     0.364958167         0.364958167         0.864958167
     0.364958167         0.635041833         0.135041833
     0.885041833         0.385041833         0.885041833
     0.885041833         0.114958167         0.614958167
     0.635041833         0.364958167         0.135041833
     0.614958167         0.114958167         0.885041833
     0.614958167         0.885041833         0.114958167
     0.635041833         0.135041833         0.364958167
     0.364958167         0.864958167         0.364958167
     0.364958167         0.135041833         0.635041833
     0.885041833         0.885041833         0.385041833
     0.885041833         0.614958167         0.114958167
     0.635041833         0.864958167         0.635041833
     0.614958167         0.614958167         0.385041833
