Ca9 V12 F42                             
   1.00000000000000     
     7.5353219999999999    0.0369440000000000    0.0329460000000000
    -3.7418000000000000    6.4439900000000003   -0.0955040000000000
    -0.5296770000000000    0.4487750000000000   18.4823440000000012
   Ca   V    F 
     9    12    42
Direct
  0.3059377902693603  0.5144722015394835  0.3462049448750002
  0.4941592391596435  0.8421032034709683  0.6664973744153621
  0.6159465049769225  0.1351883252198469  0.9890407441267032
  0.9801555800834485  0.8078862627838139  0.6664334853838924
  0.8232062074768370  0.0085186525226936  0.3333039250798614
  0.1362507910096383  0.6160250405250672  0.0047114302905120
  0.9710867691463767  0.8089533603557023  0.1677015843339757
  0.8584163092427134  0.0018045364211816  0.8389605729159174
  0.2118379974327770  0.1658937192916425  0.5081932449621515
  0.3238134830700269  0.0190743427979954  0.3313114966814145
  1.0019363764995617  0.3204238946464113  0.6678204247604675
  0.6476246867419954  0.6438878648602000  0.0000257232498474
  0.3290378294550017  0.9871544881514375  0.8246904624180147
  0.9674499158807131  0.3052252419416962  0.1655821766765327
  0.6769767767478515  0.6790838047638175  0.4962169262427586
  0.4715392693083928  0.8105752953617984  0.1670913466215919
  0.1711493880096888  0.6696493378627332  0.5022599606328503
  0.3341251632494601  0.4984428210418431  0.8315536024038094
  0.8273629140901864  0.4885889947282433  0.8291502471906378
  0.6843432841962288  0.1723531073351826  0.4947098149594008
  0.4693656103597330  0.3113609174911464  0.1628517213242680
  0.7374715576179203  0.1680795571920314  0.6060611384960395
  0.8016168647701284  0.5072611504054594  0.9414029065787557
  0.4185212347797355  0.2941254407943917  0.2735242586619894
  0.2180067824711051  0.7526223241349371  0.3951016627330714
  0.5001965268920795  0.8094251058847900  0.0541592630001810
  0.2840958148509665  0.4815613842416774  0.7207147297376011
  0.7582370719740239  0.9335966787687191  0.9499233498441195
  0.0302900309813608  0.8866792369744267  0.2851145678061523
  0.1115081521834021  0.1479516443842818  0.6180852149723828
  0.9366567394765736  0.7530251017160821  0.0493702540750260
  0.8369980681759668  0.0140683372663334  0.7185568730473497
  0.1826697916466894  0.1682463802270864  0.3879955768952004
  0.5265494441872770  0.3466687883540385  0.0494925761514075
  0.6100954772054787  0.1245940959994346  0.3827775025091618
  0.8688048141575647  0.4746067773131697  0.7184163852714093
  0.3672775309433490  0.5382674800559778  0.9449146706486097
  0.1488966439193538  0.6167709053282229  0.6151281606811934
  0.4348639354831950  0.8246609256086088  0.2794847091568335
  0.7842941905904834  0.4308267858321293  0.1815302600034581
  0.5631819820112125  0.3638978481825439  0.5090274435716207
  0.6340876816370452  0.1776340525666149  0.8570779347521572
  0.4627343244102984  0.8135544103453958  0.8013886250551909
  0.3559222924479115  0.5409811766324286  0.4816711652645757
  0.1685655009824837  0.6105028344694651  0.1346351514092448
  0.0242311817762999  0.3290949391853008  0.2790243565033196
  0.6676003425933725  0.7093309286302706  0.6094128373776331
  0.3031265683039182  0.9140344521839072  0.9368426262109495
  0.3154491243986737  0.9853964148839401  0.7091201289127087
  0.6451752535710011  0.6799952515106483  0.3820800978202335
  0.9128826693447992  0.2954915068256836  0.0513154615448525
  0.1524847838456278  0.1845484958438937  0.1456771773993972
  0.8196154333162549  0.9942546125556745  0.4735502753159109
  0.0179182127652415  0.8028534466862872  0.8022062443222151
  0.2173031463915121  0.1814691860973165  0.8464541861641073
  0.9878523024240189  0.7941927902642395  0.5273251528359872
  0.7742202310484172  0.0009982936069810  0.2012013281539075
  0.0244655799828261  0.3790184723424554  0.8523871915126348
  0.5976645541253569  0.6270261590263744  0.1647984992259333
  0.3893490183195597  0.9625939245189360  0.5363648760264353
  0.3458348448805163 -0.0052731374158707  0.1596596339497154
  0.6406471744041564  0.6110451236454169  0.8178348263193458
  0.9684129728806488  0.3885374866228295  0.4616093715098245
 
             NaN             NaN             NaN
             NaN             NaN             NaN
             NaN             NaN             NaN
             NaN             NaN             NaN
             NaN             NaN             NaN
             NaN             NaN             NaN
             NaN             NaN             NaN
             NaN             NaN             NaN
             NaN             NaN             NaN
             NaN             NaN             NaN
             NaN             NaN             NaN
             NaN             NaN             NaN
             NaN             NaN             NaN
             NaN             NaN             NaN
             NaN             NaN             NaN
             NaN             NaN             NaN
             NaN             NaN             NaN
             NaN             NaN             NaN
             NaN             NaN             NaN
             NaN             NaN             NaN
             NaN             NaN             NaN
             NaN             NaN             NaN
             NaN             NaN             NaN
             NaN             NaN             NaN
             NaN             NaN             NaN
             NaN             NaN             NaN
             NaN             NaN             NaN
             NaN             NaN             NaN
             NaN             NaN             NaN
             NaN             NaN             NaN
             NaN             NaN             NaN
             NaN             NaN             NaN
             NaN             NaN             NaN
             NaN             NaN             NaN
             NaN             NaN             NaN
             NaN             NaN             NaN
             NaN             NaN             NaN
             NaN             NaN             NaN
             NaN             NaN             NaN
             NaN             NaN             NaN
             NaN             NaN             NaN
             NaN             NaN             NaN
             NaN             NaN             NaN
             NaN             NaN             NaN
             NaN             NaN             NaN
             NaN             NaN             NaN
             NaN             NaN             NaN
             NaN             NaN             NaN
             NaN             NaN             NaN
             NaN             NaN             NaN
             NaN             NaN             NaN
             NaN             NaN             NaN
             NaN             NaN             NaN
             NaN             NaN             NaN
             NaN             NaN             NaN
             NaN             NaN             NaN
             NaN             NaN             NaN
             NaN             NaN             NaN
             NaN             NaN             NaN
             NaN             NaN             NaN
             NaN             NaN             NaN
             NaN             NaN             NaN
             NaN             NaN             NaN
