Ca9 V12 F42
1.0
7.535322 0.036944 0.032946
-3.741800 6.443990 -0.095504
-0.529677 0.448775 18.482344
Ca V F
9 12 42
direct
1.274739 0.506299 0.340260 Ca
0.487515 0.825603 0.668285 Ca
0.623508 0.144931 0.989171 Ca
0.978349 0.801332 0.663896 Ca
0.832804 1.012731 0.334424 Ca
0.143246 0.623946 0.005041 Ca
0.983700 0.825327 0.166527 Ca
0.857589 1.001360 0.838192 Ca
0.205715 0.169264 0.506857 Ca
0.327210 1.007015 0.331759 V
0.993711 0.311665 0.667000 V
0.653525 0.651811 1.000263 V
0.328252 0.986248 0.824522 V
0.981403 0.319496 0.167176 V
0.679130 0.671171 0.495592 V
0.484477 0.823123 0.167218 V
0.172152 0.663021 0.499051 V
0.332594 0.496688 0.832034 V
0.827214 0.488507 0.828909 V
0.679343 0.161769 0.496311 V
0.483726 0.322871 0.164927 V
0.724351 0.152280 0.607702 F
0.803591 0.511136 0.941448 F
0.436622 0.291723 0.276226 F
0.211799 0.731256 0.390381 F
0.509098 0.816928 0.054312 F
0.275474 0.476062 0.721199 F
0.763419 0.941099 0.949918 F
0.034916 0.884191 0.284002 F
0.104972 0.140403 0.617626 F
0.943371 0.761770 0.049003 F
0.833077 0.006180 0.718337 F
0.185123 0.153397 0.387802 F
0.536506 0.358252 0.051527 F
0.614066 0.123966 0.383841 F
0.867423 0.471718 0.718084 F
0.372322 0.543722 0.945189 F
0.147223 0.608196 0.612766 F
0.456622 0.834615 0.279459 F
0.798491 0.444768 0.185058 F
0.561208 0.356247 0.509806 F
0.633674 0.178191 0.856524 F
0.461605 0.811566 0.802504 F
0.362024 0.539381 0.477988 F
0.179967 0.624651 0.135158 F
1.034965 0.332983 0.280577 F
0.662813 0.699053 0.608924 F
0.309172 0.922234 0.937671 F
0.310997 0.974843 0.708650 F
0.672642 0.680230 0.381317 F
0.919528 0.306186 0.053106 F
0.168442 0.200876 0.146859 F
0.814887 0.984205 0.473179 F
0.017181 0.801630 0.803002 F
0.215684 0.180348 0.845628 F
0.986897 0.785434 0.526589 F
0.789350 0.014173 0.199495 F
0.024648 0.380364 0.854529 F
0.609167 0.637709 0.168670 F
0.380845 0.958831 0.529909 F
0.358564 0.007294 0.160004 F
0.637622 0.607141 0.815479 F
0.971656 0.369830 0.469294 F
