Mg16 Ni32 S64
1.0
13.913288 0.000000 0.000000
-6.929958 12.091186 0.000000
-6.954115 -4.014204 11.400560
Mg Ni S
15 32 64
direct
   0.6241600000000000    0.4366600000000000    0.5608600000000000 Mg
0.124160 0.436655 0.060861 Mg
0.124160 0.436655 0.560861 Mg
0.124160 0.936655 0.060861 Mg
0.124160 0.936655 0.560861 Mg
0.624160 0.436655 0.060861 Mg
0.624160 0.936655 0.060861 Mg
0.624160 0.936655 0.560861 Mg
0.376924 0.062179 0.438897 Mg
0.376924 0.062178 0.938897 Mg
0.376924 0.562179 0.438897 Mg
0.376924 0.562179 0.938897 Mg
0.876924 0.062179 0.438897 Mg
0.876924 0.062178 0.938897 Mg
0.876924 0.562179 0.938897 Mg
0.499294 0.250429 0.249603 Ni
0.499294 0.250429 0.749603 Ni
0.499294 0.750429 0.249603 Ni
0.499294 0.750429 0.749603 Ni
0.999294 0.250429 0.249603 Ni
0.999294 0.250429 0.749603 Ni
0.999294 0.750429 0.249603 Ni
0.999294 0.750429 0.749603 Ni
0.249498 0.249826 0.250053 Ni
0.249498 0.249826 0.750053 Ni
0.249498 0.749826 0.250053 Ni
0.249498 0.749826 0.750053 Ni
0.749498 0.249826 0.250053 Ni
0.749498 0.249826 0.750053 Ni
0.749498 0.749826 0.250053 Ni
0.749498 0.749826 0.750053 Ni
0.000166 0.000454 0.250037 Ni
0.000166 0.000454 0.750037 Ni
0.000166 0.500454 0.250037 Ni
0.000166 0.500454 0.750037 Ni
0.500166 0.000454 0.250037 Ni
0.500166 0.000454 0.750037 Ni
0.500166 0.500454 0.250037 Ni
0.500166 0.500454 0.750037 Ni
0.250436 0.249973 0.000287 Ni
0.250436 0.249973 0.500286 Ni
0.250436 0.749973 0.000287 Ni
0.250436 0.749973 0.500286 Ni
0.750436 0.249973 0.000287 Ni
0.750436 0.249973 0.500286 Ni
0.750436 0.749973 0.000287 Ni
0.750436 0.749973 0.500286 Ni
0.266159 0.366347 0.132888 S
0.266159 0.366347 0.632888 S
0.266159 0.866347 0.132888 S
0.266159 0.866347 0.632888 S
0.766159 0.366347 0.132888 S
0.766159 0.366347 0.632888 S
0.766159 0.866347 0.132888 S
0.766159 0.866347 0.632888 S
0.016375 0.133620 0.366655 S
0.016375 0.133620 0.866655 S
0.016375 0.633620 0.366655 S
0.016375 0.633620 0.866655 S
0.516375 0.133620 0.366655 S
0.516375 0.133620 0.866655 S
0.516375 0.633620 0.366655 S
0.516375 0.633620 0.866655 S
0.016593 0.133921 0.150515 S
0.016593 0.133921 0.650515 S
0.016593 0.633921 0.150515 S
0.016593 0.633921 0.650515 S
0.516593 0.133921 0.150515 S
0.516593 0.133921 0.650515 S
0.516593 0.633921 0.150515 S
0.516593 0.633921 0.650515 S
0.233457 0.350556 0.367096 S
0.233457 0.350556 0.867096 S
0.233457 0.850556 0.367096 S
0.233457 0.850556 0.867096 S
0.733457 0.350556 0.367096 S
0.733457 0.350556 0.867096 S
0.733457 0.850556 0.367096 S
0.733457 0.850556 0.867096 S
0.482378 0.366789 0.349313 S
0.482378 0.366789 0.849313 S
0.482378 0.866789 0.349313 S
0.482378 0.866789 0.849313 S
0.982378 0.366789 0.349313 S
0.982378 0.366789 0.849313 S
0.982378 0.866789 0.349313 S
0.982378 0.866789 0.849313 S
0.265390 0.148726 0.132695 S
0.265390 0.148726 0.632695 S
0.265390 0.648726 0.132695 S
0.265390 0.648726 0.632695 S
0.765390 0.148726 0.132695 S
0.765390 0.148726 0.632695 S
0.765390 0.648726 0.132695 S
0.765390 0.648726 0.632695 S
0.234918 0.133165 0.367815 S
0.234918 0.133165 0.867815 S
0.234918 0.633165 0.367815 S
0.234918 0.633165 0.867815 S
0.734918 0.133165 0.367815 S
0.734918 0.133165 0.867815 S
0.734918 0.633165 0.367815 S
0.734918 0.633165 0.867815 S
0.484255 0.367363 0.133289 S
0.484255 0.367363 0.633289 S
0.484255 0.867363 0.133289 S
0.484255 0.867363 0.633289 S
0.984255 0.367363 0.133289 S
0.984255 0.367363 0.633289 S
0.984255 0.867363 0.133289 S
0.984255 0.867363 0.633289 S
