Ca9 V12 F42
1.0
7.536317 0.046294 0.036949
-3.734295 6.436362 -0.100630
-0.519209 0.438743 18.489098
Ca V F
9 12 42
direct
1.337058 0.509761 0.341414 Ca
0.487844 0.824267 0.668747 Ca
0.622781 0.144636 0.989007 Ca
0.977965 0.799933 0.664092 Ca
0.835441 1.017651 0.334356 Ca
0.142288 0.623809 0.004945 Ca
0.981416 0.821313 0.167562 Ca
0.857668 1.001621 0.838269 Ca
0.207995 0.166894 0.508033 Ca
0.328123 1.008842 0.332039 V
0.993158 0.310785 0.666969 V
0.653141 0.651695 1.000458 V
0.327940 0.985928 0.824472 V
0.980289 0.318520 0.166521 V
0.680375 0.671778 0.495145 V
0.483493 0.822802 0.167045 V
0.173505 0.662865 0.499093 V
0.332408 0.496456 0.832117 V
0.826838 0.488222 0.828929 V
0.681008 0.162125 0.496022 V
0.481519 0.321920 0.164794 V
0.723923 0.150589 0.607601 F
0.802908 0.511379 0.941373 F
0.429707 0.293208 0.276072 F
0.218156 0.732302 0.390622 F
0.508741 0.817878 0.054253 F
0.274460 0.475030 0.721330 F
0.762805 0.940409 0.949780 F
0.038096 0.891504 0.284619 F
0.105326 0.139235 0.618251 F
0.942327 0.761339 0.049459 F
0.832591 0.005503 0.718462 F
0.189882 0.161114 0.388346 F
0.535491 0.357361 0.051469 F
0.614467 0.122292 0.383753 F
0.866823 0.470922 0.718057 F
0.372487 0.543979 0.945169 F
0.148398 0.608303 0.612811 F
0.453416 0.830291 0.279475 F
0.796084 0.442757 0.183740 F
0.563493 0.357533 0.509684 F
0.633413 0.177785 0.856371 F
0.461456 0.811199 0.802389 F
0.363623 0.539061 0.476734 F
0.179494 0.623910 0.134727 F
1.042162 0.336275 0.279571 F
0.663090 0.697947 0.608753 F
0.308587 0.922041 0.937471 F
0.310736 0.973917 0.708592 F
0.667229 0.683447 0.380447 F
0.918710 0.305669 0.052513 F
0.166318 0.198636 0.146352 F
0.817129 0.984358 0.473382 F
0.016986 0.801336 0.803036 F
0.215189 0.180093 0.845668 F
0.986955 0.783993 0.526718 F
0.787206 0.014166 0.200129 F
0.024772 0.380809 0.854955 F
0.608147 0.637371 0.168275 F
0.379594 0.961988 0.528427 F
0.356583 0.006014 0.161152 F
0.636972 0.606417 0.814887 F
0.976137 0.367522 0.471064 F
