Li16 Ti32 O64
1.0
  11.7024964320051712   -0.0000000379127006   -0.0000000062447654
  -0.0000000342732834    9.5598274394732154    0.0504569423537564
  -0.0000000071324206    0.0495373447566092    9.5611738404139395
Li Ti O
1 32 64
direct
   0.6203203284478487    0.7499999931987382    0.5000000129283944 Li
   0.1257407004927691    0.2500000093918709    0.2500000152456224 Ti
   0.1257407004927691    0.2500000093918709    0.7500000152456224 Ti
   0.1257407004927691    0.7500000093918707    0.2500000152456224 Ti
   0.1257407004927691    0.7500000093918709    0.7500000152456223 Ti
   0.6257407004927691    0.2500000093918709    0.2500000152456224 Ti
   0.6257407004927691    0.2500000093918709    0.7500000152456224 Ti
   0.6257407004927690    0.7500000093918709    0.2500000152456224 Ti
   0.6257407004927691    0.7500000093918708    0.7500000152456223 Ti
   0.3752821561248484    0.2499999873442199    0.2499999751184809 Ti
   0.3752821561248484    0.2499999873442199    0.7499999751184809 Ti
   0.3752821561248484    0.7499999873442199    0.2499999751184809 Ti
   0.3752821561248484    0.7499999873442199    0.7499999751184809 Ti
   0.8752821561248483    0.2499999873442199    0.2499999751184809 Ti
   0.8752821561248484    0.2499999873442199    0.7499999751184810 Ti
   0.8752821561248483    0.7499999873442198    0.2499999751184809 Ti
   0.8752821561248483    0.7499999873442199    0.7499999751184809 Ti
   0.9962758546184031    0.9999999912021393    0.0000000099278102 Ti
   0.9962758546184031    0.9999999912021393    0.5000000099278102 Ti
   0.9962758546184031    0.4999999912021393    0.0000000099278102 Ti
   0.9962758546184031    0.4999999912021393    0.5000000099278102 Ti
   0.4962758546184031    0.9999999912021393    0.0000000099278102 Ti
   0.4962758546184031    0.9999999912021393    0.5000000099278104 Ti
   0.4962758546184031    0.4999999912021392    0.0000000099278103 Ti
   0.4962758546184031    0.4999999912021393    0.5000000099278104 Ti
   0.2521886189563970    0.0000000062097674    0.9999999885676463 Ti
   0.2521886189563970    0.0000000062097674    0.4999999885676463 Ti
   0.2521886189563970    0.5000000062097673    0.9999999885676463 Ti
   0.2521886189563971    0.5000000062097673    0.4999999885676463 Ti
   0.7521886189563971    0.0000000062097674    0.9999999885676463 Ti
   0.7521886189563970    0.0000000062097674    0.4999999885676463 Ti
   0.7521886189563970    0.5000000062097674    0.9999999885676463 Ti
   0.7521886189563970    0.5000000062097674    0.4999999885676463 Ti
   0.0020338672265548    0.3371728171064489    0.3605065291392297 O
   0.0020338672265548    0.3371728171064489    0.8605065291392298 O
   0.0020338672265548    0.8371728171064489    0.3605065291392297 O
   0.0020338672265548    0.8371728171064490    0.8605065291392299 O
   0.5020338672265550    0.3371728171064489    0.3605065291392297 O
   0.5020338672265549    0.3371728171064489    0.8605065291392298 O
   0.5020338672265549    0.8371728171064489    0.3605065291392297 O
   0.5020338672265549    0.8371728171064489    0.8605065291392296 O
   0.2475099857787857    0.3374746916186449    0.3601558054764644 O
   0.2475099857787856    0.3374746916186449    0.8601558054764644 O
   0.2475099857787857    0.8374746916186449    0.3601558054764644 O
   0.2475099857787857    0.8374746916186447    0.8601558054764643 O
   0.7475099857787857    0.3374746916186449    0.3601558054764644 O
   0.7475099857787856    0.3374746916186449    0.8601558054764644 O
   0.7475099857787856    0.8374746916186449    0.3601558054764644 O
   0.7475099857787856    0.8374746916186447    0.8601558054764645 O
   0.0020338684178611    0.1628271798565039    0.1394934790870578 O
   0.0020338684178612    0.1628271798565039    0.6394934790870578 O
   0.0020338684178612    0.6628271798565039    0.1394934790870578 O
   0.0020338684178612    0.6628271798565040    0.6394934790870578 O
   0.5020338684178611    0.1628271798565039    0.1394934790870578 O
   0.5020338684178611    0.1628271798565039    0.6394934790870579 O
   0.5020338684178610    0.6628271798565039    0.1394934790870578 O
   0.5020338684178611    0.6628271798565039    0.6394934790870579 O
   0.2475099843570825    0.1625253173285776    0.1398441824094384 O
   0.2475099843570825    0.1625253173285776    0.6398441824094384 O
   0.2475099843570825    0.6625253173285776    0.1398441824094384 O
   0.2475099843570825    0.6625253173285776    0.6398441824094384 O
   0.7475099843570825    0.1625253173285776    0.1398441824094384 O
   0.7475099843570824    0.1625253173285776    0.6398441824094385 O
   0.7475099843570824    0.6625253173285776    0.1398441824094384 O
   0.7475099843570824    0.6625253173285777    0.6398441824094385 O
   0.1245383552281229    0.0911493304842277    0.3952508395281391 O
   0.1245383552281229    0.0911493304842277    0.8952508395281390 O
   0.1245383552281229    0.5911493304842277    0.3952508395281391 O
   0.1245383552281229    0.5911493304842276    0.8952508395281391 O
   0.6245383552281230    0.0911493304842277    0.3952508395281391 O
   0.6245383552281227    0.0911493304842277    0.8952508395281392 O
   0.6245383552281230    0.5911493304842276    0.3952508395281391 O
   0.6245383552281228    0.5911493304842277    0.8952508395281391 O
   0.3745864636067107    0.0890319215499057    0.3921794077587231 O
   0.3745864636067107    0.0890319215499057    0.8921794077587232 O
   0.3745864636067107    0.5890319215499057    0.3921794077587231 O
   0.3745864636067108    0.5890319215499057    0.8921794077587232 O
   0.8745864636067107    0.0890319215499057    0.3921794077587231 O
   0.8745864636067108    0.0890319215499057    0.8921794077587231 O
   0.8745864636067106    0.5890319215499057    0.3921794077587231 O
   0.8745864636067107    0.5890319215499058    0.8921794077587232 O
   0.1245383594020427    0.4088506749937193    0.1047491608704146 O
   0.1245383594020427    0.4088506749937192    0.6047491608704146 O
   0.1245383594020427    0.9088506749937193    0.1047491608704146 O
   0.1245383594020427    0.9088506749937192    0.6047491608704146 O
   0.6245383594020427    0.4088506749937193    0.1047491608704146 O
   0.6245383594020426    0.4088506749937193    0.6047491608704146 O
   0.6245383594020427    0.9088506749937192    0.1047491608704146 O
   0.6245383594020427    0.9088506749937193    0.6047491608704146 O
   0.3745864573425736    0.4109680797152357    0.1078205939425787 O
   0.3745864573425736    0.4109680797152357    0.6078205939425787 O
   0.3745864573425736    0.9109680797152357    0.1078205939425787 O
   0.3745864573425736    0.9109680797152357    0.6078205939425787 O
   0.8745864573425735    0.4109680797152357    0.1078205939425787 O
   0.8745864573425736    0.4109680797152357    0.6078205939425788 O
   0.8745864573425737    0.9109680797152356    0.1078205939425787 O
   0.8745864573425736    0.9109680797152357    0.6078205939425787 O
