Ca4 V4 P6 O24                           
   1.00000000000000     
     2.5702710000000000    7.3301189999999998    4.3826270000000003
    -0.0040760000000000    0.0133150000000000    8.8874270000000006
     7.7422240000000002    0.0290070000000000    4.3650099999999998
   Ca   V    P    O 
     4     4     6    24
Direct
  0.2452621705824144  0.8686265150756907  0.5970093551021763
  0.9611358521794298  0.0025459339766824  0.0254968029458434
  0.4075441721079589  0.7366603234295149  0.1126214882632292
  0.1409819202142153  0.3892267441418651  0.7417741125663866
  0.6556663824728837  0.6218163474629650  0.6329192857317560
  0.1492597101257726  0.1426600758721026  0.1512891952438100
  0.8432186824789523  0.8535384807317813  0.8554505358662765
  0.3544855882674239  0.3451095757772983  0.3491269583867541
  0.2476120024385512  0.5481625031709038  0.9532738224642542
  0.0385885382717658  0.7472459510599586  0.4472682467236386
  0.9635080733258891  0.2459230056714844  0.5534280444781904
  0.4558320218667455  0.0298710396212573  0.7433102169096616
  0.5425312139154728  0.9454897482798174  0.2463547604819110
  0.7560651004455760  0.4476123066093873  0.0271282293934866
  0.5540226949847473  0.7784424595428768  0.4221442488536087
  0.2637135918591522  0.0626795824444105  0.9081553594141959
  0.4084371508278910  0.5699147207429541  0.7693275849092039
  0.9258812809581339  0.2740169632215676  0.0592957809208919
  0.7850609722277954  0.4039787311749807  0.5506706480135590
  0.0768768659024490  0.9045968864886456  0.2612180500038612
  0.9427462090735271  0.0779469022622311  0.7378787607138851
  0.5810685727819995  0.4246667079419474  0.1894842436512933
  0.7261796515870244  0.9229920109473013  0.0884503692167668
  0.2258743272812225  0.5837617849039686  0.4254680152399630
  0.0888094309910333  0.7374702477388807  0.9164814906557874
  0.4301711385099967  0.2091350189306266  0.5821614286304627
  0.1957338891718219  0.3904906911620287  0.9846048679291276
  0.8766346497251210  0.7104018850375672  0.4752119014503433
  0.0471063240566761  0.1617800305544384  0.4019537590931553
  0.4750452568253878  0.8571053660655035  0.7224292068429733
  0.3883630947605252  0.9489990423376052  0.2061677125140528
  0.7617642010323125  0.4646534150588068  0.8425552990454016
  0.2817883125765090  0.5300419812582569  0.1158479645668724
  0.0177531306978644  0.7793558399275522  0.6153952457870818
  0.1146874291060138  0.2950693393739782  0.5445664779056172
  0.6059864978331423  0.9926214534441882  0.8045904028884320
  0.4832175560872697  0.1210382867472434  0.2813229153197934
  0.7652720989461747  0.6254035108371309  0.0079974527611305
 
             NaN             NaN             NaN
             NaN             NaN             NaN
             NaN             NaN             NaN
             NaN             NaN             NaN
             NaN             NaN             NaN
             NaN             NaN             NaN
             NaN             NaN             NaN
             NaN             NaN             NaN
             NaN             NaN             NaN
             NaN             NaN             NaN
             NaN             NaN             NaN
             NaN             NaN             NaN
             NaN             NaN             NaN
             NaN             NaN             NaN
             NaN             NaN             NaN
             NaN             NaN             NaN
             NaN             NaN             NaN
             NaN             NaN             NaN
             NaN             NaN             NaN
             NaN             NaN             NaN
             NaN             NaN             NaN
             NaN             NaN             NaN
             NaN             NaN             NaN
             NaN             NaN             NaN
             NaN             NaN             NaN
             NaN             NaN             NaN
             NaN             NaN             NaN
             NaN             NaN             NaN
             NaN             NaN             NaN
             NaN             NaN             NaN
             NaN             NaN             NaN
             NaN             NaN             NaN
             NaN             NaN             NaN
             NaN             NaN             NaN
             NaN             NaN             NaN
             NaN             NaN             NaN
             NaN             NaN             NaN
             NaN             NaN             NaN
