Ca4 V4 P6 O24
1.0
2.570271 7.330119 4.382627
-0.004076 0.013315 8.887427
7.742224 0.029007 4.365010
Ca V P O
4 4 6 24
direct
0.281310 0.830431 0.584182 Ca
0.961230 0.005700 0.023344 Ca
0.406350 0.742839 0.114854 Ca
0.145384 0.399775 0.742387 Ca
0.646204 0.631678 0.631620 V
0.142315 0.150146 0.151649 V
0.842687 0.857133 0.856545 V
0.353776 0.349124 0.352177 V
0.245606 0.554455 0.953074 P
0.034763 0.753066 0.450569 P
0.961317 0.251961 0.554611 P
0.449977 0.033789 0.742728 P
0.537555 0.950355 0.247643 P
0.748353 0.455167 0.030698 P
0.556309 0.771723 0.412721 O
0.260173 0.064166 0.909287 O
0.400573 0.575767 0.763924 O
0.923671 0.282202 0.044259 O
0.781409 0.409805 0.556193 O
0.068950 0.912458 0.265403 O
0.938483 0.083403 0.737076 O
0.582971 0.426964 0.207074 O
0.717425 0.939933 0.084029 O
0.223490 0.591085 0.423379 O
0.084636 0.742601 0.924804 O
0.428779 0.220141 0.587971 O
0.190879 0.396491 0.988705 O
0.872675 0.713378 0.483400 O
0.040477 0.175748 0.398890 O
0.462824 0.874572 0.705233 O
0.382207 0.962070 0.203061 O
0.719476 0.486414 0.859520 O
0.292996 0.531219 0.109558 O
0.018232 0.780776 0.619179 O
0.111640 0.300525 0.548174 O
0.602845 0.978198 0.808814 O
0.477385 0.114655 0.302085 O
0.771428 0.625683 0.010744 O
