K8 Mn16 O32                             
   1.00000000000000     
     8.1325493739574437   -0.0000048745233089    0.0000000004160182
    -0.0000048679800411    8.1325421942417115    0.0000184004693756
     0.0000000393388427    0.0000183667771130    8.1324780002296091
K   Mn   O 
1    16    32
Direct
  0.5000000000000000  0.5000000000000000  1.0000000000000000
  0.3749988584781079  0.8749983574850916  0.1250030909725523
  0.1250016862732230  0.8749976457988629  0.3749995663901181
  0.1250013444817103  0.6250011915612919  0.1250028483707361
  0.3749972899188327  0.6250025589778448  0.3749988698033982
  0.3749978182432681  0.3749992277488040  0.6250020230620913
  0.1250007690680962  0.3749978411166459  0.8749986416631392
  0.1250010560648919  0.1250004268036411  0.6250013232773522
  0.3749989909412155  0.1250022154020358  0.8749990187963063
  0.8749992500628606  0.8749984892718241  0.6250010857404086
  0.6250028282467427  0.8749992266261178  0.8749980422572452
  0.6250015996265458  0.6250030192709322  0.6250014182690914
  0.8749980087686312  0.6250012991231496  0.8749981231627967
  0.8749974222681004  0.3749969363963315  0.1250009902486683
  0.6250019499260856  0.3749979356625844  0.3749963449074727
  0.6250030682116630  0.1250024405076705  0.1250012837559461
  0.8749985862735936  0.1250005688879290  0.3749971332360718
  0.3604321066573797  0.8604309555008608  0.3604336184232754
  0.1104363770235036  0.3895591419004407  0.1104395017362787
  0.8604306242621480  0.1395692102020748  0.1395674978236721
  0.6395679482811018  0.1395653199159899  0.3604299454350108
  0.3895592735385564  0.3895631419706274  0.3895609041446526
  0.1395668746579117  0.8604340440487668  0.1395686345631433
  0.1104389972023538  0.1104378671754045  0.3895601106254364
  0.3895642137731067  0.1104392677033760  0.1104391483992441
  0.3604329194871951  0.3604334061800247  0.8604328701557511
  0.1104374532118766  0.8895602350921564  0.6104383639905698
  0.8604334303618579  0.6395692636783276  0.6395679531525118
  0.6395666676220950  0.6395670726128750  0.8604333453497937
  0.3895611086124248  0.8895613160310191  0.8895620589964065
  0.1395667077918618  0.3604323835295538  0.6395679037874181
  0.1104395829539455  0.6104398999548687  0.8895601965152768
  0.3895592274169147  0.6104405928225197  0.6104377609030890
  0.8604338205210494  0.8604322032304168  0.8604295971982300
  0.6104397632437527  0.3895600154807985  0.6104396469698383
  0.3604333647826621  0.1395673201983743  0.6395681393023325
  0.1395671115034765  0.1395660342532885  0.8604326320153235
  0.8895600618473776  0.3895606049809097  0.8895627968625089
  0.6395698204599248  0.8604342788450831  0.6395674017112750
  0.6104397566425867  0.1104402834511306  0.8895629120683464
  0.8895603302057130  0.1104370043754429  0.6104373736720089
  0.8604340059264258  0.3604311942589118  0.3604295097730756
  0.6104394793301069  0.8895638049665964  0.1104389100553108
  0.3604344618715581  0.6395667747675650  0.1395697797182911
  0.1395678995820843  0.6395671255551493  0.3604351650784017
  0.8895619398175689  0.8895608549886558  0.3895627127330548
  0.6395693042188123  0.3604305727703768  0.1395649627121233
  0.6104371688387215  0.6104410256592618  0.3895590991742781
  0.8895588261180488  0.6104362412087060  0.1104390485758745
 
  0.00000000E+00  0.00000000E+00  0.00000000E+00
  0.00000000E+00  0.00000000E+00  0.00000000E+00
  0.00000000E+00  0.00000000E+00  0.00000000E+00
  0.00000000E+00  0.00000000E+00  0.00000000E+00
  0.00000000E+00  0.00000000E+00  0.00000000E+00
  0.00000000E+00  0.00000000E+00  0.00000000E+00
  0.00000000E+00  0.00000000E+00  0.00000000E+00
  0.00000000E+00  0.00000000E+00  0.00000000E+00
  0.00000000E+00  0.00000000E+00  0.00000000E+00
  0.00000000E+00  0.00000000E+00  0.00000000E+00
  0.00000000E+00  0.00000000E+00  0.00000000E+00
  0.00000000E+00  0.00000000E+00  0.00000000E+00
  0.00000000E+00  0.00000000E+00  0.00000000E+00
  0.00000000E+00  0.00000000E+00  0.00000000E+00
  0.00000000E+00  0.00000000E+00  0.00000000E+00
  0.00000000E+00  0.00000000E+00  0.00000000E+00
  0.00000000E+00  0.00000000E+00  0.00000000E+00
  0.00000000E+00  0.00000000E+00  0.00000000E+00
  0.00000000E+00  0.00000000E+00  0.00000000E+00
  0.00000000E+00  0.00000000E+00  0.00000000E+00
  0.00000000E+00  0.00000000E+00  0.00000000E+00
  0.00000000E+00  0.00000000E+00  0.00000000E+00
  0.00000000E+00  0.00000000E+00  0.00000000E+00
  0.00000000E+00  0.00000000E+00  0.00000000E+00
  0.00000000E+00  0.00000000E+00  0.00000000E+00
  0.00000000E+00  0.00000000E+00  0.00000000E+00
  0.00000000E+00  0.00000000E+00  0.00000000E+00
  0.00000000E+00  0.00000000E+00  0.00000000E+00
  0.00000000E+00  0.00000000E+00  0.00000000E+00
  0.00000000E+00  0.00000000E+00  0.00000000E+00
  0.00000000E+00  0.00000000E+00  0.00000000E+00
  0.00000000E+00  0.00000000E+00  0.00000000E+00
  0.00000000E+00  0.00000000E+00  0.00000000E+00
  0.00000000E+00  0.00000000E+00  0.00000000E+00
  0.00000000E+00  0.00000000E+00  0.00000000E+00
  0.00000000E+00  0.00000000E+00  0.00000000E+00
  0.00000000E+00  0.00000000E+00  0.00000000E+00
  0.00000000E+00  0.00000000E+00  0.00000000E+00
  0.00000000E+00  0.00000000E+00  0.00000000E+00
  0.00000000E+00  0.00000000E+00  0.00000000E+00
  0.00000000E+00  0.00000000E+00  0.00000000E+00
  0.00000000E+00  0.00000000E+00  0.00000000E+00
  0.00000000E+00  0.00000000E+00  0.00000000E+00
  0.00000000E+00  0.00000000E+00  0.00000000E+00
  0.00000000E+00  0.00000000E+00  0.00000000E+00
  0.00000000E+00  0.00000000E+00  0.00000000E+00
  0.00000000E+00  0.00000000E+00  0.00000000E+00
  0.00000000E+00  0.00000000E+00  0.00000000E+00
