K8 Ni8 F24
1.0
   8.0161428451999992    0.0000000000000000    0.0000000000000000
   0.0000000000000000    8.0161428451999992    0.0000000000000000
   0.0000000000000000    0.0000000000000000    8.0161428451999992
K Ni F
7 8 24
direct
   0.5000000000000000    0.5000000000000000    0.5000000000000000 K
   0.0000000000000000    0.0000000000000000    0.0000000000000000 K
   0.0000000000000000    0.0000000000000000    0.5000000000000000 K
   0.0000000000000000    0.5000000000000000    0.0000000000000000 K
   0.5000000000000000    0.0000000000000000    0.0000000000000000 K
   0.5000000000000000    0.0000000000000000    0.5000000000000000 K
   0.5000000000000000    0.5000000000000000    0.0000000000000000 K
   0.2500000000000000    0.2500000000000000    0.2500000000000000 Ni
   0.2500000000000000    0.2500000000000000    0.7500000000000000 Ni
   0.2500000000000000    0.7500000000000000    0.2500000000000000 Ni
   0.2500000000000000    0.7500000000000000    0.7500000000000000 Ni
   0.7500000000000000    0.2500000000000000    0.2500000000000000 Ni
   0.7500000000000000    0.2500000000000000    0.7500000000000000 Ni
   0.7500000000000000    0.7500000000000000    0.2500000000000000 Ni
   0.7500000000000000    0.7500000000000000    0.7500000000000000 Ni
   0.0000000000000000    0.2500000000000000    0.2500000000000000 F
   0.0000000000000000    0.2500000000000000    0.7500000000000000 F
   0.0000000000000000    0.7500000000000000    0.2500000000000000 F
   0.0000000000000000    0.7500000000000000    0.7500000000000000 F
   0.5000000000000000    0.2500000000000000    0.2500000000000000 F
   0.5000000000000000    0.2500000000000000    0.7500000000000000 F
   0.5000000000000000    0.7500000000000000    0.2500000000000000 F
   0.5000000000000000    0.7500000000000000    0.7500000000000000 F
   0.2500000000000000    0.0000000000000000    0.2500000000000000 F
   0.2500000000000000    0.0000000000000000    0.7500000000000000 F
   0.2500000000000000    0.5000000000000000    0.2500000000000000 F
   0.2500000000000000    0.5000000000000000    0.7500000000000000 F
   0.7500000000000000    0.0000000000000000    0.2500000000000000 F
   0.7500000000000000    0.0000000000000000    0.7500000000000000 F
   0.7500000000000000    0.5000000000000000    0.2500000000000000 F
   0.7500000000000000    0.5000000000000000    0.7500000000000000 F
   0.2500000000000000    0.2500000000000000    0.0000000000000000 F
   0.2500000000000000    0.2500000000000000    0.5000000000000000 F
   0.2500000000000000    0.7500000000000000    0.0000000000000000 F
   0.2500000000000000    0.7500000000000000    0.5000000000000000 F
   0.7500000000000000    0.2500000000000000    0.0000000000000000 F
   0.7500000000000000    0.2500000000000000    0.5000000000000000 F
   0.7500000000000000    0.7500000000000000    0.0000000000000000 F
   0.7500000000000000    0.7500000000000000    0.5000000000000000 F
