Ca1 Ti12 F42                            
   1.00000000000000     
     7.5130239999999997   -0.0043100000000000    0.0260220000000000
    -3.7497880000000001    6.4994240000000003   -0.0098460000000000
    -0.0619360000000000   -0.0096800000000000   17.6854799999999983
   Ca   Ti   F 
     1    12    42
Direct
  0.6309865638427278  0.5118437055520529  0.3094972612091015
  0.2599360378555010 -0.0206939303113960  0.3328678059166613
  0.7392699980327183  0.7384549254334364  0.9952473859610127
 -0.0005433830458100  0.2685555112387752  0.6684215922705953
  0.3638696527046797  1.0045971674230525  0.8315357217765881
  0.6577468283151869  0.6731184950239671  0.5232547430616092
  0.9733282933755399  0.3212278729023738  0.1625106638691721
  0.6520183199917428  0.1678651367460680  0.5006530912638814
  0.4714847250995382  0.3159150697669278  0.1433733156760761
  0.8644875146054518  0.5040199250428544  0.8306065583290335
  0.3648098895697235  0.5047682846466859  0.8320221402318116
  0.1565209661783764  0.6634030250189922  0.5135159751616082
  0.4711806506003482  0.8248447481176271  0.1618995512383553
  0.5722488857437685  0.8029282531126806  0.0611902817514330
  0.2494855000062235  0.4133426255180281  0.7293880559030600
  0.1763424853217937  0.7680310033294560  0.4098864008032262
  0.3931396896853862  0.2093695256173237  0.2507032737752966
  0.8405173007487807  0.5919342071973344  0.9342255358393020
  0.7604885783624847  0.1977316232432101  0.6062811265329634
  0.8807338911992304  0.0608506081555195  0.7332035895684841
  0.2487096080193465  0.1895833224300076  0.3797902438895157
  0.9357680632460545  0.8173151780231236  0.0647541471250478
  0.1054839954343785  0.1728080056392113  0.6008999940471594
 -0.0051505915334046  0.8164825584866473  0.2895471415504527
  0.8354572582140410  0.9558189568796773  0.9352766049251712
  0.1324150568601448  0.5471403011228640  0.6118301552513825
  0.3899438799330385  0.8548804962092624  0.2690407134622781
  0.4760289982437539  0.5872985061127788  0.9335409719199944
  0.8926111825956091  0.4284004291672911  0.7290439915408458
  0.5587301830021354  0.1418791142243357  0.3919157244083458
  0.5790742351649670  0.4546690498765789  0.0518030271617668
  0.3711967722108229  0.5933543968192920  0.4893151881541004
  0.1914316937356280  0.6151131239890882  0.1407861700955756
  0.4382772330248328  0.7867153775470009  0.8084614044092271
  0.6567094426095844  0.2213416519341864  0.8537489287680147
  0.5757015353573437  0.3740338966054597  0.5264851187768892
  0.7534009437728318  0.4045178996472217  0.1915257240399642
  0.7103721721692977  0.6508730278090602  0.4162862793685005
  0.8752157127014898  0.2892145262157428  0.0668207892295239
  0.4001915364587336  0.0834184863614143  0.7331104051448813
  0.3251192760032250  0.9263724611979297  0.9301715766335931
  0.6108107315741670  0.7065752785848322  0.6193060459804360
  0.0630098328884114  0.3678562954027836  0.2610518620057574
  0.9462374054193866  0.7362011992858052  0.5393137459802941
  0.7545777203450270  0.0300804424725216  0.1885096850198992
  0.2870677932360353  0.2207179967303266  0.8546316438385105
  0.0704732915839474  0.7899249572986525  0.8098938175422835
  0.7340952986547624  0.9609384451011043  0.4905151936977886
  0.1864745038105022  0.2501785044302611  0.1312847412694547
  0.6375691673429162  0.5512320502045235  0.8020874731016430
  0.9316363516693550  0.3972206903280590  0.4740402084983323
  0.4275473226567606  0.0441597536986428  0.1230740768128774
  0.3799902314579544  0.9432845051317496  0.5341873201237939
  0.5229601284530433  0.5898435883540666  0.1996805411092741
  0.0903001644588472  0.4574532205262227  0.8607516492296310
 
             NaN             NaN             NaN
             NaN             NaN             NaN
             NaN             NaN             NaN
             NaN             NaN             NaN
             NaN             NaN             NaN
             NaN             NaN             NaN
             NaN             NaN             NaN
             NaN             NaN             NaN
             NaN             NaN             NaN
             NaN             NaN             NaN
             NaN             NaN             NaN
             NaN             NaN             NaN
             NaN             NaN             NaN
             NaN             NaN             NaN
             NaN             NaN             NaN
             NaN             NaN             NaN
             NaN             NaN             NaN
             NaN             NaN             NaN
             NaN             NaN             NaN
             NaN             NaN             NaN
             NaN             NaN             NaN
             NaN             NaN             NaN
             NaN             NaN             NaN
             NaN             NaN             NaN
             NaN             NaN             NaN
             NaN             NaN             NaN
             NaN             NaN             NaN
             NaN             NaN             NaN
             NaN             NaN             NaN
             NaN             NaN             NaN
             NaN             NaN             NaN
             NaN             NaN             NaN
             NaN             NaN             NaN
             NaN             NaN             NaN
             NaN             NaN             NaN
             NaN             NaN             NaN
             NaN             NaN             NaN
             NaN             NaN             NaN
             NaN             NaN             NaN
             NaN             NaN             NaN
             NaN             NaN             NaN
             NaN             NaN             NaN
             NaN             NaN             NaN
             NaN             NaN             NaN
             NaN             NaN             NaN
             NaN             NaN             NaN
             NaN             NaN             NaN
             NaN             NaN             NaN
             NaN             NaN             NaN
             NaN             NaN             NaN
             NaN             NaN             NaN
             NaN             NaN             NaN
             NaN             NaN             NaN
             NaN             NaN             NaN
             NaN             NaN             NaN
