Ca1 Ti12 F42
1.0
7.513024 -0.004310 0.026022
-3.749788 6.499424 -0.009846
-0.061936 -0.009680 17.685480
Ca Ti F
1 12 42
direct
0.613141 0.500103 0.333441 Ca
0.281823 0.000310 0.333292 Ti
0.731652 0.731137 0.997724 Ti
0.000130 0.267724 0.668608 Ti
0.357933 0.998137 0.833432 Ti
0.647518 0.658638 0.506757 Ti
0.989582 0.341915 0.159983 Ti
0.647843 0.155892 0.500619 Ti
0.492646 0.345360 0.159140 Ti
0.857818 0.497627 0.832238 Ti
0.358280 0.498731 0.834704 Ti
0.147060 0.655178 0.507673 Ti
0.492517 0.844513 0.165993 Ti
0.576339 0.817250 0.062952 F
0.247241 0.415037 0.730682 F
0.165669 0.751285 0.400286 F
0.416229 0.250138 0.266590 F
0.830418 0.581913 0.936056 F
0.758499 0.182211 0.603555 F
0.879775 0.055342 0.731181 F
0.204364 0.146044 0.394457 F
0.935626 0.819453 0.064525 F
0.116314 0.181422 0.601164 F
0.058855 0.855680 0.272044 F
0.821836 0.941814 0.934469 F
0.114891 0.538840 0.606084 F
0.422425 0.866822 0.274347 F
0.465117 0.574887 0.936796 F
0.889116 0.422329 0.729960 F
0.555948 0.133383 0.392181 F
0.576536 0.460944 0.060609 F
0.353356 0.576968 0.475298 F
0.208941 0.635927 0.145488 F
0.432721 0.781272 0.811599 F
0.649695 0.214893 0.855105 F
0.572575 0.364295 0.521218 F
0.777340 0.424212 0.191283 F
0.678683 0.615593 0.400646 F
0.901339 0.311779 0.065072 F
0.396715 0.075278 0.734758 F
0.319912 0.920840 0.932114 F
0.588932 0.688476 0.601632 F
0.063067 0.384470 0.266158 F
0.934991 0.729482 0.526081 F
0.778830 0.052706 0.186876 F
0.281000 0.213279 0.855287 F
0.065982 0.783174 0.811795 F
0.726296 0.947800 0.479617 F
0.206185 0.270964 0.140963 F
0.631519 0.546924 0.803507 F
0.922505 0.386698 0.464738 F
0.446034 0.071160 0.137164 F
0.374701 0.929478 0.529406 F
0.536910 0.614057 0.201969 F
0.082968 0.449362 0.863500 F
