Mn32 Al8 O64
1.0
  11.4847210038779242   -0.0000076227692086    0.0000739058389554
  -0.0000076379708982   11.4847749828866252    0.0000413522344214
   0.0000691706183550    0.0000450406849565    8.1147059300106719
Al Mn O
1 32 64
direct
   0.4999990551533672    0.5000010504298551    0.5000145116658814 Al
   0.2500000927825032    0.1203512020837492    0.6254858762575742 Mn
   0.2500000927825032    0.6203512020837493    0.6254858762575741 Mn
   0.7500000927825032    0.1203512020837492    0.6254858762575742 Mn
   0.7500000927825032    0.6203512020837493    0.6254858762575742 Mn
   0.1251246283724052    0.2500012982894507    0.3712746594675392 Mn
   0.1251246283724051    0.7500012982894508    0.3712746594675392 Mn
   0.6251246283724051    0.2500012982894507    0.3712746594675392 Mn
   0.6251246283724051    0.7500012982894507    0.3712746594675392 Mn
   0.3748777975528936    0.2500015035134857    0.3712780294354170 Mn
   0.3748777975528937    0.7500015035134857    0.3712780294354170 Mn
   0.8748777975528937    0.2500015035134857    0.3712780294354170 Mn
   0.8748777975528937    0.7500015035134857    0.3712780294354170 Mn
   0.2500002203116853    0.3796461121835619    0.6254922515693970 Mn
   0.2500002203116852    0.8796461121835620    0.6254922515693970 Mn
   0.7500002203116853    0.3796461121835619    0.6254922515693971 Mn
   0.7500002203116853    0.8796461121835619    0.6254922515693970 Mn
   0.4999990214645653    0.3751206431678601    0.1287297171566896 Mn
   0.4999990214645654    0.8751206431678601    0.1287297171566896 Mn
   0.9999990214645654    0.3751206431678601    0.1287297171566896 Mn
   0.9999990214645653    0.8751206431678601    0.1287297171566896 Mn
   0.3703518386723387    0.4999982253441196    0.8745075296026816 Mn
   0.3703518386723387    0.9999982253441198    0.8745075296026815 Mn
   0.8703518386723386    0.4999982253441196    0.8745075296026816 Mn
   0.8703518386723386    0.9999982253441195    0.8745075296026816 Mn
   0.1296500718129630    0.4999982154037080    0.8745065603727367 Mn
   0.1296500718129630    0.9999982154037079    0.8745065603727367 Mn
   0.6296500718129631    0.4999982154037080    0.8745065603727368 Mn
   0.6296500718129632    0.9999982154037080    0.8745065603727367 Mn
   0.4999988447192865    0.1248805231658407    0.1287291954224005 Mn
   0.4999988447192865    0.6248805231658406    0.1287291954224005 Mn
   0.9999988447192865    0.1248805231658407    0.1287291954224005 Mn
   0.9999988447192866    0.6248805231658406    0.1287291954224005 Mn
   0.2500008808549139    0.1406942577140650    0.3943813733082162 O
   0.2500008808549139    0.6406942577140651    0.3943813733082162 O
   0.7500008808549139    0.1406942577140650    0.3943813733082162 O
   0.7500008808549138    0.6406942577140651    0.3943813733082162 O
   0.1295577636994683    0.2499988875753266    0.6235267954571204 O
   0.1295577636994683    0.7499988875753265    0.6235267954571204 O
   0.6295577636994683    0.2499988875753266    0.6235267954571204 O
   0.6295577636994683    0.7499988875753266    0.6235267954571204 O
   0.3704442581370981    0.2499990381686444    0.6235302067261602 O
   0.3704442581370982    0.7499990381686443    0.6235302067261601 O
   0.8704442581370982    0.2499990381686443    0.6235302067261602 O
   0.8704442581370982    0.7499990381686444    0.6235302067261602 O
   0.0000016449419263    0.3617547496353627    0.3589296730513798 O
   0.0000016449419263    0.8617547496353628    0.3589296730513798 O
   0.5000016449419263    0.3617547496353627    0.3589296730513798 O
   0.5000016449419264    0.8617547496353628    0.3589296730513798 O
   0.0000013149431876    0.1382484406999865    0.3589294066329792 O
   0.0000013149431876    0.6382484406999865    0.3589294066329792 O
   0.5000013149431877    0.1382484406999865    0.3589294066329792 O
   0.5000013149431877    0.6382484406999865    0.3589294066329792 O
   0.1117531260550635    0.2500009525407392    0.1410698261534520 O
   0.1117531260550635    0.7500009525407394    0.1410698261534520 O
   0.6117531260550636    0.2500009525407392    0.1410698261534520 O
   0.6117531260550636    0.7500009525407392    0.1410698261534520 O
   0.2500009667172828    0.3593067712699411    0.3943794589388772 O
   0.2500009667172828    0.8593067712699410    0.3943794589388772 O
   0.7500009667172828    0.3593067712699410    0.3943794589388772 O
   0.7500009667172828    0.8593067712699410    0.3943794589388772 O
   0.3882454761860756    0.2500010267464434    0.1410741192554615 O
   0.3882454761860756    0.7500010267464434    0.1410741192554615 O
   0.8882454761860756    0.2500010267464434    0.1410741192554615 O
   0.8882454761860756    0.7500010267464435    0.1410741192554615 O
   0.4999987807960056    0.3795575278122891    0.8764697562486763 O
   0.4999987807960056    0.8795575278122892    0.8764697562486762 O
   0.9999987807960056    0.3795575278122891    0.8764697562486763 O
   0.9999987807960055    0.8795575278122891    0.8764697562486763 O
   0.3906932788781620    0.0000003315008474    0.1056154250333113 O
   0.3906932788781621    0.5000003315008473    0.1056154250333113 O
   0.8906932788781621    0.0000003315008474    0.1056154250333113 O
   0.8906932788781620    0.5000003315008473    0.1056154250333113 O
   0.1093055201347528    0.0000005537465491    0.1056164736648245 O
   0.1093055201347528    0.5000005537465492    0.1056164736648245 O
   0.6093055201347529    0.0000005537465492    0.1056164736648245 O
   0.6093055201347529    0.5000005537465492    0.1056164736648245 O
   0.2499995306189952    0.1105706008631011    0.8628630878581397 O
   0.2499995306189951    0.6105706008631011    0.8628630878581397 O
   0.7499995306189952    0.1105706008631011    0.8628630878581398 O
   0.7499995306189953    0.6105706008631012    0.8628630878581397 O
   0.2499995469581018    0.3894271764071216    0.8628669976877154 O
   0.2499995469581018    0.8894271764071217    0.8628669976877154 O
   0.7499995469581018    0.3894271764071216    0.8628669976877155 O
   0.7499995469581019    0.8894271764071215    0.8628669976877154 O
   0.3605723830945042    0.0000003689800993    0.6371364422993461 O
   0.3605723830945043    0.5000003689800993    0.6371364422993461 O
   0.8605723830945042    0.0000003689800993    0.6371364422993462 O
   0.8605723830945042    0.5000003689800993    0.6371364422993461 O
   0.4999988119179835    0.1204416606858715    0.8764698436717354 O
   0.4999988119179835    0.6204416606858716    0.8764698436717354 O
   0.9999988119179835    0.1204416606858715    0.8764698436717355 O
   0.9999988119179836    0.6204416606858716    0.8764698436717354 O
   0.1394265445800326    0.0000000537732521    0.6371358310809028 O
   0.1394265445800326    0.5000000537732521    0.6371358310809028 O
   0.6394265445800326    0.0000000537732521    0.6371358310809028 O
   0.6394265445800326    0.5000000537732521    0.6371358310809028 O
