Ca1 Mn12 F42                            
   1.00000000000000     
     7.3243530000000003   -0.0116360000000000   -0.0450200000000000
    -3.6700230000000000    6.4256469999999997   -0.0870410000000000
     0.1171340000000000   -0.3050380000000000   17.4408199999999987
   Ca   Mn   F 
     1    12    42
Direct
  0.7763297748564120  0.9330728567342333  0.8111045309298724
  0.3029497440590000  0.0087911186942155  0.3318301310646730
  0.6829108207019086  0.6642629092564416  0.0040378173381350
  0.0259441709049940  0.3442954817709537  0.6567607696602719
  0.3262776879370883  0.9669821536908720  0.8349857095603932
  0.6601740167088734  0.6812214392330889  0.4980120731520367
  0.9978596112946776  0.3413415713735807  0.1684802758654237
  0.6607153960774376  0.1814809961223161  0.4948479523882768
  0.4983901232092979  0.3421572387823712  0.1707409663804637
  0.8351445200026522  0.4672778997532598  0.8345586002294947
  0.3269190161876279  0.4627068190421479  0.8385354813756121
  0.1607585421500471  0.6841669447764840  0.4974057621712291
  0.4951980835556943  0.8421723078313681  0.1678600496212876
  0.5399305973472789  0.7839054850771634  0.0651317941443245
  0.2505499451077070  0.4702798459726574  0.7329956954818110
  0.2029820196606978  0.7713389458723455  0.3890783044888803
  0.4323515353440335  0.2517850984612627  0.2747492932325568
  0.7991827734447641  0.5305984560014160  0.9372617553523134
  0.7651478208340841  0.2189302007935475  0.5956519459256534
  0.9220908797450690  0.0974454339355978  0.7082512077866192
  0.1974811207242280  0.1181843528524132  0.3941349181807437
  0.9115481012494305  0.7994859738984185  0.0591846868095757
  0.1616915426614854  0.2693475149130765  0.5936793150039859
  0.0895867833414018  0.8918527722951114  0.2689043135459684
  0.7729276756963469  0.8745027789709778  0.9345497612674435
  0.1181985124894163  0.5953975920158573  0.6056642018194305
  0.4509623109325388  0.8967711141830610  0.2712797896096510
  0.4233854956292991  0.4927959047527254  0.9443939936145559
  0.8668696667812774  0.4205089605521861  0.7270199131076317
  0.5648464936544759  0.1400614757376491  0.3922177490378362
  0.5715672204916631  0.4310974944630700  0.0676306936191376
  0.3665010803054023  0.6037074151281711  0.4841620421370302
  0.2078694623015859  0.6345600396652422  0.1555075432216009
  0.4106322028696073  0.7591417896491857  0.8501669425713010
  0.6283757427157146  0.1636587068334072  0.8473867465547935
  0.5875271417937143  0.3921987921047199  0.5146550198033991
  0.7808102167297573  0.4154774614224930  0.1900659295205731
  0.6785497841990791  0.6404025351917160  0.3988048054569935
  0.9379671620236234  0.3164769360105535  0.0689155834070770
  0.3864937071818294 -0.0492897999677278  0.7363566545187915
  0.2845746852309478  0.9790784109812590  0.9342005666034320
  0.6423228896371598  0.7205526010717428  0.5984705206579534
  0.0591096577762857  0.3673269930475240  0.2675286516048068
  0.9559530946233582  0.7653019522863035  0.5123037893065862
  0.7837671778058685  0.0493507812227902  0.1799228895990321
  0.2503290316037728  0.1749420516814351  0.8189311427373906
  0.0288181286073582  0.7724085534176715  0.8176016516682449
  0.7339742329371014  0.9693955551031909  0.4795643862215930
  0.2165322137152385  0.2684827178950540  0.1487436202531515
  0.6190970804142036  0.5628139056905446  0.8046528210433812
  0.9285434431494923  0.3929267564240820  0.4666602400887399
  0.4368213718769415  0.0475712867735479  0.1377097967566037
  0.3936803567356955  0.9760510123029268  0.5258819835791345
  0.5551607043078413  0.6375077384431321  0.1985317840876421
  0.0346173863792395  0.3666483738241017  0.8631618118380023
 
             NaN             NaN             NaN
             NaN             NaN             NaN
             NaN             NaN             NaN
             NaN             NaN             NaN
             NaN             NaN             NaN
             NaN             NaN             NaN
             NaN             NaN             NaN
             NaN             NaN             NaN
             NaN             NaN             NaN
             NaN             NaN             NaN
             NaN             NaN             NaN
             NaN             NaN             NaN
             NaN             NaN             NaN
             NaN             NaN             NaN
             NaN             NaN             NaN
             NaN             NaN             NaN
             NaN             NaN             NaN
             NaN             NaN             NaN
             NaN             NaN             NaN
             NaN             NaN             NaN
             NaN             NaN             NaN
             NaN             NaN             NaN
             NaN             NaN             NaN
             NaN             NaN             NaN
             NaN             NaN             NaN
             NaN             NaN             NaN
             NaN             NaN             NaN
             NaN             NaN             NaN
             NaN             NaN             NaN
             NaN             NaN             NaN
             NaN             NaN             NaN
             NaN             NaN             NaN
             NaN             NaN             NaN
             NaN             NaN             NaN
             NaN             NaN             NaN
             NaN             NaN             NaN
             NaN             NaN             NaN
             NaN             NaN             NaN
             NaN             NaN             NaN
             NaN             NaN             NaN
             NaN             NaN             NaN
             NaN             NaN             NaN
             NaN             NaN             NaN
             NaN             NaN             NaN
             NaN             NaN             NaN
             NaN             NaN             NaN
             NaN             NaN             NaN
             NaN             NaN             NaN
             NaN             NaN             NaN
             NaN             NaN             NaN
             NaN             NaN             NaN
             NaN             NaN             NaN
             NaN             NaN             NaN
             NaN             NaN             NaN
             NaN             NaN             NaN
