Ca1 Mn12 F42
1.0
7.324353 -0.011636 -0.045020
-3.670023 6.425647 -0.087041
0.117134 -0.305038 17.440820
Ca Mn F
1 12 42
direct
0.771902 -0.037584 0.792595 Ca
0.290377 1.000273 0.332523 Mn
0.693115 0.675986 0.008909 Mn
0.017489 0.323783 0.659437 Mn
0.359579 -0.001801 0.834720 Mn
0.652412 0.661627 0.496077 Mn
0.988173 0.336399 0.169172 Mn
0.650434 0.162185 0.495250 Mn
0.488791 0.337354 0.169737 Mn
0.860116 0.497295 0.835361 Mn
0.361622 0.499311 0.834695 Mn
0.152217 0.661348 0.496352 Mn
0.486617 0.836840 0.169728 Mn
0.545242 0.791096 0.068105 F
0.261723 0.449019 0.730398 F
0.185891 0.761633 0.392632 F
0.427430 0.243699 0.273085 F
0.809831 0.551760 0.939660 F
0.752638 0.206071 0.597718 F
0.888922 0.086482 0.715903 F
0.192583 0.116751 0.395189 F
0.906511 0.779846 0.072388 F
0.129394 0.219839 0.596885 F
0.075402 0.885499 0.270051 F
0.806451 0.904450 0.949643 F
0.132531 0.575401 0.604750 F
0.431005 0.878979 0.272376 F
0.446775 0.549276 0.941389 F
0.897963 0.447227 0.727262 F
0.553613 0.120639 0.392625 F
0.550987 0.425375 0.064868 F
0.359905 0.584380 0.477945 F
0.202681 0.630188 0.152448 F
0.461768 0.798346 0.820468 F
0.660978 0.198980 0.846302 F
0.573907 0.371136 0.512761 F
0.771667 0.415702 0.187885 F
0.682537 0.626594 0.397588 F
0.924872 0.301056 0.069738 F
0.378878 0.032059 0.732954 F
0.340731 0.960377 0.934393 F
0.622147 0.697298 0.596673 F
0.052718 0.372490 0.268126 F
0.944070 0.737997 0.516325 F
0.771643 0.043606 0.185936 F
0.261405 0.199835 0.845162 F
0.059131 0.796722 0.822540 F
0.726598 0.951322 0.480376 F
0.205509 0.257882 0.150303 F
0.647427 0.573283 0.805155 F
0.923348 0.376313 0.467196 F
0.431445 0.050339 0.139602 F
0.382521 0.947151 0.529874 F
0.542609 0.621864 0.198958 F
0.073419 0.425176 0.863778 F
