Na2 Ca2 V4 P2 S4 O24                    
   1.00000000000000     
     8.9716009999999997    0.3652970000000000    0.1727640000000000
     4.2775689999999997    7.8956980000000003    0.1826250000000000
     4.1607269999999996    2.5932149999999998    7.4332739999999999
   Ca   Na   V    P    S    O 
     2     2     4     2     4    24
Direct
  0.5895541054153571  0.4336768070090944  0.4737804341079712
  0.0131486089019865  0.9860015642371718  0.0135239336701642
  0.4143417650680610  0.0790552015838924  0.7568516028924860
  0.5904495309669525  0.8906526351842516  0.2523588832712785
  0.3523290764602157  0.3607042375973933  0.3572676743147536
  0.6531186532814474  0.6469690283209264  0.6515543578069343
  0.1459247155093534  0.1470006201485971  0.1486526606369698
  0.8528519787277637  0.8504937082022895  0.8512608880933353
  0.7604775555218009  0.0333259302361053  0.4453591100147276
  0.4640461680678694  0.7430838843987193  0.0583785188325970
  0.0519206808332038  0.4460009033158220  0.7514899258546119
  0.9577511001537166  0.5510585650245320  0.2488485432695099
  0.2454188687419864  0.9627987783853287  0.5598046634123178
  0.5453745065776145  0.2535868061088858  0.9493823195362565
  0.2342541092094251  0.4306797993269254  0.6010588662463693
  0.7747848693129789  0.5822236838043194  0.4009448981069172
  0.5815174960934169  0.2092800738401521  0.4400114379517424
  0.4103076359477362  0.7885082570024246  0.5620647120095381
  0.4542686692290205  0.5752267083421924  0.2364548556775159
  0.5804798212960954  0.3996252276827961  0.7677625015200241
  0.9131195601643336  0.0759898894791511  0.2612468967003910
  0.0919616839899212  0.9300491899924697  0.7345008997325075
  0.0823115978848302  0.2594289104514080  0.9010275047055306
  0.9360228793953821  0.7281641653934543  0.0914207868094765
  0.2731432692948715  0.9064786066797884  0.0778537699604718
  0.7223828463953087  0.0882883384310229  0.9518143290521890
  0.4922285636448939  0.3108713588187373  0.1018144644295643
  0.5008837673522590  0.7133096133836927  0.8860789102936650
  0.1046331379345860  0.5205798901965346  0.2996011175534001
  0.9107402838771613  0.4725077863559395  0.6928042394581717
  0.2869883570379553  0.1084317543839526  0.5510797754026686
  0.7251205850849165  0.8748800051979458  0.4625001196144621
  0.4035740945671923  0.2017068021793609  0.9660226809839819
  0.6094045928505041  0.8042971017910427  0.0342525131472061
  0.1990885349375904  0.0173670040273892  0.3988970900112830
  0.7942519480131900  1.0108223953244595  0.6099640412632007
  0.9787999447693539  0.3992453712800064  0.2091531171616944
  0.0034157006108577  0.5884742793171199  0.8199565508854125
 
             NaN             NaN             NaN
             NaN             NaN             NaN
             NaN             NaN             NaN
             NaN             NaN             NaN
             NaN             NaN             NaN
             NaN             NaN             NaN
             NaN             NaN             NaN
             NaN             NaN             NaN
             NaN             NaN             NaN
             NaN             NaN             NaN
             NaN             NaN             NaN
             NaN             NaN             NaN
             NaN             NaN             NaN
             NaN             NaN             NaN
             NaN             NaN             NaN
             NaN             NaN             NaN
             NaN             NaN             NaN
             NaN             NaN             NaN
             NaN             NaN             NaN
             NaN             NaN             NaN
             NaN             NaN             NaN
             NaN             NaN             NaN
             NaN             NaN             NaN
             NaN             NaN             NaN
             NaN             NaN             NaN
             NaN             NaN             NaN
             NaN             NaN             NaN
             NaN             NaN             NaN
             NaN             NaN             NaN
             NaN             NaN             NaN
             NaN             NaN             NaN
             NaN             NaN             NaN
             NaN             NaN             NaN
             NaN             NaN             NaN
             NaN             NaN             NaN
             NaN             NaN             NaN
             NaN             NaN             NaN
             NaN             NaN             NaN
