Na2 Ca2 V4 P2 S4 O24
1.0
8.971601 0.365297 0.172764
4.277569 7.895698 0.182625
4.160727 2.593215 7.433274
Ca Na V P S O
2 2 4 2 4 24
direct
0.594256 0.432767 0.508289 Ca
0.004585 0.986846 0.022661 Ca
0.419455 0.085153 0.750741 Na
0.591393 0.890176 0.253082 Na
0.352822 0.358454 0.356982 V
0.651408 0.654440 0.639982 V
0.145575 0.149975 0.143387 V
0.846603 0.845186 0.859795 V
0.753768 0.040475 0.444761 P
0.459274 0.748089 0.051040 P
0.045533 0.448865 0.750340 S
0.955256 0.549063 0.248888 S
0.241020 0.964574 0.559733 S
0.541089 0.257724 0.944711 S
0.227251 0.432285 0.599754 O
0.773041 0.566123 0.402353 O
0.583130 0.223263 0.443355 O
0.402901 0.787176 0.556556 O
0.431828 0.584238 0.225731 O
0.571601 0.409490 0.768697 O
0.913984 0.076822 0.265936 O
0.088491 0.933020 0.736025 O
0.073241 0.263958 0.899828 O
0.926712 0.733384 0.099819 O
0.272430 0.916477 0.062652 O
0.721772 0.095743 0.938194 O
0.488340 0.303313 0.104404 O
0.509751 0.722248 0.872560 O
0.097180 0.518225 0.307104 O
0.904382 0.477829 0.690096 O
0.292574 0.102868 0.550205 O
0.710713 0.893344 0.446341 O
0.402314 0.204567 0.957499 O
0.602646 0.799383 0.046224 O
0.184529 0.027809 0.402642 O
0.791213 0.986693 0.618747 O
0.993513 0.405867 0.187637 O
0.001352 0.591169 0.815645 O
