Mg8 Ti16 O32                            
   1.00000000000000     
     5.9484523449316136    0.0000000158067379   -0.0000000161985156
     0.0000000096187891    9.0043216028058435   -0.0295309724663941
    -0.0000000097964954   -0.0352576406820011   10.7811634396248177
   Mg   Ti   O 
     1    16    32
Direct
  0.6250000922179524  0.2574736095242827  0.6238716955947652
  0.1249999923025982  0.4506365079067436  0.8779054427696522
  0.6250000058547016  0.4545840532994276  0.8857930430775411
  0.3725777407530160  0.5498478502306341  0.1177281514227531
  0.8774221832120901  0.5498478822542694  0.1177281915058757
  0.1249999894697282  0.9624364314337512  0.6224709809754359
  0.6249999953535266  0.9287275610018355  0.6222328257857370
  0.3771014353543833  0.0483734442233867  0.3824278955991502
  0.8728985781539933  0.0483734700379230  0.3824278580935001
  0.1250000017656063  0.4020546945409791  0.4031140119240462
  0.6249999836693405  0.4207137851176128  0.3861957303522843
  0.3739758485371141  0.5889434129823528  0.5982000281822764
  0.8760241466864471  0.5889434031214407  0.5982000671924439
  0.1249999932462273  0.9096113784308812  0.1003454971296662
  0.6249999753370972  0.9070059527908683  0.1008600305675458
  0.3751166490347657  0.0928256213944252  0.9042233362699932
  0.8748833560248883  0.0928256106313867  0.9042233451570212
  0.1250000005567031  0.1976111566266141  0.3613080400947482
  0.6250000069615211  0.2004581364113420  0.3654676164477095
  0.3690105401883557  0.8000975954703335  0.6427579534878376
  0.8809894743767472  0.8000975980514724  0.6427579490393001
  0.1249999929856216  0.7008921653196154  0.1395195789872616
  0.6250000047355115  0.7002496390533324  0.1404997091544828
  0.3777750001428757  0.2987311692048564  0.8525150746069698
  0.8722249830500530  0.2987311691050962  0.8525150559937913
  0.1249999991956514  0.1166321668207360  0.0158678323104411
  0.6249999963141235  0.1152502483604962  0.0150815181509358
  0.3751602714520885  0.8880201371743794  0.9882340009041073
  0.8748397205948422  0.8880201407018546  0.9882340008623132
  0.1249999982195362  0.6070500151869567  0.4862047025989327
  0.6250000031279512  0.6143671782623485  0.4831868832513209
  0.3856814354710139  0.3818259208111741  0.5198529632870219
  0.8643185883246645  0.3818259270931676  0.5198529661877060
  0.1249999979421759  0.0293027038638485  0.7889176076330244
  0.6250000004188507  0.0345897124401446  0.7829014729954480
  0.3757573770426816  0.9717173949373716  0.2178753496111838
  0.8742426274509540  0.9717174029311053  0.2178753422827526
  0.1250000011820234  0.5283819530447289  0.7141222543398271
  0.6250000062461467  0.5058352661303047  0.7080255438004812
  0.3667876578348341  0.4709590420293637  0.2841566019138781
  0.8832123498214486  0.4709590365655316  0.2841566010012997
  0.1249999887031947  0.4253153973561439  0.0684431769195797
  0.6249999934279273  0.4247737005737093  0.0718239220260983
  0.3751617375102825  0.5763578067364747  0.9256803649781418
  0.8748382509845598  0.5763578046878095  0.9256803667153832
  0.1249999995869473  0.9293548609839917  0.4353344451730479
  0.6250000133099149  0.9227633518317404  0.4329086390867332
  0.3867040794924677  0.0854287656866290  0.5783026680074528
  0.8632959363748611  0.0854287676251104  0.5783026665510747
 
  0.00000000E+00  0.00000000E+00  0.00000000E+00
  0.00000000E+00  0.00000000E+00  0.00000000E+00
  0.00000000E+00  0.00000000E+00  0.00000000E+00
  0.00000000E+00  0.00000000E+00  0.00000000E+00
  0.00000000E+00  0.00000000E+00  0.00000000E+00
  0.00000000E+00  0.00000000E+00  0.00000000E+00
  0.00000000E+00  0.00000000E+00  0.00000000E+00
  0.00000000E+00  0.00000000E+00  0.00000000E+00
  0.00000000E+00  0.00000000E+00  0.00000000E+00
  0.00000000E+00  0.00000000E+00  0.00000000E+00
  0.00000000E+00  0.00000000E+00  0.00000000E+00
  0.00000000E+00  0.00000000E+00  0.00000000E+00
  0.00000000E+00  0.00000000E+00  0.00000000E+00
  0.00000000E+00  0.00000000E+00  0.00000000E+00
  0.00000000E+00  0.00000000E+00  0.00000000E+00
  0.00000000E+00  0.00000000E+00  0.00000000E+00
  0.00000000E+00  0.00000000E+00  0.00000000E+00
  0.00000000E+00  0.00000000E+00  0.00000000E+00
  0.00000000E+00  0.00000000E+00  0.00000000E+00
  0.00000000E+00  0.00000000E+00  0.00000000E+00
  0.00000000E+00  0.00000000E+00  0.00000000E+00
  0.00000000E+00  0.00000000E+00  0.00000000E+00
  0.00000000E+00  0.00000000E+00  0.00000000E+00
  0.00000000E+00  0.00000000E+00  0.00000000E+00
  0.00000000E+00  0.00000000E+00  0.00000000E+00
  0.00000000E+00  0.00000000E+00  0.00000000E+00
  0.00000000E+00  0.00000000E+00  0.00000000E+00
  0.00000000E+00  0.00000000E+00  0.00000000E+00
  0.00000000E+00  0.00000000E+00  0.00000000E+00
  0.00000000E+00  0.00000000E+00  0.00000000E+00
  0.00000000E+00  0.00000000E+00  0.00000000E+00
  0.00000000E+00  0.00000000E+00  0.00000000E+00
  0.00000000E+00  0.00000000E+00  0.00000000E+00
  0.00000000E+00  0.00000000E+00  0.00000000E+00
  0.00000000E+00  0.00000000E+00  0.00000000E+00
  0.00000000E+00  0.00000000E+00  0.00000000E+00
  0.00000000E+00  0.00000000E+00  0.00000000E+00
  0.00000000E+00  0.00000000E+00  0.00000000E+00
  0.00000000E+00  0.00000000E+00  0.00000000E+00
  0.00000000E+00  0.00000000E+00  0.00000000E+00
  0.00000000E+00  0.00000000E+00  0.00000000E+00
  0.00000000E+00  0.00000000E+00  0.00000000E+00
  0.00000000E+00  0.00000000E+00  0.00000000E+00
  0.00000000E+00  0.00000000E+00  0.00000000E+00
  0.00000000E+00  0.00000000E+00  0.00000000E+00
  0.00000000E+00  0.00000000E+00  0.00000000E+00
  0.00000000E+00  0.00000000E+00  0.00000000E+00
  0.00000000E+00  0.00000000E+00  0.00000000E+00
  0.00000000E+00  0.00000000E+00  0.00000000E+00
