K32 Ni16 P16 C16 O112
1.0
  10.8567161559999992    0.0000000000000000    0.0000000000000000
   0.0000000000000000   14.0937204359999999    0.0000000000000000
  -0.0972062300000000    0.0000000000000000   19.1787335333999991
K Ni P C O
31 16 16 16 112
direct
   0.1229405030000000    0.4868580105000000    0.3730475010000000 K
   0.3770594895000000    0.2368579955000000    0.1269524990000000 K
   0.3770594895000000    0.2368579955000000    0.6269524990000001 K
   0.3770594895000000    0.7368579955000001    0.1269524990000000 K
   0.3770594895000000    0.7368579955000001    0.6269524990000001 K
   0.8770594894999999    0.2368579955000000    0.1269524990000000 K
   0.8770594895000001    0.2368579955000000    0.6269524990000001 K
   0.8770594894999999    0.7368579955000001    0.1269524990000000 K
   0.8770594895000001    0.7368579955000001    0.6269524990000001 K
   0.3770594895000000    0.0131420000000000    0.1269524990000000 K
   0.3770594895000000    0.0131420000000000    0.6269524990000001 K
   0.3770594895000000    0.5131420000000000    0.1269524990000000 K
   0.3770594895000000    0.5131420000000000    0.6269524990000001 K
   0.8770594894999999    0.0131420000000000    0.1269524990000000 K
   0.8770594895000001    0.0131420000000000    0.6269524990000001 K
   0.8770594894999999    0.5131420000000000    0.1269524990000000 K
   0.8770594895000001    0.5131420000000000    0.6269524990000001 K
   0.1229405030000000    0.2631419895000000    0.8730475009999999 K
   0.1229405030000000    0.7631419895000000    0.3730475010000000 K
   0.1229405030000000    0.7631419895000000    0.8730475009999999 K
   0.6229405030000000    0.2631419895000000    0.3730475010000000 K
   0.6229405030000000    0.2631419895000000    0.8730475009999999 K
   0.6229405030000000    0.7631419895000000    0.3730475010000000 K
   0.6229405030000000    0.7631419895000000    0.8730475009999999 K
   0.1229405030000000    0.4868580105000000    0.8730475009999999 K
   0.1229405030000000    0.9868580104999999    0.3730475010000000 K
   0.1229405030000000    0.9868580104999999    0.8730475009999999 K
   0.6229405030000000    0.4868580105000000    0.3730475010000000 K
   0.6229405030000000    0.4868580105000000    0.8730475009999999 K
   0.6229405030000000    0.9868580104999999    0.3730475010000000 K
   0.6229405030000000    0.9868580104999999    0.8730475009999999 K
   0.1132370010000000    0.3750000000000000    0.1795365065000000 Ni
   0.1132370010000000    0.3750000000000000    0.6795365065000001 Ni
   0.1132370010000000    0.8750000000000000    0.1795365065000000 Ni
   0.1132370010000000    0.8750000000000000    0.6795365065000001 Ni
   0.6132370010000000    0.3750000000000000    0.1795365065000000 Ni
   0.6132370010000000    0.3750000000000000    0.6795365065000001 Ni
   0.6132370010000000    0.8750000000000000    0.1795365065000000 Ni
   0.6132370010000000    0.8750000000000000    0.6795365065000001 Ni
   0.3867630065000000    0.1250000000000000    0.3204635085000000 Ni
   0.3867630065000000    0.1250000000000000    0.8204635085000000 Ni
   0.3867630065000000    0.6250000000000000    0.3204635085000000 Ni
   0.3867630065000000    0.6250000000000000    0.8204635085000000 Ni
   0.8867630065000000    0.1250000000000000    0.3204635085000000 Ni
   0.8867630065000000    0.1250000000000000    0.8204635085000000 Ni
   0.8867630065000000    0.6250000000000000    0.3204635085000000 Ni
   0.8867630065000000    0.6250000000000000    0.8204635085000000 Ni
   0.1404230000000000    0.1250000000000000    0.2144895045000000 P
   0.1404230000000000    0.1250000000000000    0.7144895045000000 P
   0.1404230000000000    0.6250000000000000    0.2144895045000000 P
   0.1404230000000000    0.6250000000000000    0.7144895045000000 P
   0.6404230000000000    0.1250000000000000    0.2144895045000000 P
   0.6404230000000001    0.1250000000000000    0.7144895045000000 P
   0.6404230000000000    0.6250000000000000    0.2144895045000000 P
   0.6404230000000001    0.6250000000000000    0.7144895045000000 P
   0.3595770000000000    0.3750000000000000    0.2855105100000000 P
   0.3595770000000000    0.3750000000000000    0.7855105099999999 P
   0.3595770000000000    0.8750000000000000    0.2855105100000000 P
   0.3595770000000000    0.8750000000000000    0.7855105099999999 P
   0.8595770000000000    0.3750000000000000    0.2855105100000000 P
   0.8595769999999999    0.3750000000000000    0.7855105099999999 P
   0.8595770000000000    0.8750000000000000    0.2855105100000000 P
   0.8595769999999999    0.8750000000000000    0.7855105099999999 P
   0.1360085010000000    0.3750000000000000    0.0509850010000000 C
   0.1360085010000000    0.3750000000000000    0.5509850010000000 C
   0.1360085010000000    0.8750000000000000    0.0509850010000000 C
   0.1360085010000000    0.8750000000000000    0.5509850010000000 C
   0.6360085010000001    0.3750000000000000    0.0509850010000000 C
   0.6360085010000001    0.3750000000000000    0.5509850010000000 C
   0.6360085010000001    0.8750000000000000    0.0509850010000000 C
   0.6360085010000001    0.8750000000000000    0.5509850010000000 C
   0.3639914990000000    0.1250000000000000    0.4490149915000001 C
   0.3639914990000000    0.1250000000000000    0.9490149915000000 C
   0.3639914990000000    0.6250000000000000    0.4490149915000001 C
   0.3639914990000000    0.6250000000000000    0.9490149915000000 C
   0.8639914989999999    0.1250000000000000    0.4490149915000001 C
   0.8639914989999999    0.1250000000000000    0.9490149915000000 C
   0.8639914989999999    0.6250000000000000    0.4490149915000001 C
   0.8639914989999999    0.6250000000000000    0.9490149915000000 C
   0.3529450000000000    0.1250000000000000    0.0139234995000000 O
   0.3529450000000000    0.1250000000000000    0.5139234994999999 O
   0.3529450000000000    0.6250000000000000    0.0139234995000000 O
   0.3529450000000000    0.6250000000000000    0.5139234994999999 O
   0.8529450000000000    0.1250000000000000    0.0139234995000000 O
   0.8529450000000001    0.1250000000000000    0.5139234994999999 O
   0.8529450000000000    0.6250000000000000    0.0139234995000000 O
   0.8529450000000001    0.6250000000000000    0.5139234994999999 O
   0.0302130005000000    0.3750000000000000    0.0824085025000000 O
   0.0302130005000000    0.3750000000000000    0.5824085025000000 O
   0.0302130005000000    0.8750000000000000    0.0824085025000000 O
   0.0302130005000000    0.8750000000000000    0.5824085025000000 O
   0.5302130005000000    0.3750000000000000    0.0824085025000000 O
   0.5302130005000000    0.3750000000000000    0.5824085025000000 O
   0.5302130005000000    0.8750000000000000    0.0824085025000000 O
   0.5302130005000000    0.8750000000000000    0.5824085025000000 O
   0.2295619995000000    0.3750000000000000    0.0939000025000000 O
   0.2295619995000000    0.3750000000000000    0.5939000025000000 O
   0.2295619995000000    0.8750000000000000    0.0939000025000000 O
   0.2295619995000000    0.8750000000000000    0.5939000025000000 O
   0.7295619995000000    0.3750000000000000    0.0939000025000000 O
   0.7295619995000000    0.3750000000000000    0.5939000025000000 O
   0.7295619995000000    0.8750000000000000    0.0939000025000000 O
   0.7295619995000000    0.8750000000000000    0.5939000025000000 O
   0.1184794975000000    0.0350550005000000    0.1696570070000000 O
   0.1184794975000000    0.0350550005000000    0.6696570070000000 O
   0.1184794975000000    0.5350550005000000    0.1696570070000000 O
   0.1184794975000000    0.5350550005000000    0.6696570070000000 O
   0.6184794975000000    0.0350550005000000    0.1696570070000000 O
   0.6184794975000000    0.0350550005000000    0.6696570070000000 O
   0.6184794975000000    0.5350550005000000    0.1696570070000000 O
   0.6184794975000000    0.5350550005000000    0.6696570070000000 O
   0.1184794975000000    0.2149450035000000    0.1696570070000000 O
   0.1184794975000000    0.2149450035000000    0.6696570070000000 O
   0.1184794975000000    0.7149450035000000    0.1696570070000000 O
   0.1184794975000000    0.7149450035000000    0.6696570070000000 O
   0.6184794975000000    0.2149450035000000    0.1696570070000000 O
   0.6184794975000000    0.2149450035000000    0.6696570070000000 O
   0.6184794975000000    0.7149450035000000    0.1696570070000000 O
   0.6184794975000000    0.7149450035000000    0.6696570070000000 O
   0.4423424900000000    0.3750000000000000    0.2202370020000000 O
   0.4423424900000000    0.3750000000000000    0.7202370020000000 O
   0.4423424900000000    0.8750000000000000    0.2202370020000000 O
   0.4423424900000000    0.8750000000000000    0.7202370020000000 O
   0.9423424900000000    0.3750000000000000    0.2202370020000000 O
   0.9423424900000000    0.3750000000000000    0.7202370020000000 O
   0.9423424900000000    0.8750000000000000    0.2202370020000000 O
   0.9423424900000000    0.8750000000000000    0.7202370020000000 O
   0.2794570030000000    0.1250000000000000    0.2371989935000000 O
   0.2794570030000000    0.1250000000000000    0.7371989935000000 O
   0.2794570030000000    0.6250000000000000    0.2371989935000000 O
   0.2794570030000000    0.6250000000000000    0.7371989935000000 O
   0.7794570030000000    0.1250000000000000    0.2371989935000000 O
   0.7794570030000000    0.1250000000000000    0.7371989935000000 O
   0.7794570030000000    0.6250000000000000    0.2371989935000000 O
   0.7794570030000000    0.6250000000000000    0.7371989935000000 O
   0.2205429970000000    0.3750000000000000    0.2628009915000000 O
   0.2205429970000000    0.3750000000000000    0.7628009915000000 O
   0.2205429970000000    0.8750000000000000    0.2628009915000000 O
   0.2205429970000000    0.8750000000000000    0.7628009915000000 O
   0.7205429970000000    0.3750000000000000    0.2628009915000000 O
   0.7205429969999999    0.3750000000000000    0.7628009915000000 O
   0.7205429970000000    0.8750000000000000    0.2628009915000000 O
   0.7205429969999999    0.8750000000000000    0.7628009915000000 O
   0.0576574990000000    0.1250000000000000    0.2797630130000000 O
   0.0576574990000000    0.1250000000000000    0.7797630129999999 O
   0.0576574990000000    0.6250000000000000    0.2797630130000000 O
   0.0576574990000000    0.6250000000000000    0.7797630129999999 O
   0.5576574989999999    0.1250000000000000    0.2797630130000000 O
   0.5576574989999999    0.1250000000000000    0.7797630129999999 O
   0.5576574989999999    0.6250000000000000    0.2797630130000000 O
   0.5576574989999999    0.6250000000000000    0.7797630129999999 O
   0.3815205094999999    0.2850550115000000    0.3303430080000000 O
   0.3815205095000000    0.2850550115000000    0.8303430079999999 O
   0.3815205094999999    0.7850550115000000    0.3303430080000000 O
   0.3815205095000000    0.7850550115000000    0.8303430079999999 O
   0.8815205094999999    0.2850550115000000    0.3303430080000000 O
   0.8815205094999999    0.2850550115000000    0.8303430079999999 O
   0.8815205094999999    0.7850550115000000    0.3303430080000000 O
   0.8815205094999999    0.7850550115000000    0.8303430079999999 O
   0.3815205094999999    0.4649449885000000    0.3303430080000000 O
   0.3815205095000000    0.4649449885000000    0.8303430079999999 O
   0.3815205094999999    0.9649449885000000    0.3303430080000000 O
   0.3815205095000000    0.9649449885000000    0.8303430079999999 O
   0.8815205094999999    0.4649449885000000    0.3303430080000000 O
   0.8815205094999999    0.4649449885000000    0.8303430079999999 O
   0.8815205094999999    0.9649449885000000    0.3303430080000000 O
   0.8815205094999999    0.9649449885000000    0.8303430079999999 O
   0.2704379855000000    0.1250000000000000    0.4061000050000000 O
   0.2704379855000000    0.1250000000000000    0.9061000050000000 O
   0.2704379855000000    0.6250000000000000    0.4061000050000000 O
   0.2704379855000000    0.6250000000000000    0.9061000050000000 O
   0.7704379854999999    0.1250000000000000    0.4061000050000000 O
   0.7704379855000001    0.1250000000000000    0.9061000050000000 O
   0.7704379854999999    0.6250000000000000    0.4061000050000000 O
   0.7704379855000001    0.6250000000000000    0.9061000050000000 O
   0.4697870015000000    0.1250000000000000    0.4175915119999999 O
   0.4697870015000001    0.1250000000000000    0.9175915120000000 O
   0.4697870015000000    0.6250000000000000    0.4175915119999999 O
   0.4697870015000001    0.6250000000000000    0.9175915120000000 O
   0.9697870014999999    0.1250000000000000    0.4175915119999999 O
   0.9697870015000001    0.1250000000000000    0.9175915120000000 O
   0.9697870014999999    0.6250000000000000    0.4175915119999999 O
   0.9697870015000001    0.6250000000000000    0.9175915120000000 O
   0.1470550000000000    0.3750000000000000    0.4860765040000000 O
   0.1470550000000000    0.3750000000000000    0.9860765039999999 O
   0.1470550000000000    0.8750000000000000    0.4860765040000000 O
   0.1470550000000000    0.8750000000000000    0.9860765039999999 O
   0.6470550000000000    0.3750000000000000    0.4860765040000000 O
   0.6470549999999999    0.3750000000000000    0.9860765039999999 O
   0.6470550000000000    0.8750000000000000    0.4860765040000000 O
   0.6470549999999999    0.8750000000000000    0.9860765039999999 O
