Ca8 Ti12 F42                            
   1.00000000000000     
     7.4537009999999997   -0.0377800000000000   -0.1186540000000000
    -3.7192609999999999    6.4396199999999997    0.0712700000000000
     0.1688190000000000    0.0556830000000000   18.8305709999999991
   Ca   Ti   F 
     8    12    42
Direct
  0.8473681507193309  0.0047896720080725  0.3278975848017168
  0.5127753433388875  0.3535418965907403  0.6763500474577562
  0.1693627656288766  0.1796296144521597  0.0078041712203276
  0.0140363998299654  0.8357297546134861  0.6724809262527167
  0.6641417388197978  0.1687258981963382  0.9983916431646859
  0.0180505382635479  0.8088559132358535  0.1630354089884509
  0.8220768911296888  0.0059225494617054  0.8235345589910160
  0.1933427737212909  0.1882199760198210  0.4950777860745227
  0.3403094001451529  0.9846807540778233  0.3333315392092155
  0.0091144131170354  0.3422365448056305  0.6552312883374173
  0.6731030598430808  0.6756856231213965  0.9862124142764466
  0.3926371768011337  0.0941004552150105  0.8303089832758701
  0.9629920530591232  0.3003432192914225  0.1653992665749395
  0.6943978400284914  0.6791873592534661  0.5017081071154349
  0.5238793778495259  0.8527036548778244  0.1598514313378607
  0.1681963945867534  0.6538857047470681  0.5035371517956484
  0.3505080504170539  0.4950104695480094  0.8300303577235659
  0.7733310756343719  0.4766651500410142  0.8295475255873149
  0.7078266334412431  0.1911020153010914  0.5014842373556151
  0.5243803211495703  0.3045659115077812  0.1609452602179784
  0.7087327127736388  0.2195703977615215  0.6110055429253632
  0.8069422755265531  0.5084041579331416  0.9435080584637552
  0.4513325306427974  0.2104299452810402  0.2623502631012246
  0.2195095159163639  0.7512587988743095  0.4005005150716797
  0.5630645106833332  0.8328532793318053  0.0509441003493618
  0.2749657564552193  0.4486559936645145  0.7191953110662065
  0.8480403274109320  1.0053495512843573  0.9488159243016905
  0.0608376625838024  0.8679400588558550  0.2780877706764066
  0.1857956794434313  0.1852540069698464  0.6135589954212485
  0.9420258048710525  0.8291373473105627  0.0493767086455356
  0.8855094266348991  0.0557752241854682  0.7067159342322845
  0.1756481607376155  0.1096562882638329  0.3834919516643300
  0.5381406615337480  0.3768357083494321  0.0495470417031710
  0.6264918033076933  0.1064114880208604  0.3933204959203695
  0.8543647997990176  0.4819549682038622  0.7122758834092617
  0.3522299178894897  0.4890284934987754  0.9456766039038216
  0.1510413888301783  0.6476830066266457  0.6152797056766496
  0.5100742470642744  0.8817784104756168  0.2717877417603345
  0.8281407063168039  0.4716499641199648  0.1924026025611438
  0.5584580773010609  0.3576188831450072  0.5020430584541069
  0.6741590126813239  0.1753710022380476  0.8757907194872591
  0.4367691416687824  0.8212859037148087  0.8185775616682942
  0.3817249521948452  0.5603988474897882  0.5030531879190664
  0.2055007822401603  0.6185408731655068  0.1564656665426204
  0.0131528982390926  0.3002227949609689  0.2679324062831990
  0.6951248772777474  0.6564915716438645  0.6111222933811429
  0.3427427579143635  0.0543624290181025  0.9435467953760540
  0.3269463247320378  0.0357105885138610  0.7249674088911082
  0.7223201703193457  0.7160820632266363  0.3994418543177919
  0.9722460931680064  0.3090291436427962  0.0547342113425767
  0.2020446387606113  0.2254409535010515  0.1375709724310594
  0.8149564389309778  0.9911289802631966  0.5066916740023737
 -0.0330863003209249  0.7920787734688580  0.7937725633605365
  0.1745000910449455  0.1756236792893416  0.8444439511920643
  0.0123679440071924  0.8131583053430160  0.5194514792701770
  0.8353382125281881  0.9828774439470390  0.1856364118446662
  0.0302506843598604  0.4204197429351728  0.8261578754351498
  0.5767859017859057  0.6024671607776393  0.1702196726786377
  0.4089164988017810  0.9558173715237022  0.5211239764874397
  0.3599081851949394  0.9997457019168974  0.1252561344369809
  0.6559989146736572  0.6726489057116685  0.8698675274553506
  1.0031912546092114  0.3582452831416195  0.4560825929715498
 
             NaN             NaN             NaN
             NaN             NaN             NaN
             NaN             NaN             NaN
             NaN             NaN             NaN
             NaN             NaN             NaN
             NaN             NaN             NaN
             NaN             NaN             NaN
             NaN             NaN             NaN
             NaN             NaN             NaN
             NaN             NaN             NaN
             NaN             NaN             NaN
             NaN             NaN             NaN
             NaN             NaN             NaN
             NaN             NaN             NaN
             NaN             NaN             NaN
             NaN             NaN             NaN
             NaN             NaN             NaN
             NaN             NaN             NaN
             NaN             NaN             NaN
             NaN             NaN             NaN
             NaN             NaN             NaN
             NaN             NaN             NaN
             NaN             NaN             NaN
             NaN             NaN             NaN
             NaN             NaN             NaN
             NaN             NaN             NaN
             NaN             NaN             NaN
             NaN             NaN             NaN
             NaN             NaN             NaN
             NaN             NaN             NaN
             NaN             NaN             NaN
             NaN             NaN             NaN
             NaN             NaN             NaN
             NaN             NaN             NaN
             NaN             NaN             NaN
             NaN             NaN             NaN
             NaN             NaN             NaN
             NaN             NaN             NaN
             NaN             NaN             NaN
             NaN             NaN             NaN
             NaN             NaN             NaN
             NaN             NaN             NaN
             NaN             NaN             NaN
             NaN             NaN             NaN
             NaN             NaN             NaN
             NaN             NaN             NaN
             NaN             NaN             NaN
             NaN             NaN             NaN
             NaN             NaN             NaN
             NaN             NaN             NaN
             NaN             NaN             NaN
             NaN             NaN             NaN
             NaN             NaN             NaN
             NaN             NaN             NaN
             NaN             NaN             NaN
             NaN             NaN             NaN
             NaN             NaN             NaN
             NaN             NaN             NaN
             NaN             NaN             NaN
             NaN             NaN             NaN
             NaN             NaN             NaN
             NaN             NaN             NaN
