Ca8 Ti12 F42
1.0
7.453701 -0.037780 -0.118654
-3.719261 6.439620 0.071270
0.168819 0.055683 18.830571
Ca Ti F
8 12 42
direct
0.857447 0.175130 0.327624 Ca
0.511470 0.347101 0.674804 Ca
0.161960 0.169944 0.000198 Ca
0.020558 0.834882 0.668646 Ca
0.654741 0.159099 0.995360 Ca
0.019642 0.808684 0.161195 Ca
0.818840 0.003720 0.824294 Ca
0.186841 0.186797 0.493240 Ca
0.350841 0.988671 0.333011 Ti
0.008537 0.336195 0.655191 Ti
0.669805 0.669918 0.986772 Ti
0.350764 0.046745 0.830048 Ti
0.984765 0.303469 0.166103 Ti
0.695762 0.673155 0.503240 Ti
0.520295 0.841676 0.160701 Ti
0.182815 0.665572 0.506333 Ti
0.348045 0.486514 0.830356 Ti
0.795430 0.488414 0.830660 Ti
0.698039 0.181555 0.501813 Ti
0.511003 0.303923 0.159902 Ti
0.719269 0.224045 0.610707 F
0.805579 0.497706 0.943999 F
0.478093 0.229846 0.264254 F
0.223496 0.753096 0.402324 F
0.562881 0.828139 0.051702 F
0.277552 0.443775 0.719892 F
0.829901 -0.001437 0.946981 F
0.068128 0.845727 0.276593 F
0.183023 0.182527 0.613651 F
0.945088 0.829583 0.047584 F
0.891148 0.047976 0.709180 F
0.192976 0.113360 0.382764 F
0.525018 0.364460 0.047233 F
0.631679 0.124177 0.392609 F
0.853926 0.485301 0.716214 F
0.354392 0.492254 0.945134 F
0.148316 0.637925 0.615548 F
0.493174 0.875416 0.268912 F
0.824871 0.456261 0.176517 F
0.566121 0.360611 0.502196 F
0.658063 0.173821 0.866221 F
0.433724 0.806174 0.817383 F
0.375816 0.548569 0.507418 F
0.207528 0.615885 0.155140 F
0.017705 0.311716 0.269381 F
0.697748 0.654505 0.613511 F
0.331992 0.022810 0.945229 F
0.337331 0.024206 0.718561 F
0.709320 0.695826 0.400742 F
0.958971 0.284708 0.055575 F
0.197274 0.207778 0.136045 F
0.818822 0.990877 0.508455 F
0.013125 0.810832 0.801361 F
0.165868 0.170944 0.860270 F
0.007526 0.802035 0.519404 F
0.833078 0.983746 0.185480 F
0.033238 0.416265 0.828652 F
0.581371 0.601809 0.171275 F
0.391612 0.977244 0.524455 F
0.369780 -0.001904 0.124292 F
0.661325 0.665024 0.866624 F
0.991418 0.372986 0.466090 F
