Li8 Sc16 S32                            
   1.00000000000000     
    10.6128517996483769   -0.0000002674439186    0.0000006332893884
    -0.0000002681024279   10.6128495311928361   -0.0000013943391401
     0.0000006289230266   -0.0000013946487437   10.6128524997932843
Li   Sc   Li   S 
1    16     6    32
Direct
  0.7499994584393264  0.2499998208677923  0.2499994748661081
  0.1250209504152195  0.8749919190680941  0.8750269982305738
  0.8749947066531405  0.1249845643508039  0.8750056996952011
  0.8750104020070495  0.8749839732868594  0.1249935053822284
  0.1250304660477397  0.1249702545088027  0.1249948681526547
  0.1250220557655624  0.3750272576222926  0.3749917263488740
  0.8750195274924906  0.6250179615568854  0.3749906297080017
  0.8750036494609148  0.3750142912385712  0.6250096436551473
  0.1250148973848724  0.6250113142698694  0.6249862400755006
  0.6249674420425606  0.8749821563786568  0.3749819416041689
  0.3749911136815101  0.1249704266526876  0.3749816821112049
  0.3749982109146401  0.8749897327282525  0.6249961256666126
  0.6249835660433760  0.1249867179232353  0.6250183513799072
  0.6249882966079525  0.3749992392833050  0.8750008276548655
  0.3749948275177388  0.6250239566896809  0.8750212754109015
  0.3749876576550122  0.3750140729911422  0.1250001178287121
  0.6249731796327609  0.6250289227185277  0.1249986789714512
  0.7499994895329394  0.7500003801647850  0.7500005624567621
  0.4999988502051238  0.9999987903949403  0.0000005045167129
  0.2500004705381116  0.7500003899353089  0.2499995320657362
  0.0000010713372873  0.5000013710421456  0.0000004904825843
  0.2500004466228987  0.2499997854087894  0.7500005514631027
  0.0000011278974483  0.9999987593188422  0.4999996337731503
  0.8823259290559307  0.1176717623241714  0.1176751268801297
  0.1176804464535195  0.8823204482720328  0.1176762580037121
  0.1176795610752421  0.1176719604554961  0.8823257595694471
  0.8823257675866714  0.8823212871190336  0.8823258758477834
  0.3676758922797134  0.1323193877866018  0.1323221945555275
  0.1323266173256386  0.3676787488641295  0.1323227393345476
  0.1323270947486463  0.1323203916668021  0.3676743787716177
  0.3676753645062547  0.3676787896271563  0.3676748142083071
  0.8823274820448219  0.6176782797937577  0.6176748043218723
  0.1176777834961555  0.3823287478069730  0.6176747946969385
  0.1176784057643445  0.6176791540428681  0.3823233101104364
  0.8823277034197972  0.3823291464113794  0.3823242433528478
  0.3676768344127694  0.6323256665624939  0.6323227154018056
  0.1323255288928422  0.8676755596350390  0.6323231720709899
  0.1323251615047099  0.6323257342601991  0.8676797675506549
  0.3676773610523725  0.8676765527839905  0.8676804288190638
  0.3823217369871657  0.1176723233047525  0.6176769171673726
  0.6176726431489570  0.8823208492592727  0.6176769138297971
  0.6176723137683737  0.1176719841508387  0.3823222023521353
  0.3823210790800289  0.8823201341838427  0.3823211786637444
  0.8676740100368434  0.1323236658543721  0.6323281013865767
  0.6323238262666351  0.3676754068816948  0.6323277376481116
  0.6323233760223843  0.1323228912359724  0.8676754169319167
  0.8676741003967408  0.3676753711694971  0.8676748884756122
  0.3823201690150171  0.6176823217319551  0.1176776829564048
  0.6176734163373467  0.3823261312663817  0.1176764393607854
  0.6176736761915862  0.6176812923736392  0.8823247439784367
  0.3823209230842508  0.3823256463521219  0.8823245659336720
  0.8676776598452705  0.6323269122315693  0.1323226989915511
  0.6323197147576494  0.8676749578909764  0.1323221561681223
  0.6323203054249760  0.6323270218097150  0.3676748104563998
  0.8676774136860956  0.8676740213959491  0.3676745062103777
 
 
