Ca1 Ti12 F42                            
   1.00000000000000     
     7.5128690000000002   -0.0009960000000000    0.0444940000000000
    -3.7468330000000001    6.5048279999999998    0.0001480000000000
    -0.0185040000000000    0.0425690000000000   17.6657329999999995
   Ca   Ti   F 
     1    12    42
Direct
  0.7946928173124217  0.6249580108973609  0.2891278421246677
  0.3028182384990042  0.0094484051948291  0.3339924392210556
  0.7298252910489140  0.7314809166660587  0.9972752169297890
  0.0085111999871663  0.2766586548232980  0.6688141881584816
  0.3614465746255556  1.0047754519170637  0.8337237785635709
  0.6512958936739367  0.6575681085776175  0.5107826554302221
  0.9794469780992665  0.3405317638787240  0.1674034315125779
  0.6508292117370664  0.1543188696509079  0.5050951285896629
  0.4750949933066910  0.3368486496110591  0.1555529718048257
  0.8620765613210832  0.5028326799272865  0.8324467100931875
  0.3633739020727972  0.5059064298892898  0.8333502489494462
  0.1517171468186081  0.6507025761210493  0.5041462922484442
  0.4883438556076205  0.8458213610884441  0.1644028800602550
  0.5741067751642492  0.8206237548873444  0.0619215533511131
  0.2580412150943917  0.4270992622902026  0.7292511131299542
  0.1817600234192555  0.7509231746005163  0.3972108420519802
  0.4495081096173903  0.2699626826482438  0.2695618961327658
  0.8311344531555497  0.5823381034072853  0.9368872940903789
  0.7579232248674861  0.1764234294867175  0.6079961740806620
  0.8945183079271348  0.0699788897231853  0.7346331813642613
  0.1403860713965653  0.0835426521868444  0.3824684271340149
  0.9216895089719279  0.8050014830600392  0.0686997406417016
  0.1235850243943890  0.1894179710615574  0.6012912060934609
  0.0915694792485108  0.8759954368868252  0.2563492926394791
  0.8314699419552387  0.9477627869356621  0.9361067044600959
  0.1164568716069748  0.5440988585870167  0.6062000945236372
  0.4418578020665222  0.8872199833074514  0.2728189847713987
  0.4688739003898217  0.5829249693593122  0.9353637708245051
  0.8952546433220794  0.4304114420680605  0.7303397628018919
  0.5472963045940105  0.1334893451282855  0.4007281777856274
  0.5537845403674454  0.4552486637725626  0.0577673285165262
  0.3613119832576740  0.5744373431679790  0.4845057988430110
  0.2081631099272744  0.6285560897850597  0.1487241532943323
  0.4375018621299002  0.7892137480783753  0.8118002356935968
  0.6531352420349535  0.2202618025540438  0.8550778716937326
  0.5784915871542359  0.3655573089113503  0.5263430720876582
  0.7692533086061396  0.4436711304516167  0.1822609517386712
  0.6872617686532094  0.6193205231822372  0.4026387454270989
  0.8875504121296266  0.3063819498956495  0.0717583625517497
  0.3996604451379610  0.0823022363647792  0.7349047571716756
  0.3219525482222140  0.9291019183823017  0.9329761371626979
  0.6199003752449181  0.7000423223497401  0.6077437422804063
  0.0009834874555333  0.4011191062543965  0.2710279201106892
  0.9445792597699176  0.7310103127929305  0.5215393425515711
  0.7759889804719425  0.0452267410197859  0.1900891353222565
  0.2855974079483947  0.2211589672230473  0.8549664884108281
  0.0699742142398038  0.7887187449020798  0.8130828483974282
  0.7260906442531878  0.9451401699590410  0.4819789545484090
  0.1879360806047516  0.2592314047958963  0.1523262488431813
  0.6378318087528534  0.5543130707277395  0.8030387999051034
  0.9261600787537624  0.3772256806050159  0.4725893095055244
  0.4394730758730963  0.0679073103597092  0.1355346443303369
  0.3749288457524474  0.9267025345213551  0.5321200760515006
  0.5500559050848552  0.6221164105153120  0.2025544192213865
  0.0872321307231880  0.4540693143908104  0.8628388714073579
 
             NaN             NaN             NaN
             NaN             NaN             NaN
             NaN             NaN             NaN
             NaN             NaN             NaN
             NaN             NaN             NaN
             NaN             NaN             NaN
             NaN             NaN             NaN
             NaN             NaN             NaN
             NaN             NaN             NaN
             NaN             NaN             NaN
             NaN             NaN             NaN
             NaN             NaN             NaN
             NaN             NaN             NaN
             NaN             NaN             NaN
             NaN             NaN             NaN
             NaN             NaN             NaN
             NaN             NaN             NaN
             NaN             NaN             NaN
             NaN             NaN             NaN
             NaN             NaN             NaN
             NaN             NaN             NaN
             NaN             NaN             NaN
             NaN             NaN             NaN
             NaN             NaN             NaN
             NaN             NaN             NaN
             NaN             NaN             NaN
             NaN             NaN             NaN
             NaN             NaN             NaN
             NaN             NaN             NaN
             NaN             NaN             NaN
             NaN             NaN             NaN
             NaN             NaN             NaN
             NaN             NaN             NaN
             NaN             NaN             NaN
             NaN             NaN             NaN
             NaN             NaN             NaN
             NaN             NaN             NaN
             NaN             NaN             NaN
             NaN             NaN             NaN
             NaN             NaN             NaN
             NaN             NaN             NaN
             NaN             NaN             NaN
             NaN             NaN             NaN
             NaN             NaN             NaN
             NaN             NaN             NaN
             NaN             NaN             NaN
             NaN             NaN             NaN
             NaN             NaN             NaN
             NaN             NaN             NaN
             NaN             NaN             NaN
             NaN             NaN             NaN
             NaN             NaN             NaN
             NaN             NaN             NaN
             NaN             NaN             NaN
             NaN             NaN             NaN
