Ca1 Ti12 F42
1.0
7.512869 -0.000996 0.044494
-3.746833 6.504828 0.000148
-0.018504 0.042569 17.665733
Ca Ti F
1 12 42
direct
0.854964 0.684912 0.331071 Ca
0.287296 0.003639 0.334439 Ti
0.728529 0.728296 0.997417 Ti
0.000887 0.267281 0.668917 Ti
0.358377 0.997278 0.833282 Ti
0.648574 0.658851 0.503653 Ti
0.988993 0.344329 0.162973 Ti
0.647586 0.156441 0.501614 Ti
0.491287 0.349684 0.161285 Ti
0.858053 0.497064 0.832298 Ti
0.358224 0.497551 0.834437 Ti
0.150375 0.651311 0.506281 Ti
0.491376 0.847268 0.164223 Ti
0.570581 0.817523 0.060860 F
0.248377 0.415492 0.730424 F
0.178825 0.746628 0.398295 F
0.406756 0.244515 0.266337 F
0.830188 0.580390 0.936232 F
0.759180 0.178781 0.603578 F
0.880031 0.056159 0.732424 F
0.179803 0.113140 0.399168 F
0.931067 0.819189 0.064538 F
0.119873 0.182664 0.601801 F
0.046080 0.852331 0.277533 F
0.817889 0.937014 0.932689 F
0.112720 0.537564 0.605853 F
0.436871 0.890905 0.272329 F
0.462604 0.570973 0.936699 F
0.889715 0.422612 0.729997 F
0.566103 0.145416 0.390835 F
0.574877 0.459753 0.061102 F
0.357807 0.574114 0.480975 F
0.204838 0.638431 0.151291 F
0.432881 0.780210 0.811363 F
0.649370 0.214134 0.855079 F
0.574010 0.366885 0.519978 F
0.772821 0.422955 0.195772 F
0.695291 0.635762 0.397604 F
0.895508 0.314674 0.068963 F
0.399097 0.075839 0.734431 F
0.318521 0.918810 0.932095 F
0.616736 0.709034 0.600076 F
0.033233 0.358037 0.270808 F
0.939424 0.728263 0.520827 F
0.779955 0.046190 0.186927 F
0.280711 0.211905 0.854910 F
0.067223 0.782289 0.811458 F
0.730133 0.953267 0.474199 F
0.205646 0.276185 0.142357 F
0.632272 0.546382 0.803514 F
0.923288 0.384480 0.463093 F
0.447443 0.076431 0.136458 F
0.374809 0.927480 0.528506 F
0.543439 0.622355 0.197160 F
0.082364 0.447838 0.863572 F
