Ca8 Mn12 F42                            
   1.00000000000000     
     7.5568689999999998   -0.0704640000000000   -0.0220000000000000
    -3.8446530000000001    6.7002689999999996    0.0654160000000000
    -0.0369540000000000    0.1686370000000000   18.6630989999999990
   Ca   Mn   F 
     8    12    42
Direct
  0.5155714177392414  0.4199863065459294  0.6822110367054851
  0.1530616462661881  0.6438456743504356  0.9949388315384960
  0.3320422694719510  0.5013242300143343  0.3491725287219144
  0.8276126349667480  0.0023805447929162  0.3298953879585919
  0.1668211114071102  0.1522044999585762  0.0010742911545690
  0.8172877088135710  0.9696057628051871  0.8351111539614207
  0.9918072963715436  0.7836124710047544  0.1751936410256154
  0.1803371737746033  0.1267993125047804  0.5111710446077634
  0.3347112687610559  0.0252070049483877  0.3251244943643419
  0.0006677192429240  0.3481027685410326  0.6654815091475449
  0.6593664139880777  0.6596449760674753  0.0139331730555367
  0.3390474820347742  0.0151353684973068  0.8379268876690054
  0.0082217584303350  0.3127772804786224  0.1655797261481012
  0.6711664392669445  0.6687371292964293  0.4969985956797209
  0.5030686301319910  0.8203663425792189  0.1656187989364860
  0.1723865564758223  0.6661482302914794  0.4941204855827756
  0.3237280284759230  0.5032706673781717  0.8394653085118260
  0.8328089933804090  0.5094504689491428  0.8348995473229512
  0.6810368229609852  0.1742233458960710  0.4923144854020357
  0.4893104359434902  0.3123270880256067  0.1661337392646794
  0.7657086074196798  0.2308112427137944  0.5990912986166347
  0.8086208058512784  0.5664673189554774  0.9437201191823053
  0.4385719379466309  0.3230107433321810  0.2772243460536271
  0.2383813019813162  0.7497418395916444  0.3856538590742034
  0.4803550797460041  0.7906040010409371  0.0538147604376858
  0.2490629165934946  0.4750518439921593  0.7312770166500135
  0.8321018154382899  0.9402493919218047  0.9559870236628220
  0.0320582041844183  0.8849134541280241  0.2867168578332073
  0.2110927023813043  0.2556048642904244  0.6164728298304658
  0.0042927111092393  0.8048047368038802  0.0558821108711694
  0.8821334794480161  0.1197947050961131  0.7298869875378370
  0.1840376871778296  0.1575162242832798  0.3912633456433643
  0.4930579833506213  0.3454051046798205  0.0531780778831277
  0.6125251730060889  0.1096830145477429  0.3764743486076405
  0.8334307124988262  0.4638473064684844  0.7248492074429218
  0.3807274854645698  0.5179808910099126  0.9518675421752208
  0.1253969695506133  0.5702606042726216  0.5971011712198411
  0.5014448483324915  0.7692630907592041  0.2768130428135535
  0.7977421246924907  0.4120298271045702  0.1764596714467005
  0.5440643902806890  0.3467560379972799  0.4975777717909028
  0.6490190261584667  0.2134742753586189  0.8524315082512653
  0.4616100144901068  0.8196450291975842  0.8370301723242503
  0.3548684650238026  0.5432170051060182  0.4776458081180537
  0.1862057343626504  0.6297268583909488  0.1563920179886598
  0.0502169350872842  0.3232508713718610  0.2801946027467509
  0.6449966105155484  0.6618288093666661  0.6013192119035747
  0.2854369127403424  0.9599281911863831  0.9452189377823479
  0.3726133208430140  0.1341623928625911  0.7431077385408481
  0.6735132999636826  0.6919908445280183  0.3886062940014837
  0.0337589389297440  0.3388241822823108  0.0500074038127695
  0.1686686524069855  0.1523314032633963  0.1391368139184278
  0.8188157010348268  0.0003844034380684  0.4831048358884697
  0.0270548109107823  0.8145404211412286  0.8221135658513885
  0.1719269706468482  0.1939981208420423  0.8682401369221596
  0.9812285478824212  0.7775448307205463  0.5038596100537162
  0.8042164511726742  0.0174296259355136  0.1963815289976590
  0.0693027938389074  0.4932161724103015  0.8820573229149822
  0.6425047446794628  0.6410507101874996  0.1478243137669932
  0.3825991052377399  0.9593669573140079  0.5168811165159579
  0.3871478978104883  0.0072439937795434  0.2033066085620090
  0.6160026975988215  0.5921818333226967  0.7986540568070049
  0.9569452012973620  0.3948443083337170  0.4589270561724643
 
             NaN             NaN             NaN
             NaN             NaN             NaN
             NaN             NaN             NaN
             NaN             NaN             NaN
             NaN             NaN             NaN
             NaN             NaN             NaN
             NaN             NaN             NaN
             NaN             NaN             NaN
             NaN             NaN             NaN
             NaN             NaN             NaN
             NaN             NaN             NaN
             NaN             NaN             NaN
             NaN             NaN             NaN
             NaN             NaN             NaN
             NaN             NaN             NaN
             NaN             NaN             NaN
             NaN             NaN             NaN
             NaN             NaN             NaN
             NaN             NaN             NaN
             NaN             NaN             NaN
             NaN             NaN             NaN
             NaN             NaN             NaN
             NaN             NaN             NaN
             NaN             NaN             NaN
             NaN             NaN             NaN
             NaN             NaN             NaN
             NaN             NaN             NaN
             NaN             NaN             NaN
             NaN             NaN             NaN
             NaN             NaN             NaN
             NaN             NaN             NaN
             NaN             NaN             NaN
             NaN             NaN             NaN
             NaN             NaN             NaN
             NaN             NaN             NaN
             NaN             NaN             NaN
             NaN             NaN             NaN
             NaN             NaN             NaN
             NaN             NaN             NaN
             NaN             NaN             NaN
             NaN             NaN             NaN
             NaN             NaN             NaN
             NaN             NaN             NaN
             NaN             NaN             NaN
             NaN             NaN             NaN
             NaN             NaN             NaN
             NaN             NaN             NaN
             NaN             NaN             NaN
             NaN             NaN             NaN
             NaN             NaN             NaN
             NaN             NaN             NaN
             NaN             NaN             NaN
             NaN             NaN             NaN
             NaN             NaN             NaN
             NaN             NaN             NaN
             NaN             NaN             NaN
             NaN             NaN             NaN
             NaN             NaN             NaN
             NaN             NaN             NaN
             NaN             NaN             NaN
             NaN             NaN             NaN
             NaN             NaN             NaN
