Ca8 Mn12 F42
1.0
7.556869 -0.070464 -0.022000
-3.844653 6.700269 0.065416
-0.036954 0.168637 18.663099
Ca Mn F
8 12 42
direct
0.527286 0.445700 0.673195 Ca
0.158556 0.643747 0.994350 Ca
0.339216 0.497740 0.348885 Ca
0.840473 0.011927 0.328935 Ca
0.172466 0.152579 0.001461 Ca
0.828916 0.992044 0.835027 Ca
0.986854 0.775951 0.175359 Ca
0.170191 0.134058 0.510414 Ca
0.346432 1.002637 0.320244 Mn
0.002357 0.347307 0.665141 Mn
0.664877 0.660448 0.008805 Mn
0.342090 0.010742 0.838036 Mn
0.007911 0.310306 0.162430 Mn
0.671802 0.665338 0.498855 Mn
0.501128 0.815432 0.166138 Mn
0.167656 0.666849 0.494128 Mn
0.332691 0.506625 0.835470 Mn
0.838922 0.512328 0.835554 Mn
0.671920 0.175798 0.495749 Mn
0.485685 0.309090 0.167962 Mn
0.730109 0.251042 0.605529 F
0.819286 0.559409 0.945667 F
0.438804 0.305265 0.281496 F
0.229556 0.741539 0.387297 F
0.491614 0.783336 0.055246 F
0.258835 0.475935 0.730928 F
0.840470 0.943441 0.955462 F
0.040445 0.884930 0.286297 F
0.196554 0.248804 0.617186 F
1.000368 0.800303 0.056558 F
0.867469 0.101281 0.724601 F
0.154834 0.163762 0.392548 F
0.495487 0.359519 0.055017 F
0.616933 0.105433 0.376980 F
0.860733 0.467855 0.727900 F
0.386865 0.522516 0.948565 F
0.127966 0.575045 0.595915 F
0.488593 0.785380 0.280061 F
0.795932 0.405801 0.173095 F
0.532076 0.341358 0.490780 F
0.663016 0.211325 0.851545 F
0.474248 0.820162 0.837233 F
0.338695 0.534004 0.475813 F
0.185418 0.628158 0.152669 F
0.063190 0.332468 0.274947 F
0.637066 0.651160 0.600236 F
0.291292 0.960763 0.946989 F
0.372094 0.100057 0.740204 F
0.673478 0.706524 0.390682 F
0.036936 0.338098 0.047329 F
0.166228 0.148349 0.137441 F
0.809064 1.008177 0.495702 F
0.020302 0.818399 0.824842 F
0.182988 0.198764 0.866658 F
0.983796 0.787985 0.502922 F
0.802304 0.016568 0.194493 F
0.080986 0.499784 0.876930 F
0.632303 0.629984 0.165077 F
0.383805 0.954815 0.518551 F
0.383778 0.003245 0.198009 F
0.608544 0.557266 0.801899 F
0.936830 0.400564 0.464869 F
