Ca8 Cr12 F42                            
   1.00000000000000     
     7.4921379999999997   -0.0175090000000000   -0.5422340000000000
    -3.6445180000000001    6.6759370000000002    0.2116800000000000
     0.8766170000000000    0.1315830000000000   18.6444380000000010
   Ca   Cr   F 
     8    12    42
Direct
  0.8762294303139956  0.4724820292426484  0.3431812816040822
  0.5305469293591316  0.8314748691008946  0.6808646119317151
  0.6017622827434196  0.1245295441587876  0.0045283814216037
  0.0167326757311506  0.8031902243966020  0.6639654023470086
  0.1086062889581061  0.6682237619644523  0.0113957289122352
  0.8975424653960550  0.8041972822171086  0.1761568805430071
  0.8613340415585218  0.9140808728518836  0.8465719712578637
  0.2374393154943891  0.2026242410285326  0.5013637275266275
  0.3183404787698276  0.9779975829745099  0.3320904875614013
  0.0126239790324354  0.2990307819201909  0.6623052272781135
  0.6209091971520891  0.6506176473188019  0.9931286786140521
  0.3530763722379675  0.9781674039921767  0.8283473814914943
  0.9612974617814217  0.3286238525987362  0.1616243650731600
  0.7016509265974968  0.6650362380011065  0.5056296728576155
  0.4381636869399132  0.8254408177535610  0.1647445489296580
  0.2116159918879554  0.6815701042693073  0.5030247219598123
  0.3112296342465733  0.4675596889902587  0.8298060633081431
  0.8163591660467445  0.4609991934625827  0.8272801401990052
  0.6964096740050809  0.1630198879114606  0.5017272861778608
  0.4532875103720715  0.3212165108345023  0.1607242219246661
  0.7450190811370624  0.1262744781978216  0.6100278204740032
  0.8981539369860838  0.6738266388953622  0.9237814076650175
  0.4297883101197338  0.2079964642674527  0.2663365266939047
  0.1889223162836537  0.7097416575790069  0.3981337968522483
  0.4425487807872860  0.7830084417753032  0.0577973396094922
  0.2728843775885186  0.4691741733016305  0.7218310258739179
  0.7312489171274195  0.9312773649554924  0.9535919318306976
  1.0019926003469741  0.7698552274757684  0.2822009702378889
  0.1291139387458481  0.1399466779068211  0.6160262617327529
  0.8735179884264829  0.7559354819944138  0.0571590720340808
  0.8568766421050014  0.9603927866765993  0.7256514028211469
  0.2057518497505504  0.1024320704563762  0.3930732089836953
  0.5355241333117620  0.3832376406205958  0.0313712042044175
  0.6366778518686808  0.1773449297882667  0.3978514767252806
  0.8943048069409868  0.4637297032015816  0.6904743220251142
  0.3581928912800358  0.5418618777892337  0.9340176764271698
  0.2428455662331942  0.6850605843026496  0.6090579805139620
  0.4226675109128781  0.8461881129397767  0.2680507182418438
  0.7577557335183208  0.4337873179451655  0.1741797117032041
  0.6162986179593432  0.3749675775903577  0.5260141452507698
  0.6415172656159249  0.2375853216048273  0.8884049193168045
  0.5310835539785039  0.8580899305267806  0.8093919257349574
  0.3956780682363772  0.5530641416413805  0.4940891158421564
  0.1389580697401435  0.6939065410615743  0.1431610916643981
  0.9942029088908811  0.3421252778320985  0.2641155240601941
  0.6868467599627767  0.7048219081716111  0.6102530406860924
  0.3185877687220975  0.9194187854324467  0.9366431713570290
  0.3428580872128056  0.9795363001109046  0.7194182770760252
  0.7329198930824963  0.6109839135202266  0.4092251137341009
  0.9232484844723868  0.3426725762261352  0.0525392617563297
  0.1502363234338482  0.2100227065326958  0.1501989213959028
  0.7626102413046577  0.9441767298888034  0.4855672388249678
  0.0051800165314686  0.7328752893171419  0.7883469772739601
  0.2007367747324098  0.1258775872695588  0.8398557915599676
  1.0002540888126381  0.7717942171936232  0.5290187928638964
  0.7375716804157239  0.9950110176162634  0.1650903509699560
  0.0143887489937164  0.3586843529239397  0.8400646925938997
  0.5247558696750387  0.6012005515071278  0.1826018455558435
  0.3990585310117375  0.9975487530589265  0.5156596353717161
  0.4237721755809024  0.0737980863315267  0.1157707995128323
  0.6076063419061538  0.5554488943332460  0.8150732085778959
 -0.0088329718404492  0.3522307102359344  0.4883470634261407
 
             NaN             NaN             NaN
             NaN             NaN             NaN
             NaN             NaN             NaN
             NaN             NaN             NaN
             NaN             NaN             NaN
             NaN             NaN             NaN
             NaN             NaN             NaN
             NaN             NaN             NaN
             NaN             NaN             NaN
             NaN             NaN             NaN
             NaN             NaN             NaN
             NaN             NaN             NaN
             NaN             NaN             NaN
             NaN             NaN             NaN
             NaN             NaN             NaN
             NaN             NaN             NaN
             NaN             NaN             NaN
             NaN             NaN             NaN
             NaN             NaN             NaN
             NaN             NaN             NaN
             NaN             NaN             NaN
             NaN             NaN             NaN
             NaN             NaN             NaN
             NaN             NaN             NaN
             NaN             NaN             NaN
             NaN             NaN             NaN
             NaN             NaN             NaN
             NaN             NaN             NaN
             NaN             NaN             NaN
             NaN             NaN             NaN
             NaN             NaN             NaN
             NaN             NaN             NaN
             NaN             NaN             NaN
             NaN             NaN             NaN
             NaN             NaN             NaN
             NaN             NaN             NaN
             NaN             NaN             NaN
             NaN             NaN             NaN
             NaN             NaN             NaN
             NaN             NaN             NaN
             NaN             NaN             NaN
             NaN             NaN             NaN
             NaN             NaN             NaN
             NaN             NaN             NaN
             NaN             NaN             NaN
             NaN             NaN             NaN
             NaN             NaN             NaN
             NaN             NaN             NaN
             NaN             NaN             NaN
             NaN             NaN             NaN
             NaN             NaN             NaN
             NaN             NaN             NaN
             NaN             NaN             NaN
             NaN             NaN             NaN
             NaN             NaN             NaN
             NaN             NaN             NaN
             NaN             NaN             NaN
             NaN             NaN             NaN
             NaN             NaN             NaN
             NaN             NaN             NaN
             NaN             NaN             NaN
             NaN             NaN             NaN
