Ca8 Cr12 F42
1.0
7.492138 -0.017509 -0.542234
-3.644518 6.675937 0.211680
0.876617 0.131583 18.644438
Ca Cr F
8 12 42
direct
0.820253 0.407478 0.331404 Ca
0.528497 0.834568 0.680908 Ca
0.599970 0.123496 0.004033 Ca
0.017818 0.810729 0.663168 Ca
0.109280 0.658463 1.005670 Ca
0.899332 0.808076 0.171900 Ca
0.860909 0.919937 0.845251 Ca
0.238607 0.213459 0.501322 Ca
0.308316 0.973437 0.331395 Cr
0.012206 0.305159 0.661644 Cr
0.623903 0.651853 -0.008358 Cr
0.352044 0.983743 0.827802 Cr
0.958752 0.327596 0.161334 Cr
0.703122 0.674151 0.505875 Cr
0.435407 0.823327 0.163631 Cr
0.207707 0.688201 0.500591 Cr
0.310289 0.472917 0.829335 Cr
0.814396 0.465157 0.825387 Cr
0.707823 0.174636 0.506213 Cr
0.450466 0.320317 0.162928 Cr
0.736282 0.130577 0.612256 F
0.896206 0.674712 0.921456 F
0.474845 0.229304 0.278645 F
0.172415 0.710128 0.396307 F
0.439768 0.783257 0.056772 F
0.270809 0.475198 0.721520 F
0.731185 0.932907 0.952822 F
0.982572 0.787461 0.277559 F
0.131654 0.146375 0.616486 F
0.880009 0.754856 0.053645 F
0.856907 0.969631 0.725118 F
0.206539 0.107290 0.393913 F
0.537791 0.382990 0.028187 F
0.687982 0.201148 0.405418 F
0.894654 0.470234 0.690345 F
0.357553 0.545639 0.934047 F
0.247370 0.698498 0.607481 F
0.414333 0.843850 0.266155 F
0.754594 0.433718 0.172260 F
0.608194 0.378175 0.524948 F
0.642222 0.240398 0.887107 F
0.528404 0.861047 0.809125 F
0.402510 0.571841 0.491627 F
0.136689 0.685335 0.144159 F
0.984902 0.338566 0.262864 F
0.686714 0.708453 0.611222 F
0.317404 0.921541 0.935643 F
0.343309 0.986799 0.719292 F
0.726586 0.631083 0.408280 F
0.923738 0.337310 0.051584 F
0.147329 0.205147 0.153732 F
0.791488 0.965387 0.490671 F
0.003465 0.739574 0.787189 F
0.200504 0.132802 0.839961 F
-0.000572 0.774564 0.530088 F
0.734455 0.997291 0.162370 F
0.015851 0.369691 0.841699 F
0.523223 0.603795 0.181472 F
0.403868 -0.006644 0.508456 F
0.419232 0.071192 0.118717 F
0.605383 0.559100 0.813144 F
0.010549 0.372423 0.507572 F
