Ca128 Fe128 S128 O128
1.0
15.072897 0.000000 0.000000
-7.536448 13.053512 0.000000
0.000000 0.000000 46.261299
Ca Fe S O
127 128 128 128
direct
   0.1666670000000000    0.5833330000000000    0.5729570000000000 Ca
0.166667 0.083333 0.072957 Ca
0.166667 0.083333 0.322957 Ca
0.166667 0.083333 0.572957 Ca
0.166667 0.083333 0.822957 Ca
0.166667 0.333333 0.072957 Ca
0.166667 0.333333 0.322957 Ca
0.166667 0.333333 0.822957 Ca
0.166667 0.583333 0.072957 Ca
0.166667 0.583333 0.322957 Ca
0.166667 0.583333 0.822957 Ca
0.166667 0.833333 0.072957 Ca
0.166667 0.833333 0.322957 Ca
0.166667 0.833333 0.572957 Ca
0.166667 0.833333 0.822957 Ca
0.416667 0.083333 0.072957 Ca
0.416667 0.083333 0.322957 Ca
0.416667 0.083333 0.572957 Ca
0.416667 0.083333 0.822957 Ca
0.416667 0.333333 0.072957 Ca
0.416667 0.333333 0.322957 Ca
0.416667 0.333333 0.572957 Ca
0.416667 0.333333 0.822957 Ca
0.416667 0.583333 0.072957 Ca
0.416667 0.583333 0.322957 Ca
0.416667 0.583333 0.572957 Ca
0.416667 0.583333 0.822957 Ca
0.416667 0.833333 0.072957 Ca
0.416667 0.833333 0.322957 Ca
0.416667 0.833333 0.572957 Ca
0.416667 0.833333 0.822957 Ca
0.666667 0.083333 0.072957 Ca
0.666667 0.083333 0.322957 Ca
0.666667 0.083333 0.572957 Ca
0.666667 0.083333 0.822957 Ca
0.666667 0.333333 0.072957 Ca
0.666667 0.333333 0.322957 Ca
0.666667 0.333333 0.572957 Ca
0.666667 0.333333 0.822957 Ca
0.666667 0.583333 0.072957 Ca
0.666667 0.583333 0.322957 Ca
0.666667 0.583333 0.572957 Ca
0.666667 0.583333 0.822957 Ca
0.666667 0.833333 0.072957 Ca
0.666667 0.833333 0.322957 Ca
0.666667 0.833333 0.572957 Ca
0.666667 0.833333 0.822957 Ca
0.916667 0.083333 0.072957 Ca
0.916667 0.083333 0.322957 Ca
0.916667 0.083333 0.572957 Ca
0.916667 0.083333 0.822957 Ca
0.916667 0.333333 0.072957 Ca
0.916667 0.333333 0.322957 Ca
0.916667 0.333333 0.572957 Ca
0.916667 0.333333 0.822957 Ca
0.916667 0.583333 0.072957 Ca
0.916667 0.583333 0.322957 Ca
0.916667 0.583333 0.572957 Ca
0.916667 0.583333 0.822957 Ca
0.916667 0.833333 0.072957 Ca
0.916667 0.833333 0.322957 Ca
0.916667 0.833333 0.572957 Ca
0.916667 0.833333 0.822957 Ca
0.083333 0.166667 0.197957 Ca
0.083333 0.166667 0.447957 Ca
0.083333 0.166667 0.697957 Ca
0.083333 0.166667 0.947957 Ca
0.083333 0.416667 0.197957 Ca
0.083333 0.416667 0.447957 Ca
0.083333 0.416667 0.697957 Ca
0.083333 0.416667 0.947957 Ca
0.083333 0.666667 0.197957 Ca
0.083333 0.666667 0.447957 Ca
0.083333 0.666667 0.697957 Ca
0.083333 0.666667 0.947957 Ca
0.083333 0.916667 0.197957 Ca
0.083333 0.916667 0.447957 Ca
0.083333 0.916667 0.697957 Ca
0.083333 0.916667 0.947957 Ca
0.333333 0.166667 0.197957 Ca
0.333333 0.166667 0.447957 Ca
0.333333 0.166667 0.697957 Ca
0.333333 0.166667 0.947957 Ca
0.333333 0.416667 0.197957 Ca
0.333333 0.416667 0.447957 Ca
0.333333 0.416667 0.697957 Ca
0.333333 0.416667 0.947957 Ca
0.333333 0.666667 0.197957 Ca
0.333333 0.666667 0.447957 Ca
0.333333 0.666667 0.697957 Ca
0.333333 0.666667 0.947957 Ca
0.333333 0.916667 0.197957 Ca
0.333333 0.916667 0.447957 Ca
0.333333 0.916667 0.697957 Ca
0.333333 0.916667 0.947957 Ca
0.583333 0.166667 0.197957 Ca
0.583333 0.166667 0.447957 Ca
0.583333 0.166667 0.697957 Ca
0.583333 0.166667 0.947957 Ca
0.583333 0.416667 0.197957 Ca
0.583333 0.416667 0.447957 Ca
0.583333 0.416667 0.697957 Ca
0.583333 0.416667 0.947957 Ca
0.583333 0.666667 0.197957 Ca
0.583333 0.666667 0.447957 Ca
0.583333 0.666667 0.697957 Ca
0.583333 0.666667 0.947957 Ca
0.583333 0.916667 0.197957 Ca
0.583333 0.916667 0.447957 Ca
0.583333 0.916667 0.697957 Ca
0.583333 0.916667 0.947957 Ca
0.833333 0.166667 0.197957 Ca
0.833333 0.166667 0.447957 Ca
0.833333 0.166667 0.697957 Ca
0.833333 0.166667 0.947957 Ca
0.833333 0.416667 0.197957 Ca
0.833333 0.416667 0.447957 Ca
0.833333 0.416667 0.697957 Ca
0.833333 0.416667 0.947957 Ca
0.833333 0.666667 0.197957 Ca
0.833333 0.666667 0.447957 Ca
0.833333 0.666667 0.697957 Ca
0.833333 0.666667 0.947957 Ca
0.833333 0.916667 0.197957 Ca
0.833333 0.916667 0.447957 Ca
0.833333 0.916667 0.697957 Ca
0.833333 0.916667 0.947957 Ca
0.000000 0.000000 0.139591 Fe
0.000000 0.000000 0.389591 Fe
0.000000 0.000000 0.639591 Fe
0.000000 0.000000 0.889591 Fe
1.000000 0.250000 0.139591 Fe
1.000000 0.250000 0.389591 Fe
1.000000 0.250000 0.639591 Fe
1.000000 0.250000 0.889591 Fe
1.000000 0.500000 0.139591 Fe
1.000000 0.500000 0.389591 Fe
1.000000 0.500000 0.639591 Fe
1.000000 0.500000 0.889591 Fe
0.000000 0.750000 0.139591 Fe
0.000000 0.750000 0.389591 Fe
0.000000 0.750000 0.639591 Fe
0.000000 0.750000 0.889591 Fe
0.250000 0.000000 0.139591 Fe
0.250000 0.000000 0.389591 Fe
0.250000 0.000000 0.639591 Fe
0.250000 0.000000 0.889591 Fe
0.250000 0.250000 0.139591 Fe
0.250000 0.250000 0.389591 Fe
0.250000 0.250000 0.639591 Fe
0.250000 0.250000 0.889591 Fe
0.250000 0.500000 0.139591 Fe
0.250000 0.500000 0.389591 Fe
0.250000 0.500000 0.639591 Fe
0.250000 0.500000 0.889591 Fe
0.250000 0.750000 0.139591 Fe
0.250000 0.750000 0.389591 Fe
0.250000 0.750000 0.639591 Fe
0.250000 0.750000 0.889591 Fe
0.500000 0.000000 0.139591 Fe
0.500000 0.000000 0.389591 Fe
0.500000 0.000000 0.639591 Fe
0.500000 0.000000 0.889591 Fe
0.500000 0.250000 0.139591 Fe
0.500000 0.250000 0.389591 Fe
0.500000 0.250000 0.639591 Fe
0.500000 0.250000 0.889591 Fe
0.500000 0.500000 0.139591 Fe
0.500000 0.500000 0.389591 Fe
0.500000 0.500000 0.639591 Fe
0.500000 0.500000 0.889591 Fe
0.500000 0.750000 0.139591 Fe
0.500000 0.750000 0.389591 Fe
0.500000 0.750000 0.639591 Fe
0.500000 0.750000 0.889591 Fe
0.750000 0.000000 0.139591 Fe
0.750000 0.000000 0.389591 Fe
0.750000 0.000000 0.639591 Fe
0.750000 0.000000 0.889591 Fe
0.750000 0.250000 0.139591 Fe
0.750000 0.250000 0.389591 Fe
0.750000 0.250000 0.639591 Fe
0.750000 0.250000 0.889591 Fe
0.750000 0.500000 0.139591 Fe
0.750000 0.500000 0.389591 Fe
0.750000 0.500000 0.639591 Fe
0.750000 0.500000 0.889591 Fe
0.750000 0.750000 0.139591 Fe
0.750000 0.750000 0.389591 Fe
0.750000 0.750000 0.639591 Fe
0.750000 0.750000 0.889591 Fe
0.000000 0.000000 0.014591 Fe
0.000000 0.000000 0.264591 Fe
0.000000 0.000000 0.514591 Fe
0.000000 0.000000 0.764591 Fe
1.000000 0.250000 0.014591 Fe
1.000000 0.250000 0.264591 Fe
1.000000 0.250000 0.514591 Fe
1.000000 0.250000 0.764591 Fe
1.000000 0.500000 0.014591 Fe
1.000000 0.500000 0.264591 Fe
1.000000 0.500000 0.514591 Fe
1.000000 0.500000 0.764591 Fe
0.000000 0.750000 0.014591 Fe
0.000000 0.750000 0.264591 Fe
0.000000 0.750000 0.514591 Fe
0.000000 0.750000 0.764591 Fe
0.250000 0.000000 0.014591 Fe
0.250000 0.000000 0.264591 Fe
0.250000 0.000000 0.514591 Fe
0.250000 0.000000 0.764591 Fe
0.250000 0.250000 0.014591 Fe
0.250000 0.250000 0.264591 Fe
0.250000 0.250000 0.514591 Fe
0.250000 0.250000 0.764591 Fe
0.250000 0.500000 0.014591 Fe
0.250000 0.500000 0.264591 Fe
0.250000 0.500000 0.514591 Fe
0.250000 0.500000 0.764591 Fe
0.250000 0.750000 0.014591 Fe
0.250000 0.750000 0.264591 Fe
0.250000 0.750000 0.514591 Fe
0.250000 0.750000 0.764591 Fe
0.500000 0.000000 0.014591 Fe
0.500000 0.000000 0.264591 Fe
0.500000 0.000000 0.514591 Fe
0.500000 0.000000 0.764591 Fe
0.500000 0.250000 0.014591 Fe
0.500000 0.250000 0.264591 Fe
0.500000 0.250000 0.514591 Fe
0.500000 0.250000 0.764591 Fe
0.500000 0.500000 0.014591 Fe
0.500000 0.500000 0.264591 Fe
0.500000 0.500000 0.514591 Fe
0.500000 0.500000 0.764591 Fe
0.500000 0.750000 0.014591 Fe
0.500000 0.750000 0.264591 Fe
0.500000 0.750000 0.514591 Fe
0.500000 0.750000 0.764591 Fe
0.750000 0.000000 0.014591 Fe
0.750000 0.000000 0.264591 Fe
0.750000 0.000000 0.514591 Fe
0.750000 0.000000 0.764591 Fe
0.750000 0.250000 0.014591 Fe
0.750000 0.250000 0.264591 Fe
0.750000 0.250000 0.514591 Fe
0.750000 0.250000 0.764591 Fe
0.750000 0.500000 0.014591 Fe
0.750000 0.500000 0.264591 Fe
0.750000 0.500000 0.514591 Fe
0.750000 0.500000 0.764591 Fe
0.750000 0.750000 0.014591 Fe
0.750000 0.750000 0.264591 Fe
0.750000 0.750000 0.514591 Fe
0.750000 0.750000 0.764591 Fe
0.083333 0.166667 0.118423 S
0.083333 0.166667 0.368423 S
0.083333 0.166667 0.618423 S
0.083333 0.166667 0.868423 S
0.083333 0.416667 0.118423 S
0.083333 0.416667 0.368423 S
0.083333 0.416667 0.618423 S
0.083333 0.416667 0.868423 S
0.083333 0.666667 0.118423 S
0.083333 0.666667 0.368423 S
0.083333 0.666667 0.618423 S
0.083333 0.666667 0.868423 S
0.083333 0.916667 0.118423 S
0.083333 0.916667 0.368423 S
0.083333 0.916667 0.618423 S
0.083333 0.916667 0.868423 S
0.333333 0.166667 0.118423 S
0.333333 0.166667 0.368423 S
0.333333 0.166667 0.618423 S
0.333333 0.166667 0.868423 S
0.333333 0.416667 0.118423 S
0.333333 0.416667 0.368423 S
0.333333 0.416667 0.618423 S
0.333333 0.416667 0.868423 S
0.333333 0.666667 0.118423 S
0.333333 0.666667 0.368423 S
0.333333 0.666667 0.618423 S
0.333333 0.666667 0.868423 S
0.333333 0.916667 0.118423 S
0.333333 0.916667 0.368423 S
0.333333 0.916667 0.618423 S
0.333333 0.916667 0.868423 S
0.583333 0.166667 0.118423 S
0.583333 0.166667 0.368423 S
0.583333 0.166667 0.618423 S
0.583333 0.166667 0.868423 S
0.583333 0.416667 0.118423 S
0.583333 0.416667 0.368423 S
0.583333 0.416667 0.618423 S
0.583333 0.416667 0.868423 S
0.583333 0.666667 0.118423 S
0.583333 0.666667 0.368423 S
0.583333 0.666667 0.618423 S
0.583333 0.666667 0.868423 S
0.583333 0.916667 0.118423 S
0.583333 0.916667 0.368423 S
0.583333 0.916667 0.618423 S
0.583333 0.916667 0.868423 S
0.833333 0.166667 0.118423 S
0.833333 0.166667 0.368423 S
0.833333 0.166667 0.618423 S
0.833333 0.166667 0.868423 S
0.833333 0.416667 0.118423 S
0.833333 0.416667 0.368423 S
0.833333 0.416667 0.618423 S
0.833333 0.416667 0.868423 S
0.833333 0.666667 0.118423 S
0.833333 0.666667 0.368423 S
0.833333 0.666667 0.618423 S
0.833333 0.666667 0.868423 S
0.833333 0.916667 0.118423 S
0.833333 0.916667 0.368423 S
0.833333 0.916667 0.618423 S
0.833333 0.916667 0.868423 S
0.166667 0.083333 0.243424 S
0.166667 0.083333 0.493424 S
0.166667 0.083333 0.743424 S
0.166667 0.083333 0.993424 S
0.166667 0.333333 0.243424 S
0.166667 0.333333 0.493424 S
0.166667 0.333333 0.743424 S
0.166667 0.333333 0.993424 S
0.166667 0.583333 0.243424 S
0.166667 0.583333 0.493424 S
0.166667 0.583333 0.743424 S
0.166667 0.583333 0.993424 S
0.166667 0.833333 0.243424 S
0.166667 0.833333 0.493424 S
0.166667 0.833333 0.743424 S
0.166667 0.833333 0.993424 S
0.416667 0.083333 0.243424 S
0.416667 0.083333 0.493424 S
0.416667 0.083333 0.743424 S
0.416667 0.083333 0.993424 S
0.416667 0.333333 0.243424 S
0.416667 0.333333 0.493424 S
0.416667 0.333333 0.743424 S
0.416667 0.333333 0.993424 S
0.416667 0.583333 0.243424 S
0.416667 0.583333 0.493424 S
0.416667 0.583333 0.743424 S
0.416667 0.583333 0.993424 S
0.416667 0.833333 0.243424 S
0.416667 0.833333 0.493424 S
0.416667 0.833333 0.743424 S
0.416667 0.833333 0.993424 S
0.666667 0.083333 0.243424 S
0.666667 0.083333 0.493424 S
0.666667 0.083333 0.743424 S
0.666667 0.083333 0.993424 S
0.666667 0.333333 0.243424 S
0.666667 0.333333 0.493424 S
0.666667 0.333333 0.743424 S
0.666667 0.333333 0.993424 S
0.666667 0.583333 0.243424 S
0.666667 0.583333 0.493424 S
0.666667 0.583333 0.743424 S
0.666667 0.583333 0.993424 S
0.666667 0.833333 0.243424 S
0.666667 0.833333 0.493424 S
0.666667 0.833333 0.743424 S
0.666667 0.833333 0.993424 S
0.916667 0.083333 0.243424 S
0.916667 0.083333 0.493424 S
0.916667 0.083333 0.743424 S
0.916667 0.083333 0.993424 S
0.916667 0.333333 0.243424 S
0.916667 0.333333 0.493424 S
0.916667 0.333333 0.743424 S
0.916667 0.333333 0.993424 S
0.916667 0.583333 0.243424 S
0.916667 0.583333 0.493424 S
0.916667 0.583333 0.743424 S
0.916667 0.583333 0.993424 S
0.916667 0.833333 0.243424 S
0.916667 0.833333 0.493424 S
0.916667 0.833333 0.743424 S
0.916667 0.833333 0.993424 S
0.000000 0.000000 0.181268 O
0.000000 0.000000 0.431268 O
0.000000 0.000000 0.681268 O
0.000000 0.000000 0.931268 O
1.000000 0.250000 0.181268 O
1.000000 0.250000 0.431268 O
1.000000 0.250000 0.681268 O
1.000000 0.250000 0.931268 O
1.000000 0.500000 0.181268 O
1.000000 0.500000 0.431268 O
1.000000 0.500000 0.681268 O
1.000000 0.500000 0.931268 O
0.000000 0.750000 0.181268 O
0.000000 0.750000 0.431268 O
0.000000 0.750000 0.681268 O
0.000000 0.750000 0.931268 O
0.250000 0.000000 0.181268 O
0.250000 0.000000 0.431268 O
0.250000 0.000000 0.681268 O
0.250000 0.000000 0.931268 O
0.250000 0.250000 0.181268 O
0.250000 0.250000 0.431268 O
0.250000 0.250000 0.681268 O
0.250000 0.250000 0.931268 O
0.250000 0.500000 0.181268 O
0.250000 0.500000 0.431268 O
0.250000 0.500000 0.681268 O
0.250000 0.500000 0.931268 O
0.250000 0.750000 0.181268 O
0.250000 0.750000 0.431268 O
0.250000 0.750000 0.681268 O
0.250000 0.750000 0.931268 O
0.500000 0.000000 0.181268 O
0.500000 0.000000 0.431268 O
0.500000 0.000000 0.681268 O
0.500000 0.000000 0.931268 O
0.500000 0.250000 0.181268 O
0.500000 0.250000 0.431268 O
0.500000 0.250000 0.681268 O
0.500000 0.250000 0.931268 O
0.500000 0.500000 0.181268 O
0.500000 0.500000 0.431268 O
0.500000 0.500000 0.681268 O
0.500000 0.500000 0.931268 O
0.500000 0.750000 0.181268 O
0.500000 0.750000 0.431268 O
0.500000 0.750000 0.681268 O
0.500000 0.750000 0.931268 O
0.750000 0.000000 0.181268 O
0.750000 0.000000 0.431268 O
0.750000 0.000000 0.681268 O
0.750000 0.000000 0.931268 O
0.750000 0.250000 0.181268 O
0.750000 0.250000 0.431268 O
0.750000 0.250000 0.681268 O
0.750000 0.250000 0.931268 O
0.750000 0.500000 0.181268 O
0.750000 0.500000 0.431268 O
0.750000 0.500000 0.681268 O
0.750000 0.500000 0.931268 O
0.750000 0.750000 0.181268 O
0.750000 0.750000 0.431268 O
0.750000 0.750000 0.681268 O
0.750000 0.750000 0.931268 O
0.000000 0.000000 0.056268 O
0.000000 0.000000 0.306268 O
0.000000 0.000000 0.556268 O
0.000000 0.000000 0.806268 O
1.000000 0.250000 0.056268 O
1.000000 0.250000 0.306268 O
1.000000 0.250000 0.556268 O
1.000000 0.250000 0.806268 O
1.000000 0.500000 0.056268 O
1.000000 0.500000 0.306268 O
1.000000 0.500000 0.556268 O
1.000000 0.500000 0.806268 O
0.000000 0.750000 0.056268 O
0.000000 0.750000 0.306268 O
0.000000 0.750000 0.556268 O
0.000000 0.750000 0.806268 O
0.250000 0.000000 0.056268 O
0.250000 0.000000 0.306268 O
0.250000 0.000000 0.556268 O
0.250000 0.000000 0.806268 O
0.250000 0.250000 0.056268 O
0.250000 0.250000 0.306268 O
0.250000 0.250000 0.556268 O
0.250000 0.250000 0.806268 O
0.250000 0.500000 0.056268 O
0.250000 0.500000 0.306268 O
0.250000 0.500000 0.556268 O
0.250000 0.500000 0.806268 O
0.250000 0.750000 0.056268 O
0.250000 0.750000 0.306268 O
0.250000 0.750000 0.556268 O
0.250000 0.750000 0.806268 O
0.500000 0.000000 0.056268 O
0.500000 0.000000 0.306268 O
0.500000 0.000000 0.556268 O
0.500000 0.000000 0.806268 O
0.500000 0.250000 0.056268 O
0.500000 0.250000 0.306268 O
0.500000 0.250000 0.556268 O
0.500000 0.250000 0.806268 O
0.500000 0.500000 0.056268 O
0.500000 0.500000 0.306268 O
0.500000 0.500000 0.556268 O
0.500000 0.500000 0.806268 O
0.500000 0.750000 0.056268 O
0.500000 0.750000 0.306268 O
0.500000 0.750000 0.556268 O
0.500000 0.750000 0.806268 O
0.750000 0.000000 0.056268 O
0.750000 0.000000 0.306268 O
0.750000 0.000000 0.556268 O
0.750000 0.000000 0.806268 O
0.750000 0.250000 0.056268 O
0.750000 0.250000 0.306268 O
0.750000 0.250000 0.556268 O
0.750000 0.250000 0.806268 O
0.750000 0.500000 0.056268 O
0.750000 0.500000 0.306268 O
0.750000 0.500000 0.556268 O
0.750000 0.500000 0.806268 O
0.750000 0.750000 0.056268 O
0.750000 0.750000 0.306268 O
0.750000 0.750000 0.556268 O
0.750000 0.750000 0.806268 O
