Ca1 Mn12 F42                            
   1.00000000000000     
     7.3716780000000002    0.0019430000000000   -0.0367820000000000
    -3.6834680000000000    6.3254539999999997    0.0326270000000000
     0.1416820000000000    0.0344370000000000   17.4648280000000007
   Ca   Mn   F 
     1    12    42
Direct
  0.7674195898653974  0.4868092166759629  0.3121596408073965
  0.2789435592625341  0.9891182198606288  0.3321278877011438
  0.7075947252168380  0.6979628233409908  0.9973834080690513
  0.0113419349981865  0.3050889111664372  0.6725308599354688
  0.3650669418413955  0.0099551346612387  0.8328327258982047
  0.6571831835681475  0.6738323793020026  0.5111408714648101
  0.9651956166922167  0.3224863628088231  0.1596549563930052
  0.6513490636902810  0.1702615385198515  0.5069852808667991
  0.4598231243948247  0.3153453589580762  0.1489291490695582
  0.8654200177721022  0.5095021117344903  0.8336337408340203
  0.3655639673436254  0.5103419307000939  0.8317871926239050
  0.1552814714687750  0.6644761498789543  0.5108291568699102
  0.4723806834373680  0.8188838804537280  0.1643903090966964
  0.5628804272765889  0.7870222213506617  0.0604475078759943
  0.2704337366827228  0.4474153073648300  0.7298547808264405
  0.1856389142966429  0.7614736769078047  0.4078790627104255
  0.4061276487509997  0.2273135282878665  0.2561265056079294
  0.8271682135043585  0.5664145999758967  0.9357818921927072
  0.7732346274908085  0.2053833549886346  0.6136840631995656
  0.9025650973637167  0.0949038902476276  0.7365002623709491
  0.1740058396022432  0.1198798932459131  0.3837045944820952
  0.9104666491953393  0.7800851798913948  0.0632056765165506
  0.1204700809157278  0.2005989345967979  0.6107290089815288
  0.0283385211197518  0.8187519909139257  0.2820966888854938
  0.8236451829047001  0.9248767332495363  0.9414112148801973
  0.1313490900626747  0.5663294357772398  0.6125219160086380
  0.4021716770129579  0.8607738353533848  0.2730729055602936
  0.4568236505078681  0.5735089294274877  0.9331706758800080
  0.9010109138756934  0.4536512182851132  0.7315401254032441
  0.5480965550484046  0.1599081963005181  0.3832770871319403
  0.5472230477262364  0.4211050997234010  0.0486903464082915
  0.3668194713042037  0.5907585926721461  0.4902273032499591
  0.1869092207929809  0.6115998344161678  0.1428646760207043
  0.4418657308083060  0.7966868905592694  0.8137347402822661
  0.6564831632480429  0.2223926552381830  0.8499962963609085
  0.5737811807109968  0.3786681665642681  0.5259784689759442
  0.7520616558322915  0.4114868798425634  0.1795201209441623
  0.6927328306411817  0.6375152357789212  0.4074048462231835
  0.8951543340753824  0.2870057987124270  0.0630011786066780
  0.3947564333868839  0.0723249878160700  0.7340096457057455
  0.3358430669475642  0.9479610025968729  0.9317434050018456
  0.6255313280382556  0.7078283110773755  0.6080291445406566
  0.0038837254530261  0.3711197757160151  0.2642621190132558
  0.9446826150526054  0.7422801333744602  0.5285341913221967
  0.7581488409381124  0.0340927818753712  0.1849152711248189
  0.2886843921493069  0.2239153427626774  0.8506581544344284
  0.0733443142953234  0.7975440398090173  0.8168313027099333
  0.7298601898402413  0.9617524613848756  0.4865368737251444
  0.1755908137692671  0.2437187442914863  0.1394939855118057
  0.6319856991825472  0.5674954417436756  0.8022940793123712
  0.9169352167067366  0.3878454789875299  0.4689744796706347
  0.4192688613598810  0.0294559350019983  0.1285109397290461
  0.3835795466082233  0.9553178316145106  0.5361968729837758
  0.5293691442502433  0.6041211856972634  0.1983714749415864
  0.0992331004317368  0.4526842162654506  0.8626063806692771
 
             NaN             NaN             NaN
             NaN             NaN             NaN
             NaN             NaN             NaN
             NaN             NaN             NaN
             NaN             NaN             NaN
             NaN             NaN             NaN
             NaN             NaN             NaN
             NaN             NaN             NaN
             NaN             NaN             NaN
             NaN             NaN             NaN
             NaN             NaN             NaN
             NaN             NaN             NaN
             NaN             NaN             NaN
             NaN             NaN             NaN
             NaN             NaN             NaN
             NaN             NaN             NaN
             NaN             NaN             NaN
             NaN             NaN             NaN
             NaN             NaN             NaN
             NaN             NaN             NaN
             NaN             NaN             NaN
             NaN             NaN             NaN
             NaN             NaN             NaN
             NaN             NaN             NaN
             NaN             NaN             NaN
             NaN             NaN             NaN
             NaN             NaN             NaN
             NaN             NaN             NaN
             NaN             NaN             NaN
             NaN             NaN             NaN
             NaN             NaN             NaN
             NaN             NaN             NaN
             NaN             NaN             NaN
             NaN             NaN             NaN
             NaN             NaN             NaN
             NaN             NaN             NaN
             NaN             NaN             NaN
             NaN             NaN             NaN
             NaN             NaN             NaN
             NaN             NaN             NaN
             NaN             NaN             NaN
             NaN             NaN             NaN
             NaN             NaN             NaN
             NaN             NaN             NaN
             NaN             NaN             NaN
             NaN             NaN             NaN
             NaN             NaN             NaN
             NaN             NaN             NaN
             NaN             NaN             NaN
             NaN             NaN             NaN
             NaN             NaN             NaN
             NaN             NaN             NaN
             NaN             NaN             NaN
             NaN             NaN             NaN
             NaN             NaN             NaN
