Ca1 Mn12 F42
1.0
7.371678 0.001943 -0.036782
-3.683468 6.325454 0.032627
0.141682 0.034437 17.464828
Ca Mn F
1 12 42
direct
0.730619 0.494410 0.331573 Ca
0.295126 0.999123 0.332991 Mn
0.709892 0.708491 0.995650 Mn
0.003926 0.292660 0.671574 Mn
0.354660 0.002219 0.833066 Mn
0.647099 0.651425 0.506568 Mn
0.993981 0.345287 0.160879 Mn
0.646203 0.150270 0.504435 Mn
0.494960 0.349116 0.158376 Mn
0.855496 0.500775 0.833098 Mn
0.356616 0.503599 0.833381 Mn
0.147919 0.647731 0.508118 Mn
0.494108 0.847412 0.162432 Mn
0.573439 0.811234 0.058281 F
0.258239 0.439811 0.731509 F
0.176013 0.740944 0.402992 F
0.431600 0.252070 0.262894 F
0.821075 0.567045 0.935073 F
0.768658 0.188714 0.607986 F
0.893202 0.078987 0.734101 F
0.193329 0.126542 0.389999 F
0.922696 0.807182 0.057686 F
0.121177 0.193812 0.610678 F
0.053717 0.845680 0.279905 F
0.813232 0.924218 0.934053 F
0.121265 0.553376 0.610251 F
0.421007 0.872104 0.273205 F
0.450870 0.566429 0.935446 F
0.885436 0.434244 0.730946 F
0.555117 0.138823 0.389417 F
0.567914 0.445724 0.056187 F
0.355220 0.567072 0.483732 F
0.206193 0.636759 0.144174 F
0.434340 0.790216 0.814745 F
0.645352 0.215487 0.852494 F
0.568546 0.359211 0.524243 F
0.787223 0.431951 0.187886 F
0.680733 0.611741 0.403328 F
0.921515 0.313495 0.064709 F
0.390003 0.068620 0.734589 F
0.319295 0.935978 0.931551 F
0.612086 0.688172 0.602881 F
0.056059 0.382160 0.265105 F
0.935611 0.724120 0.523578 F
0.781933 0.058557 0.184115 F
0.277401 0.215976 0.851388 F
0.064533 0.787358 0.813819 F
0.721493 0.939149 0.481840 F
0.204438 0.270032 0.143405 F
0.623634 0.557983 0.803104 F
0.913791 0.371754 0.463549 F
0.444183 0.068691 0.132249 F
0.376753 0.933119 0.533450 F
0.546516 0.625526 0.196995 F
0.088065 0.447641 0.863509 F
