Ca1 Mn12 F42                            
   1.00000000000000     
     7.3726440000000002   -0.0071690000000000   -0.0538170000000000
    -3.6918950000000001    6.3311830000000002    0.0419520000000000
     0.1009020000000000    0.0360800000000000   17.4764270000000010
   Ca   Mn   F 
     1    12    42
Direct
  0.6092828329635390  0.4859301870934472  0.3135803511640774
  0.2644289637231436  0.9733590761136760  0.3298037388715599
  0.7165991442028503  0.7020110909355465  0.9962853574105193
  0.0127401264337563  0.3052688183019722  0.6735298099703890
  0.3681438844029884  0.0110913924389937  0.8327928128894992
  0.6644169539550615  0.6842966750787594  0.5178090920841297
  0.9715015835641626  0.3186497231268854  0.1597421297862205
  0.6550865501937267  0.1769251566139549  0.5078121486759339
  0.4648673973331869  0.3039080672350132  0.1424348695042644
  0.8690591221200769  0.5112368465825788  0.8333236604413458
  0.3684923261293276  0.5109888102323981  0.8321634684516296
  0.1593092769853475  0.6686777203280972  0.5130678626730341
  0.4716601859265587  0.8148796145817249  0.1632357188664746
  0.5693467348027353  0.7814401734579149  0.0605888367292152
  0.2726255946663623  0.4459530768064844  0.7305108980206949
  0.1893201399802294  0.7731929945163482  0.4118414253281573
  0.3743312904641948  0.1916758967731073  0.2454653298280592
  0.8359853006704202  0.5712916668163314  0.9348055944254351
  0.7739128063881706  0.2094683712655161  0.6159062218349246
  0.9021755181181433  0.0954755836204021  0.7376046707495851
  0.1914848227344120  0.1448366647255825  0.3744397980258187
  0.9210839500112508  0.7866472170906951  0.0617210879853008
  0.1180533174669230  0.1975865979114772  0.6118920442906280
  0.0095519799219451  0.8042438765370681  0.2867964422023053
  0.8275564244422792  0.9286939073276845  0.9403982593323001
  0.1394223750918689  0.5666080161965867  0.6141234775449268
  0.3887893953183398  0.8414355498296284  0.2738962377975701
  0.4619797105145227  0.5744410300655008  0.9331014585207568
  0.9045345310240154  0.4562478452594556  0.7317825571191954
  0.5390239046257015  0.1623005591673300  0.3768132197484110
  0.5650472833400273  0.4240529758917242  0.0460990038614187
  0.3724806452478076  0.5982469620883536  0.4901137233308419
  0.1888594168861024  0.6116250010914390  0.1399626174930963
  0.4435887235949509  0.7970872902929897  0.8138378146482600
  0.6596657470397690  0.2241786599683365  0.8500942683125040
  0.5746012235788410  0.3823720714373976  0.5241426417515970
  0.7469128696030742  0.3951411887066908  0.1872285392233801
  0.7125525059683967  0.6682494649564364  0.4142193881417960
  0.8831266060447097  0.2851868169459570  0.0643329197159576
  0.3971729484127349  0.0737830173991078  0.7340677685877937
  0.3389720948145031  0.9484245183734713  0.9316048322882495
  0.6230535964184785  0.7072455200760644  0.6141767645063860
  0.0567321808938816  0.3555681454238989  0.2571325094205271
  0.9507075587350254  0.7450360811391573  0.5354769530696775
  0.7558088562638096  0.0266145164533656  0.1854626189461184
  0.2918444056013997  0.2245378444331519  0.8509012076956004
  0.0762522819132819  0.7993123218384395  0.8162354378734580
  0.7366781788240035  0.9722693345803765  0.4916009656579479
  0.1871267488839706  0.2506216004528356  0.1276842706570219
  0.6346321520030420  0.5685924505611978  0.8024107822810131
  0.9242763682592352  0.3928866501728911  0.4742382038932870
  0.4214874445633818  0.0199066273952318  0.1217179564659142
  0.3877335907119510  0.9595632155776423  0.5377114070777678
  0.5259072867986075  0.5963988043013463  0.2023323656374295
  0.1024020463833767  0.4533823859867193  0.8627267558562688
 
             NaN             NaN             NaN
             NaN             NaN             NaN
             NaN             NaN             NaN
             NaN             NaN             NaN
             NaN             NaN             NaN
             NaN             NaN             NaN
             NaN             NaN             NaN
             NaN             NaN             NaN
             NaN             NaN             NaN
             NaN             NaN             NaN
             NaN             NaN             NaN
             NaN             NaN             NaN
             NaN             NaN             NaN
             NaN             NaN             NaN
             NaN             NaN             NaN
             NaN             NaN             NaN
             NaN             NaN             NaN
             NaN             NaN             NaN
             NaN             NaN             NaN
             NaN             NaN             NaN
             NaN             NaN             NaN
             NaN             NaN             NaN
             NaN             NaN             NaN
             NaN             NaN             NaN
             NaN             NaN             NaN
             NaN             NaN             NaN
             NaN             NaN             NaN
             NaN             NaN             NaN
             NaN             NaN             NaN
             NaN             NaN             NaN
             NaN             NaN             NaN
             NaN             NaN             NaN
             NaN             NaN             NaN
             NaN             NaN             NaN
             NaN             NaN             NaN
             NaN             NaN             NaN
             NaN             NaN             NaN
             NaN             NaN             NaN
             NaN             NaN             NaN
             NaN             NaN             NaN
             NaN             NaN             NaN
             NaN             NaN             NaN
             NaN             NaN             NaN
             NaN             NaN             NaN
             NaN             NaN             NaN
             NaN             NaN             NaN
             NaN             NaN             NaN
             NaN             NaN             NaN
             NaN             NaN             NaN
             NaN             NaN             NaN
             NaN             NaN             NaN
             NaN             NaN             NaN
             NaN             NaN             NaN
             NaN             NaN             NaN
             NaN             NaN             NaN
