Ca1 Mn12 F42
1.0
7.372644 -0.007169 -0.053817
-3.691895 6.331183 0.041952
0.100902 0.036080 17.476427
Ca Mn F
1 12 42
direct
0.608890 0.498113 0.332714 Ca
0.295838 0.998382 0.333055 Mn
0.710732 0.707072 0.995501 Mn
0.001816 0.293894 0.671511 Mn
0.353746 0.001622 0.833115 Mn
0.645504 0.652411 0.506171 Mn
0.995683 0.343845 0.160478 Mn
0.644743 0.151101 0.504552 Mn
0.498775 0.348352 0.158239 Mn
0.854555 0.500262 0.833101 Mn
0.355664 0.502984 0.833465 Mn
0.144899 0.649233 0.508108 Mn
0.495518 0.845981 0.162559 Mn
0.576305 0.809197 0.058426 F
0.256691 0.440089 0.731547 F
0.174713 0.745073 0.403495 F
0.436192 0.253977 0.263277 F
0.820676 0.565118 0.935143 F
0.764218 0.189822 0.608335 F
0.891070 0.080029 0.733932 F
0.200866 0.138925 0.387586 F
0.925053 0.805946 0.057119 F
0.117363 0.194619 0.610442 F
0.061172 0.857964 0.277543 F
0.813112 0.922237 0.933740 F
0.120704 0.554626 0.610324 F
0.418544 0.863838 0.275765 F
0.450498 0.564758 0.935617 F
0.884231 0.435346 0.730956 F
0.551606 0.131550 0.391563 F
0.568512 0.444720 0.056147 F
0.353762 0.567832 0.480486 F
0.208575 0.635859 0.143339 F
0.433135 0.789702 0.815230 F
0.644899 0.214864 0.852310 F
0.565967 0.360331 0.522706 F
0.788662 0.430014 0.184860 F
0.677091 0.615751 0.402545 F
0.923907 0.309115 0.064206 F
0.387968 0.066996 0.734600 F
0.319455 0.936273 0.931628 F
0.605925 0.684921 0.602269 F
0.062901 0.382670 0.264241 F
0.931969 0.725771 0.523907 F
0.782664 0.056734 0.184704 F
0.276747 0.215241 0.851038 F
0.063129 0.786889 0.814060 F
0.721200 0.940026 0.483004 F
0.209120 0.269977 0.143550 F
0.622387 0.557888 0.803223 F
0.915772 0.373241 0.466852 F
0.444438 0.064743 0.132837 F
0.374080 0.931600 0.533979 F
0.545263 0.624992 0.200172 F
0.087435 0.446629 0.863543 F
