Li32 Fe16 Si16 O64
1.0
   9.8145771025999995    0.0000000000000000    0.0000000000000000
   0.0000000000000000   10.5519437790000001    0.0000000000000000
   0.0000000000000000    0.0000000000000000   12.5325393676000001
Li Fe Si O
31 16 16 64
direct
   0.7214486750000000    0.8334759475000000    0.8738831880000000 Li
   0.4714486895000000    0.1665240675000000    0.3761168120000001 Li
   0.4714486895000000    0.1665240675000000    0.8761168120000001 Li
   0.4714486895000000    0.6665240674999999    0.3761168120000001 Li
   0.9714486895000000    0.1665240675000000    0.3761168120000001 Li
   0.9714486895000000    0.1665240675000000    0.8761168120000001 Li
   0.9714486895000000    0.6665240674999999    0.3761168120000001 Li
   0.9714486895000000    0.6665240674999999    0.8761168120000001 Li
   0.2214486750000000    0.3334759474999999    0.3738831880000000 Li
   0.2214486750000000    0.3334759474999999    0.8738831880000000 Li
   0.2214486750000000    0.8334759475000000    0.3738831880000000 Li
   0.2214486750000000    0.8334759475000000    0.8738831880000000 Li
   0.7214486750000000    0.3334759474999999    0.3738831880000000 Li
   0.7214486750000000    0.3334759474999999    0.8738831880000000 Li
   0.7214486750000000    0.8334759475000000    0.3738831880000000 Li
   0.2214486750000000    0.3334759474999999    0.1261168120000000 Li
   0.2214486750000000    0.3334759474999999    0.6261168120000000 Li
   0.2214486750000000    0.8334759475000000    0.1261168120000000 Li
   0.2214486750000000    0.8334759475000000    0.6261168120000000 Li
   0.7214486750000000    0.3334759474999999    0.1261168120000000 Li
   0.7214486750000000    0.3334759474999999    0.6261168120000000 Li
   0.7214486750000000    0.8334759475000000    0.1261168120000000 Li
   0.7214486750000000    0.8334759475000000    0.6261168120000000 Li
   0.4714486895000000    0.1665240675000000    0.1238831880000000 Li
   0.4714486895000000    0.1665240675000000    0.6238831880000001 Li
   0.4714486895000000    0.6665240674999999    0.1238831880000000 Li
   0.4714486895000000    0.6665240674999999    0.6238831880000001 Li
   0.9714486895000000    0.1665240675000000    0.1238831880000000 Li
   0.9714486895000000    0.1665240675000000    0.6238831880000001 Li
   0.9714486895000000    0.6665240674999999    0.1238831880000000 Li
   0.9714486895000000    0.6665240674999999    0.6238831880000001 Li
   0.4672208429999999    0.4095585050000000    0.0000000000000000 Fe
   0.4672208429999999    0.4095585050000000    0.5000000000000000 Fe
   0.4672208429999999    0.9095585050000000    0.0000000000000000 Fe
   0.4672208429999999    0.9095585050000000    0.5000000000000000 Fe
   0.9672208429999999    0.4095585050000000    0.0000000000000000 Fe
   0.9672208429999999    0.4095585050000000    0.5000000000000000 Fe
   0.9672208429999999    0.9095585050000000    0.0000000000000000 Fe
   0.9672208429999999    0.9095585050000000    0.5000000000000000 Fe
   0.2172208430000000    0.0904415025000000    0.2500000000000000 Fe
   0.2172208430000000    0.0904415025000000    0.7500000000000000 Fe
   0.2172208430000000    0.5904415024999999    0.2500000000000000 Fe
   0.2172208430000000    0.5904415024999999    0.7500000000000000 Fe
   0.7172208430000000    0.0904415025000000    0.2500000000000000 Fe
   0.7172208430000000    0.0904415025000000    0.7500000000000000 Fe
   0.7172208430000000    0.5904415024999999    0.2500000000000000 Fe
   0.7172208430000000    0.5904415024999999    0.7500000000000000 Fe
   0.4751417935000000    0.4171870650000000    0.2500000000000000 Si
   0.4751417935000000    0.4171870650000000    0.7500000000000000 Si
   0.4751417935000000    0.9171870650000000    0.2500000000000000 Si
   0.4751417935000000    0.9171870650000000    0.7500000000000000 Si
   0.9751417934999999    0.4171870650000000    0.2500000000000000 Si
   0.9751417934999999    0.4171870650000000    0.7500000000000000 Si
   0.9751417934999999    0.9171870650000000    0.2500000000000000 Si
   0.9751417934999999    0.9171870650000000    0.7500000000000000 Si
   0.2251418085000000    0.0828129350000000    0.0000000000000000 Si
   0.2251418085000000    0.0828129350000000    0.5000000000000000 Si
   0.2251418085000000    0.5828129350000000    0.0000000000000000 Si
   0.2251418085000000    0.5828129350000000    0.5000000000000000 Si
   0.7251418085000000    0.0828129350000000    0.0000000000000000 Si
   0.7251418085000000    0.0828129350000000    0.5000000000000000 Si
   0.7251418085000000    0.5828129350000000    0.0000000000000000 Si
   0.7251418085000000    0.5828129350000000    0.5000000000000000 Si
   0.1416100265000000    0.4116082790000000    0.2500000000000000 O
   0.1416100265000000    0.4116082790000000    0.7500000000000000 O
   0.1416100265000000    0.9116082789999999    0.2500000000000000 O
   0.1416100265000000    0.9116082789999999    0.7500000000000000 O
   0.6416100265000000    0.4116082790000000    0.2500000000000000 O
   0.6416100265000000    0.4116082790000000    0.7500000000000000 O
   0.6416100265000000    0.9116082789999999    0.2500000000000000 O
   0.6416100265000000    0.9116082789999999    0.7500000000000000 O
   0.3916100265000000    0.0883917210000000    0.0000000000000000 O
   0.3916100265000000    0.0883917210000000    0.5000000000000000 O
   0.3916100265000000    0.5883917209999999    0.0000000000000000 O
   0.3916100265000000    0.5883917209999999    0.5000000000000000 O
   0.8916100265000000    0.0883917210000000    0.0000000000000000 O
   0.8916100265000000    0.0883917210000000    0.5000000000000000 O
   0.8916100265000000    0.5883917209999999    0.0000000000000000 O
   0.8916100265000000    0.5883917209999999    0.5000000000000000 O
   0.1760666070000000    0.4340756835000000    0.0000000000000000 O
   0.1760666070000000    0.4340756835000000    0.5000000000000000 O
   0.1760666070000000    0.9340756835000000    0.0000000000000000 O
   0.1760666070000000    0.9340756835000000    0.5000000000000000 O
   0.6760666070000000    0.4340756835000000    0.0000000000000000 O
   0.6760666070000000    0.4340756835000000    0.5000000000000000 O
   0.6760666070000000    0.9340756835000000    0.0000000000000000 O
   0.6760666070000000    0.9340756835000000    0.5000000000000000 O
   0.4260666070000000    0.0659243315000000    0.2500000000000000 O
   0.4260666070000000    0.0659243315000000    0.7500000000000000 O
   0.4260666070000000    0.5659243315000000    0.2500000000000000 O
   0.4260666070000000    0.5659243315000000    0.7500000000000000 O
   0.9260666069999999    0.0659243315000000    0.2500000000000000 O
   0.9260666069999999    0.0659243315000000    0.7500000000000000 O
   0.9260666069999999    0.5659243315000000    0.2500000000000000 O
   0.9260666069999999    0.5659243315000000    0.7500000000000000 O
   0.4198727010000000    0.3440496024999999    0.3571386040000000 O
   0.4198727010000000    0.3440496024999999    0.8571386040000001 O
   0.4198727010000000    0.8440496025000001    0.3571386040000000 O
   0.4198727010000000    0.8440496025000001    0.8571386040000001 O
   0.9198727010000000    0.3440496024999999    0.3571386040000000 O
   0.9198727010000000    0.3440496024999999    0.8571386040000001 O
   0.9198727010000000    0.8440496025000001    0.3571386040000000 O
   0.9198727010000000    0.8440496025000001    0.8571386040000001 O
   0.1698727160000000    0.1559504120000000    0.1071385890000000 O
   0.1698727160000000    0.1559504120000000    0.6071385890000001 O
   0.1698727160000000    0.6559504119999999    0.1071385890000000 O
   0.1698727160000000    0.6559504119999999    0.6071385890000001 O
   0.6698727160000000    0.1559504120000000    0.1071385890000000 O
   0.6698727160000000    0.1559504120000000    0.6071385890000001 O
   0.6698727160000000    0.6559504119999999    0.1071385890000000 O
   0.6698727160000000    0.6559504119999999    0.6071385890000001 O
   0.1698727160000000    0.1559504120000000    0.3928613960000000 O
   0.1698727160000000    0.1559504120000000    0.8928613960000001 O
   0.1698727160000000    0.6559504119999999    0.3928613960000000 O
   0.1698727160000000    0.6559504119999999    0.8928613960000001 O
   0.6698727160000000    0.1559504120000000    0.3928613960000000 O
   0.6698727160000000    0.1559504120000000    0.8928613960000001 O
   0.6698727160000000    0.6559504119999999    0.3928613960000000 O
   0.6698727160000000    0.6559504119999999    0.8928613960000001 O
   0.4198727010000000    0.3440496024999999    0.1428614110000000 O
   0.4198727010000000    0.3440496024999999    0.6428614110000000 O
   0.4198727010000000    0.8440496025000001    0.1428614110000000 O
   0.4198727010000000    0.8440496025000001    0.6428614110000000 O
   0.9198727010000000    0.3440496024999999    0.1428614110000000 O
   0.9198727010000000    0.3440496024999999    0.6428614110000000 O
   0.9198727010000000    0.8440496025000001    0.1428614110000000 O
   0.9198727010000000    0.8440496025000001    0.6428614110000000 O
