Ca24 Ga16 N32
1.0
   0.0000000000000000   10.6635315068899299    0.0000000000000000
   8.3411512622999417    0.0000000000000000    0.0000000000000000
   0.0000000000000000   -0.2248431146035720  -11.1202533380829536
Ca Ga N
23 16 32
direct
   0.6163111750000001    0.3649264450000000    0.7717987300000000 Ca
   0.6163111750000001    0.3649264450000000    0.2717987300000000 Ca
   0.3836888249999990    0.6350735549999991    0.2282012700000000 Ca
   0.8836888249999992    0.1350735549999990    0.2282012700000000 Ca
   0.8836888249999992    0.1350735549999990    0.7282012699999999 Ca
   0.8836888249999992    0.8649264450000000    0.4782012700000000 Ca
   0.8836888249999992    0.8649264450000000    0.9782012699999999 Ca
   0.0000000000000000    0.3986277699999989    0.3750000000000000 Ca
   0.0000000000000000    0.3986277699999989    0.8749999999999999 Ca
   0.1163111750000000    0.8649264450000000    0.2717987300000000 Ca
   0.1163111750000000    0.8649264450000000    0.7717987300000000 Ca
   0.0000000000000000    0.6013722300000001    0.1250000000000000 Ca
   0.0000000000000000    0.6013722300000001    0.6250000000000000 Ca
   0.1163111750000000    0.1350735549999990    0.0217987299999995 Ca
   0.1163111750000000    0.1350735549999990    0.5217987299999995 Ca
   0.3836888249999991    0.3649264450000000    0.4782012700000000 Ca
   0.3836888249999991    0.3649264450000000    0.9782012699999999 Ca
   0.5000000000000000    0.8986277699999990    0.3750000000000000 Ca
   0.5000000000000000    0.8986277699999990    0.8749999999999999 Ca
   0.5000000000000000    0.1013722300000000    0.1250000000000000 Ca
   0.5000000000000000    0.1013722300000000    0.6250000000000000 Ca
   0.6163111750000001    0.6350735549999991    0.0217987299999995 Ca
   0.6163111750000001    0.6350735549999991    0.5217987299999995 Ca
   0.7971400349999991    0.3807421949999990    0.0472534350000000 Ga
   0.7971400349999991    0.3807421949999990    0.5472534349999999 Ga
   0.7971400349999991    0.6192578050000001    0.2972534350000000 Ga
   0.7971400349999991    0.6192578050000001    0.7972534349999999 Ga
   0.2028599650000000    0.3807421949999990    0.2027465650000000 Ga
   0.2028599650000000    0.3807421949999990    0.7027465650000000 Ga
   0.2028599650000000    0.6192578050000001    0.4527465649999999 Ga
   0.2028599650000000    0.6192578050000001    0.9527465650000000 Ga
   0.2971400349999990    0.8807421949999990    0.0472534350000000 Ga
   0.2971400349999991    0.8807421949999990    0.5472534349999999 Ga
   0.2971400349999990    0.1192578050000000    0.2972534350000000 Ga
   0.2971400349999991    0.1192578050000000    0.7972534349999999 Ga
   0.7028599650000001    0.8807421949999990    0.2027465650000000 Ga
   0.7028599650000000    0.8807421949999990    0.7027465650000000 Ga
   0.7028599650000001    0.1192578050000000    0.4527465649999999 Ga
   0.7028599650000001    0.1192578050000000    0.9527465650000000 Ga
   0.1579853699999990    0.5812085099999991    0.2840092250000000 N
   0.1579853699999990    0.5812085099999991    0.7840092249999999 N
   0.8820194650000002    0.8250891850000001    0.2403181150000000 N
   0.8820194650000001    0.8250891850000001    0.7403181149999999 N
   0.1579853699999990    0.4187914900000000    0.0340092250000000 N
   0.1579853699999990    0.4187914900000000    0.5340092249999999 N
   0.8420146300000001    0.4187914900000000    0.2159907749999995 N
   0.8420146300000000    0.4187914900000000    0.7159907749999995 N
   0.1179805350000000    0.8250891850000001    0.0096818850000000 N
   0.1179805350000000    0.8250891850000001    0.5096818849999999 N
   0.8420146300000000    0.5812085099999991    0.4659907749999995 N
   0.8420146300000001    0.5812085099999991    0.9659907749999995 N
   0.8820194650000001    0.1749108150000000    0.4903181150000000 N
   0.8820194650000001    0.1749108150000000    0.9903181149999999 N
   0.1179805350000000    0.1749108150000000    0.2596818850000000 N
   0.1179805350000000    0.1749108150000000    0.7596818850000000 N
   0.6579853700000000    0.0812085099999990    0.2840092250000000 N
   0.6579853700000000    0.0812085099999990    0.7840092249999999 N
   0.3820194649999990    0.3250891849999990    0.2403181150000000 N
   0.3820194649999990    0.3250891849999990    0.7403181149999999 N
   0.6579853700000000    0.9187914899999999    0.0340092250000000 N
   0.6579853700000000    0.9187914899999999    0.5340092249999999 N
   0.3420146300000000    0.9187914899999999    0.2159907749999995 N
   0.3420146300000000    0.9187914899999999    0.7159907749999995 N
   0.6179805350000001    0.3250891849999990    0.0096818850000000 N
   0.6179805350000001    0.3250891849999990    0.5096818849999999 N
   0.3420146300000000    0.0812085099999990    0.4659907749999995 N
   0.3420146300000000    0.0812085099999990    0.9659907749999995 N
   0.3820194649999989    0.6749108150000001    0.4903181150000000 N
   0.3820194649999990    0.6749108150000001    0.9903181149999999 N
   0.6179805350000001    0.6749108150000001    0.2596818850000000 N
   0.6179805349999999    0.6749108150000001    0.7596818850000000 N
