Li32 Cr32 S64
1.0
  11.3995328021170614   -0.0000044577693734   -0.0000006396138756
  -0.0000044958482010   11.3995229901171946   -0.0000008154403582
  -0.0000007241802060   -0.0000009529006730   19.8449240365414497
Li Cr S
31 32 64
direct
   0.4999999949361502    0.2500000068011551    0.6249990094138909 Li
   0.4999999949361502    0.2500000068011551    0.1249990094138908 Li
   0.4999999949361502    0.7500000068011551    0.1249990094138908 Li
   0.4999999949361502    0.7500000068011550    0.6249990094138909 Li
   0.9999999949361502    0.2500000068011552    0.1249990094138908 Li
   0.9999999949361501    0.2500000068011552    0.6249990094138909 Li
   0.9999999949361503    0.7500000068011551    0.1249990094138908 Li
   0.9999999949361502    0.7500000068011551    0.6249990094138909 Li
   0.5000000070431980    0.5000000000526156    0.0000003100352189 Li
   0.5000000070431981    0.0000000000526155    0.0000003100352189 Li
   0.5000000070431980    0.0000000000526155    0.5000003100352188 Li
   0.0000000070431980    0.5000000000526156    0.0000003100352189 Li
   0.0000000070431980    0.5000000000526156    0.5000003100352188 Li
   0.0000000070431980    0.0000000000526155    0.0000003100352189 Li
   0.0000000070431980    0.0000000000526155    0.5000003100352188 Li
   0.2499999966009198    0.4999999963071353    0.3750011299865328 Li
   0.2499999966009199    0.4999999963071353    0.8750011299865328 Li
   0.2499999966009198    0.9999999963071351    0.3750011299865328 Li
   0.2499999966009199    0.9999999963071352    0.8750011299865328 Li
   0.7499999966009199    0.4999999963071353    0.3750011299865328 Li
   0.7499999966009198    0.4999999963071353    0.8750011299865328 Li
   0.7499999966009199    0.9999999963071352    0.3750011299865328 Li
   0.7499999966009201    0.9999999963071353    0.8750011299865328 Li
   0.2499999962419679    0.2499999925193208    0.2500001397543024 Li
   0.2499999962419679    0.2499999925193208    0.7500001397543024 Li
   0.2499999962419679    0.7499999925193207    0.2500001397543024 Li
   0.2499999962419679    0.7499999925193207    0.7500001397543024 Li
   0.7499999962419679    0.2499999925193208    0.2500001397543024 Li
   0.7499999962419679    0.2499999925193208    0.7500001397543024 Li
   0.7499999962419678    0.7499999925193207    0.2500001397543024 Li
   0.7499999962419679    0.7499999925193208    0.7500001397543024 Li
   0.0000000079278130    0.0000000180384099    0.2500006049697063 Cr
   0.0000000079278130    0.0000000180384099    0.7500006049697063 Cr
   0.0000000079278131    0.5000000180384099    0.2500006049697063 Cr
   0.0000000079278131    0.5000000180384099    0.7500006049697063 Cr
   0.5000000079278131    0.0000000180384099    0.2500006049697063 Cr
   0.5000000079278131    0.0000000180384099    0.7500006049697063 Cr
   0.5000000079278131    0.5000000180384099    0.2500006049697063 Cr
   0.5000000079278131    0.5000000180384099    0.7500006049697063 Cr
   0.0000000007477467    0.2499999972812503    0.3749993432991979 Cr
   0.0000000007477467    0.2499999972812503    0.8749993432991978 Cr
   0.0000000007477467    0.7499999972812502    0.3749993432991978 Cr
   0.0000000007477467    0.7499999972812501    0.8749993432991977 Cr
   0.5000000007477468    0.2499999972812503    0.3749993432991979 Cr
   0.5000000007477468    0.2499999972812503    0.8749993432991978 Cr
   0.5000000007477468    0.7499999972812502    0.3749993432991979 Cr
   0.5000000007477468    0.7499999972812502    0.8749993432991978 Cr
   0.2500000342105828    0.0000000400663005    0.1250007965718752 Cr
   0.2500000342105828    0.0000000400663005    0.6250007965718751 Cr
   0.2500000342105828    0.5000000400663004    0.1250007965718752 Cr
   0.2500000342105828    0.5000000400663005    0.6250007965718751 Cr
   0.7500000342105827    0.0000000400663005    0.1250007965718752 Cr
   0.7500000342105828    0.0000000400663005    0.6250007965718751 Cr
   0.7500000342105829    0.5000000400663004    0.1250007965718752 Cr
   0.7500000342105828    0.5000000400663005    0.6250007965718751 Cr
   0.2500000096923074    0.2500000619241973    0.4999995534552149 Cr
   0.2500000096923075    0.2500000619241973    0.9999995534552149 Cr
   0.2500000096923074    0.7500000619241973    0.4999995534552148 Cr
   0.2500000096923074    0.7500000619241973    0.9999995534552149 Cr
   0.7500000096923074    0.2500000619241973    0.4999995534552148 Cr
   0.7500000096923076    0.2500000619241973    0.9999995534552150 Cr
   0.7500000096923075    0.7500000619241972    0.4999995534552148 Cr
   0.7500000096923075    0.7500000619241971    0.9999995534552149 Cr
   0.1249973340157275    0.3903622424423395    0.1875012543439744 S
   0.1249973340157275    0.3903622424423396    0.6875012543439745 S
   0.1249973340157276    0.8903622424423395    0.1875012543439745 S
   0.1249973340157276    0.8903622424423395    0.6875012543439744 S
   0.6249973340157275    0.3903622424423396    0.1875012543439744 S
   0.6249973340157275    0.3903622424423395    0.6875012543439745 S
   0.6249973340157277    0.8903622424423396    0.1875012543439745 S
   0.6249973340157277    0.8903622424423395    0.6875012543439745 S
   0.1249975584490670    0.3596366330389315    0.4375004113791299 S
   0.1249975584490670    0.3596366330389315    0.9375004113791298 S
   0.1249975584490670    0.8596366330389315    0.4375004113791299 S
   0.1249975584490670    0.8596366330389313    0.9375004113791298 S
   0.6249975584490670    0.3596366330389315    0.4375004113791299 S
   0.6249975584490671    0.3596366330389315    0.9375004113791299 S
   0.6249975584490670    0.8596366330389315    0.4375004113791298 S
   0.6249975584490670    0.8596366330389315    0.9375004113791299 S
   0.1403599885846667    0.1249991515115347    0.0624991700013453 S
   0.1403599885846667    0.1249991515115347    0.5624991700013453 S
   0.1403599885846667    0.6249991515115346    0.0624991700013453 S
   0.1403599885846667    0.6249991515115347    0.5624991700013453 S
   0.6403599885846668    0.1249991515115347    0.0624991700013453 S
   0.6403599885846668    0.1249991515115347    0.5624991700013453 S
   0.6403599885846668    0.6249991515115346    0.0624991700013453 S
   0.6403599885846667    0.6249991515115347    0.5624991700013453 S
   0.1096345454884151    0.1249984851515827    0.3124986880083540 S
   0.1096345454884151    0.1249984851515827    0.8124986880083541 S
   0.1096345454884151    0.6249984851515826    0.3124986880083540 S
   0.1096345454884151    0.6249984851515825    0.8124986880083541 S
   0.6096345454884151    0.1249984851515827    0.3124986880083540 S
   0.6096345454884151    0.1249984851515827    0.8124986880083540 S
   0.6096345454884152    0.6249984851515826    0.3124986880083540 S
   0.6096345454884153    0.6249984851515826    0.8124986880083540 S
   0.3596400348354152    0.3750008109486593    0.0624991937259054 S
   0.3596400348354153    0.3750008109486593    0.5624991937259054 S
   0.3596400348354153    0.8750008109486592    0.0624991937259054 S
   0.3596400348354152    0.8750008109486592    0.5624991937259054 S
   0.8596400348354152    0.3750008109486593    0.0624991937259054 S
   0.8596400348354154    0.3750008109486592    0.5624991937259054 S
   0.8596400348354152    0.8750008109486591    0.0624991937259054 S
   0.8596400348354153    0.8750008109486592    0.5624991937259054 S
   0.3903654321519525    0.3750015021886312    0.3124986934839420 S
   0.3903654321519525    0.3750015021886313    0.8124986934839420 S
   0.3903654321519526    0.8750015021886310    0.3124986934839420 S
   0.3903654321519525    0.8750015021886312    0.8124986934839420 S
   0.8903654321519525    0.3750015021886313    0.3124986934839420 S
   0.8903654321519526    0.3750015021886312    0.8124986934839421 S
   0.8903654321519525    0.8750015021886312    0.3124986934839420 S
   0.8903654321519526    0.8750015021886313    0.8124986934839421 S
   0.3750026623759269    0.1096377568670164    0.1875012565304317 S
   0.3750026623759269    0.1096377568670164    0.6875012565304317 S
   0.3750026623759269    0.6096377568670163    0.1875012565304317 S
   0.3750026623759269    0.6096377568670163    0.6875012565304317 S
   0.8750026623759268    0.1096377568670164    0.1875012565304317 S
   0.8750026623759269    0.1096377568670164    0.6875012565304317 S
   0.8750026623759269    0.6096377568670164    0.1875012565304317 S
   0.8750026623759269    0.6096377568670163    0.6875012565304317 S
   0.3750023966981431    0.1403633048609123    0.4375004450409748 S
   0.3750023966981431    0.1403633048609123    0.9375004450409747 S
   0.3750023966981431    0.6403633048609123    0.4375004450409747 S
   0.3750023966981430    0.6403633048609122    0.9375004450409747 S
   0.8750023966981431    0.1403633048609123    0.4375004450409747 S
   0.8750023966981432    0.1403633048609123    0.9375004450409746 S
   0.8750023966981429    0.6403633048609122    0.4375004450409747 S
   0.8750023966981432    0.6403633048609123    0.9375004450409746 S
