Ca16 Ti32 O64
1.0
  10.2164139719744149    0.0143548706110942    0.0266272048487258
   2.1160166946543870   11.4161004175293375    3.2088115183925900
  -0.0163520650732280    0.0207223015701076   11.8213928617702972
Ca Ti O
15 32 64
direct
   0.6842213712130558    0.3408439891931181    0.2921459209461865 Ca
   0.1842213712130558    0.3408439891931181    0.2921459209461865 Ca
   0.1842213712130558    0.3408439891931180    0.7921459209461865 Ca
   0.1842213712130558    0.8408439891931181    0.2921459209461865 Ca
   0.1842213712130558    0.8408439891931181    0.7921459209461864 Ca
   0.6842213712130559    0.3408439891931181    0.7921459209461864 Ca
   0.6842213712130558    0.8408439891931180    0.2921459209461865 Ca
   0.6842213712130557    0.8408439891931180    0.7921459209461865 Ca
   0.3752702649324213    0.3498090620193146    0.0384329250792987 Ca
   0.3752702649324214    0.8498090620193145    0.0384329250792987 Ca
   0.3752702649324213    0.8498090620193145    0.5384329250792987 Ca
   0.8752702649324212    0.3498090620193146    0.0384329250792988 Ca
   0.8752702649324213    0.3498090620193146    0.5384329250792986 Ca
   0.8752702649324214    0.8498090620193146    0.0384329250792988 Ca
   0.8752702649324213    0.8498090620193146    0.5384329250792987 Ca
   0.1456951531974120    0.0919612050661023    0.4780663624988434 Ti
   0.1456951531974120    0.0919612050661023    0.9780663624988435 Ti
   0.1456951531974120    0.5919612050661023    0.4780663624988434 Ti
   0.1456951531974120    0.5919612050661023    0.9780663624988433 Ti
   0.6456951531974120    0.0919612050661023    0.4780663624988434 Ti
   0.6456951531974121    0.0919612050661023    0.9780663624988433 Ti
   0.6456951531974121    0.5919612050661023    0.4780663624988434 Ti
   0.6456951531974120    0.5919612050661022    0.9780663624988435 Ti
   0.1617595301034811    0.1033898574089989    0.2220055849414635 Ti
   0.1617595301034811    0.1033898574089989    0.7220055849414635 Ti
   0.1617595301034811    0.6033898574089989    0.2220055849414635 Ti
   0.1617595301034811    0.6033898574089989    0.7220055849414634 Ti
   0.6617595301034811    0.1033898574089989    0.2220055849414635 Ti
   0.6617595301034811    0.1033898574089989    0.7220055849414634 Ti
   0.6617595301034811    0.6033898574089988    0.2220055849414635 Ti
   0.6617595301034811    0.6033898574089988    0.7220055849414635 Ti
   0.3977806586131116    0.0872686889195257    0.1085588275217795 Ti
   0.3977806586131116    0.0872686889195257    0.6085588275217795 Ti
   0.3977806586131116    0.5872686889195257    0.1085588275217795 Ti
   0.3977806586131117    0.5872686889195257    0.6085588275217795 Ti
   0.8977806586131116    0.0872686889195257    0.1085588275217795 Ti
   0.8977806586131117    0.0872686889195257    0.6085588275217795 Ti
   0.8977806586131117    0.5872686889195257    0.1085588275217795 Ti
   0.8977806586131116    0.5872686889195257    0.6085588275217795 Ti
   0.4138120993402836    0.0986705735759265    0.3524956479891586 Ti
   0.4138120993402836    0.0986705735759265    0.8524956479891586 Ti
   0.4138120993402836    0.5986705735759266    0.3524956479891586 Ti
   0.4138120993402836    0.5986705735759266    0.8524956479891584 Ti
   0.9138120993402834    0.0986705735759265    0.3524956479891586 Ti
   0.9138120993402835    0.0986705735759266    0.8524956479891584 Ti
   0.9138120993402838    0.5986705735759265    0.3524956479891586 Ti
   0.9138120993402838    0.5986705735759265    0.8524956479891586 Ti
   0.0056618514527038    0.4904106061833601    0.0073123052988749 O
   0.0056618514527038    0.4904106061833601    0.5073123052988748 O
   0.0056618514527038    0.9904106061833602    0.0073123052988749 O
   0.0056618514527038    0.9904106061833602    0.5073123052988748 O
   0.5056618514527038    0.4904106061833601    0.0073123052988749 O
   0.5056618514527037    0.4904106061833602    0.5073123052988748 O
   0.5056618514527038    0.9904106061833601    0.0073123052988749 O
   0.5056618514527039    0.9904106061833601    0.5073123052988748 O
   0.0104909899939152    0.0009571873525900    0.2551709045468940 O
   0.0104909899939152    0.0009571873525900    0.7551709045468938 O
   0.0104909899939152    0.5009571873525900    0.2551709045468940 O
   0.0104909899939152    0.5009571873525900    0.7551709045468940 O
   0.5104909899939153    0.0009571873525900    0.2551709045468940 O
   0.5104909899939153    0.0009571873525900    0.7551709045468940 O
   0.5104909899939153    0.5009571873525900    0.2551709045468940 O
   0.5104909899939152    0.5009571873525899    0.7551709045468938 O
   0.0490349909040156    0.1897007002494995    0.0753624159870476 O
   0.0490349909040156    0.1897007002494995    0.5753624159870476 O
   0.0490349909040156    0.6897007002494996    0.0753624159870476 O
   0.0490349909040156    0.6897007002494995    0.5753624159870476 O
   0.5490349909040155    0.1897007002494995    0.0753624159870477 O
   0.5490349909040155    0.1897007002494995    0.5753624159870476 O
   0.5490349909040156    0.6897007002494995    0.0753624159870476 O
   0.5490349909040156    0.6897007002494995    0.5753624159870476 O
   0.0538569919609948    0.2002220727593312    0.3232572528234918 O
   0.0538569919609948    0.2002220727593312    0.8232572528234916 O
   0.0538569919609948    0.7002220727593311    0.3232572528234918 O
   0.0538569919609948    0.7002220727593311    0.8232572528234918 O
   0.5538569919609948    0.2002220727593312    0.3232572528234918 O
   0.5538569919609948    0.2002220727593312    0.8232572528234918 O
   0.5538569919609948    0.7002220727593310    0.3232572528234918 O
   0.5538569919609948    0.7002220727593310    0.8232572528234917 O
   0.2560574147452854    0.4849032695570799    0.1322184319745965 O
   0.2560574147452854    0.4849032695570799    0.6322184319745966 O
   0.2560574147452854    0.9849032695570797    0.1322184319745966 O
   0.2560574147452854    0.9849032695570799    0.6322184319745964 O
   0.7560574147452853    0.4849032695570799    0.1322184319745965 O
   0.7560574147452854    0.4849032695570799    0.6322184319745964 O
   0.7560574147452855    0.9849032695570797    0.1322184319745966 O
   0.7560574147452854    0.9849032695570800    0.6322184319745966 O
   0.2571335140920609    0.4962629831860568    0.3775975023014019 O
   0.2571335140920610    0.4962629831860568    0.8775975023014020 O
   0.2571335140920610    0.9962629831860568    0.3775975023014020 O
   0.2571335140920610    0.9962629831860568    0.8775975023014018 O
   0.7571335140920610    0.4962629831860567    0.3775975023014019 O
   0.7571335140920610    0.4962629831860568    0.8775975023014018 O
   0.7571335140920610    0.9962629831860568    0.3775975023014019 O
   0.7571335140920611    0.9962629831860568    0.8775975023014020 O
   0.3023947403870189    0.1943428403333022    0.4529411345704303 O
   0.3023947403870189    0.1943428403333023    0.9529411345704302 O
   0.3023947403870189    0.6943428403333022    0.4529411345704303 O
   0.3023947403870189    0.6943428403333022    0.9529411345704304 O
   0.8023947403870189    0.1943428403333023    0.4529411345704303 O
   0.8023947403870189    0.1943428403333023    0.9529411345704304 O
   0.8023947403870190    0.6943428403333023    0.4529411345704303 O
   0.8023947403870190    0.6943428403333022    0.9529411345704303 O
   0.3034789290642407    0.2057579641958007    0.1983847835205345 O
   0.3034789290642407    0.2057579641958007    0.6983847835205346 O
   0.3034789290642408    0.7057579641958006    0.1983847835205346 O
   0.3034789290642407    0.7057579641958007    0.6983847835205345 O
   0.8034789290642406    0.2057579641958007    0.1983847835205345 O
   0.8034789290642407    0.2057579641958007    0.6983847835205345 O
   0.8034789290642409    0.7057579641958006    0.1983847835205346 O
   0.8034789290642409    0.7057579641958007    0.6983847835205346 O
