Ca1 V4 P6 O24                           
   1.00000000000000     
     2.6208209999999998    7.1015839999999999    4.5059940000000003
     0.2038950000000000    0.1406060000000000    8.8114139999999992
     7.5573030000000001    0.1386020000000000    4.5199670000000003
   Ca   V    P    O 
     1     4     6    24
Direct
  0.2804287022423479  0.7371002730139542  0.5592985758686034
  0.6564788003238272  0.6310132520796105  0.6427726294835709
  0.1416265663009013  0.1461796869657647  0.1369729097220966
  0.8382763944428319  0.8587854636224822  0.8606734233536436
  0.3538198618049613  0.3556065231853702  0.3611049383025215
  0.2521340159483750  0.5223384173142296  0.9718158194215155
  0.0203900121093680  0.7512743923591707  0.4539837262483311
  0.9707447671210844  0.2450291790160321  0.5289050713576137
  0.4637909723522532  0.0335898699735964  0.7494690462978841
  0.5361843031451102  0.9660238654350770  0.2477281940957415
  0.7452602482992039  0.4699212676778658  0.0359514180242361
  0.5688419226330459  0.7762624232388620  0.4211914388694998
  0.2905766948757572  0.0436944994537043  0.9358956058738901
  0.4232428702984408  0.5658306391031648  0.7846019018919244
  0.9345882061967964  0.3052735926449261  0.0476795829344000
  0.7788885489066859  0.4001462700518610  0.5875006562174970
  0.0380272773015844  0.9424539220609125  0.2948973734641267
  0.9799244109074556  0.0421660872502914  0.6802337291140910
  0.5758241831089373  0.4226458168052759  0.2156621358526471
  0.7115936743869590  0.9495809373703840  0.0649872485898813
  0.2219456419485848  0.5932217428484333  0.4261579596377632
  0.0764308978110955  0.6897402485955466  0.9206315638651026
  0.4199401536254819  0.2224616123404509  0.5841961708033915
  0.2573087199179173  0.3340671013924947  0.9924907652173842
  0.8739638072479846  0.7037058219802854  0.4607101656302289
  0.9997994072232823  0.2472348586970559  0.3389477908642869
  0.5120180503656813  0.8611166755058224  0.7080408020696864
  0.3535417156812621  0.9760767015063052  0.2474825436534377
  0.7262932479042740  0.4974923046304485  0.8576996423158660
  0.2660499941104181  0.5104934664152589  0.1426564491746580
 -0.0285490623833002  0.7596416476755876  0.6474980269310111
  0.1347399589613152  0.2860927235460530  0.5049237824838329
  0.6365404715615965  1.0199309174132052  0.7689293907041983
  0.5004622814847111  0.1350674272574312  0.2835140530787097
  0.7408867112204706  0.6557074763790989  0.0182424746726666
 
             NaN             NaN             NaN
             NaN             NaN             NaN
             NaN             NaN             NaN
             NaN             NaN             NaN
             NaN             NaN             NaN
             NaN             NaN             NaN
             NaN             NaN             NaN
             NaN             NaN             NaN
             NaN             NaN             NaN
             NaN             NaN             NaN
             NaN             NaN             NaN
             NaN             NaN             NaN
             NaN             NaN             NaN
             NaN             NaN             NaN
             NaN             NaN             NaN
             NaN             NaN             NaN
             NaN             NaN             NaN
             NaN             NaN             NaN
             NaN             NaN             NaN
             NaN             NaN             NaN
             NaN             NaN             NaN
             NaN             NaN             NaN
             NaN             NaN             NaN
             NaN             NaN             NaN
             NaN             NaN             NaN
             NaN             NaN             NaN
             NaN             NaN             NaN
             NaN             NaN             NaN
             NaN             NaN             NaN
             NaN             NaN             NaN
             NaN             NaN             NaN
             NaN             NaN             NaN
             NaN             NaN             NaN
             NaN             NaN             NaN
             NaN             NaN             NaN
