Ca1 V4 P6 O24
1.0
2.620821 7.101584 4.505994
0.203895 0.140606 8.811414
7.557303 0.138602 4.519967
Ca V P O
1 4 6 24
direct
0.372334 0.686481 0.557411 Ca
0.648533 0.640492 0.644329 V
0.137066 0.142480 0.140703 V
0.848159 0.852680 0.856866 V
0.355590 0.351538 0.351929 V
0.247917 0.528610 0.963129 P
0.035405 0.747107 0.465959 P
0.960276 0.250997 0.525370 P
0.461334 0.031297 0.747836 P
0.532538 0.967257 0.244989 P
0.746773 0.461654 0.036916 P
0.574385 0.777003 0.412359 O
0.297475 0.044780 0.936142 O
0.412533 0.572335 0.770625 O
0.931620 0.288840 0.043906 O
0.780416 0.420626 0.568500 O
0.050499 0.931435 0.293059 O
0.944992 0.065182 0.697622 O
0.579713 0.426216 0.225682 O
0.695670 0.953531 0.056577 O
0.215983 0.577279 0.423252 O
0.066087 0.705835 0.946781 O
0.418561 0.222006 0.582457 O
0.230430 0.351149 0.989156 O
0.859655 0.718343 0.504690 O
0.976824 0.244200 0.345954 O
0.479072 0.869052 0.710466 O
0.341304 -0.004640 0.249748 O
0.701779 0.498085 0.870499 O
0.289939 0.494775 0.129518 O
0.022023 0.757246 0.642662 O
0.138236 0.269607 0.495889 O
0.650234 0.995461 0.752207 O
0.512465 0.131224 0.280279 O
0.766786 0.640156 0.006427 O
