Mg8 V16 O40
1.0
   7.4496040344000001    0.0000000000000000    0.0000000000000000
   0.0000000000000000   10.1952943802000000    0.0000000000000000
   0.0000000000000000    0.0000000000000000   11.2104883193999996
Mg V O
7 16 40
direct
   0.2500000000000000    0.6085849999999999    0.7500000000000000 Mg
   0.2500000000000000    0.3914150000000000    0.2500000000000000 Mg
   0.7500000000000000    0.3914150000000000    0.2500000000000000 Mg
   0.0000000000000000    0.1085850000000000    0.7500000000000000 Mg
   0.4999999999999999    0.1085850000000000    0.7500000000000000 Mg
   0.0000000000000000    0.8914150000000000    0.2500000000000000 Mg
   0.4999999999999999    0.8914150000000000    0.2500000000000000 Mg
   0.0000000000000000    0.2010319980000000    0.0978860040000000 V
   0.4999999999999999    0.2010319980000000    0.0978860040000000 V
   0.2500000000000000    0.2989679870000000    0.9021139740000000 V
   0.7500000000000000    0.2989679870000000    0.9021139740000000 V
   0.2500000000000000    0.2989679870000000    0.5978860260000000 V
   0.7500000000000000    0.2989679870000000    0.5978860260000000 V
   0.0000000000000000    0.2010319980000000    0.4021140040000000 V
   0.4999999999999999    0.2010319980000000    0.4021140040000000 V
   0.2500000000000000    0.7010319830000000    0.0978860040000000 V
   0.7500000000000000    0.7010319830000000    0.0978860040000000 V
   0.0000000000000000    0.7989680170000000    0.9021139740000000 V
   0.4999999999999999    0.7989680170000000    0.9021139740000000 V
   0.0000000000000000    0.7989680170000000    0.5978860260000000 V
   0.4999999999999999    0.7989680170000000    0.5978860260000000 V
   0.2500000000000000    0.7010319830000000    0.4021140040000000 V
   0.7500000000000000    0.7010319830000000    0.4021140040000000 V
   0.2500000000000000    0.1960430000000000    0.7500000000000000 O
   0.7500000000000000    0.1960430000000000    0.7500000000000000 O
   0.0000000000000000    0.3039569850000000    0.2500000000000000 O
   0.4999999999999999    0.3039569850000000    0.2500000000000000 O
   0.0000000000000000    0.2355690000000000    0.5773940090000000 O
   0.4999999999999999    0.2355690000000000    0.5773940090000000 O
   0.2500000000000000    0.2644310000000000    0.4226059910000001 O
   0.7500000000000000    0.2644310000000000    0.4226059910000001 O
   0.2500000000000000    0.2644310000000000    0.0773940010000000 O
   0.7500000000000000    0.2644310000000000    0.0773940010000000 O
   0.0000000000000000    0.2355690000000000    0.9226059910000001 O
   0.4999999999999999    0.2355690000000000    0.9226059910000001 O
   0.0000000000000000    0.0411299990000000    0.1278769970000000 O
   0.4999999999999999    0.0411299990000000    0.1278769970000000 O
   0.2500000000000000    0.4588699939999999    0.8721230030000001 O
   0.7500000000000000    0.4588699939999999    0.8721230030000001 O
   0.0000000000000000    0.0411299990000000    0.3721230030000000 O
   0.4999999999999999    0.0411299990000000    0.3721230030000000 O
   0.2500000000000000    0.4588699939999999    0.6278769970000000 O
   0.7500000000000000    0.4588699939999999    0.6278769970000000 O
   0.0000000000000000    0.6960430150000000    0.7500000000000000 O
   0.4999999999999999    0.6960430150000000    0.7500000000000000 O
   0.2500000000000000    0.8039569850000000    0.2500000000000000 O
   0.7500000000000000    0.8039569850000000    0.2500000000000000 O
   0.2500000000000000    0.7355690000000000    0.5773940090000000 O
   0.7500000000000000    0.7355690000000000    0.5773940090000000 O
   0.0000000000000000    0.7644310000000000    0.4226059910000001 O
   0.4999999999999999    0.7644310000000000    0.4226059910000001 O
   0.0000000000000000    0.7644310000000000    0.0773940010000000 O
   0.4999999999999999    0.7644310000000000    0.0773940010000000 O
   0.2500000000000000    0.7355690000000000    0.9226059910000001 O
   0.7500000000000000    0.7355690000000000    0.9226059910000001 O
   0.2500000000000000    0.5411300060000001    0.1278769970000000 O
   0.7500000000000000    0.5411300060000001    0.1278769970000000 O
   0.0000000000000000    0.9588699939999999    0.8721230030000001 O
   0.4999999999999999    0.9588699939999999    0.8721230030000001 O
   0.2500000000000000    0.5411300060000001    0.3721230030000000 O
   0.7500000000000000    0.5411300060000001    0.3721230030000000 O
   0.0000000000000000    0.9588699939999999    0.6278769970000000 O
   0.4999999999999999    0.9588699939999999    0.6278769970000000 O
