Ca8 Cr12 F42                            
   1.00000000000000     
     7.3681580000000002   -0.0281550000000000   -0.5207410000000000
    -3.5976830000000000    6.7379899999999999    0.1580720000000000
     0.9127250000000000    0.0065620000000000   18.6172329999999988
   Ca   Cr   F 
     8    12    42
Direct
  0.7846416394222299  0.9239512652261387  0.8351829466127492
  0.8437096076353492  0.5165410246806050  0.3133569463020025
  0.5673695765530022  0.0604203597898862  0.0042118541789101
  0.0412334766280314  0.8537986773218661  0.6701507591690817
  0.8396054373629156  0.0117371392497240  0.3444379160749282
  0.0949112506460208  0.5692225585902245  0.9776156545712344
  0.9926209777613665  0.8509290563486531  0.1520764954146484
  0.2694084886326935  0.2474409083609154  0.5037428245979719
  0.3444235208229320  0.0138370257889335  0.3427491570422563
  0.9896869889478825  0.2962252873434358  0.6631460831077892
  0.6239247175206372  0.6002341349839345  0.9962010047185809
  0.3124921639870936  0.9706693993633809  0.8346573848331027
  0.9422761118882669  0.3083620626972192  0.1591907455017249
  0.7274551151022516  0.7157006509504107  0.4986430735708788
  0.4482717913022913  0.8069036577880502  0.1729368806567187
  0.2102304393283694  0.7171342329805114  0.4968949207954755
  0.3100099333677095  0.4552254818417417  0.8262109376413120
  0.8068450405695152  0.4562950830649882  0.8156274054051196
  0.7384906314033707  0.2206140311199620  0.4977801493483563
  0.4514021477592895  0.3170999758959099  0.1672292869098473
  0.7421879273828110  0.1794332196869074  0.5994832259236769
  0.7970646985567810  0.5156875280934927  0.9185083881819777
  0.4969787355001185  0.2661971473723891  0.2907931156210036
  0.1757515419512374  0.7370181107345578  0.3855051977671655
  0.3690154242226580  0.7455119700690860  0.0501684758309701
  0.2375830758672342  0.4210378989024409  0.7255137082029077
  0.7223039560835350  0.8764113417178397  0.9578152635953124
  0.9317516678203377  0.8335174390522119  0.2684347224955451
  0.1300215332644971  0.1587557797285139  0.6113243506850375
  0.9002970310229097  0.6937365863274232  0.0467240895745096
  0.8776812633813562  0.0100751301604546  0.7275193016621108
  0.1763676331303434  0.1291584035799301  0.3864598215512051
  0.5191692925626938  0.3281003131730711  0.0331750405971036
  0.7665632375898540  0.2673668810591355  0.3929450364315064
  0.8743727545957791  0.4556537192533944  0.7130490532924657
  0.3657379116266064  0.5091953637305634  0.9349236916942795
  0.1869281473538372  0.7091593977828965  0.6006766183797073
  0.5196616971851037  0.9165707465942179  0.2986054519080181
  0.7614971192008017  0.4384147222155498  0.1779360105369525
  0.6409165290044300  0.4245801881789664  0.5117917587870808
  0.6124538862622079  0.1250531722710865  0.8729391812354659
  0.4085573252515997  0.7672918347772670  0.8215073376189596
  0.4197988673695153  0.6094126823340816  0.4917065942957368
  0.1530919273466408  0.6753930040090252  0.1959102723718633
  0.9443809623916853  0.2832812236031657  0.2655198898081538
  0.7507138424349336  0.7460335971429204  0.5996947718077397
  0.2613057640909615  0.8897961486882454  0.9366966255498452
  0.3477325116770876  0.0400680076681192  0.7366885930777149
  0.7342170555964180  0.6814138506659336  0.3921333359230496
  0.9041557427523110  0.3014932507421480  0.0503147574824310
  0.1445459263866142  0.1983710872505877  0.1510193265446758
  0.7826019030318604  0.9902780182239986  0.4693491788500915
  0.0201492228709943  0.7840280991105074  0.8053132858915057
  0.1849252852512739  0.1476889759940179  0.8535749506631977
  0.0353478033616138  0.8504147233901129  0.5013681325187622
  0.7367493951893594  0.9466006253924391  0.1390678522275960
  0.0247196542984559  0.3950650224944839  0.8556146569716317
  0.4927803708119946  0.5791927351517262  0.1975702122692424
  0.4378396847575781  0.0511624994425643  0.4846676786305859
  0.3950939768048978  0.0374258285136770  0.1396604409978481
  0.6086582218191656  0.5636081021198572  0.8020317030900076
  0.0391204931361620  0.3735231843957813  0.5011764882903993
 
             NaN             NaN             NaN
             NaN             NaN             NaN
             NaN             NaN             NaN
             NaN             NaN             NaN
             NaN             NaN             NaN
             NaN             NaN             NaN
             NaN             NaN             NaN
             NaN             NaN             NaN
             NaN             NaN             NaN
             NaN             NaN             NaN
             NaN             NaN             NaN
             NaN             NaN             NaN
             NaN             NaN             NaN
             NaN             NaN             NaN
             NaN             NaN             NaN
             NaN             NaN             NaN
             NaN             NaN             NaN
             NaN             NaN             NaN
             NaN             NaN             NaN
             NaN             NaN             NaN
             NaN             NaN             NaN
             NaN             NaN             NaN
             NaN             NaN             NaN
             NaN             NaN             NaN
             NaN             NaN             NaN
             NaN             NaN             NaN
             NaN             NaN             NaN
             NaN             NaN             NaN
             NaN             NaN             NaN
             NaN             NaN             NaN
             NaN             NaN             NaN
             NaN             NaN             NaN
             NaN             NaN             NaN
             NaN             NaN             NaN
             NaN             NaN             NaN
             NaN             NaN             NaN
             NaN             NaN             NaN
             NaN             NaN             NaN
             NaN             NaN             NaN
             NaN             NaN             NaN
             NaN             NaN             NaN
             NaN             NaN             NaN
             NaN             NaN             NaN
             NaN             NaN             NaN
             NaN             NaN             NaN
             NaN             NaN             NaN
             NaN             NaN             NaN
             NaN             NaN             NaN
             NaN             NaN             NaN
             NaN             NaN             NaN
             NaN             NaN             NaN
             NaN             NaN             NaN
             NaN             NaN             NaN
             NaN             NaN             NaN
             NaN             NaN             NaN
             NaN             NaN             NaN
             NaN             NaN             NaN
             NaN             NaN             NaN
             NaN             NaN             NaN
             NaN             NaN             NaN
             NaN             NaN             NaN
             NaN             NaN             NaN
