Ca8 Cr12 F42
1.0
7.368158 -0.028155 -0.520741
-3.597683 6.737990 0.158072
0.912725 0.006562 18.617233
Ca Cr F
8 12 42
direct
0.769050 0.890995 0.818946 Ca
0.841220 0.514679 0.314661 Ca
0.566485 0.065916 0.004116 Ca
0.053260 0.860143 0.669839 Ca
0.837731 0.009907 0.345403 Ca
0.096426 0.571160 0.978905 Ca
0.994471 0.853176 0.153588 Ca
0.265120 0.244277 0.503322 Ca
0.341759 0.010225 0.342629 Cr
0.982088 0.283430 0.664983 Cr
0.627991 0.610457 0.996983 Cr
0.319658 0.974555 0.834446 Cr
0.943456 0.310043 0.160327 Cr
0.728171 0.711396 0.500912 Cr
0.450769 0.809449 0.173331 Cr
0.212722 0.713667 0.497902 Cr
0.310790 0.458711 0.826651 Cr
0.806546 0.453817 0.817512 Cr
0.734705 0.214276 0.499086 Cr
0.454082 0.320426 0.167595 Cr
0.735397 0.159238 0.600311 F
0.820065 0.561814 0.915465 F
0.495163 0.263460 0.290977 F
0.171649 0.733085 0.384999 F
0.370177 0.748179 0.051534 F
0.231317 0.429120 0.725300 F
0.723490 0.887807 0.960119 F
0.931091 0.832553 0.269782 F
0.133643 0.160112 0.611959 F
0.903047 0.699493 0.047999 F
0.882694 0.000387 0.729564 F
0.175017 0.126804 0.386668 F
0.525256 0.337706 0.033352 F
0.763049 0.264741 0.394455 F
0.848058 0.419286 0.715436 F
0.370752 0.515457 0.935307 F
0.201519 0.715428 0.603502 F
0.518661 0.914089 0.298967 F
0.763732 0.440991 0.179234 F
0.633464 0.412865 0.514690 F
0.598121 0.166608 0.877401 F
0.445861 0.800271 0.821267 F
0.420056 0.604933 0.492635 F
0.156040 0.677888 0.196145 F
0.943780 0.283075 0.266698 F
0.751559 0.741856 0.602810 F
0.266521 0.885170 0.935162 F
0.358250 0.053612 0.737410 F
0.734326 0.679751 0.394313 F
0.903902 0.304760 0.051603 F
0.147061 0.201432 0.151930 F
0.793411 0.995006 0.470862 F
0.040490 0.766556 0.798125 F
0.176159 0.129383 0.854338 F
0.035490 0.844089 0.504982 F
0.740087 0.949847 0.141305 F
0.027097 0.398097 0.859412 F
0.495414 0.581956 0.198868 F
0.433412 0.039973 0.484372 F
0.398467 0.041050 0.139408 F
0.604771 0.552726 0.798822 F
0.036620 0.378906 0.504185 F
