Ca8 V12 F42                             
   1.00000000000000     
     7.5548469999999996    0.0100340000000000    0.0598510000000000
    -3.7751060000000001    6.4600799999999996   -0.1090850000000000
    -0.4679140000000000    0.4527670000000000   18.4737340000000003
   Ca   V    F 
     8    12    42
Direct
  0.9069112939038729  0.4233274792385129  0.3541188004352759
  0.4885488069206026  0.8266086486356763  0.6723834729848349
  0.6037417360491174  0.1443660240063606  0.9968513950586227
  0.9829350182375102  0.8122557448485855  0.6633600384039772
  0.1340634653144114  0.6343199422372017  0.0048554325550600
  0.9304080029804188  0.8098216057083554  0.1691422387770531
  0.8572776774858069  0.0101881503689291  0.8405928255107200
  0.2138853391961026  0.1815522861674208  0.5015276222912182
  0.3250337168797163  0.9899971721020687  0.3298859797829231
 -0.0017380948986112  0.3143826867757700  0.6681797215765138
  0.6477622456648986  0.6616191861483962  0.9964859374099438
  0.3260469443763913  0.9909270697199962  0.8256426114822593
  0.9798166240284889  0.3207919047590632  0.1581513840634624
  0.6878270767726652  0.6582525282766625  0.5005771742544645
  0.4705632432770924  0.8206203846772899  0.1647383219675269
  0.1824469992156699  0.6638153520928214  0.5035407832021249
  0.3301462790674118  0.4992824025554606  0.8319692755013486
  0.8241266502849786  0.4921251900863040  0.8286397745105479
  0.6739327744499770  0.1509747406665712  0.5029172993764437
  0.4726983177328331  0.3139292449705233  0.1601839060497758
  0.7249372152316504  0.1491022552006422  0.6119108065020253
  0.7994779554102172  0.5185857672548619  0.9406151111142654
  0.4485717671482682  0.2363688696325877  0.2648315301282560
  0.1991604709362431  0.7266933902925068  0.3949413711636666
  0.4957828596237479  0.7855963046999539  0.0539338902642773
  0.2788407409528122  0.4748070528835327  0.7222443673196129
  0.7517182986541550  0.9541401491884760  0.9510169431126047
  0.0631322835400492  0.8250434155464960  0.2739226034654131
  0.1062492983666532  0.1468315496215029  0.6151536994802923
  0.9301582097085481  0.7668257516765398  0.0493570728058551
  0.8392654266941875  0.0123759954237835  0.7208422005397090
  0.1983809585129596  0.1146375073168046  0.3889439930472297
  0.5264737153732189  0.3817379821046246  0.0495138310229968
  0.6017521197106883  0.1397726305048513  0.3931700197269681
  0.8741751379078496  0.4790869662174423  0.7184979713812676
  0.3644502621855379  0.5505780007090416  0.9424464780576015
  0.1572793208321363  0.6097626886119341  0.6154716749888665
  0.4520098137212248  0.8725410184721224  0.2682299187980691
  0.7827737066240649  0.4328740333409874  0.1711780753681182
  0.5751471039037044  0.3537230282208464  0.5249576930327299
  0.6298842948146059  0.1836455596844299  0.8565108216472731
  0.4575481151094037  0.8136009105687430  0.8041804981906121
  0.3751486793347901  0.5452322729950412  0.4905283924574855
  0.1670220910763846  0.6349669145086497  0.1355166361498656
  0.0412701626516291  0.3600941359683878  0.2626337178474059
  0.6636246173159426  0.7077096737062059  0.6118937010908398
  0.3032617079501417  0.9295241928747104  0.9389729338450867
  0.3116297996304624  0.9790670819173216  0.7105494764068027
  0.7560430042076365  0.5847655333447340  0.4068436604716190
  0.9191946441287835  0.3107944909697136  0.0465868825143397
  0.1667401931929314  0.1957162783897941  0.1463968433566451
  0.7818402290751211  0.9578632859979140  0.4839051982911943
  0.0144385262637580  0.8062581184128563  0.8057091132473886
  0.2148176639369450  0.1853127084225288  0.8473236923988181
  0.9921219172742265  0.7797036150133324  0.5321913829726219
  0.7788556291990770  0.0119762704972011  0.1697228659427450
  0.0225386530541745  0.3857859635269382  0.8514926390590607
  0.5660178741707902  0.6133102803893430  0.1862968305197795
  0.3789289084335344  0.9596978915209221  0.5331409911599626
  0.4216869303690742  0.0415659070701237  0.1181982561057179
  0.6330379329810120  0.6070671892511161  0.8154345811095747
  0.9779652394854176  0.3580499946864716  0.4744603987003830
 
             NaN             NaN             NaN
             NaN             NaN             NaN
             NaN             NaN             NaN
             NaN             NaN             NaN
             NaN             NaN             NaN
             NaN             NaN             NaN
             NaN             NaN             NaN
             NaN             NaN             NaN
             NaN             NaN             NaN
             NaN             NaN             NaN
             NaN             NaN             NaN
             NaN             NaN             NaN
             NaN             NaN             NaN
             NaN             NaN             NaN
             NaN             NaN             NaN
             NaN             NaN             NaN
             NaN             NaN             NaN
             NaN             NaN             NaN
             NaN             NaN             NaN
             NaN             NaN             NaN
             NaN             NaN             NaN
             NaN             NaN             NaN
             NaN             NaN             NaN
             NaN             NaN             NaN
             NaN             NaN             NaN
             NaN             NaN             NaN
             NaN             NaN             NaN
             NaN             NaN             NaN
             NaN             NaN             NaN
             NaN             NaN             NaN
             NaN             NaN             NaN
             NaN             NaN             NaN
             NaN             NaN             NaN
             NaN             NaN             NaN
             NaN             NaN             NaN
             NaN             NaN             NaN
             NaN             NaN             NaN
             NaN             NaN             NaN
             NaN             NaN             NaN
             NaN             NaN             NaN
             NaN             NaN             NaN
             NaN             NaN             NaN
             NaN             NaN             NaN
             NaN             NaN             NaN
             NaN             NaN             NaN
             NaN             NaN             NaN
             NaN             NaN             NaN
             NaN             NaN             NaN
             NaN             NaN             NaN
             NaN             NaN             NaN
             NaN             NaN             NaN
             NaN             NaN             NaN
             NaN             NaN             NaN
             NaN             NaN             NaN
             NaN             NaN             NaN
             NaN             NaN             NaN
             NaN             NaN             NaN
             NaN             NaN             NaN
             NaN             NaN             NaN
             NaN             NaN             NaN
             NaN             NaN             NaN
             NaN             NaN             NaN
