Ca8 V12 F42
1.0
7.554847 0.010034 0.059851
-3.775106 6.460080 -0.109085
-0.467914 0.452767 18.473734
Ca V F
8 12 42
direct
0.845421 0.350098 0.336896 Ca
0.488895 0.840589 0.665969 Ca
0.614518 0.146689 0.997711 Ca
0.986499 0.818365 0.661920 Ca
0.143435 0.633896 0.005902 Ca
0.949659 0.817809 0.167834 Ca
0.858344 0.010305 0.839066 Ca
0.162581 0.194423 0.493233 Ca
0.330422 0.984271 0.330514 V
1.000720 0.320687 0.667949 V
0.654800 0.661744 0.996644 V
0.330376 0.993216 0.826346 V
0.985827 0.321792 0.163835 V
0.673259 0.661956 0.502405 V
0.480749 0.820407 0.165377 V
0.171106 0.668471 0.501912 V
0.334825 0.503444 0.830945 V
0.828951 0.494730 0.829545 V
0.665959 0.160689 0.500641 V
0.485053 0.317790 0.161817 V
0.733078 0.171374 0.609552 F
0.807274 0.516417 0.942243 F
0.475723 0.242099 0.267451 F
0.189213 0.731504 0.395467 F
0.502570 0.787146 0.054119 F
0.281348 0.483293 0.721391 F
0.760716 0.955452 0.951021 F
0.053902 0.821011 0.275381 F
0.106701 0.152975 0.612920 F
0.939163 0.768202 0.049289 F
0.839813 0.016939 0.718893 F
0.198828 0.105507 0.388853 F
0.532160 0.381737 0.050478 F
0.597772 0.132978 0.392077 F
0.876426 0.483395 0.719650 F
0.370974 0.551119 0.942107 F
0.144271 0.609613 0.614291 F
0.459903 0.862949 0.270067 F
0.794181 0.439825 0.171932 F
0.547991 0.348053 0.514367 F
0.635027 0.185610 0.857224 F
0.462321 0.817625 0.803173 F
0.362269 0.552546 0.493646 F
0.175808 0.634527 0.139323 F
0.008752 0.337646 0.270075 F
0.663222 0.705227 0.614052 F
0.312145 0.930926 0.940121 F
0.312245 0.984185 0.711245 F
0.718319 0.635905 0.400360 F
0.929633 0.313153 0.050764 F
0.176812 0.200009 0.154108 F
0.787936 0.973956 0.488516 F
0.018249 0.809121 0.806776 F
0.219504 0.188915 0.846825 F
0.985537 0.786169 0.528799 F
0.788164 0.011680 0.171176 F
0.027427 0.388263 0.850178 F
0.582718 0.618304 0.187681 F
0.394468 0.938644 0.543443 F
0.423889 0.039636 0.120649 F
0.638656 0.611373 0.819115 F
0.959410 0.374109 0.467887 F
