Li64 P32 S112
1.0
  22.4467096045413577    0.8717118822561079   -0.2871351755597556
  -3.4974177310616246   16.8640055315064288   -6.2177638756552724
  -0.1605837960145682   -0.0480068452484334   12.3993016699271106
Li P S
63 32 112
direct
   0.2303335376929660    0.8871603218256102    0.8318475727284870 Li
   0.0907102564727791    0.1686682662579574    0.1893592424567893 Li
   0.0907102564727791    0.1686682662579574    0.6893592424567893 Li
   0.0907102564727791    0.6686682662579574    0.1893592424567892 Li
   0.5907102564727793    0.1686682662579574    0.1893592424567892 Li
   0.5907102564727793    0.1686682662579574    0.6893592424567893 Li
   0.5907102564727792    0.6686682662579573    0.1893592424567892 Li
   0.5907102564727793    0.6686682662579573    0.6893592424567893 Li
   0.4092897432924423    0.3313317335756543    0.3106407573341414 Li
   0.4092897432924423    0.3313317335756542    0.8106407573341414 Li
   0.4092897432924423    0.8313317335756543    0.3106407573341414 Li
   0.4092897432924423    0.8313317335756542    0.8106407573341414 Li
   0.9092897432924424    0.3313317335756542    0.3106407573341414 Li
   0.9092897432924424    0.3313317335756542    0.8106407573341414 Li
   0.9092897432924424    0.8313317335756544    0.3106407573341415 Li
   0.9092897432924425    0.8313317335756543    0.8106407573341413 Li
   0.2696664625911719    0.1128396779184163    0.1681524284734433 Li
   0.2696664625911719    0.1128396779184164    0.6681524284734432 Li
   0.2696664625911719    0.6128396779184164    0.1681524284734432 Li
   0.2696664625911718    0.6128396779184163    0.6681524284734432 Li
   0.7696664625911720    0.1128396779184163    0.1681524284734433 Li
   0.7696664625911720    0.1128396779184163    0.6681524284734432 Li
   0.7696664625911720    0.6128396779184163    0.1681524284734433 Li
   0.7696664625911720    0.6128396779184163    0.6681524284734432 Li
   0.2303335376929661    0.3871603218256102    0.3318475727284870 Li
   0.2303335376929660    0.3871603218256102    0.8318475727284870 Li
   0.2303335376929660    0.8871603218256103    0.3318475727284870 Li
   0.7303335376929662    0.3871603218256102    0.3318475727284870 Li
   0.7303335376929662    0.3871603218256102    0.8318475727284870 Li
   0.7303335376929662    0.8871603218256102    0.3318475727284870 Li
   0.7303335376929662    0.8871603218256102    0.8318475727284870 Li
   0.1417382461055531    0.3007287181579201    0.0169638349739722 Li
   0.1417382461055531    0.3007287181579201    0.5169638349739721 Li
   0.1417382461055531    0.8007287181579201    0.0169638349739721 Li
   0.1417382461055531    0.8007287181579201    0.5169638349739721 Li
   0.6417382461055533    0.3007287181579201    0.0169638349739721 Li
   0.6417382461055533    0.3007287181579201    0.5169638349739721 Li
   0.6417382461055532    0.8007287181579201    0.0169638349739722 Li
   0.6417382461055532    0.8007287181579201    0.5169638349739721 Li
   0.3582617530576399    0.1992712817182319    0.4830361648574539 Li
   0.3582617530576399    0.1992712817182320    0.9830361648574538 Li
   0.3582617530576399    0.6992712817182319    0.4830361648574539 Li
   0.3582617530576399    0.6992712817182321    0.9830361648574539 Li
   0.8582617530576401    0.1992712817182319    0.4830361648574539 Li
   0.8582617530576400    0.1992712817182319    0.9830361648574539 Li
   0.8582617530576400    0.6992712817182319    0.4830361648574539 Li
   0.8582617530576401    0.6992712817182319    0.9830361648574539 Li
   0.0041190040110315    0.0643062734990225    0.4227072943612620 Li
   0.0041190040110315    0.0643062734990225    0.9227072943612620 Li
   0.0041190040110315    0.5643062734990225    0.4227072943612620 Li
   0.0041190040110315    0.5643062734990226    0.9227072943612620 Li
   0.5041190040110316    0.0643062734990225    0.4227072943612620 Li
   0.5041190040110316    0.0643062734990225    0.9227072943612620 Li
   0.5041190040110315    0.5643062734990226    0.4227072943612620 Li
   0.5041190040110316    0.5643062734990225    0.9227072943612620 Li
   0.4958809951530793    0.4356937256589324    0.0772927062323830 Li
   0.4958809951530793    0.4356937256589324    0.5772927062323829 Li
   0.4958809951530793    0.9356937256589323    0.0772927062323829 Li
   0.4958809951530793    0.9356937256589324    0.5772927062323829 Li
   0.9958809951530794    0.4356937256589324    0.0772927062323830 Li
   0.9958809951530794    0.4356937256589324    0.5772927062323829 Li
   0.9958809951530795    0.9356937256589324    0.0772927062323830 Li
   0.9958809951530796    0.9356937256589324    0.5772927062323830 Li
   0.0890454806848321    0.4017905412261453    0.2954371334173729 P
   0.0890454806848321    0.4017905412261453    0.7954371334173729 P
   0.0890454806848320    0.9017905412261453    0.2954371334173729 P
   0.0890454806848320    0.9017905412261452    0.7954371334173729 P
   0.5890454806848322    0.4017905412261453    0.2954371334173729 P
   0.5890454806848322    0.4017905412261453    0.7954371334173729 P
   0.5890454806848322    0.9017905412261454    0.2954371334173729 P
   0.5890454806848321    0.9017905412261453    0.7954371334173729 P
   0.4109545196770581    0.0982094568028716    0.2045628695044632 P
   0.4109545196770581    0.0982094568028716    0.7045628695044631 P
   0.4109545196770581    0.5982094568028717    0.2045628695044632 P
   0.4109545196770581    0.5982094568028716    0.7045628695044631 P
   0.9109545196770583    0.0982094568028716    0.2045628695044632 P
   0.9109545196770583    0.0982094568028716    0.7045628695044632 P
   0.9109545196770582    0.5982094568028716    0.2045628695044632 P
   0.9109545196770582    0.5982094568028716    0.7045628695044632 P
   0.1707772591097950    0.1073547716695279    0.4024927106989499 P
   0.1707772591097950    0.1073547716695279    0.9024927106989500 P
   0.1707772591097950    0.6073547716695279    0.4024927106989499 P
   0.1707772591097950    0.6073547716695279    0.9024927106989499 P
   0.6707772591097952    0.1073547716695279    0.4024927106989499 P
   0.6707772591097952    0.1073547716695279    0.9024927106989499 P
   0.6707772591097951    0.6073547716695279    0.4024927106989499 P
   0.6707772591097951    0.6073547716695279    0.9024927106989499 P
   0.3292227422449437    0.3926452300670840    0.0975072915152554 P
   0.3292227422449437    0.3926452300670840    0.5975072915152554 P
   0.3292227422449437    0.8926452300670841    0.0975072915152554 P
   0.3292227422449437    0.8926452300670840    0.5975072915152553 P
   0.8292227422449437    0.3926452300670840    0.0975072915152554 P
   0.8292227422449439    0.3926452300670840    0.5975072915152554 P
   0.8292227422449439    0.8926452300670841    0.0975072915152554 P
   0.8292227422449439    0.8926452300670840    0.5975072915152554 P
   0.1609099688739135    0.4887532241912100    0.4078424076605994 S
   0.1609099688739135    0.4887532241912100    0.9078424076605993 S
   0.1609099688739135    0.9887532241912100    0.4078424076605993 S
   0.1609099688739135    0.9887532241912100    0.9078424076605993 S
   0.6609099688739135    0.4887532241912100    0.4078424076605994 S
   0.6609099688739136    0.4887532241912100    0.9078424076605993 S
   0.6609099688739136    0.9887532241912099    0.4078424076605994 S
   0.6609099688739136    0.9887532241912100    0.9078424076605993 S
   0.3390900334238336    0.0112467749498345    0.0921575941800424 S
   0.3390900334238336    0.0112467749498346    0.5921575941800423 S
   0.3390900334238336    0.5112467749498346    0.0921575941800423 S
   0.3390900334238336    0.5112467749498345    0.5921575941800423 S
   0.8390900334238338    0.0112467749498345    0.0921575941800424 S
   0.8390900334238337    0.0112467749498345    0.5921575941800423 S
   0.8390900334238336    0.5112467749498346    0.0921575941800424 S
   0.8390900334238338    0.5112467749498346    0.5921575941800423 S
   0.0877671981572932    0.4002115718518230    0.1327838812585566 S
   0.0877671981572932    0.4002115718518230    0.6327838812585567 S
   0.0877671981572932    0.9002115718518230    0.1327838812585566 S
   0.0877671981572932    0.9002115718518231    0.6327838812585567 S
   0.5877671981572932    0.4002115718518230    0.1327838812585566 S
   0.5877671981572933    0.4002115718518230    0.6327838812585566 S
   0.5877671981572933    0.9002115718518231    0.1327838812585566 S
   0.5877671981572933    0.9002115718518231    0.6327838812585567 S
   0.4122328027764792    0.0997884281187271    0.3672161080664458 S
   0.4122328027764793    0.0997884281187271    0.8672161080664459 S
   0.4122328027764792    0.5997884281187271    0.3672161080664458 S
   0.4122328027764792    0.5997884281187271    0.8672161080664459 S
   0.9122328027764793    0.0997884281187271    0.3672161080664458 S
   0.9122328027764793    0.0997884281187271    0.8672161080664458 S
   0.9122328027764793    0.5997884281187270    0.3672161080664458 S
   0.9122328027764796    0.5997884281187271    0.8672161080664458 S
   0.1234888774910463    0.3083788691068982    0.3131364917543618 S
   0.1234888774910463    0.3083788691068981    0.8131364917543618 S
   0.1234888774910463    0.8083788691068982    0.3131364917543618 S
   0.1234888774910463    0.8083788691068982    0.8131364917543618 S
   0.6234888774910464    0.3083788691068982    0.3131364917543618 S
   0.6234888774910464    0.3083788691068981    0.8131364917543618 S
   0.6234888774910464    0.8083788691068980    0.3131364917543618 S
   0.6234888774910465    0.8083788691068982    0.8131364917543619 S
   0.3765111233908552    0.1916211340446203    0.1868635115547436 S
   0.3765111233908553    0.1916211340446203    0.6868635115547436 S
   0.3765111233908553    0.6916211340446204    0.1868635115547436 S
   0.3765111233908553    0.6916211340446203    0.6868635115547436 S
   0.8765111233908555    0.1916211340446203    0.1868635115547436 S
   0.8765111233908554    0.1916211340446203    0.6868635115547436 S
   0.8765111233908555    0.6916211340446203    0.1868635115547436 S
   0.8765111233908555    0.6916211340446202    0.6868635115547436 S
   0.0091108285717975    0.4220584919900791    0.3651438497359402 S
   0.0091108285717975    0.4220584919900791    0.8651438497359403 S
   0.0091108285717975    0.9220584919900792    0.3651438497359403 S
   0.0091108285717975    0.9220584919900791    0.8651438497359402 S
   0.5091108285717976    0.4220584919900791    0.3651438497359402 S
   0.5091108285717976    0.4220584919900791    0.8651438497359402 S
   0.5091108285717976    0.9220584919900791    0.3651438497359403 S
   0.5091108285717976    0.9220584919900791    0.8651438497359403 S
   0.4908891685610733    0.0779415068300355    0.1348561520772839 S
   0.4908891685610733    0.0779415068300354    0.6348561520772839 S
   0.4908891685610734    0.5779415068300354    0.1348561520772839 S
   0.4908891685610733    0.5779415068300354    0.6348561520772840 S
   0.9908891685610736    0.0779415068300354    0.1348561520772839 S
   0.9908891685610736    0.0779415068300354    0.6348561520772839 S
   0.9908891685610733    0.5779415068300355    0.1348561520772840 S
   0.9908891685610735    0.5779415068300355    0.6348561520772840 S
   0.1722044259725316    0.1086782413590599    0.2411996761658609 S
   0.1722044259725317    0.1086782413590599    0.7411996761658609 S
   0.1722044259725316    0.6086782413590600    0.2411996761658610 S
   0.1722044259725317    0.6086782413590599    0.7411996761658609 S
   0.6722044259725317    0.1086782413590599    0.2411996761658610 S
   0.6722044259725318    0.1086782413590599    0.7411996761658610 S
   0.6722044259725317    0.6086782413590599    0.2411996761658609 S
   0.6722044259725318    0.6086782413590599    0.7411996761658610 S
   0.3277955739442997    0.3913217612594947    0.2588003230949302 S
   0.3277955739442997    0.3913217612594947    0.7588003230949302 S
   0.3277955739442997    0.8913217612594948    0.2588003230949301 S
   0.3277955739442997    0.8913217612594948    0.7588003230949302 S
   0.8277955739442998    0.3913217612594947    0.2588003230949302 S
   0.8277955739442997    0.3913217612594947    0.7588003230949302 S
   0.8277955739442999    0.8913217612594947    0.2588003230949301 S
   0.8277955739442998    0.8913217612594948    0.7588003230949302 S
   0.2494798929395852    0.1489462688231705    0.0006555015860049 S
   0.2494798929395852    0.1489462688231705    0.5006555015860049 S
   0.2494798929395852    0.6489462688231705    0.0006555015860049 S
   0.2494798929395852    0.6489462688231705    0.5006555015860049 S
   0.7494798929395853    0.1489462688231705    0.0006555015860049 S
   0.7494798929395853    0.1489462688231705    0.5006555015860049 S
   0.7494798929395853    0.6489462688231705    0.0006555015860049 S
   0.7494798929395854    0.6489462688231706    0.5006555015860049 S
   0.2505201052899363    0.3510537291902279    0.4993444948721354 S
   0.2505201052899362    0.3510537291902280    0.9993444948721354 S
   0.2505201052899362    0.8510537291902280    0.4993444948721353 S
   0.2505201052899362    0.8510537291902280    0.9993444948721354 S
   0.7505201052899363    0.3510537291902279    0.4993444948721354 S
   0.7505201052899364    0.3510537291902280    0.9993444948721354 S
   0.7505201052899363    0.8510537291902280    0.4993444948721354 S
   0.7505201052899365    0.8510537291902279    0.9993444948721353 S
   0.1001969344034432    0.1585683472804683    0.4803978391803700 S
   0.1001969344034432    0.1585683472804683    0.9803978391803699 S
   0.1001969344034432    0.6585683472804683    0.4803978391803700 S
   0.1001969344034432    0.6585683472804684    0.9803978391803699 S
   0.6001969344034432    0.1585683472804683    0.4803978391803700 S
   0.6001969344034433    0.1585683472804683    0.9803978391803700 S
   0.6001969344034432    0.6585683472804684    0.4803978391803700 S
   0.6001969344034433    0.6585683472804683    0.9803978391803700 S
   0.3998030661106214    0.3414316526269808    0.0196021622587619 S
   0.3998030661106214    0.3414316526269808    0.5196021622587619 S
   0.3998030661106214    0.8414316526269808    0.0196021622587619 S
   0.3998030661106214    0.8414316526269807    0.5196021622587619 S
   0.8998030661106217    0.3414316526269808    0.0196021622587619 S
   0.8998030661106217    0.3414316526269807    0.5196021622587619 S
   0.8998030661106216    0.8414316526269808    0.0196021622587619 S
   0.8998030661106216    0.8414316526269807    0.5196021622587619 S
