Ca1 Mn12 F42                            
   1.00000000000000     
     7.3081069999999997   -0.0223430000000000   -0.0383220000000000
    -3.6723620000000001    6.3811999999999998   -0.0121800000000000
     0.1339040000000000   -0.0927940000000000   17.4947279999999985
   Ca   Mn   F 
     1    12    42
Direct
  0.4886978884201467  0.8284743398994633  0.6730608190571530
  0.3021832880844394  0.0098082437911804  0.3287037472507787
  0.6994677633857193  0.7016097029950822  0.0032522855185151
 -0.0024908451639382  0.2860708599754192  0.6672371223751501
  0.3334018638726275  0.9733601142372635  0.8397685308277772
  0.6664787674697544  0.6535115456281307  0.4912620412834937
  1.0060633026483841  0.3591392987875009  0.1672854931128318
  0.6583037871027525  0.1530037325274587  0.4909807647172258
  0.5066259294696910  0.3595902934706540  0.1679040272766298
  0.8338473328264508  0.4756832367618424  0.8375777493709197
  0.3341723862486488  0.4720835327351596  0.8445431004819952
  0.1633584530147830  0.6489881078516516  0.4948711680770441
  0.5054076890625102  0.8591688400187472  0.1666444976849980
  0.5621746436602671  0.8178492580876388  0.0642020899183408
  0.2397145789059006  0.4143688394931549  0.7393348315372065
  0.2024443881326704  0.7757447974364330  0.3901909127433176
  0.4455304485623234  0.2656042819837146  0.2698379668694653
  0.7992082253369232  0.5599999433959919  0.9421283432294228
  0.7473509592366715  0.1759585298076630  0.5963185075055110
  0.8303701549373224  0.0374250021024500  0.7176527017305081
  0.2006894609293093  0.1246161221266470  0.3899459736984868
  0.9208295219740659  0.8150770408420923  0.0619640679879054
  0.1186896644427595  0.1791372052694643  0.6105313216347320
  0.0900009097974149  0.8986419598642109  0.2657899188556849
  0.7884471063221314  0.9070303779792013  0.9388168599940939
  0.1522109850987864  0.5517783260219362  0.6144194055889221
  0.4480365157078786  0.8958126133119821  0.2690109814243887
  0.4310044951754780  0.5485074525761705  0.9468808822872462
  0.8714872979348736  0.4100862651803084  0.7282107288280927
  0.5629692027670961  0.1282198845843901  0.3892395670235235
  0.5673206547965771  0.4491311491920291  0.0661696024651943
  0.3712437524082191  0.5725671492002951  0.4737033928971517
  0.2186411840715607  0.6504689942106667  0.1503131413440364
  0.4240218720363830  0.7683580704311281  0.8134053556155080
  0.6230346021596573  0.1865618851839090  0.8560522686456163
  0.5818780303471092  0.3602638062027969  0.5124429701206621
  0.7931176200521063  0.4373748040264919  0.1857495986992306
  0.7061009475819779  0.6216977527373651  0.3949412170423536
  0.9450327404819999  0.3286689766039053  0.0685387041920635
  0.3729593280615096  0.0245929615610214  0.7349440728298666
  0.3014752739097604  0.9037102227572742  0.9359498150779471
  0.6250108878116769  0.6896380640696825  0.5940186829846809
  0.0672579880914960  0.3903057348501172  0.2660244079308187
  0.9556080805667314  0.7269924625050678  0.5172701740619671
  0.7929815236484521  0.0675304644062429  0.1832665672593257
  0.2547101740025430  0.1798345854342582  0.8566342397069012
  0.0478858778100404  0.7643808704110856  0.8169308878081594
  0.7357991219294753  0.9439381559725103  0.4738745921789780
  0.2198371549272473  0.2816134364518341  0.1498111017936979
  0.6130203529500587  0.5300750606302764  0.8064695792592615
  0.9503971339472758  0.3827788678971729  0.4656723969925599
  0.4491056715238639  0.0927000319896312  0.1371197203915675
  0.3806712745484897  0.9088650836898915  0.5393870636861366
  0.5635508562869161  0.6262194335037277  0.1977752116746060
  0.0533414285346378  0.4253961283467561  0.8694101208808392
 
             NaN             NaN             NaN
             NaN             NaN             NaN
             NaN             NaN             NaN
             NaN             NaN             NaN
             NaN             NaN             NaN
             NaN             NaN             NaN
             NaN             NaN             NaN
             NaN             NaN             NaN
             NaN             NaN             NaN
             NaN             NaN             NaN
             NaN             NaN             NaN
             NaN             NaN             NaN
             NaN             NaN             NaN
             NaN             NaN             NaN
             NaN             NaN             NaN
             NaN             NaN             NaN
             NaN             NaN             NaN
             NaN             NaN             NaN
             NaN             NaN             NaN
             NaN             NaN             NaN
             NaN             NaN             NaN
             NaN             NaN             NaN
             NaN             NaN             NaN
             NaN             NaN             NaN
             NaN             NaN             NaN
             NaN             NaN             NaN
             NaN             NaN             NaN
             NaN             NaN             NaN
             NaN             NaN             NaN
             NaN             NaN             NaN
             NaN             NaN             NaN
             NaN             NaN             NaN
             NaN             NaN             NaN
             NaN             NaN             NaN
             NaN             NaN             NaN
             NaN             NaN             NaN
             NaN             NaN             NaN
             NaN             NaN             NaN
             NaN             NaN             NaN
             NaN             NaN             NaN
             NaN             NaN             NaN
             NaN             NaN             NaN
             NaN             NaN             NaN
             NaN             NaN             NaN
             NaN             NaN             NaN
             NaN             NaN             NaN
             NaN             NaN             NaN
             NaN             NaN             NaN
             NaN             NaN             NaN
             NaN             NaN             NaN
             NaN             NaN             NaN
             NaN             NaN             NaN
             NaN             NaN             NaN
             NaN             NaN             NaN
             NaN             NaN             NaN
