Ca1 Mn12 F42
1.0
7.308107 -0.022343 -0.038322
-3.672362 6.381200 -0.012180
0.133904 -0.092794 17.494728
Ca Mn F
1 12 42
direct
0.490116 0.793890 0.669008 Ca
0.297734 1.009170 0.329730 Mn
0.704172 0.702696 0.004537 Mn
0.000126 0.299416 0.668150 Mn
0.344956 0.990971 0.837738 Mn
0.656458 0.653589 0.494358 Mn
0.998837 0.352650 0.166826 Mn
0.652461 0.156386 0.491491 Mn
0.499946 0.353895 0.166514 Mn
0.847372 0.490565 0.838237 Mn
0.347629 0.489217 0.841641 Mn
0.154135 0.650271 0.497016 Mn
0.497679 0.853096 0.167113 Mn
0.561423 0.814824 0.065347 F
0.263985 0.441748 0.735939 F
0.196709 0.778077 0.394156 F
0.441322 0.260610 0.268403 F
0.811460 0.566833 0.941880 F
0.748459 0.188099 0.595183 F
0.837370 0.054919 0.718889 F
0.201476 0.130529 0.390416 F
0.918809 0.805622 0.066502 F
0.122274 0.193816 0.610553 F
0.080746 0.895098 0.268795 F
0.803381 0.915155 0.942902 F
0.145289 0.563729 0.613770 F
0.435455 0.886270 0.269458 F
0.442392 0.560040 0.943975 F
0.873756 0.424777 0.728597 F
0.559901 0.128234 0.389080 F
0.559884 0.444062 0.064394 F
0.366494 0.576965 0.476881 F
0.211423 0.642950 0.148503 F
0.435734 0.800063 0.808239 F
0.625909 0.191816 0.857448 F
0.568439 0.369724 0.516394 F
0.787029 0.433210 0.184107 F
0.693756 0.615435 0.398265 F
0.935609 0.316945 0.068193 F
0.386396 0.064194 0.734535 F
0.309227 0.905498 0.932237 F
0.617356 0.692206 0.597197 F
0.061903 0.388493 0.265470 F
0.942538 0.724111 0.519382 F
0.785040 0.062982 0.185190 F
0.256486 0.179877 0.858011 F
0.067713 0.788251 0.812742 F
0.734828 0.935268 0.476883 F
0.211970 0.273688 0.149479 F
0.620681 0.544815 0.807067 F
0.948951 0.384613 0.464150 F
0.443751 0.082674 0.136933 F
0.372887 0.914664 0.539510 F
0.553966 0.623096 0.196515 F
0.072485 0.437993 0.867663 F
