Ca7 Ni16 F48                            
   1.00000000000000     
    11.2293360000000000   -0.0000300000000000    0.0194820000000000
    -0.0000140000000000    7.6693639999999998   -0.0000750000000000
     0.0185960000000000   -0.0001010000000000   10.6533280000000001
   Ca   Ni   F 
     7    16    48
Direct
  0.7065026759166375  0.7499865498629160  0.7171568339101403
  0.0322931905960384  0.2500077636598919  0.4839915823271581
  0.0379646638105966  0.2499944365164882  0.9777352029548626
  0.5367246445260629  0.2500160803970229  0.9912718924920280
  0.2106136706848472  0.7499885207492535  0.2446922992711421
  0.2086651171879916  0.7500120648498880  0.7390249897226120
  0.7072581848520204  0.7499370327921837  0.2407682440441557
  0.4925508287653925  0.4947151861105137  0.2589992917555334
  0.4920408088061606  0.4937180848823227  0.7452934609210040
  0.9905145785588481  0.5015067187877347  0.2425194430727191
  0.9893544604787767  0.5022331721736286  0.7442380197437930
  0.2602967621677805  0.0045550377446440  0.4987257602206452
  0.2578022398033608 -0.0013412308431038  1.0019340332522839
  0.7469997492726255  0.0128807788335529  0.4926697800645198
  0.7517878698343412  0.9981039217339202  0.9946318002054408
  0.4925460931457354  0.0053046497198958  0.2589873562677268
  0.4920512552677756  0.0062894859777376  0.7453154346150398
  0.9905210777202945  0.9984643817481272  0.2424651092571550
  0.9893779636271046  0.9977814915431312  0.7442540618922144
  0.2603040620876083  0.4954787666454097  0.4987133869168227
  0.2578294265010443  0.5013652451570494  1.0019645954913143
  0.7470228140377817  0.4871128918897952  0.4926616471696927
  0.7517847241535991  0.5018979304569507  0.9946384365326062
  0.4825022108867074  0.2501021006082787  0.1974328609388583
  0.4719907169349276  0.2500102141197289  0.7100013412236182
  0.9865060437039656  0.2500310053349837  0.1841262015594650
  0.9914790794235991  0.2500167628105536  0.6942379101264060
  0.2320710349152158  0.2500162297914872  0.0443938074171250
  0.2290021560608747  0.2500460660661254  0.5433204049688908
  0.7352091132900326  0.2500315612137647  0.0449209106456625
  0.7626608890219805  0.2501032476309304  0.5445549346000882
  0.0110187558190089  0.7499765731337595  0.2947231556309895
  0.0093847341276300  0.7499914100520971  0.7926998105123755
  0.5100636374211829  0.7498839281012809  0.2983944505501265
  0.5122111685766408  0.7500115979847980  0.7835228778268561
  0.2633514289183784  0.7499352916760597  0.4496304846105175
  0.2659830276222618  0.7499922917491156  0.9441936632432785
  0.7515418996153148  0.7499155422001265  0.4529864897932289
  0.7528124829493795  0.7499701335408543  0.9321635540597577
  0.3434769365605755  0.5546134813289170  0.1624227167490550
  0.3422325249410466  0.5548196518007595  0.6591621862635405
  0.8441990804085011  0.5633712352238963  0.1476267831270791
  0.8438599494530327  0.5537796207797380  0.6482041560696256
  0.1056630158390230  0.9478956653229874  0.1004860557517773
  0.1057742822097579  0.9540081530268750  0.6000829521610307
  0.5996156390785394  0.9583549632031281  0.1016473205889548
  0.6057455644582307  0.9604027590068177  0.6031210840512065
  0.1419522534913119  0.0437408902052360  0.3509078560349861
  0.1426846153712041  0.0392104419847513  0.8517946704586330
  0.6554343608460899  0.0279312949606015  0.3364631777545395
  0.6403823604370065  0.0529559543241613  0.8513647420800509
  0.4041410081260686  0.4473968375081700  0.4092869072379532
  0.4056606999174600  0.4500349510540394  0.9097429521469719
  0.9013348440419975  0.4470472640475519  0.3985789449140666
  0.9008088646910994  0.4437632814101151  0.9013446029361472
  0.1419619790517239  0.4562670846880343  0.3509253308811599
  0.1426906712173367  0.4607891373898332  0.8517899326978724
  0.6554190859838493  0.4720994281221061  0.3364569214915265
  0.6403662325607696  0.4470236004070176  0.8513731561699454
  0.4041386968997306  0.0526432201884640  0.4093109572249889
  0.4056338782903846  0.0499538085054746  0.9097433042195258
  0.9013522314311511  0.0529146482540305  0.3985455258375419
  0.9008033173398226  0.0562349578112085  0.9013160901621362
  0.3434587642767113  0.9453973790313120  0.1624010742435330
  0.3422205859813837  0.9451679845045416  0.6591489244563041
  0.8442029574855932  0.9366590416567637  0.1476120381712565
  0.8438882539503609  0.9461634735597916  0.6482149313630456
  0.1056557457339345  0.5521182169127696  0.1004825493675787
  0.1057913716648837  0.5459875473684028  0.6000880117873535
  0.5995999266590110  0.5416485797184105  0.1016722409252157
  0.6057656329939268  0.5395635609926884  0.6031403659582030
 
             NaN             NaN             NaN
             NaN             NaN             NaN
             NaN             NaN             NaN
             NaN             NaN             NaN
             NaN             NaN             NaN
             NaN             NaN             NaN
             NaN             NaN             NaN
             NaN             NaN             NaN
             NaN             NaN             NaN
             NaN             NaN             NaN
             NaN             NaN             NaN
             NaN             NaN             NaN
             NaN             NaN             NaN
             NaN             NaN             NaN
             NaN             NaN             NaN
             NaN             NaN             NaN
             NaN             NaN             NaN
             NaN             NaN             NaN
             NaN             NaN             NaN
             NaN             NaN             NaN
             NaN             NaN             NaN
             NaN             NaN             NaN
             NaN             NaN             NaN
             NaN             NaN             NaN
             NaN             NaN             NaN
             NaN             NaN             NaN
             NaN             NaN             NaN
             NaN             NaN             NaN
             NaN             NaN             NaN
             NaN             NaN             NaN
             NaN             NaN             NaN
             NaN             NaN             NaN
             NaN             NaN             NaN
             NaN             NaN             NaN
             NaN             NaN             NaN
             NaN             NaN             NaN
             NaN             NaN             NaN
             NaN             NaN             NaN
             NaN             NaN             NaN
             NaN             NaN             NaN
             NaN             NaN             NaN
             NaN             NaN             NaN
             NaN             NaN             NaN
             NaN             NaN             NaN
             NaN             NaN             NaN
             NaN             NaN             NaN
             NaN             NaN             NaN
             NaN             NaN             NaN
             NaN             NaN             NaN
             NaN             NaN             NaN
             NaN             NaN             NaN
             NaN             NaN             NaN
             NaN             NaN             NaN
             NaN             NaN             NaN
             NaN             NaN             NaN
             NaN             NaN             NaN
             NaN             NaN             NaN
             NaN             NaN             NaN
             NaN             NaN             NaN
             NaN             NaN             NaN
             NaN             NaN             NaN
             NaN             NaN             NaN
             NaN             NaN             NaN
             NaN             NaN             NaN
             NaN             NaN             NaN
             NaN             NaN             NaN
             NaN             NaN             NaN
             NaN             NaN             NaN
             NaN             NaN             NaN
             NaN             NaN             NaN
             NaN             NaN             NaN
