Ca7 Ni16 F48
1.0
11.229336 -0.000030 0.019482
-0.000014 7.669364 -0.000075
0.018596 -0.000101 10.653328
Ca Ni F
7 16 48
direct
0.681479 0.749999 0.708395 Ca
0.036119 0.249998 0.487141 Ca
0.041549 0.249994 0.986196 Ca
0.541250 0.249991 0.985775 Ca
0.210888 0.749995 0.237919 Ca
0.209615 0.749993 0.736877 Ca
0.708076 0.749994 0.243832 Ca
0.493713 0.493014 0.257368 Ni
0.495818 0.495288 0.743293 Ni
0.990490 0.500852 0.249350 Ni
0.990152 0.501405 0.746894 Ni
0.262042 0.005580 0.496469 Ni
0.260102 0.000392 0.999337 Ni
0.746182 0.011013 0.498704 Ni
0.756455 0.998879 0.999756 Ni
0.493696 0.006990 0.257382 Ni
0.495814 0.004728 0.743291 Ni
0.990487 -0.000845 0.249354 Ni
0.990144 0.998599 0.746894 Ni
0.262025 0.494414 0.496476 Ni
0.260104 0.499605 0.999339 Ni
0.746189 0.489004 0.498709 Ni
0.756457 0.501117 0.999759 Ni
0.485965 0.249996 0.191235 F
0.486811 0.249995 0.701688 F
0.984630 0.250009 0.191300 F
0.986787 0.249999 0.693230 F
0.236824 0.249994 0.046844 F
0.230931 0.249987 0.547739 F
0.736988 0.250003 0.047883 F
0.737637 0.249982 0.550011 F
0.014814 0.749998 0.298628 F
0.013003 0.750002 0.796339 F
0.509220 0.750001 0.297390 F
0.509116 0.749999 0.790378 F
0.263839 0.749999 0.443497 F
0.264451 0.750004 0.943020 F
0.761637 0.749998 0.451367 F
0.763781 0.749996 0.943958 F
0.345714 0.554852 0.159406 F
0.345049 0.557519 0.655099 F
0.845698 0.561906 0.154843 F
0.842925 0.552555 0.654787 F
0.106189 0.953415 0.102489 F
0.106422 0.953297 0.601484 F
0.602612 0.957002 0.101330 F
0.606228 0.941487 0.604283 F
0.143605 0.048327 0.352207 F
0.144920 0.044634 0.851945 F
0.655478 0.023367 0.339716 F
0.646070 0.046159 0.852698 F
0.406974 0.445211 0.408820 F
0.407099 0.444787 0.905230 F
0.901314 0.442550 0.406512 F
0.905551 0.442469 0.907031 F
0.143609 0.451673 0.352205 F
0.144922 0.455369 0.851953 F
0.655480 0.476628 0.339714 F
0.646078 0.453849 0.852708 F
0.406964 0.054773 0.408814 F
0.407103 0.055211 0.905225 F
0.901309 0.057458 0.406520 F
0.905554 0.057532 0.907033 F
0.345711 0.945149 0.159408 F
0.345048 0.942478 0.655100 F
0.845702 0.938101 0.154852 F
0.842923 0.947441 0.654789 F
0.106192 0.546604 0.102488 F
0.106427 0.546715 0.601484 F
0.602613 0.542996 0.101326 F
0.606229 0.558525 0.604285 F
