Ca1 Ni12 F42                            
   1.00000000000000     
     7.0417769999999997   -0.0078470000000000    0.0173710000000000
    -3.5244010000000001    6.0667059999999999   -0.0029390000000000
    -0.0763150000000000    0.0479630000000000   16.9429389999999991
   Ca   Ni   F 
     1    12    42
Direct
  0.7881084940757981  0.9278753496347030  0.3312117164101201
  0.2978536402106515  0.9923362992266553  0.3344684324521070
  0.6940969228045526  0.6945810029207418  0.9961553584314163
  0.9998300561297984  0.2906932136173602  0.6707202991289688
  0.3481603619524829  0.9949242318881132  0.8325297143786159
  0.6535310780785540  0.6376007907257897  0.5035364212338098
  0.9872529591569251  0.3406458485279213  0.1650852559745636
  0.6547835462521538  0.1440373261895469  0.5053304044916104
  0.4896901688949732  0.3431927460160354  0.1638772667110093
  0.8480656834739386  0.4954628121461562  0.8332657513633076
  0.3476194754146568  0.4943429937649814  0.8322445564607850
  0.1546424250604616  0.6393244389502476  0.5034179599348922
  0.4824679956556446  0.8385395428572218  0.1586880601541727
  0.5677098726639476  0.8267109470786410  0.0522554989570926
  0.2646829478234145  0.4257616416564576  0.7265263313458545
  0.1755810464779828  0.7331711772472180  0.3989439675757443
  0.4289143222290125  0.2502380630126966  0.2691141704965128
  0.8142716252281241  0.5502298928510639  0.9398635798298534
  0.7437806404309762  0.1650943424882967  0.6137495103920549
  0.8863169973944602  0.0687175657783398  0.7364193683852743
  0.1753454452277312  0.1097383733964651  0.3948034377915178
  0.9204417597576665  0.8062180469440546  0.0593817125030170
  0.1071642714234320  0.1686178627369322  0.6092532491200903
  0.0488406834753319  0.8755479239664937  0.2763668404584663
  0.8148625578936086  0.9188646120867217  0.9314811677751607
  0.1332801037686518  0.5515108283529369  0.6089636906700657
  0.4222089770904419  0.8603534092918490  0.2730461926811939
  0.4304210287625768  0.5609903513335736  0.9372596062884144
  0.8826005829952318  0.4403120030722889  0.7276308358174174
  0.5646210547174856  0.1053537436320156  0.3909545913196728
  0.5462073740156762  0.4333419685383615  0.0577878255939012
  0.3665153012273243  0.5582214528518824  0.4760890969200778
  0.1845816695763075  0.6282439574760476  0.1366114342104858
  0.4363860295903060  0.7843553766436976  0.8069232687837662
  0.6491246152377891  0.2010117471582937  0.8542699704544395
  0.5575584680675436  0.3476984075640251  0.5272099317951323
  0.7858954548027893  0.4317521743694110  0.1883366770500599
  0.6991240111425976  0.6073022276749660  0.3983923326176199
  0.8990865719254115  0.2904337145143087  0.0659364095479184
  0.3828715158163355  0.0723487598958303  0.7328430235331110
  0.3136012214229220  0.9175102033582635  0.9321561919323571
  0.6134405832142302  0.6837823980509989  0.6022212894401699
  0.0616547608437497  0.3693897559152537  0.2684054053512857
  0.9433432937116061  0.7233187329040246  0.5279948436379716
  0.7802077393389488  0.0482629318517875  0.1939630055764031
  0.2591552747934889  0.2047407661661353  0.8575762260147093
  0.0470951672348770  0.7893828833387198  0.8116182045416641
  0.7452266691520689  0.9313807115753160  0.4743291033239507
  0.1899277300433750  0.2517289748123530  0.1429699902615670
  0.6308426827834004  0.5526582996016041  0.7993023475068393
  0.9404167498444347  0.3622166934118819  0.4691084729197998
  0.4213779331515500  0.0651186322687383  0.1288666093792225
  0.3672905849483541  0.9171893514327200  0.5363745119930390
  0.5529637349466869  0.6231554197917030  0.1993105447330350
  0.0654854501934978  0.4377262692151603  0.8662203446249603
 
             NaN             NaN             NaN
             NaN             NaN             NaN
             NaN             NaN             NaN
             NaN             NaN             NaN
             NaN             NaN             NaN
             NaN             NaN             NaN
             NaN             NaN             NaN
             NaN             NaN             NaN
             NaN             NaN             NaN
             NaN             NaN             NaN
             NaN             NaN             NaN
             NaN             NaN             NaN
             NaN             NaN             NaN
             NaN             NaN             NaN
             NaN             NaN             NaN
             NaN             NaN             NaN
             NaN             NaN             NaN
             NaN             NaN             NaN
             NaN             NaN             NaN
             NaN             NaN             NaN
             NaN             NaN             NaN
             NaN             NaN             NaN
             NaN             NaN             NaN
             NaN             NaN             NaN
             NaN             NaN             NaN
             NaN             NaN             NaN
             NaN             NaN             NaN
             NaN             NaN             NaN
             NaN             NaN             NaN
             NaN             NaN             NaN
             NaN             NaN             NaN
             NaN             NaN             NaN
             NaN             NaN             NaN
             NaN             NaN             NaN
             NaN             NaN             NaN
             NaN             NaN             NaN
             NaN             NaN             NaN
             NaN             NaN             NaN
             NaN             NaN             NaN
             NaN             NaN             NaN
             NaN             NaN             NaN
             NaN             NaN             NaN
             NaN             NaN             NaN
             NaN             NaN             NaN
             NaN             NaN             NaN
             NaN             NaN             NaN
             NaN             NaN             NaN
             NaN             NaN             NaN
             NaN             NaN             NaN
             NaN             NaN             NaN
             NaN             NaN             NaN
             NaN             NaN             NaN
             NaN             NaN             NaN
             NaN             NaN             NaN
             NaN             NaN             NaN
