Ca1 Ni12 F42
1.0
7.041777 -0.007847 0.017371
-3.524401 6.066706 -0.002939
-0.076315 0.047963 16.942939
Ca Ni F
1 12 42
direct
0.545154 0.501079 0.334804 Ca
0.308332 -0.001212 0.333443 Ni
0.698280 0.698315 0.996825 Ni
-0.000301 0.301579 0.670136 Ni
0.347136 -0.000221 0.833524 Ni
0.657025 0.659711 0.506426 Ni
0.995048 0.339401 0.159656 Ni
0.654994 0.157036 0.504403 Ni
0.494542 0.340809 0.158738 Ni
0.847920 0.499694 0.834466 Ni
0.347815 0.499775 0.832633 Ni
0.152666 0.658387 0.508218 Ni
0.495767 0.842355 0.160794 Ni
0.562966 0.821300 0.053265 F
0.262516 0.434074 0.727281 F
0.189241 0.742089 0.397510 F
0.443212 0.255257 0.268446 F
0.829354 0.567727 0.941149 F
0.745023 0.177423 0.611540 F
0.888386 0.068830 0.731301 F
0.202136 0.135569 0.391700 F
0.916487 0.805415 0.063718 F
0.117229 0.196290 0.605193 F
0.067858 0.869317 0.274636 F
0.821328 0.929550 0.935177 F
0.123415 0.569871 0.614298 F
0.430012 0.859966 0.274013 F
0.435728 0.566088 0.936842 F
0.867349 0.429351 0.728995 F
0.569737 0.136167 0.392751 F
0.549603 0.429743 0.052929 F
0.362327 0.564703 0.482491 F
0.199830 0.632210 0.136527 F
0.434404 0.792458 0.808428 F
0.640463 0.202376 0.859640 F
0.571646 0.368900 0.529703 F
0.794375 0.432980 0.182694 F
0.686902 0.613670 0.401636 F
0.916154 0.295702 0.060157 F
0.392982 0.085634 0.734225 F
0.301190 0.914067 0.932783 F
0.619619 0.702939 0.605710 F
0.071524 0.384414 0.264444 F
0.949615 0.758009 0.525858 F
0.788477 0.050855 0.187399 F
0.260220 0.207269 0.857563 F
0.053820 0.796726 0.808450 F
0.737200 0.946527 0.478238 F
0.193000 0.243713 0.140848 F
0.625542 0.563257 0.800653 F
0.930867 0.376634 0.468176 F
0.430968 0.059348 0.127724 F
0.376610 0.946499 0.537939 F
0.548606 0.616333 0.199032 F
0.071083 0.436180 0.866362 F
