Li48 Ni48 O96
1.0
  11.4293231964000004    0.0000000000000000    0.0000000000000000
  -5.7146615984000002    9.8980842360000008    0.0000000000000000
   0.0000000000000000    0.0000000000000000   14.0615682601999996
Li Ni O
46 48 96
direct
   0.3333333357500001    0.6666666717500001    0.6666666870000000 Li
   0.0000000000000000    0.0000000000000000    0.0000000000000000 Li
   0.0000000000000000    0.2500000000000000    0.0000000000000000 Li
   0.0000000000000000    0.5000000000000000    0.0000000000000000 Li
   0.0000000000000000    0.7500000000000000    0.0000000000000000 Li
   0.2500000000000000    0.0000000000000000    0.0000000000000000 Li
   0.2500000000000000    0.2500000000000000    0.0000000000000000 Li
   0.2500000000000001    0.5000000000000000    0.0000000000000000 Li
   0.2500000000000000    0.7500000000000000    0.0000000000000000 Li
   0.5000000000000000    0.0000000000000000    0.0000000000000000 Li
   0.5000000000000001    0.2500000000000000    0.0000000000000000 Li
   0.5000000000000000    0.5000000000000000    0.0000000000000000 Li
   0.5000000000000000    0.7500000000000000    0.0000000000000000 Li
   0.7500000000000001    0.0000000000000000    0.0000000000000000 Li
   0.7500000000000001    0.2500000000000000    0.0000000000000000 Li
   0.7500000000000001    0.5000000000000000    0.0000000000000000 Li
   0.7500000000000000    0.7500000000000000    0.0000000000000000 Li
   0.1666666717500000    0.0833333357500000    0.3333333430000000 Li
   0.1666666717500000    0.3333333357500000    0.3333333430000000 Li
   0.1666666717500001    0.5833333357500000    0.3333333430000000 Li
   0.1666666717500000    0.8333333357500000    0.3333333430000000 Li
   0.4166666717500000    0.0833333357500000    0.3333333430000000 Li
   0.4166666717500000    0.3333333357500000    0.3333333430000000 Li
   0.4166666717500001    0.5833333357500000    0.3333333430000000 Li
   0.4166666717500001    0.8333333357500000    0.3333333430000000 Li
   0.6666666717500001    0.0833333357500000    0.3333333430000000 Li
   0.6666666717500001    0.3333333357500000    0.3333333430000000 Li
   0.6666666717500001    0.5833333357500000    0.3333333430000000 Li
   0.6666666717500001    0.8333333357500000    0.3333333430000000 Li
   0.9166666717500001    0.0833333357500000    0.3333333430000000 Li
   0.9166666717500001    0.3333333357500000    0.3333333430000000 Li
   0.9166666717500002    0.5833333357500000    0.3333333430000000 Li
   0.9166666717500001    0.8333333357500000    0.3333333430000000 Li
   0.0833333357500000    0.1666666717500000    0.6666666870000000 Li
   0.0833333357500000    0.4166666717500000    0.6666666870000000 Li
   0.0833333357500001    0.6666666717500001    0.6666666870000000 Li
   0.0833333357500000    0.9166666717499999    0.6666666870000000 Li
   0.3333333357500000    0.1666666717500000    0.6666666870000000 Li
   0.3333333357500000    0.9166666717499999    0.6666666870000000 Li
   0.5833333357500000    0.1666666717500000    0.6666666870000000 Li
   0.5833333357500001    0.4166666717500000    0.6666666870000000 Li
   0.5833333357500000    0.9166666717499999    0.6666666870000000 Li
   0.8333333357500000    0.1666666717500000    0.6666666870000000 Li
   0.8333333357500001    0.4166666717500000    0.6666666870000000 Li
   0.8333333357500001    0.6666666717500001    0.6666666870000000 Li
   0.8333333357500000    0.9166666717499999    0.6666666870000000 Li
   0.0833333357500000    0.1666666717500000    0.1666666720000000 Ni
   0.0833333357500000    0.4166666717500000    0.1666666720000000 Ni
   0.0833333357500001    0.6666666717500001    0.1666666720000000 Ni
   0.0833333357500000    0.9166666717499999    0.1666666720000000 Ni
   0.3333333357500000    0.1666666717500000    0.1666666720000000 Ni
   0.3333333357500000    0.4166666717500000    0.1666666720000000 Ni
   0.3333333357500001    0.6666666717500001    0.1666666720000000 Ni
   0.3333333357500000    0.9166666717499999    0.1666666720000000 Ni
   0.5833333357500000    0.1666666717500000    0.1666666720000000 Ni
   0.5833333357500001    0.4166666717500000    0.1666666720000000 Ni
   0.5833333357500001    0.6666666717500001    0.1666666720000000 Ni
   0.5833333357500000    0.9166666717499999    0.1666666720000000 Ni
   0.8333333357500000    0.1666666717500000    0.1666666720000000 Ni
   0.8333333357500001    0.4166666717500000    0.1666666720000000 Ni
   0.8333333357500001    0.6666666717500001    0.1666666720000000 Ni
   0.8333333357500000    0.9166666717499999    0.1666666720000000 Ni
   0.0000000000000000    0.0000000000000000    0.5000000000000000 Ni
   0.0000000000000000    0.2500000000000000    0.5000000000000000 Ni
   0.0000000000000000    0.5000000000000000    0.5000000000000000 Ni
   0.0000000000000000    0.7500000000000000    0.5000000000000000 Ni
   0.2500000000000000    0.0000000000000000    0.5000000000000000 Ni
   0.2500000000000000    0.2500000000000000    0.5000000000000000 Ni
   0.2500000000000001    0.5000000000000000    0.5000000000000000 Ni
   0.2500000000000000    0.7500000000000000    0.5000000000000000 Ni
   0.5000000000000000    0.0000000000000000    0.5000000000000000 Ni
   0.5000000000000001    0.2500000000000000    0.5000000000000000 Ni
   0.5000000000000000    0.5000000000000000    0.5000000000000000 Ni
   0.5000000000000000    0.7500000000000000    0.5000000000000000 Ni
   0.7500000000000001    0.0000000000000000    0.5000000000000000 Ni
   0.7500000000000001    0.2500000000000000    0.5000000000000000 Ni
   0.7500000000000001    0.5000000000000000    0.5000000000000000 Ni
   0.7500000000000000    0.7500000000000000    0.5000000000000000 Ni
   0.1666666717500000    0.0833333357500000    0.8333333130000000 Ni
   0.1666666717500000    0.3333333357500000    0.8333333130000000 Ni
   0.1666666717500001    0.5833333357500000    0.8333333130000000 Ni
   0.1666666717500000    0.8333333357500000    0.8333333130000000 Ni
   0.4166666717500000    0.0833333357500000    0.8333333130000000 Ni
   0.4166666717500000    0.3333333357500000    0.8333333130000000 Ni
   0.4166666717500001    0.5833333357500000    0.8333333130000000 Ni
   0.4166666717500001    0.8333333357500000    0.8333333130000000 Ni
   0.6666666717500001    0.0833333357500000    0.8333333130000000 Ni
   0.6666666717500001    0.3333333357500000    0.8333333130000000 Ni
   0.6666666717500001    0.5833333357500000    0.8333333130000000 Ni
   0.6666666717500001    0.8333333357500000    0.8333333130000000 Ni
   0.9166666717500001    0.0833333357500000    0.8333333130000000 Ni
   0.9166666717500001    0.3333333357500000    0.8333333130000000 Ni
   0.9166666717500002    0.5833333357500000    0.8333333130000000 Ni
   0.9166666717500001    0.8333333357500000    0.8333333130000000 Ni
   0.1666666717500000    0.0833333357500000    0.0923493280000000 O
   0.1666666717500000    0.3333333357500000    0.0923493280000000 O
   0.1666666717500001    0.5833333357500000    0.0923493280000000 O
   0.1666666717500000    0.8333333357500000    0.0923493280000000 O
   0.4166666717500000    0.0833333357500000    0.0923493280000000 O
   0.4166666717500000    0.3333333357500000    0.0923493280000000 O
   0.4166666717500001    0.5833333357500000    0.0923493280000000 O
   0.4166666717500001    0.8333333357500000    0.0923493280000000 O
   0.6666666717500001    0.0833333357500000    0.0923493280000000 O
   0.6666666717500001    0.3333333357500000    0.0923493280000000 O
   0.6666666717500001    0.5833333357500000    0.0923493280000000 O
   0.6666666717500001    0.8333333357500000    0.0923493280000000 O
   0.9166666717500001    0.0833333357500000    0.0923493280000000 O
   0.9166666717500001    0.3333333357500000    0.0923493280000000 O
   0.9166666717500002    0.5833333357500000    0.0923493280000000 O
   0.9166666717500001    0.8333333357500000    0.0923493280000000 O
   0.0000000000000000    0.0000000000000000    0.2409839930000000 O
   0.0000000000000000    0.2500000000000000    0.2409839930000000 O
   0.0000000000000000    0.5000000000000000    0.2409839930000000 O
   0.0000000000000000    0.7500000000000000    0.2409839930000000 O
   0.2500000000000000    0.0000000000000000    0.2409839930000000 O
   0.2500000000000000    0.2500000000000000    0.2409839930000000 O
   0.2500000000000001    0.5000000000000000    0.2409839930000000 O
   0.2500000000000000    0.7500000000000000    0.2409839930000000 O
   0.5000000000000000    0.0000000000000000    0.2409839930000000 O
   0.5000000000000001    0.2500000000000000    0.2409839930000000 O
   0.5000000000000000    0.5000000000000000    0.2409839930000000 O
   0.5000000000000000    0.7500000000000000    0.2409839930000000 O
   0.7500000000000001    0.0000000000000000    0.2409839930000000 O
   0.7500000000000001    0.2500000000000000    0.2409839930000000 O
   0.7500000000000001    0.5000000000000000    0.2409839930000000 O
   0.7500000000000000    0.7500000000000000    0.2409839930000000 O
   0.0833333357500000    0.1666666717500000    0.4256826640000000 O
   0.0833333357500000    0.4166666717500000    0.4256826640000000 O
   0.0833333357500001    0.6666666717500001    0.4256826640000000 O
   0.0833333357500000    0.9166666717499999    0.4256826640000000 O
   0.3333333357500000    0.1666666717500000    0.4256826640000000 O
   0.3333333357500000    0.4166666717500000    0.4256826640000000 O
   0.3333333357500001    0.6666666717500001    0.4256826640000000 O
   0.3333333357500000    0.9166666717499999    0.4256826640000000 O
   0.5833333357500000    0.1666666717500000    0.4256826640000000 O
   0.5833333357500001    0.4166666717500000    0.4256826640000000 O
   0.5833333357500001    0.6666666717500001    0.4256826640000000 O
   0.5833333357500000    0.9166666717499999    0.4256826640000000 O
   0.8333333357500000    0.1666666717500000    0.4256826640000000 O
   0.8333333357500001    0.4166666717500000    0.4256826640000000 O
   0.8333333357500001    0.6666666717500001    0.4256826640000000 O
   0.8333333357500000    0.9166666717499999    0.4256826640000000 O
   0.1666666717500000    0.0833333357500000    0.5743173360000000 O
   0.1666666717500000    0.3333333357500000    0.5743173360000000 O
   0.1666666717500001    0.5833333357500000    0.5743173360000000 O
   0.1666666717500000    0.8333333357500000    0.5743173360000000 O
   0.4166666717500000    0.0833333357500000    0.5743173360000000 O
   0.4166666717500000    0.3333333357500000    0.5743173360000000 O
   0.4166666717500001    0.5833333357500000    0.5743173360000000 O
   0.4166666717500001    0.8333333357500000    0.5743173360000000 O
   0.6666666717500001    0.0833333357500000    0.5743173360000000 O
   0.6666666717500001    0.3333333357500000    0.5743173360000000 O
   0.6666666717500001    0.5833333357500000    0.5743173360000000 O
   0.6666666717500001    0.8333333357500000    0.5743173360000000 O
   0.9166666717500001    0.0833333357500000    0.5743173360000000 O
   0.9166666717500001    0.3333333357500000    0.5743173360000000 O
   0.9166666717500002    0.5833333357500000    0.5743173360000000 O
   0.9166666717500001    0.8333333357500000    0.5743173360000000 O
   0.0000000000000000    0.0000000000000000    0.7590159770000000 O
   0.0000000000000000    0.2500000000000000    0.7590159770000000 O
   0.0000000000000000    0.5000000000000000    0.7590159770000000 O
   0.0000000000000000    0.7500000000000000    0.7590159770000000 O
   0.2500000000000000    0.0000000000000000    0.7590159770000000 O
   0.2500000000000000    0.2500000000000000    0.7590159770000000 O
   0.2500000000000001    0.5000000000000000    0.7590159770000000 O
   0.2500000000000000    0.7500000000000000    0.7590159770000000 O
   0.5000000000000000    0.0000000000000000    0.7590159770000000 O
   0.5000000000000001    0.2500000000000000    0.7590159770000000 O
   0.5000000000000000    0.5000000000000000    0.7590159770000000 O
   0.5000000000000000    0.7500000000000000    0.7590159770000000 O
   0.7500000000000001    0.0000000000000000    0.7590159770000000 O
   0.7500000000000001    0.2500000000000000    0.7590159770000000 O
   0.7500000000000001    0.5000000000000000    0.7590159770000000 O
   0.7500000000000000    0.7500000000000000    0.7590159770000000 O
   0.0833333357500000    0.1666666717500000    0.9076506499999999 O
   0.0833333357500000    0.4166666717500000    0.9076506499999999 O
   0.0833333357500001    0.6666666717500001    0.9076506499999999 O
   0.0833333357500000    0.9166666717499999    0.9076506499999999 O
   0.3333333357500000    0.1666666717500000    0.9076506499999999 O
   0.3333333357500000    0.4166666717500000    0.9076506499999999 O
   0.3333333357500001    0.6666666717500001    0.9076506499999999 O
   0.3333333357500000    0.9166666717499999    0.9076506499999999 O
   0.5833333357500000    0.1666666717500000    0.9076506499999999 O
   0.5833333357500001    0.4166666717500000    0.9076506499999999 O
   0.5833333357500001    0.6666666717500001    0.9076506499999999 O
   0.5833333357500000    0.9166666717499999    0.9076506499999999 O
   0.8333333357500000    0.1666666717500000    0.9076506499999999 O
   0.8333333357500001    0.4166666717500000    0.9076506499999999 O
   0.8333333357500001    0.6666666717500001    0.9076506499999999 O
   0.8333333357500000    0.9166666717499999    0.9076506499999999 O
