Li24 S8 I8
1.0
   9.4751983921590348    0.0000001415806582   -0.0000000205586316
   0.0000001416071948    9.4751983266184041   -0.0000000903029182
  -0.0000000183042102   -0.0000000893336154    9.4751988599257420
Li I S
23 8 8
direct
   0.2500000126707605    0.5000000043273473    0.7499999932118052 Li
   0.0000000072566380    0.2500000087336467    0.2499999932198698 Li
   0.0000000072566380    0.2500000087336467    0.7499999932198699 Li
   0.0000000072566380    0.7500000087336466    0.2499999932198698 Li
   0.0000000072566380    0.7500000087336466    0.7499999932198698 Li
   0.5000000072566381    0.2500000087336467    0.2499999932198698 Li
   0.5000000072566381    0.7500000087336467    0.2499999932198698 Li
   0.5000000072566380    0.7500000087336465    0.7499999932198699 Li
   0.7500000126707604    0.5000000043273473    0.2499999932118052 Li
   0.7500000126707604    0.5000000043273473    0.7499999932118052 Li
   0.7500000126707604    0.0000000043273471    0.2499999932118052 Li
   0.7500000126707604    0.0000000043273471    0.7499999932118051 Li
   0.2500000126707604    0.5000000043273473    0.2499999932118052 Li
   0.2500000126707604    0.0000000043273471    0.2499999932118051 Li
   0.2500000126707605    0.0000000043273471    0.7499999932118052 Li
   0.2500000131143985    0.2500000084090707    0.4999999970417549 Li
   0.2500000131143985    0.2500000084090707    0.9999999970417550 Li
   0.2500000131143985    0.7500000084090707    0.4999999970417549 Li
   0.2500000131143985    0.7500000084090707    0.9999999970417549 Li
   0.7500000131143985    0.2500000084090707    0.4999999970417549 Li
   0.7500000131143986    0.2500000084090707    0.9999999970417549 Li
   0.7500000131143985    0.7500000084090706    0.4999999970417550 Li
   0.7500000131143986    0.7500000084090707    0.9999999970417550 Li
   0.0000000088406900    0.0000000063313799    0.4999999931183404 I
   0.0000000088406900    0.0000000063313799    0.9999999931183405 I
   0.0000000088406900    0.5000000063313798    0.4999999931183404 I
   0.0000000088406900    0.5000000063313799    0.9999999931183404 I
   0.5000000088406900    0.0000000063313799    0.4999999931183404 I
   0.5000000088406900    0.0000000063313799    0.9999999931183405 I
   0.5000000088406900    0.5000000063313798    0.4999999931183404 I
   0.5000000088406900    0.5000000063313798    0.9999999931183405 I
   0.2499999581175132    0.2499999721985517    0.2500000234082301 S
   0.2499999581175132    0.2499999721985517    0.7500000234082301 S
   0.2499999581175132    0.7499999721985516    0.2500000234082301 S
   0.2499999581175132    0.7499999721985516    0.7500000234082301 S
   0.7499999581175132    0.2499999721985517    0.2500000234082301 S
   0.7499999581175133    0.2499999721985517    0.7500000234082301 S
   0.7499999581175132    0.7499999721985515    0.2500000234082300 S
   0.7499999581175133    0.7499999721985517    0.7500000234082301 S
