Na16 V16 P16 O80
1.0
12.492809 -0.000003 -0.000001
0.000002 12.490951 -0.340644
-0.000067 0.259862 9.387054
Na V P O
15 16 16 80
direct
0.748570 0.750000 0.500600 Na
0.248570 0.250000 0.000600 Na
0.248570 0.250000 0.500600 Na
0.248570 0.750000 0.000600 Na
0.748570 0.250000 0.000600 Na
0.748570 0.250000 0.500600 Na
0.748570 0.750000 0.000600 Na
0.498500 0.499945 0.250015 Na
0.498500 0.499945 0.750015 Na
0.498500 0.999945 0.250015 Na
0.498500 0.999945 0.750015 Na
0.998500 0.499945 0.250015 Na
0.998500 0.499945 0.750015 Na
0.998500 0.999945 0.250015 Na
0.998500 0.999945 0.750015 Na
0.373496 0.374771 0.303767 V
0.373496 0.374771 0.803767 V
0.373496 0.874771 0.303767 V
0.373496 0.874771 0.803767 V
0.873496 0.374771 0.303767 V
0.873496 0.374771 0.803767 V
0.873496 0.874771 0.303767 V
0.873496 0.874771 0.803767 V
0.123493 0.125228 0.196232 V
0.123493 0.125228 0.696232 V
0.123493 0.625228 0.196232 V
0.123493 0.625228 0.696232 V
0.623493 0.125228 0.196232 V
0.623493 0.125228 0.696232 V
0.623493 0.625228 0.196232 V
0.623493 0.625228 0.696232 V
0.123477 0.375084 0.250283 P
0.123477 0.375084 0.750283 P
0.123477 0.875084 0.250283 P
0.123477 0.875084 0.750283 P
0.623477 0.375084 0.250283 P
0.623477 0.375084 0.750283 P
0.623477 0.875084 0.250283 P
0.623477 0.875084 0.750283 P
0.373476 0.124917 0.249713 P
0.373476 0.124917 0.749713 P
0.373476 0.624917 0.249713 P
0.373476 0.624917 0.749713 P
0.873476 0.124917 0.249713 P
0.873476 0.124917 0.749713 P
0.873476 0.624917 0.249713 P
0.873476 0.624917 0.749713 P
0.373526 0.374682 0.134507 O
0.373526 0.374682 0.634507 O
0.373526 0.874682 0.134507 O
0.373526 0.874682 0.634507 O
0.873526 0.374682 0.134507 O
0.873526 0.374682 0.634507 O
0.873526 0.874682 0.134507 O
0.873526 0.874682 0.634507 O
0.123527 0.125313 0.365501 O
0.123527 0.125313 0.865501 O
0.123527 0.625313 0.365501 O
0.123527 0.625313 0.865501 O
0.623527 0.125313 0.365501 O
0.623527 0.125313 0.865501 O
0.623527 0.625313 0.365501 O
0.623527 0.625313 0.865501 O
0.223733 0.374884 0.347691 O
0.223733 0.374884 0.847691 O
0.223733 0.874884 0.347691 O
0.223733 0.874884 0.847691 O
0.723733 0.374884 0.347691 O
0.723733 0.374884 0.847691 O
0.723733 0.874884 0.347691 O
0.723733 0.874884 0.847691 O
0.023284 0.374854 0.347793 O
0.023284 0.374854 0.847793 O
0.023284 0.874854 0.347793 O
0.023284 0.874854 0.847793 O
0.523284 0.374854 0.347793 O
0.523284 0.374854 0.847793 O
0.523284 0.874854 0.347793 O
0.523284 0.874854 0.847793 O
0.373454 0.224975 0.347390 O
0.373454 0.224975 0.847390 O
0.373454 0.724975 0.347390 O
0.373454 0.724975 0.847390 O
0.873454 0.224975 0.347390 O
0.873454 0.224975 0.847390 O
0.873454 0.724975 0.347390 O
0.873454 0.724975 0.847390 O
0.373466 0.024603 0.346984 O
0.373466 0.024603 0.846984 O
0.373466 0.524603 0.346984 O
0.373466 0.524603 0.846984 O
0.873466 0.024603 0.346984 O
0.873466 0.024603 0.846984 O
0.873466 0.524603 0.346984 O
0.873466 0.524603 0.846984 O
0.273284 0.125143 0.152206 O
0.273284 0.125143 0.652206 O
0.273284 0.625143 0.152206 O
0.273284 0.625143 0.652206 O
0.773284 0.125143 0.152206 O
0.773284 0.125143 0.652206 O
0.773284 0.625143 0.152206 O
0.773284 0.625143 0.652206 O
0.473731 0.125123 0.152309 O
0.473731 0.125123 0.652309 O
0.473731 0.625123 0.152309 O
0.473731 0.625123 0.652309 O
0.973731 0.125123 0.152309 O
0.973731 0.125123 0.652309 O
0.973731 0.625123 0.152309 O
0.973731 0.625123 0.652309 O
0.123457 0.275025 0.152611 O
0.123457 0.275025 0.652611 O
0.123457 0.775025 0.152611 O
0.123457 0.775025 0.652611 O
0.623457 0.275025 0.152611 O
0.623457 0.275025 0.652611 O
0.623457 0.775025 0.152611 O
0.623457 0.775025 0.652611 O
0.123461 0.475396 0.153013 O
0.123461 0.475396 0.653013 O
0.123461 0.975396 0.153013 O
0.123461 0.975396 0.653013 O
0.623461 0.475396 0.153013 O
0.623461 0.475396 0.653013 O
0.623461 0.975396 0.153013 O
0.623461 0.975396 0.653013 O
