Ca4 V4 P6 O24
1.0
2.567381 7.320284 4.374422
-0.001262 -0.001822 8.894764
7.747273 0.015854 4.371068
Ca V P O
4 4 6 24
direct
0.244477 0.881923 0.596567 Ca
0.961908 0.006719 0.022954 Ca
0.408945 0.742257 0.117829 Ca
0.150775 0.399496 0.741411 Ca
0.645921 0.630223 0.631324 V
0.141222 0.150816 0.151669 V
0.841957 0.856381 0.856921 V
0.354897 0.349781 0.352418 V
0.245264 0.554778 0.954400 P
0.034813 0.753208 0.450636 P
0.961086 0.253283 0.554377 P
0.448305 0.032044 0.742590 P
0.538217 0.951886 0.246836 P
0.748401 0.454941 0.029494 P
0.555253 0.774196 0.413030 O
0.259010 0.063286 0.909377 O
0.398669 0.577352 0.764388 O
0.924415 0.282785 0.041816 O
0.781692 0.410096 0.555594 O
0.068376 0.912954 0.265848 O
0.939450 0.083061 0.736413 O
0.583783 0.425795 0.205569 O
0.717552 0.940634 0.083404 O
0.222869 0.591644 0.423017 O
0.084963 0.743612 0.923919 O
0.429607 0.218205 0.588147 O
0.189896 0.397031 0.990880 O
0.871245 0.714295 0.485579 O
0.043157 0.174410 0.399838 O
0.458051 0.875398 0.703028 O
0.381177 0.963628 0.204178 O
0.718072 0.487397 0.858727 O
0.292265 0.532469 0.110440 O
0.020861 0.781537 0.618046 O
0.112379 0.300500 0.548667 O
0.601320 0.971057 0.811725 O
0.477820 0.116190 0.300893 O
0.772044 0.624941 0.010050 O
