Na2 Ca2 V4 P4 S2 O24                    
   1.00000000000000     
     8.9086149999999993    0.2385600000000000    0.1189190000000000
     4.3656389999999998    7.7928230000000003    0.1525470000000000
     4.3075630000000000    2.6393879999999998    7.3222509999999996
   Ca   Na   V    P    S    O 
     2     2     4     4     2    24
Direct
  0.5108520505700216  0.3654310486236963  0.6095928426258378
  0.0139309567117170  0.9675817133466165  0.0150787627960249
  0.7470291859476750  0.4072717945273292  0.1314523631320822
  0.5939541091439048  0.8634744683395174  0.2512081579978226
  0.3434613676901159  0.3625268941208105  0.3529098587048069
  0.6452085372715934  0.6470266689607991  0.6409845873846857
  0.1518815622887163  0.1466760444088015  0.1386075590104353
  0.8462954554239170  0.8557722798880921  0.8549159741078367
  0.9497958926224663  0.5353767555619918  0.2556447774259395
  0.7495142901892725  0.0361125267210030  0.4496028161394059
  0.4559888213857489  0.7513768668279144  0.0392485345521843
  0.5492860488107537  0.2479431372903964  0.9660936535174800
  0.0387944762761000  0.4551503420269810  0.7468844151811186
  0.2436610118141770  0.9592443091057662  0.5489926755135217
  0.2269284889741352  0.4215192855574421  0.6032061586409813
  0.7581225685329877  0.5595673578704985  0.4149252767028918
  0.5847492355272598  0.2257990087792688  0.4189911172900393
  0.4021254326393605  0.7784391160163713  0.5684327984883641
  0.4273504318944989  0.5855133037685371  0.2219952501074869
  0.5879374220536389  0.4089410564337909  0.7828766451454645
  0.9165779889055020  0.0641564410169021  0.2677160483522665
  0.0831255377462018  0.9379089732904056  0.7246051326104267
  0.0429881567873407  0.2790528932107462  0.9139658303245264
  0.9286040397212840  0.7245246138404564  0.0902156304393407
  0.2756591431306711  0.9235029998181398  0.0517841383031832
  0.7287082953498221  0.0729457514995581  0.9583581436898838
  0.5057761338762580  0.2868842281276091  0.1333492920777236
  0.5020191136713822  0.7102408032164211  0.8704022956365074
  0.1059860359062530  0.5033854125639021  0.3073226412821408
  0.8993811964404775  0.4889458041183105  0.6820410741698234
  0.2902772428331914  0.1089205839205562  0.5231338519614499
  0.7082428262568786  0.8787439681191478  0.4694684310411453
  0.3927751025041008  0.2161783835885063  0.9666959657608973
  0.6181347201149227  0.7845676420464462  0.0248197882023635
  0.2027006462958442 -0.0052199264858115  0.3900459876554789
  0.7715557923851041  1.0170356608148141  0.6207631721111703
  0.9839729297033003  0.3801995350730951  0.2004334884270058
  0.0028790069293990  0.6061171802229505  0.7970955066110303
 
             NaN             NaN             NaN
             NaN             NaN             NaN
             NaN             NaN             NaN
             NaN             NaN             NaN
             NaN             NaN             NaN
             NaN             NaN             NaN
             NaN             NaN             NaN
             NaN             NaN             NaN
             NaN             NaN             NaN
             NaN             NaN             NaN
             NaN             NaN             NaN
             NaN             NaN             NaN
             NaN             NaN             NaN
             NaN             NaN             NaN
             NaN             NaN             NaN
             NaN             NaN             NaN
             NaN             NaN             NaN
             NaN             NaN             NaN
             NaN             NaN             NaN
             NaN             NaN             NaN
             NaN             NaN             NaN
             NaN             NaN             NaN
             NaN             NaN             NaN
             NaN             NaN             NaN
             NaN             NaN             NaN
             NaN             NaN             NaN
             NaN             NaN             NaN
             NaN             NaN             NaN
             NaN             NaN             NaN
             NaN             NaN             NaN
             NaN             NaN             NaN
             NaN             NaN             NaN
             NaN             NaN             NaN
             NaN             NaN             NaN
             NaN             NaN             NaN
             NaN             NaN             NaN
             NaN             NaN             NaN
             NaN             NaN             NaN
