Na2 Ca2 V4 P4 S2 O24
1.0
8.908615 0.238560 0.118919
4.365639 7.792823 0.152547
4.307563 2.639388 7.322251
Ca Na V P S O
2 2 4 4 2 24
direct
0.483134 0.386039 0.575656 Ca
0.013580 0.979178 0.007541 Ca
0.726339 0.410915 0.155974 Na
0.604894 0.893991 0.244888 Na
0.354106 0.356998 0.347485 V
0.644718 0.649783 0.641095 V
0.144763 0.152728 0.141962 V
0.850258 0.856037 0.854541 V
0.953826 0.540240 0.249514 P
0.752759 0.035859 0.449074 P
0.461092 0.754187 0.042015 P
0.545624 0.254810 0.957540 P
0.045085 0.458495 0.742018 S
0.243413 0.960925 0.547116 S
0.227709 0.432510 0.591052 O
0.763522 0.569920 0.409626 O
0.585800 0.225051 0.432710 O
0.406940 0.782759 0.553123 O
0.440925 0.582384 0.219302 O
0.561075 0.424439 0.781267 O
0.913022 0.071847 0.261759 O
0.093041 0.930520 0.728493 O
0.060640 0.275205 0.902153 O
0.933038 0.732157 0.086954 O
0.274961 0.920314 0.060028 O
0.733208 0.087721 0.934270 O
0.519607 0.284318 0.124862 O
0.510279 0.719958 0.869475 O
0.115719 0.495220 0.299793 O
0.897486 0.493071 0.687060 O
0.294825 0.106690 0.522552 O
0.705927 0.885230 0.461614 O
0.386043 0.205773 -0.005803 O
0.615570 0.795453 0.031369 O
0.187581 1.004445 0.396381 O
0.794080 0.989825 0.617360 O
0.974096 0.391320 0.194191 O
0.011064 0.603383 0.799597 O
