Ca8 Mn12 F42                            
   1.00000000000000     
     7.5514060000000001   -0.0594170000000000    0.0128710000000000
    -3.8320590000000001    6.6843539999999999    0.0488970000000000
     0.0476130000000000    0.1726250000000000   18.6921309999999998
   Ca   Mn   F 
     8    12    42
Direct
  0.6790404509264761  0.8372229011723697  0.7382773243653037
  0.1787376497886635  0.6482642884338446  0.9999279563297684
  0.3586761596442237  0.4986332441738812  0.3548039480389252
  0.5473511534080395  0.3387608198370988  0.6685160076908196
  0.8603130763319270  0.0065815710170197  0.3355832265485832
  0.2002872724390246  0.1758941685587302  0.9992230509333522
  0.9923736441579180  0.7695197972557335  0.1794321268428548
  0.1768175633680068  0.1357507305183046  0.5186372220241853
  0.3695662490008071  1.0025413883666461  0.3231279750693101
  0.0374296431693315  0.3749886768790019  0.6709459298532370
  0.6769153678440248  0.6802639874996120  0.0091320964261418
  0.3750610241307883  0.0209433686445439  0.8426899923534469
  0.0257371559722366  0.3070075778141947  0.1688712595262472
  0.6713291716622902  0.6789111943512149  0.5158204851709031
  0.5196211289280367  0.8151671696683275  0.1749679796174995
  0.1789294380118003  0.6727172629256765  0.4966028490474671
  0.3038611999874038  0.4852106257018380  0.8393444654255324
  0.8276410005769173  0.5307937294013076  0.8314043242042324
  0.6842775157521104  0.1800722602661987  0.5000358703290886
  0.4990338219035731  0.3074530986243721  0.1698437208933330
  0.7685563732401821  0.2354250823954019  0.6143933394386266
  0.7805444619597626  0.5911362436332310  0.9273502422077562
  0.4540600570061242  0.2998771737726043  0.2887985282928986
  0.2452908259008251  0.7422361321254722  0.3927062766168554
  0.4965675280627395  0.7750090467678190  0.0640847934626095
  0.2667302205945192  0.5524561856634148  0.7329388479446003
  0.8674434784992515  0.9626662943219745  0.9856026981404827
  0.0622899756688197  0.8831936216801379  0.2913520034169360
  0.2208170979453252  0.2528216187852987  0.6287112345857845
  0.9722868357292286  0.7298548774939101  0.0619250367056479
  0.9290869704324344  0.1497505138964745  0.7363449096538276
  0.1705870838564910  0.1626241869593616  0.4012102543701752
  0.5242816918094649  0.3930276054789570  0.0577602891403349
  0.6340843563980005  0.1088029629407769  0.3876347596788215
  0.8595462359446294  0.4713489305897904  0.7306894726061188
  0.3777441282920935  0.5218870824994820  0.9530303701335855
  0.1411033059492665  0.5827997545674083  0.5973125721481981
  0.5112131109559458  0.8008458283594555  0.2907743426715291
  0.8049847638410086  0.3933040050455353  0.1782744553798779
  0.5566717446564684  0.3588952210352669  0.5347441133800359
  0.6698678516242349  0.2529946009281450  0.8567730113613391
  0.4905384439886784  0.8157656642628647  0.8356675652156069
  0.3547962539003084  0.5240419501715173  0.4841605901896288
  0.2016923960093916  0.6269774657853128  0.1709785958159216
  0.0798781771502926  0.3240941163839466  0.2821448599724655
  0.6535051969436855  0.6746079219294168  0.6320140734289418
  0.3022317964972303  0.9580562135039415  0.9530837756570227
  0.4253061610052506  0.0587372506062515  0.7353750045251027
  0.6874784892272887  0.7064417864697733  0.4008078188858169
  0.0629578277490444  0.3512707797282150  0.0576389940844027
  0.1873941527877394  0.1321638476666368  0.1344477944469981
  0.8165565450666794  1.0011243972310904  0.5111651890672542
  0.9374075952826112  0.8028444781837297  0.8013266368937342
  0.2420483626373104  0.2018855236386100  0.8706298537069052
  0.9855832047038176  0.7860873506440716  0.5158045367313387
  0.8306446022051891  0.0067774350465350  0.2019348404360984
  0.0878412166953425  0.5485198071951801  0.8815541780513901
  0.6337848557137760  0.6183562280724102  0.1830240223853700
  0.3827721144717424  0.9689060559312280  0.5209254114472551
  0.4130467448140609  0.0110335581611831  0.2031586861945041
  0.5529675962850330  0.5005513817136761  0.7779686803810968
  0.9585232090926910  0.3992224749823691  0.4675941174290659
 
             NaN             NaN             NaN
             NaN             NaN             NaN
             NaN             NaN             NaN
             NaN             NaN             NaN
             NaN             NaN             NaN
             NaN             NaN             NaN
             NaN             NaN             NaN
             NaN             NaN             NaN
             NaN             NaN             NaN
             NaN             NaN             NaN
             NaN             NaN             NaN
             NaN             NaN             NaN
             NaN             NaN             NaN
             NaN             NaN             NaN
             NaN             NaN             NaN
             NaN             NaN             NaN
             NaN             NaN             NaN
             NaN             NaN             NaN
             NaN             NaN             NaN
             NaN             NaN             NaN
             NaN             NaN             NaN
             NaN             NaN             NaN
             NaN             NaN             NaN
             NaN             NaN             NaN
             NaN             NaN             NaN
             NaN             NaN             NaN
             NaN             NaN             NaN
             NaN             NaN             NaN
             NaN             NaN             NaN
             NaN             NaN             NaN
             NaN             NaN             NaN
             NaN             NaN             NaN
             NaN             NaN             NaN
             NaN             NaN             NaN
             NaN             NaN             NaN
             NaN             NaN             NaN
             NaN             NaN             NaN
             NaN             NaN             NaN
             NaN             NaN             NaN
             NaN             NaN             NaN
             NaN             NaN             NaN
             NaN             NaN             NaN
             NaN             NaN             NaN
             NaN             NaN             NaN
             NaN             NaN             NaN
             NaN             NaN             NaN
             NaN             NaN             NaN
             NaN             NaN             NaN
             NaN             NaN             NaN
             NaN             NaN             NaN
             NaN             NaN             NaN
             NaN             NaN             NaN
             NaN             NaN             NaN
             NaN             NaN             NaN
             NaN             NaN             NaN
             NaN             NaN             NaN
             NaN             NaN             NaN
             NaN             NaN             NaN
             NaN             NaN             NaN
             NaN             NaN             NaN
             NaN             NaN             NaN
             NaN             NaN             NaN
