Ca8 Mn12 F42                            
   1.00000000000000     
     7.5514060000000001   -0.0594170000000000    0.0128710000000000
    -3.8320590000000001    6.6843539999999999    0.0488970000000000
     0.0476130000000000    0.1726250000000000   18.6921309999999998
   Ca   Mn   F 
     8    12    42
Direct
  0.7047773456817246  0.8436452541882909  0.7449319799995722
  0.1758553413551115  0.6488989979118842  0.9977953456897434
  0.3543559863990128  0.4974331893534655  0.3521454482741777
  0.5405857136932464  0.3412932735091638  0.6656944447654543
  0.8574389722603006  0.0092459555744339  0.3306366032481832
  0.1916674188522060  0.1756500461564435 -0.0048155742751725
  0.9894671015199639  0.7668525894853639  0.1772877384696391
  0.1695800437866122  0.1334819794813138  0.5151480429553692
  0.3661464700117147  0.9968164409608866  0.3195429126931699
  0.0311841875313881  0.3763298806610640  0.6674829677704465
  0.6697565196680497  0.6742702371258459  0.0056652463644971
  0.3489940094819214  0.0103547947832097  0.8371165486232319
  0.0200036415538015  0.3033272015259669  0.1640457523752201
  0.6662392233371669  0.6794732696358273  0.5131102099218758
  0.5127426707763032  0.8127224440654948  0.1717668091822963
  0.1731979870528429  0.6713351521848917  0.4937928516063661
  0.3022189831603234  0.4895035177144227  0.8363641268156742
  0.8249978796858748  0.5232777673227751  0.8319088162940407
  0.6789501698703154  0.1791764546801648  0.4976653345773812
  0.4929079587021964  0.3068397475224058  0.1679230647477908
  0.7618104990706440  0.2387208429582957  0.6123445665601739
  0.7731774051530652  0.5768365712372931  0.9264526061818157
  0.4515340223268164  0.2945211089677887  0.2876753712695003
  0.2379684678753036  0.7389046130083935  0.3901738496481412
  0.4978378763684741  0.7769264641005006  0.0612324750579786
  0.2600221420546314  0.5440528479121965  0.7301353747296688
  0.8619257729956328  0.9591161722992656  0.9766155722808241
  0.0592636770412345  0.8814912383423896  0.2890560723861339
  0.2144097671122319  0.2548438691812559  0.6241671501307836
  0.9699389491294643  0.7367416998348293  0.0594335346636367
  0.9269252369803146  0.1478784741475301  0.7354603535248687
  0.1579884785440892  0.1653876591325955  0.3987581296419840
  0.5161861068354499  0.3923163483511619  0.0563276555498305
  0.6318924572451874  0.1074822007038129  0.3850886644409418
  0.8511883258188877  0.4662566385783174  0.7280541972784536
  0.3761107957328970  0.5235872678148712  0.9501203564813289
  0.1348097145807083  0.5851990743728542  0.5951701879050370
  0.4959839302625870  0.8015809421489951  0.2878906635249376
  0.7989489533707297  0.3890883543400183  0.1745993411266469
  0.5507437406217600  0.3603384893559067  0.5311525711572683
  0.6477390844447923  0.2340673846152315  0.8529407111250626
  0.4818155714616587  0.8154308072108866  0.8300384555048987
  0.3536428584677296  0.5273168853404726  0.4819838468015754
  0.1958374992507864  0.6234192120551308  0.1636706069759154
  0.0818335382405423  0.3288770913893393  0.2774743779140777
  0.6568263685833181  0.6789188722636987  0.6322584404741443
  0.2896517189109762  0.9554855334057710  0.9488881212490936
  0.3979317831760548  0.0691898865701334  0.7316516993749280
  0.6823276098886294  0.7116746990519517  0.3975139516386014
  0.0496041899498792  0.3463490658482308  0.0516273376210238
  0.1759608864152430  0.1395420601911807  0.1333215350235736
  0.8086343637407087  0.9978394052146049  0.5128354197287696
 -0.0422707605573395  0.7974326161891430  0.8047014222346537
  0.2265633624680257  0.2010645509828855  0.8680546880870913
  0.9782193499620768  0.7840813288875830  0.5110523079446854
  0.8211749613121265  0.0043949540936242  0.2028801357568155
  0.0782520409133773  0.5343830474811785  0.8818331271179787
  0.6299411136534495  0.6176351401105078  0.1829838894893135
  0.3758476920262164  0.9685942192639140  0.5177995077638667
  0.3971052427898484  0.0048400296712821  0.1965461192976687
  0.5570402688134952  0.5090199359144267  0.7789167101172813
  0.9546796490399447  0.3955944506524135  0.4659974927048156
 
             NaN             NaN             NaN
             NaN             NaN             NaN
             NaN             NaN             NaN
             NaN             NaN             NaN
             NaN             NaN             NaN
             NaN             NaN             NaN
             NaN             NaN             NaN
             NaN             NaN             NaN
             NaN             NaN             NaN
             NaN             NaN             NaN
             NaN             NaN             NaN
             NaN             NaN             NaN
             NaN             NaN             NaN
             NaN             NaN             NaN
             NaN             NaN             NaN
             NaN             NaN             NaN
             NaN             NaN             NaN
             NaN             NaN             NaN
             NaN             NaN             NaN
             NaN             NaN             NaN
             NaN             NaN             NaN
             NaN             NaN             NaN
             NaN             NaN             NaN
             NaN             NaN             NaN
             NaN             NaN             NaN
             NaN             NaN             NaN
             NaN             NaN             NaN
             NaN             NaN             NaN
             NaN             NaN             NaN
             NaN             NaN             NaN
             NaN             NaN             NaN
             NaN             NaN             NaN
             NaN             NaN             NaN
             NaN             NaN             NaN
             NaN             NaN             NaN
             NaN             NaN             NaN
             NaN             NaN             NaN
             NaN             NaN             NaN
             NaN             NaN             NaN
             NaN             NaN             NaN
             NaN             NaN             NaN
             NaN             NaN             NaN
             NaN             NaN             NaN
             NaN             NaN             NaN
             NaN             NaN             NaN
             NaN             NaN             NaN
             NaN             NaN             NaN
             NaN             NaN             NaN
             NaN             NaN             NaN
             NaN             NaN             NaN
             NaN             NaN             NaN
             NaN             NaN             NaN
             NaN             NaN             NaN
             NaN             NaN             NaN
             NaN             NaN             NaN
             NaN             NaN             NaN
             NaN             NaN             NaN
             NaN             NaN             NaN
             NaN             NaN             NaN
             NaN             NaN             NaN
             NaN             NaN             NaN
             NaN             NaN             NaN
