Al16 V32 O64
1.0
   9.6243694132375452   -0.1992652708256702   -0.0000009574999658
  -0.1976590392634690    9.7381033098625593   -0.0000048499317278
  -0.0000011805395368   -0.0000057802505710   11.5295370063449063
Al V O
1 32 64
direct
   0.5000000004112557    0.7500000011814235    0.7499998320900826 Al
   0.9999999996071811    0.9999999995021621    0.0000001977931737 V
   0.9999999996071811    0.9999999995021621    0.5000001977931737 V
   0.9999999996071811    0.4999999995021621    0.0000001977931737 V
   0.9999999996071811    0.4999999995021621    0.5000001977931737 V
   0.4999999996071811    0.9999999995021621    0.0000001977931737 V
   0.4999999996071811    0.9999999995021621    0.5000001977931737 V
   0.4999999996071811    0.4999999995021621    0.0000001977931737 V
   0.4999999996071811    0.4999999995021621    0.5000001977931737 V
   0.0000000000217868    0.9999999999227566    0.2499999042285961 V
   0.0000000000217868    0.9999999999227566    0.7499999042285961 V
   0.0000000000217868    0.4999999999227565    0.2499999042285961 V
   0.0000000000217868    0.4999999999227564    0.7499999042285962 V
   0.5000000000217868    0.9999999999227566    0.2499999042285961 V
   0.5000000000217868    0.9999999999227566    0.7499999042285961 V
   0.5000000000217868    0.4999999999227565    0.2499999042285961 V
   0.5000000000217868    0.4999999999227565    0.7499999042285961 V
   0.2499999740750162    0.2500000622164509    0.1348661810022156 V
   0.2499999740750162    0.2500000622164509    0.6348661810022156 V
   0.2499999740750163    0.7500000622164509    0.1348661810022156 V
   0.2499999740750162    0.7500000622164509    0.6348661810022156 V
   0.7499999740750163    0.2500000622164509    0.1348661810022156 V
   0.7499999740750163    0.2500000622164509    0.6348661810022156 V
   0.7499999740750162    0.7500000622164509    0.1348661810022156 V
   0.7499999740750163    0.7500000622164509    0.6348661810022157 V
   0.2500000263405023    0.2499999384081822    0.3651322227785043 V
   0.2500000263405023    0.2499999384081822    0.8651322227785042 V
   0.2500000263405023    0.7499999384081820    0.3651322227785043 V
   0.2500000263405023    0.7499999384081820    0.8651322227785042 V
   0.7500000263405023    0.2499999384081822    0.3651322227785043 V
   0.7500000263405024    0.2499999384081822    0.8651322227785043 V
   0.7500000263405023    0.7499999384081820    0.3651322227785043 V
   0.7500000263405022    0.7499999384081820    0.8651322227785043 V
   0.1530821995556991    0.1485522954320143    0.9999998281619484 O
   0.1530821995556991    0.1485522954320143    0.4999998281619484 O
   0.1530821995556991    0.6485522954320142    0.9999998281619484 O
   0.1530821995556991    0.6485522954320142    0.4999998281619484 O
   0.6530821995556990    0.1485522954320143    0.9999998281619484 O
   0.6530821995556991    0.1485522954320143    0.4999998281619484 O
   0.6530821995556992    0.6485522954320143    0.9999998281619484 O
   0.6530821995556992    0.6485522954320143    0.4999998281619484 O
   0.1507126242974573    0.1417068909660316    0.2499995283523997 O
   0.1507126242974572    0.1417068909660316    0.7499995283523997 O
   0.1507126242974572    0.6417068909660315    0.2499995283523997 O
   0.1507126242974572    0.6417068909660315    0.7499995283523998 O
   0.6507126242974572    0.1417068909660316    0.2499995283523997 O
   0.6507126242974571    0.1417068909660316    0.7499995283523997 O
   0.6507126242974572    0.6417068909660315    0.2499995283523997 O
   0.6507126242974572    0.6417068909660315    0.7499995283523997 O
   0.3469177996221288    0.3514477048084617    0.9999998555505694 O
   0.3469177996221287    0.3514477048084617    0.4999998555505694 O
   0.3469177996221287    0.8514477048084617    0.9999998555505694 O
   0.3469177996221287    0.8514477048084615    0.4999998555505694 O
   0.8469177996221288    0.3514477048084618    0.9999998555505694 O
   0.8469177996221287    0.3514477048084617    0.4999998555505694 O
   0.8469177996221288    0.8514477048084617    0.9999998555505694 O
   0.8469177996221289    0.8514477048084615    0.4999998555505694 O
   0.3492873756581550    0.3582931090964255    0.2499995522460418 O
   0.3492873756581550    0.3582931090964255    0.7499995522460418 O
   0.3492873756581550    0.8582931090964254    0.2499995522460418 O
   0.3492873756581550    0.8582931090964254    0.7499995522460418 O
   0.8492873756581550    0.3582931090964255    0.2499995522460418 O
   0.8492873756581550    0.3582931090964255    0.7499995522460419 O
   0.8492873756581550    0.8582931090964254    0.2499995522460418 O
   0.8492873756581552    0.8582931090964254    0.7499995522460419 O
   0.0884264384713419    0.3811131360760614    0.1157300601366989 O
   0.0884264384713419    0.3811131360760615    0.6157300601366990 O
   0.0884264384713419    0.8811131360760613    0.1157300601366989 O
   0.0884264384713419    0.8811131360760613    0.6157300601366990 O
   0.5884264384713419    0.3811131360760614    0.1157300601366989 O
   0.5884264384713419    0.3811131360760614    0.6157300601366990 O
   0.5884264384713418    0.8811131360760615    0.1157300601366989 O
   0.5884264384713419    0.8811131360760615    0.6157300601366990 O
   0.0884265897652424    0.3811138217096937    0.3842704393122499 O
   0.0884265897652423    0.3811138217096937    0.8842704393122500 O
   0.0884265897652423    0.8811138217096937    0.3842704393122499 O
   0.0884265897652424    0.8811138217096937    0.8842704393122500 O
   0.5884265897652424    0.3811138217096938    0.3842704393122499 O
   0.5884265897652425    0.3811138217096937    0.8842704393122499 O
   0.5884265897652423    0.8811138217096937    0.3842704393122499 O
   0.5884265897652424    0.8811138217096937    0.8842704393122499 O
   0.4115736590973420    0.1188864758066929    0.1157299110967794 O
   0.4115736590973419    0.1188864758066929    0.6157299110967793 O
   0.4115736590973420    0.6188864758066930    0.1157299110967794 O
   0.4115736590973419    0.6188864758066929    0.6157299110967793 O
   0.9115736590973421    0.1188864758066930    0.1157299110967794 O
   0.9115736590973420    0.1188864758066929    0.6157299110967794 O
   0.9115736590973419    0.6188864758066930    0.1157299110967794 O
   0.9115736590973421    0.6188864758066929    0.6157299110967794 O
   0.4115733132412347    0.1188865666483301    0.3842702908641668 O
   0.4115733132412346    0.1188865666483301    0.8842702908641668 O
   0.4115733132412346    0.6188865666483300    0.3842702908641668 O
   0.4115733132412346    0.6188865666483300    0.8842702908641669 O
   0.9115733132412347    0.1188865666483301    0.3842702908641668 O
   0.9115733132412347    0.1188865666483301    0.8842702908641669 O
   0.9115733132412346    0.6188865666483301    0.3842702908641668 O
   0.9115733132412347    0.6188865666483301    0.8842702908641669 O
