Ca1 Ni12 F42
1.0
7.020075 -0.031538 0.007802
-3.533483 6.104927 -0.026985
-0.097194 -0.031240 16.929048
Ca Ni F
1 12 42
direct
0.510323 0.366696 0.659288 Ca
0.299340 0.997532 0.329533 Ni
0.701899 0.699332 0.006655 Ni
0.002810 0.311229 0.664087 Ni
0.341988 0.996262 0.839206 Ni
0.659424 0.659520 0.492588 Ni
0.998995 0.344986 0.167841 Ni
0.658195 0.150847 0.491265 Ni
0.499142 0.345817 0.168058 Ni
0.843667 0.498329 0.839145 Ni
0.340769 0.499689 0.842149 Ni
0.156482 0.655371 0.495020 Ni
0.499233 0.845548 0.167407 Ni
0.567694 0.829633 0.062536 F
0.256000 0.443473 0.728883 F
0.175486 0.742827 0.388015 F
0.432048 0.260950 0.272965 F
0.823114 0.569499 0.947421 F
0.745914 0.191650 0.601008 F
0.885816 0.075784 0.723513 F
0.192861 0.113271 0.394656 F
0.931951 0.816632 0.069514 F
0.148472 0.211640 0.605819 F
0.067181 0.885085 0.267888 F
0.813749 0.924583 0.943002 F
0.131890 0.570140 0.605075 F
0.430079 0.863450 0.271358 F
0.439084 0.561316 0.948285 F
0.858731 0.427378 0.723467 F
0.568624 0.124007 0.385378 F
0.565315 0.432806 0.063701 F
0.367008 0.570864 0.469470 F
0.207717 0.643435 0.142270 F
0.436381 0.800411 0.816914 F
0.633704 0.202919 0.862599 F
0.566368 0.364219 0.518585 F
0.790948 0.435994 0.192707 F
0.700221 0.618013 0.393340 F
0.916563 0.302231 0.068595 F
0.383193 0.074910 0.734717 F
0.301446 0.916611 0.938619 F
0.613412 0.689616 0.597574 F
0.081072 0.387470 0.267123 F
0.946436 0.739145 0.520917 F
0.790406 0.046859 0.193001 F
0.247831 0.193398 0.859376 F
0.053032 0.788541 0.812190 F
0.757923 0.949860 0.472038 F
0.207072 0.254508 0.143370 F
0.621005 0.546207 0.797139 F
0.942194 0.375250 0.461383 F
0.439392 0.066561 0.135327 F
0.376291 0.936268 0.528482 F
0.558947 0.625036 0.200324 F
0.052365 0.429421 0.873286 F
