Ca8 Ti12 F42
1.0
7.409263 -0.038932 -0.089808
-3.696265 6.451567 0.044287
0.232690 0.023572 18.610075
Ca Ti F
8 12 42
direct
0.656329 0.143672 0.001590 Ca
0.845468 0.480704 0.324124 Ca
0.520935 0.344375 0.657371 Ca
0.159536 0.164575 0.992112 Ca
0.006280 0.851923 0.674161 Ca
0.830454 0.970704 0.329114 Ca
0.040699 0.821503 0.155956 Ca
0.192655 0.213518 0.490517 Ca
0.341017 0.983599 0.339325 Ti
0.021363 0.346749 0.678554 Ti
0.676402 0.669315 0.983909 Ti
0.330247 0.004527 0.833811 Ti
0.949818 0.281083 0.164736 Ti
0.719900 0.674608 0.502245 Ti
0.521955 0.845075 0.162495 Ti
0.176276 0.690313 0.503717 Ti
0.345548 0.504553 0.836054 Ti
0.853239 0.515512 0.838784 Ti
0.669763 0.150832 0.501949 Ti
0.520161 0.291382 0.160352 Ti
0.744129 0.219282 0.613132 F
0.826459 0.491886 0.950430 F
0.498501 0.250471 0.273546 F
0.152080 0.675603 0.389440 F
0.569164 0.810822 0.055436 F
0.332949 0.457988 0.725431 F
0.820198 0.987347 0.946285 F
0.045435 0.828772 0.279498 F
0.177636 0.223416 0.612643 F
0.951069 0.829641 0.044214 F
0.906892 0.063000 0.718179 F
0.162757 0.122625 0.375799 F
0.525086 0.365849 0.046732 F
0.676586 0.159754 0.382541 F
0.831875 0.491616 0.720269 F
0.352492 0.508391 0.949836 F
0.137370 0.619276 0.616782 F
0.494477 0.860807 0.277188 F
0.831093 0.478223 0.195078 F
0.540851 0.346289 0.529355 F
0.627078 0.224217 0.846601 F
0.408844 0.789684 0.824517 F
0.399307 0.588172 0.489210 F
0.200567 0.615573 0.156440 F
-0.019659 0.294392 0.276002 F
0.693553 0.674071 0.615373 F
0.336722 0.001728 0.946633 F
0.340319 0.050436 0.721318 F
0.718910 0.654185 0.386147 F
0.976416 0.285364 0.054095 F
0.193428 0.194907 0.145799 F
0.816922 0.980261 0.468034 F
0.028617 0.808291 0.802450 F
0.223974 0.201438 0.861097 F
0.035745 0.860073 0.542158 F
0.831200 0.964871 0.196346 F
0.044287 0.410556 0.807739 F
0.552145 0.581403 0.178855 F
0.360113 0.998778 0.462345 F
0.376799 -0.003045 0.108864 F
0.650586 0.618046 0.866234 F
0.988900 0.369547 0.495603 F
