K54 Co54 O108
1.0
11.433000 0.000000 0.000000
0.000000 11.433000 0.000000
0.000000 0.000000 23.724000
K Co K O
1 54 52 108
direct
   0.4166670000000000    0.4166700000000000    0.5532670000000000 K
0.083333 0.083333 0.025600 Co
0.083333 0.083333 0.358933 Co
0.083333 0.083333 0.692267 Co
0.083333 0.416667 0.025600 Co
0.083333 0.416667 0.358933 Co
0.083333 0.416667 0.692267 Co
0.083333 0.750000 0.025600 Co
0.083333 0.750000 0.358933 Co
0.083333 0.750000 0.692267 Co
0.416667 0.083333 0.025600 Co
0.416667 0.083333 0.358933 Co
0.416667 0.083333 0.692267 Co
0.416667 0.416667 0.025600 Co
0.416667 0.416667 0.358933 Co
0.416667 0.416667 0.692267 Co
0.416667 0.750000 0.025600 Co
0.416667 0.750000 0.358933 Co
0.416667 0.750000 0.692267 Co
0.750000 0.083333 0.025600 Co
0.750000 0.083333 0.358933 Co
0.750000 0.083333 0.692267 Co
0.750000 0.416667 0.025600 Co
0.750000 0.416667 0.358933 Co
0.750000 0.416667 0.692267 Co
0.750000 0.750000 0.025600 Co
0.750000 0.750000 0.358933 Co
0.750000 0.750000 0.692267 Co
0.250000 0.250000 0.307733 Co
0.250000 0.250000 0.641067 Co
0.250000 0.250000 0.974400 Co
0.250000 0.583333 0.307733 Co
0.250000 0.583333 0.641067 Co
0.250000 0.583333 0.974400 Co
0.250000 0.916667 0.307733 Co
0.250000 0.916667 0.641067 Co
0.250000 0.916667 0.974400 Co
0.583333 0.250000 0.307733 Co
0.583333 0.250000 0.641067 Co
0.583333 0.250000 0.974400 Co
0.583333 0.583333 0.307733 Co
0.583333 0.583333 0.641067 Co
0.583333 0.583333 0.974400 Co
0.583333 0.916667 0.307733 Co
0.583333 0.916667 0.641067 Co
0.583333 0.916667 0.974400 Co
0.916667 0.250000 0.307733 Co
0.916667 0.250000 0.641067 Co
0.916667 0.250000 0.974400 Co
0.916667 0.583333 0.307733 Co
0.916667 0.583333 0.641067 Co
0.916667 0.583333 0.974400 Co
0.916667 0.916667 0.307733 Co
0.916667 0.916667 0.641067 Co
0.916667 0.916667 0.974400 Co
0.083333 0.083333 0.219933 K
0.083333 0.083333 0.553267 K
0.083333 0.083333 0.886600 K
0.083333 0.416667 0.219933 K
0.083333 0.416667 0.553267 K
0.083333 0.416667 0.886600 K
0.083333 0.750000 0.219933 K
0.083333 0.750000 0.553267 K
0.083333 0.750000 0.886600 K
0.416667 0.083333 0.219933 K
0.416667 0.083333 0.886600 K
0.416667 0.416667 0.219933 K
0.416667 0.416667 0.886600 K
0.416667 0.750000 0.219933 K
0.416667 0.750000 0.553267 K
0.416667 0.750000 0.886600 K
0.750000 0.083333 0.219933 K
0.750000 0.083333 0.553267 K
0.750000 0.083333 0.886600 K
0.750000 0.416667 0.219933 K
0.750000 0.416667 0.553267 K
0.750000 0.416667 0.886600 K
0.750000 0.750000 0.219933 K
0.750000 0.750000 0.553267 K
0.750000 0.750000 0.886600 K
0.250000 0.250000 0.113400 K
0.250000 0.250000 0.446733 K
0.250000 0.250000 0.780067 K
0.250000 0.583333 0.113400 K
0.250000 0.583333 0.446733 K
0.250000 0.583333 0.780067 K
0.250000 0.916667 0.113400 K
0.250000 0.916667 0.446733 K
0.250000 0.916667 0.780067 K
0.583333 0.250000 0.113400 K
0.583333 0.250000 0.446733 K
0.583333 0.250000 0.780067 K
0.583333 0.583333 0.113400 K
0.583333 0.583333 0.446733 K
0.583333 0.583333 0.780067 K
0.583333 0.916667 0.113400 K
0.583333 0.916667 0.446733 K
0.583333 0.916667 0.780067 K
0.916667 0.250000 0.113400 K
0.916667 0.250000 0.446733 K
0.916667 0.250000 0.780067 K
0.916667 0.583333 0.113400 K
0.916667 0.583333 0.446733 K
0.916667 0.583333 0.780067 K
0.916667 0.916667 0.113400 K
0.916667 0.916667 0.446733 K
0.916667 0.916667 0.780067 K
0.083333 0.083333 0.106267 O
0.083333 0.083333 0.439600 O
0.083333 0.083333 0.772933 O
0.083333 0.416667 0.106267 O
0.083333 0.416667 0.439600 O
0.083333 0.416667 0.772933 O
0.083333 0.750000 0.106267 O
0.083333 0.750000 0.439600 O
0.083333 0.750000 0.772933 O
0.416667 0.083333 0.106267 O
0.416667 0.083333 0.439600 O
0.416667 0.083333 0.772933 O
0.416667 0.416667 0.106267 O
0.416667 0.416667 0.439600 O
0.416667 0.416667 0.772933 O
0.416667 0.750000 0.106267 O
0.416667 0.750000 0.439600 O
0.416667 0.750000 0.772933 O
0.750000 0.083333 0.106267 O
0.750000 0.083333 0.439600 O
0.750000 0.083333 0.772933 O
0.750000 0.416667 0.106267 O
0.750000 0.416667 0.439600 O
0.750000 0.416667 0.772933 O
0.750000 0.750000 0.106267 O
0.750000 0.750000 0.439600 O
0.750000 0.750000 0.772933 O
0.250000 0.250000 0.227067 O
0.250000 0.250000 0.560400 O
0.250000 0.250000 0.893733 O
0.250000 0.583333 0.227067 O
0.250000 0.583333 0.560400 O
0.250000 0.583333 0.893733 O
0.250000 0.916667 0.227067 O
0.250000 0.916667 0.560400 O
0.250000 0.916667 0.893733 O
0.583333 0.250000 0.227067 O
0.583333 0.250000 0.560400 O
0.583333 0.250000 0.893733 O
0.583333 0.583333 0.227067 O
0.583333 0.583333 0.560400 O
0.583333 0.583333 0.893733 O
0.583333 0.916667 0.227067 O
0.583333 0.916667 0.560400 O
0.583333 0.916667 0.893733 O
0.916667 0.250000 0.227067 O
0.916667 0.250000 0.560400 O
0.916667 0.250000 0.893733 O
0.916667 0.583333 0.227067 O
0.916667 0.583333 0.560400 O
0.916667 0.583333 0.893733 O
0.916667 0.916667 0.227067 O
0.916667 0.916667 0.560400 O
0.916667 0.916667 0.893733 O
0.250000 0.083333 0.000000 O
0.250000 0.083333 0.333333 O
0.250000 0.083333 0.666667 O
0.250000 0.416667 0.000000 O
0.250000 0.416667 0.333333 O
0.250000 0.416667 0.666667 O
0.250000 0.750000 0.000000 O
0.250000 0.750000 0.333333 O
0.250000 0.750000 0.666667 O
0.583333 0.083333 0.000000 O
0.583333 0.083333 0.333333 O
0.583333 0.083333 0.666667 O
0.583333 0.416667 0.000000 O
0.583333 0.416667 0.333333 O
0.583333 0.416667 0.666667 O
0.583333 0.750000 0.000000 O
0.583333 0.750000 0.333333 O
0.583333 0.750000 0.666667 O
0.916667 0.083333 0.000000 O
0.916667 0.083333 0.333333 O
0.916667 0.083333 0.666667 O
0.916667 0.416667 0.000000 O
0.916667 0.416667 0.333333 O
0.916667 0.416667 0.666667 O
0.916667 0.750000 0.000000 O
0.916667 0.750000 0.333333 O
0.916667 0.750000 0.666667 O
0.083333 0.250000 0.000000 O
0.083333 0.250000 0.333333 O
0.083333 0.250000 0.666667 O
0.083333 0.583333 0.000000 O
0.083333 0.583333 0.333333 O
0.083333 0.583333 0.666667 O
0.083333 0.916667 0.000000 O
0.083333 0.916667 0.333333 O
0.083333 0.916667 0.666667 O
0.416667 0.250000 0.000000 O
0.416667 0.250000 0.333333 O
0.416667 0.250000 0.666667 O
0.416667 0.583333 0.000000 O
0.416667 0.583333 0.333333 O
0.416667 0.583333 0.666667 O
0.416667 0.916667 0.000000 O
0.416667 0.916667 0.333333 O
0.416667 0.916667 0.666667 O
0.750000 0.250000 0.000000 O
0.750000 0.250000 0.333333 O
0.750000 0.250000 0.666667 O
0.750000 0.583333 0.000000 O
0.750000 0.583333 0.333333 O
0.750000 0.583333 0.666667 O
0.750000 0.916667 0.000000 O
0.750000 0.916667 0.333333 O
0.750000 0.916667 0.666667 O
