Pm16 Mg8 S32
1.0
       11.4373140335         0.0000000000         0.0000000000
        0.0000000000        11.4373140335         0.0000000000
        0.0000000000         0.0000000000        11.4373140335
Mg   Pm   Mg    S
1   16    6   32
Direct
  -0.2500000000000000    0.2500000000000000    0.7500000000000000 Mg
     0.875000000         0.125000000         0.375000000
     0.875000000         0.875000000         0.625000000
     0.625000000         0.875000000         0.875000000
     0.625000000         0.125000000         0.125000000
     0.875000000         0.625000000         0.875000000
     0.875000000         0.375000000         0.125000000
     0.625000000         0.375000000         0.375000000
     0.625000000         0.625000000         0.625000000
     0.375000000         0.125000000         0.875000000
     0.375000000         0.875000000         0.125000000
     0.125000000         0.875000000         0.375000000
     0.125000000         0.125000000         0.625000000
     0.375000000         0.625000000         0.375000000
     0.375000000         0.375000000         0.625000000
     0.125000000         0.375000000         0.875000000
     0.125000000         0.625000000         0.125000000
     0.000000000         0.000000000         0.000000000
     0.750000000         0.750000000         0.250000000
     0.500000000         0.000000000         0.500000000
     0.250000000         0.750000000         0.750000000
     0.500000000         0.500000000         0.000000000
     0.250000000         0.250000000         0.250000000
     0.877746046         0.877746046         0.377746075
     0.877746046         0.122253932         0.622253954
     0.622253954         0.877746046         0.122253932
     0.622253954         0.122253932         0.877746046
     0.627746046         0.127746075         0.372253925
     0.627746046         0.372253925         0.127746075
     0.872253954         0.127746075         0.127746075
     0.872253954         0.372253925         0.372253925
     0.877746046         0.377746075         0.877746046
     0.877746046         0.622253954         0.122253932
     0.622253954         0.377746075         0.622253954
     0.622253954         0.622253954         0.377746075
     0.627746046         0.627746046         0.872253954
     0.627746046         0.872253954         0.627746046
     0.872253954         0.627746046         0.627746046
     0.872253954         0.872253954         0.872253954
     0.377746075         0.877746046         0.877746046
     0.377746075         0.122253932         0.122253932
     0.122253932         0.877746046         0.622253954
     0.122253932         0.122253932         0.377746075
     0.127746075         0.127746075         0.872253954
     0.127746075         0.372253925         0.627746046
     0.372253925         0.127746075         0.627746046
     0.372253925         0.372253925         0.872253954
     0.377746075         0.377746075         0.377746075
     0.377746075         0.622253954         0.622253954
     0.122253932         0.377746075         0.122253932
     0.122253932         0.622253954         0.877746046
     0.127746075         0.627746046         0.372253925
     0.127746075         0.872253954         0.127746075
     0.372253925         0.627746046         0.127746075
     0.372253925         0.872253954         0.372253925
