Ca1 Ni12 F42                            
   1.00000000000000     
     7.0357690000000002   -0.0047270000000000    0.0096560000000000
    -3.5171420000000002    6.1497970000000004   -0.1096000000000000
    -0.0941300000000000   -0.2579170000000000   16.8184080000000016
   Ca   Ni   F 
     1    12    42
Direct
  0.8616893048282126  0.9825862331695101  0.8251081370286210
  0.3033077250135316  0.0029302276578739  0.3332369258921548
  0.6694298032752630  0.6442907879569064  0.0058139016280028
  0.0300527258068505  0.3512743265726945  0.6552956134254571
  0.3482329506513252  0.9863592648942033  0.8329064455489946
  0.6694367303530834  0.6857673029096153  0.4964779401845722
  0.9869171137091635  0.3252086760499101  0.1693794761149130
  0.6675513547624838  0.1859588763833745  0.4954327948068121
  0.4857873157726214  0.3242192711535656  0.1690211973011103
  0.8462851934979068  0.4839134865329577  0.8338471745941747
  0.3469248731366361  0.4877853905654997  0.8314022503913677
  0.1692978861394043  0.6838792258990731  0.4976616398032144
  0.4880161934486700  0.8249619811241976  0.1696909404061160
  0.5604870190984274  0.7977215000922214  0.0658514792371503
  0.2708178233132105  0.4204088545381535  0.7208778241034526
  0.1651114458401924  0.7528991456273781  0.3905169972254967
  0.4466162479529636  0.2547143676658236  0.2773908822873158
  0.7543743953734822  0.4817561390041630  0.9406706653750176
  0.7669008729500485  0.2704442725424777  0.5998304935933023
  0.8816313672669394  0.0952770765543851  0.7036456803217130
  0.2048095097979014  0.1308853019550166  0.3972347970766061
  0.8988973626129182  0.7320652855550450  0.0685600629705312
  0.1261269468270592  0.2337149635796303  0.5850079862319865
  0.0741372089695848  0.8990694139107133  0.2700341062824232
  0.8134622098512153  0.8891247796050000  0.9502227248302066
  0.1765532464511561  0.6131345660627388  0.6056938978535547
  0.4191824051682610  0.8522575647154651  0.2742516635611602
  0.4187938587304721  0.5559089256697101  0.9416858794088927
  0.9404617475942908  0.5006982834177490  0.7263302843321838
  0.5730118124455361  0.1117714735444842  0.3903969010865862
  0.5145372762548100  0.3918640785442720  0.0598495584156002
  0.3743194125142933  0.6039610583630011  0.4684224830660638
  0.2023856661580344  0.6252767518781254  0.1434225832387964
  0.4349461610880836  0.7858999712632384  0.8055927541473871
  0.6296212016962969  0.1880477715798106  0.8053938766298973
  0.5637883336484800  0.3804891622075269  0.5034966355356432
  0.7824747650008044  0.4236363419438235  0.1883234479930212
  0.7186879171295176  0.6721533068971820  0.3951947599614056
  0.9108079321439760  0.2755166882017114  0.0687083818868565
  0.2402161842005033  0.9752480559419813  0.7353993066289820
  0.4484141725873695  0.9985069661846718  0.9310310900535185
  0.6201427401669691  0.6992704228493100  0.5981533865730613
  0.0634068000072387  0.3758798713357014  0.2699173400047578
  0.9634908891850734  0.7643918951207104  0.5259057075566109
  0.7736381884219410  0.0249781741997807  0.1955210026105885
  0.2629603442184748  0.1892610727570288  0.8586040444236905
  0.0655242808320608  0.7825619362075734  0.8599835804926440
  0.7697120131705369  0.9896748499875266  0.4878566129176098
  0.1887025186775413  0.2236285490703180  0.1509226979558733
  0.6572381308399494  0.5984732674230104  0.8027453786215633
  0.9379999930956374  0.3975306501657046  0.4609626804306401
  0.4314881741283696  0.0405431770181211  0.1357748884575279
  0.3986595076438801  0.9743314377582268  0.5313858271086301
  0.5435805661709767  0.6084861335723623  0.2029869901837713
  0.0345600501302137  0.3668572812870306  0.8603063647417739
 
             NaN             NaN             NaN
             NaN             NaN             NaN
             NaN             NaN             NaN
             NaN             NaN             NaN
             NaN             NaN             NaN
             NaN             NaN             NaN
             NaN             NaN             NaN
             NaN             NaN             NaN
             NaN             NaN             NaN
             NaN             NaN             NaN
             NaN             NaN             NaN
             NaN             NaN             NaN
             NaN             NaN             NaN
             NaN             NaN             NaN
             NaN             NaN             NaN
             NaN             NaN             NaN
             NaN             NaN             NaN
             NaN             NaN             NaN
             NaN             NaN             NaN
             NaN             NaN             NaN
             NaN             NaN             NaN
             NaN             NaN             NaN
             NaN             NaN             NaN
             NaN             NaN             NaN
             NaN             NaN             NaN
             NaN             NaN             NaN
             NaN             NaN             NaN
             NaN             NaN             NaN
             NaN             NaN             NaN
             NaN             NaN             NaN
             NaN             NaN             NaN
             NaN             NaN             NaN
             NaN             NaN             NaN
             NaN             NaN             NaN
             NaN             NaN             NaN
             NaN             NaN             NaN
             NaN             NaN             NaN
             NaN             NaN             NaN
             NaN             NaN             NaN
             NaN             NaN             NaN
             NaN             NaN             NaN
             NaN             NaN             NaN
             NaN             NaN             NaN
             NaN             NaN             NaN
             NaN             NaN             NaN
             NaN             NaN             NaN
             NaN             NaN             NaN
             NaN             NaN             NaN
             NaN             NaN             NaN
             NaN             NaN             NaN
             NaN             NaN             NaN
             NaN             NaN             NaN
             NaN             NaN             NaN
             NaN             NaN             NaN
             NaN             NaN             NaN
