Ca1 Ni12 F42                            
   1.00000000000000     
     7.0357690000000002   -0.0047270000000000    0.0096560000000000
    -3.5171420000000002    6.1497970000000004   -0.1096000000000000
    -0.0941300000000000   -0.2579170000000000   16.8184080000000016
   Ca   Ni   F 
     1    12    42
Direct
  0.8566524753218192  0.9802496949709367  0.8246755536448787
  0.3025255322061202  1.0046976830718375  0.3334242438899371
  0.6700964536819085  0.6438279037660168  0.0056005353082133
  0.0305336443824782  0.3492426487333029  0.6549951294976375
  0.3474809091323262  0.9837560727847005  0.8316372557742763
  0.6686716824148778  0.6868825083443652  0.4974502043931459
  0.9884732467218454  0.3274705020803539  0.1697921177571032
  0.6661497466102009  0.1866423664446857  0.4961024080647735
  0.4873543110832402  0.3263241399088012  0.1695241310629695
  0.8461763221464176  0.4820402867799388  0.8334253309804660
  0.3464750615912646  0.4848207991808873  0.8310752784067817
  0.1681808048424218  0.6847692622013432  0.4981672850434569
  0.4894481580042022  0.8271122838224705  0.1699616197884816
  0.5600117914749687  0.7962993878811415  0.0660882117976836
  0.2719427763688992  0.4201403925816535  0.7201081342566307
  0.1662739566412167  0.7552962865656507  0.3907496775381541
  0.4458429758267559  0.2577157023378046  0.2777203446894148
  0.7558962654316295  0.4816704408712277  0.9400334327737895
  0.7655540541815791  0.2668144289098615  0.6003728834687023
  0.8840061260925287  0.0920218041130257  0.7029202695991074
  0.2011641659793543  0.1306167735353237  0.3971998981139027
  0.9013599046494684  0.7345981842889059  0.0677992969504922
  0.1275456403804748  0.2337200251410853  0.5842949149443157
  0.0740065766073088  0.8990754382333692  0.2698899314975060
  0.8110719371840827  0.8877787133886933  0.9495397630663343
  0.1745996262717353  0.6118006119920348  0.6060799519804534
  0.4224405803049753  0.8570910051561530  0.2747971540903932
  0.4184462993862706  0.5511178994091367  0.9417177545249895
  0.9392022688695751  0.4976217098936435  0.7260978554511951
  0.5719465015832895  0.1161746570579130  0.3911109545211366
  0.5185279281666644  0.3916913037174385  0.0604885422204790
  0.3732984397643197  0.6035787669436169  0.4686031790514569
  0.2029302387263512  0.6271128618912255  0.1442630353895377
  0.4360853073418182  0.7833215248712618  0.8059317160105687
  0.6326001559635209  0.1843429313241023  0.8064880614878630
  0.5617395506234180  0.3770811196610457  0.5058059300404131
  0.7829481191920802  0.4251576466843767  0.1892333776645634
  0.7188091845988731  0.6709461558703272  0.3966002017023734
  0.9122920195169665  0.2787423428491100  0.0691621026561543
  0.2502349914000576 -0.0250718394102983  0.7326761438304334
  0.4398055417417078  0.9941178126651048  0.9309063290037091
  0.6180363528167767  0.7017929530516395  0.5984145334246587
  0.0646000455137231  0.3771283502812682  0.2700828941932690
  0.9626168583359177  0.7661886910634913  0.5273208321441089
  0.7758046542211803  0.0273670667485570  0.1952918439762941
  0.2600785472253876  0.1859336369844077  0.8559035581182901
  0.0622583314448058  0.7820409365346237  0.8566646584784237
  0.7692764336742863  0.9945515226440802  0.4869308133375278
  0.1911691649167481  0.2265751882491868  0.1506720858557307
  0.6560570987213145  0.5941805595396579  0.8018604343210564
  0.9358972312819528  0.3997488928298496  0.4616967674419455
  0.4323076616656307  0.0414868141249381  0.1361979446778696
  0.3983623442531523  0.9738313979694903  0.5321206625781179
  0.5453201603170653  0.6114953109347867  0.2034573142930514
  0.0350372689152925  0.3667105676025100  0.8602001743372873
 
             NaN             NaN             NaN
             NaN             NaN             NaN
             NaN             NaN             NaN
             NaN             NaN             NaN
             NaN             NaN             NaN
             NaN             NaN             NaN
             NaN             NaN             NaN
             NaN             NaN             NaN
             NaN             NaN             NaN
             NaN             NaN             NaN
             NaN             NaN             NaN
             NaN             NaN             NaN
             NaN             NaN             NaN
             NaN             NaN             NaN
             NaN             NaN             NaN
             NaN             NaN             NaN
             NaN             NaN             NaN
             NaN             NaN             NaN
             NaN             NaN             NaN
             NaN             NaN             NaN
             NaN             NaN             NaN
             NaN             NaN             NaN
             NaN             NaN             NaN
             NaN             NaN             NaN
             NaN             NaN             NaN
             NaN             NaN             NaN
             NaN             NaN             NaN
             NaN             NaN             NaN
             NaN             NaN             NaN
             NaN             NaN             NaN
             NaN             NaN             NaN
             NaN             NaN             NaN
             NaN             NaN             NaN
             NaN             NaN             NaN
             NaN             NaN             NaN
             NaN             NaN             NaN
             NaN             NaN             NaN
             NaN             NaN             NaN
             NaN             NaN             NaN
             NaN             NaN             NaN
             NaN             NaN             NaN
             NaN             NaN             NaN
             NaN             NaN             NaN
             NaN             NaN             NaN
             NaN             NaN             NaN
             NaN             NaN             NaN
             NaN             NaN             NaN
             NaN             NaN             NaN
             NaN             NaN             NaN
             NaN             NaN             NaN
             NaN             NaN             NaN
             NaN             NaN             NaN
             NaN             NaN             NaN
             NaN             NaN             NaN
             NaN             NaN             NaN
