Na2 Ca2 V4 P2 S4 O24                    
   1.00000000000000     
     8.9713069999999995    0.3615880000000000    0.1874720000000000
     4.2728979999999996    7.9035760000000002    0.2082580000000000
     4.1709740000000002    2.6127099999999999    7.4287010000000002
   Ca   Na   V    P    S    O 
     2     2     4     2     4    24
Direct
  0.5713575700375650  0.4966465419197111  0.3873653246755820
  0.0075040513864222  0.9975726515129156  0.0052148421523929
  0.4178167058686003  0.0981087834189307  0.7462882217318804
  0.5940665657130590  0.9122099423329517  0.2485838116865663
  0.3483113994638864  0.3432854718057060  0.3595044898116383
  0.6508177905570428  0.6567102617058236  0.6386197138404230
  0.1426795738323334  0.1557405524881750  0.1413367399617121
  0.8477705481551995  0.8425642491937242  0.8580058312925017
  0.7589322124609748  0.0350621196924350  0.4402033846656115
  0.4561783838995954  0.7514402582141669  0.0447788333201777
  0.0530792628074394  0.4541222849639422  0.7411732788163229
  0.9504040155603931  0.5471740294127824  0.2479544155155497
  0.2410618279801188  0.9595354900421378  0.5586629458388558
  0.5455418052714350  0.2491722121097994  0.9489695333568071
  0.2321003155017592  0.4391281438087803  0.5857218356439298
  0.7706780811026391  0.5734025766634997  0.4036729481454595
  0.5848105623428994  0.2184188920349417  0.4382466642421679
  0.4076340720180618  0.7871782482849954  0.5474636543894825
  0.4274305040415043  0.5729236240968459  0.1983903998890956
  0.5611678056845096  0.4189684012436738  0.7960029356921217
  0.9131421770382167  0.0816138292620489  0.2570671605843822
  0.0929030402489464  0.9175862739354058  0.7360691064158389
  0.0834361754508703  0.2656632354913815  0.8898404015406740
  0.9325516856202795  0.7314873466528725  0.0974128635867816
  0.2715093754166120  0.9169216500212267  0.0689741331940169
  0.7294316704655379  0.0925829078965863  0.9241904725821097
  0.5001340309059572  0.2535173044610035  0.1312528506140386
  0.5141274225864029  0.7572269914514741  0.8501438637026102
  0.1030944419876827  0.4936052303630171  0.3020679690123000
  0.9054563504968537  0.4870355625722332  0.6880408186620022
  0.2865631641110526  0.0973329801920675  0.5601792739994250
  0.7169952002787691  0.8900239800304905  0.4375400321636412
  0.4064436880277092  0.2007016360149960  0.9544435254629778
  0.6039691425736505  0.7699942282065462  0.0742327149714057
  0.1857719346687564  0.0303142311977068  0.3990673405235327
  0.7964760619852989  0.9798353352895374  0.6132962971810236
  0.9602024265772482  0.4117929889596579  0.1922794211475462
  0.0153714407602196  0.5914585676691858  0.8100556058417314
 
             NaN             NaN             NaN
             NaN             NaN             NaN
             NaN             NaN             NaN
             NaN             NaN             NaN
             NaN             NaN             NaN
             NaN             NaN             NaN
             NaN             NaN             NaN
             NaN             NaN             NaN
             NaN             NaN             NaN
             NaN             NaN             NaN
             NaN             NaN             NaN
             NaN             NaN             NaN
             NaN             NaN             NaN
             NaN             NaN             NaN
             NaN             NaN             NaN
             NaN             NaN             NaN
             NaN             NaN             NaN
             NaN             NaN             NaN
             NaN             NaN             NaN
             NaN             NaN             NaN
             NaN             NaN             NaN
             NaN             NaN             NaN
             NaN             NaN             NaN
             NaN             NaN             NaN
             NaN             NaN             NaN
             NaN             NaN             NaN
             NaN             NaN             NaN
             NaN             NaN             NaN
             NaN             NaN             NaN
             NaN             NaN             NaN
             NaN             NaN             NaN
             NaN             NaN             NaN
             NaN             NaN             NaN
             NaN             NaN             NaN
             NaN             NaN             NaN
             NaN             NaN             NaN
             NaN             NaN             NaN
             NaN             NaN             NaN
