Na2 Ca2 V4 P2 S4 O24
1.0
8.971307 0.361588 0.187472
4.272898 7.903576 0.208258
4.170974 2.612710 7.428701
Ca Na V P S O
2 2 4 2 4 24
direct
0.564433 0.474928 0.398414 Ca
0.008276 0.987686 0.015716 Ca
0.427438 0.096748 0.747494 Na
0.591619 0.896710 0.249632 Na
0.348712 0.354546 0.358428 V
0.648738 0.654156 0.637465 V
0.145318 0.150373 0.144881 V
0.848227 0.848052 0.857997 V
0.752506 0.038056 0.444698 P
0.457935 0.748941 0.049239 P
0.044976 0.453538 0.749126 S
0.950853 0.547135 0.250944 S
0.240790 0.961795 0.558998 S
0.545074 0.256828 0.945595 S
0.229322 0.425685 0.602058 O
0.766806 0.569064 0.399981 O
0.584847 0.225172 0.436184 O
0.402987 0.784488 0.556021 O
0.423575 0.586243 0.227058 O
0.572768 0.407322 0.768941 O
0.913935 0.076139 0.264953 O
0.089839 0.928156 0.736223 O
0.062030 0.271099 0.905230 O
0.931684 0.731549 0.098729 O
0.276510 0.921473 0.056139 O
0.722604 0.092553 0.944357 O
0.494404 0.307132 0.102232 O
0.509415 0.719609 0.872911 O
0.093491 0.506699 0.313699 O
0.901766 0.489725 0.688616 O
0.293084 0.099482 0.550036 O
0.707380 0.894976 0.441766 O
0.404473 0.201118 0.966136 O
0.608355 0.786726 0.049057 O
0.187171 0.023440 0.400895 O
0.783729 0.982100 0.621801 O
0.985284 0.407405 0.186194 O
0.011282 0.595530 0.809551 O
