Ca8 Ni12 F42                            
   1.00000000000000     
     7.2781620000000000   -0.0124630000000000    0.0064630000000000
    -3.6740430000000002    6.3699519999999996    0.0016150000000000
     0.0236300000000000    0.0151440000000000   18.2823579999999986
   Ca   Ni   F 
     8    12    42
Direct
  0.4125751688858096  0.8356627674024024  0.6715918662123730
  0.1464963972932776  0.6428978698499177  0.9863124107721374
  0.3540993916422193  0.5056402739196002  0.3228369928253654
  0.8391581045730863  0.0183548023633708  0.3466149293524168
  0.1795614635728310  0.1660298818566320  0.0030179971867553
  0.9822602171795315  0.7930528705382593  0.1744844755198929
  0.8130975231836921  0.9751931242897249  0.8330488804554457
  0.1966349383605153  0.1591162180351040  0.5121666765365454
  0.3329971076337614  0.0006965358563963  0.3333400687628724
  0.9701781072133880  0.3264431909715077  0.6660507409396809
  0.6675680813580703  0.6706640019161724  0.0013856332178784
  0.3353892794817964  0.0258829986097278  0.8333887844465455
  0.9937541624323046  0.3110619321529322  0.1617647835515362
  0.6718551062520350  0.6715199407581467  0.4965661825369986
  0.4950370146004203  0.8188053123898460  0.1642546375706565
  0.1668439168389809  0.6577957906355617  0.4926166772704383
  0.3235820640388860  0.5053252198172227  0.8303501248655722
  0.8301535595607674  0.5096524248975527  0.8280245992435051
  0.6783700314899218  0.1732151277236197  0.4970615914464404
  0.4911984992496783  0.3105071196270759  0.1621482400816057
  0.7211162791033495  0.1896461379555618  0.6023367268564547
  0.8162733057025723  0.5679615054753741  0.9374795978008116
  0.4380205668388394  0.2561448797921170  0.2706918864196358
  0.2347897737313327  0.7265399345485716  0.3849829229640204
  0.4837569685494940  0.7537614762053614  0.0585895940906308
  0.2450518161150124  0.4884178460106489  0.7259294959101418
  0.8316766610414124  0.9565595722972148  0.9548674421726309
  0.0424354123639308  0.8843678923271054  0.2884031148357549
  0.1058867988485752  0.1958929365137708  0.6182401585636015
  0.9750985336915315  0.7996313530675150  0.0531453162959831
  0.7959060908751339  0.0643779460901740  0.7224886703381582
  0.2021384871931205  0.1709631948876244  0.3879743955001824
  0.5193095396445117  0.3881253628161593  0.0535096497260631
  0.6050084334372267  0.1251747205894125  0.3885081852087492
  0.8791943538151481  0.4855958643639877  0.7252818448823912
  0.3895214592605248  0.5366085188250627  0.9424580869925414
  0.1286192787480265  0.5944393836591813  0.6008357152891757
  0.4989041480230682  0.8694735745987557  0.2761764874912322
  0.7960434207843250  0.4224487221168777  0.1708590471416650
  0.5661991878690440  0.3642008359608152  0.5007966555450023
  0.6437201617949514  0.2093081921498717  0.8494559125843285
  0.4356454829449536  0.8164769839270241  0.8140288774567789
  0.3606584721424671  0.5454379470411637  0.4843330088586277
  0.1874141785540501  0.6215170914304742  0.1739770032771308
  0.0262307757268752  0.3003642392665095  0.2725084650757065
  0.6390057848749490  0.7139634499625632  0.5958611467334675
  0.2995065493369726  0.9713987252427321  0.9436993654083662
  0.3613964139714920  0.0722090346584176  0.7297185667582949
  0.6623152953274292  0.6735637342290896  0.3823863395540396
  0.0193440518756516  0.3447570739943374  0.0502081134716218
  0.1861108358412927  0.1970953552215212  0.1415361742736947
  0.7964762405761898  0.9834069913889244  0.4769813195711885
  0.0282087544997000  0.8205499590347485  0.8194499390908954
  0.2002536474394138  0.2036560995432330  0.8585367064499673
  0.9793168812042354  0.7771166053734395  0.4926757597751992
  0.8032122207087061 -0.0003959573966787  0.1648575385649754
  0.0531275362830669  0.4601802170408540  0.8713171143180151
  0.5734066314947712  0.6047641735947552  0.1993528917502900
  0.3749143230698537  0.9561773190143918  0.5281747339338178
  0.3880305813241850  0.0102394052347802  0.1393109248808790
  0.6227044398776070  0.6022247921551839  0.8080464153254108
  0.9670784233069084  0.3691501141257821  0.4613176920515961
 
             NaN             NaN             NaN
             NaN             NaN             NaN
             NaN             NaN             NaN
             NaN             NaN             NaN
             NaN             NaN             NaN
             NaN             NaN             NaN
             NaN             NaN             NaN
             NaN             NaN             NaN
             NaN             NaN             NaN
             NaN             NaN             NaN
             NaN             NaN             NaN
             NaN             NaN             NaN
             NaN             NaN             NaN
             NaN             NaN             NaN
             NaN             NaN             NaN
             NaN             NaN             NaN
             NaN             NaN             NaN
             NaN             NaN             NaN
             NaN             NaN             NaN
             NaN             NaN             NaN
             NaN             NaN             NaN
             NaN             NaN             NaN
             NaN             NaN             NaN
             NaN             NaN             NaN
             NaN             NaN             NaN
             NaN             NaN             NaN
             NaN             NaN             NaN
             NaN             NaN             NaN
             NaN             NaN             NaN
             NaN             NaN             NaN
             NaN             NaN             NaN
             NaN             NaN             NaN
             NaN             NaN             NaN
             NaN             NaN             NaN
             NaN             NaN             NaN
             NaN             NaN             NaN
             NaN             NaN             NaN
             NaN             NaN             NaN
             NaN             NaN             NaN
             NaN             NaN             NaN
             NaN             NaN             NaN
             NaN             NaN             NaN
             NaN             NaN             NaN
             NaN             NaN             NaN
             NaN             NaN             NaN
             NaN             NaN             NaN
             NaN             NaN             NaN
             NaN             NaN             NaN
             NaN             NaN             NaN
             NaN             NaN             NaN
             NaN             NaN             NaN
             NaN             NaN             NaN
             NaN             NaN             NaN
             NaN             NaN             NaN
             NaN             NaN             NaN
             NaN             NaN             NaN
             NaN             NaN             NaN
             NaN             NaN             NaN
             NaN             NaN             NaN
             NaN             NaN             NaN
             NaN             NaN             NaN
             NaN             NaN             NaN
