Ca8 Ni12 F42
1.0
7.278162 -0.012463 0.006463
-3.674043 6.369952 0.001615
0.023630 0.015144 18.282358
Ca Ni F
8 12 42
direct
0.364530 0.851262 0.659039 Ca
0.155105 0.647850 0.979296 Ca
0.349532 0.509363 0.326967 Ca
0.842377 0.017542 0.345747 Ca
0.172087 0.164211 0.010145 Ca
0.982202 0.788805 0.174250 Ca
0.807839 0.982160 0.834640 Ca
0.205906 0.163966 0.513293 Ca
0.339123 0.007717 0.333314 Ni
0.990669 0.344734 0.667416 Ni
0.664051 0.659864 0.000851 Ni
0.324228 0.008162 0.831292 Ni
0.996441 0.314205 0.162459 Ni
0.682336 0.675218 0.493008 Ni
0.497426 0.819323 0.162910 Ni
0.176195 0.665149 0.494133 Ni
0.319624 0.499496 0.829576 Ni
0.818735 0.500493 0.827602 Ni
0.689742 0.182004 0.495574 Ni
0.494320 0.311800 0.163789 Ni
0.744740 0.198345 0.600241 F
0.810188 0.553581 0.937563 F
0.440073 0.263688 0.271670 F
0.240728 0.735714 0.386006 F
0.480803 0.749652 0.056065 F
0.255817 0.515363 0.727484 F
0.832105 0.950580 0.955541 F
0.049748 0.890364 0.287233 F
0.129444 0.210850 0.619794 F
0.973966 0.792438 0.052897 F
0.824085 0.066691 0.721867 F
0.205895 0.172248 0.388976 F
0.523589 0.384371 0.055891 F
0.612467 0.132443 0.387446 F
0.857857 0.474598 0.723651 F
0.373936 0.496755 0.943931 F
0.138171 0.606105 0.601101 F
0.504800 0.872799 0.275773 F
0.798021 0.421165 0.174369 F
0.574386 0.369574 0.501797 F
0.630372 0.201662 0.843710 F
0.426492 0.802421 0.849590 F
0.369579 0.551954 0.483231 F
0.192394 0.621923 0.178257 F
0.028219 0.298573 0.272841 F
0.667420 0.715711 0.593924 F
0.285007 0.984704 0.942988 F
0.349679 0.005164 0.728052 F
0.667760 0.674346 0.380065 F
0.023608 0.359067 0.051554 F
0.189121 0.200695 0.142319 F
0.804717 0.989027 0.475522 F
0.015699 0.806279 0.822717 F
0.197708 0.195834 0.835962 F
0.991281 0.786139 0.493598 F
0.805179 0.002807 0.160228 F
0.036343 0.431808 0.869174 F
0.584102 0.610899 0.196565 F
0.389362 0.963983 0.527253 F
0.386819 0.009424 0.140548 F
0.620359 0.608056 0.806209 F
0.976425 0.379843 0.459837 F
