Ca1 V16 F48
1.0
15.651477 -0.000075 -0.000024
-0.000005 7.823559 -0.000160
-0.000032 -0.000308 7.821843
Ca V F
1 16 48
direct
0.500001 0.499993 0.500000 Ca
0.123982 0.250060 0.250033 V
0.627821 0.246699 0.246761 V
0.123984 0.250062 0.749966 V
0.627821 0.246705 0.753231 V
0.123984 0.749939 0.250034 V
0.627821 0.753292 0.246770 V
0.123983 0.749938 0.749967 V
0.627818 0.753292 0.753232 V
0.372181 0.246706 0.246769 V
0.876019 0.250062 0.250034 V
0.372180 0.246708 0.753228 V
0.876016 0.250061 0.749966 V
0.372180 0.753292 0.246766 V
0.876015 0.749938 0.250034 V
0.372182 0.753293 0.753233 V
0.876017 0.749939 0.749967 V
-0.000001 0.249772 0.249782 F
0.499999 0.264851 0.264721 F
-0.000003 0.249772 0.750220 F
0.499997 0.264842 0.735290 F
-0.000003 0.750227 0.249776 F
0.500000 0.735163 0.264714 F
-0.000001 0.750227 0.750223 F
0.499999 0.735153 0.735277 F
0.248768 0.250959 0.251006 F
0.751234 0.250959 0.251004 F
0.248774 0.250958 0.748992 F
0.751231 0.250957 0.748995 F
0.248775 0.749042 0.251007 F
0.751228 0.749042 0.251009 F
0.248769 0.749044 0.748993 F
0.751233 0.749044 0.748995 F
0.124512 0.250018 0.999997 F
0.624273 0.252675 0.000001 F
0.124552 0.250016 0.500003 F
0.618112 0.264936 0.500005 F
0.124514 0.749981 0.000002 F
0.624274 0.747328 -0.000003 F
0.124550 0.749984 0.499999 F
0.618116 0.735062 0.499996 F
0.375725 0.252679 -0.000003 F
0.875489 0.250024 -0.000006 F
0.381888 0.264945 0.500008 F
0.875449 0.250011 0.500006 F
0.375724 0.747322 1.000008 F
0.875487 0.749976 1.000003 F
0.381882 0.735068 0.499996 F
0.875451 0.749988 0.499998 F
0.124508 0.999998 0.250013 F
0.624252 0.999991 0.252904 F
0.124507 0.000003 0.749989 F
0.624253 0.000002 0.747097 F
0.124553 0.500001 0.250017 F
0.618208 0.500009 0.264650 F
0.124551 0.499997 0.749983 F
0.618212 0.499997 0.735345 F
0.375745 -0.000011 0.252901 F
0.875493 -0.000004 0.250007 F
0.375746 1.000007 0.747099 F
0.875493 1.000006 0.749992 F
0.381789 0.500005 0.264652 F
0.875449 0.500003 0.250023 F
0.381789 0.499994 0.735347 F
0.875448 0.499994 0.749978 F
