Ca9 Ti12 F42                            
   1.00000000000000     
     7.3714320000000004   -0.0032700000000000   -0.0932230000000000
    -3.6473800000000001    6.3610199999999999    0.0187760000000000
     0.2318330000000000   -0.0488010000000000   18.7628510000000013
   Ca   Ti   F 
     9    12    42
Direct
  0.3517618005120934  0.5136668432716993  0.3502632693665201
  0.5157661443596959  0.3433778126295614  0.6717235558251831
  0.1628317703192984  0.1615940892474328  0.0017383855352704
  0.0189500685079651  0.8236520201026359  0.6690015931653606
  0.8548937000195174  0.0173933995493791  0.3365732934026286
  0.6544504878564285  0.1607630685431127  0.9998311684764263
 -0.0285486258045571  0.7878763592802019  0.1661810075938714
  0.8171558729686547  0.9946626401777152  0.8257246454496845
  0.1635574903574381  0.1859814778005830  0.5010101588083160
  0.3565498243664054  1.0058156232808046  0.3114711688440419
  0.0115602819718388  0.3296791440176930  0.6592837963922592
  0.6631953197327508  0.6629452659091081  0.9911226583675006
  0.3603847309901837  0.0551700555266313  0.8305081722544354
  0.0316948507132594  0.3282659527394781  0.1673337198890912
  0.7165488922344749  0.6415540892281213  0.4977287406924386
  0.5058261103189743  0.8533494438898362  0.1733574303003055
  0.1394227255272601  0.6537668933853970  0.4904490158235346
  0.3515719499617535  0.4777366189576548  0.8326458129308556
  0.7796195174763464  0.4749536925916213  0.8305835766622921
  0.7002007640892584  0.2120531944298495  0.4901492398136824
  0.4880247991863014  0.2827028058935911  0.1768784021235019
  0.7341375534203485  0.2150863923434151  0.6027602527440867
  0.8007694665352603  0.4924072925631153  0.9480474472449824
  0.4631744034694400  0.3189731128478213  0.2809405819285192
  0.2201804200877843  0.7382634656169085  0.3821435676233936
  0.5683757500149565  0.8071241581897159  0.0640922414333042
  0.2788588473361753  0.4432673431865481  0.7212231826999961
  0.8248305880186275  0.9918210053057033  0.9523785788993020
  0.0426890397803090  0.8831622202015607  0.2800687918388101
  0.1785860998509965  0.1747790256140708  0.6184553042822205
  0.9454448589748277  0.8190730736143955  0.0487425136377396
  0.8843866859210118  0.0415180859529502  0.7101994672469433
  0.2038666890841733  0.1491044403042584  0.3842270214919292
  0.5217159550996436  0.3827323253054706  0.0531492717957835
  0.6246872410185794  0.1303495525435782  0.3796883286701396
  0.8540933905718324  0.4768980572251061  0.7136371790887400
  0.3485117701488770  0.4907813851580200  0.9476312840884185
  0.1363736590331484  0.6147557357359942  0.6049332504750483
  0.5051766134081660  0.8214437126727038  0.2853364322386033
  0.8065201982168533  0.4230106932705157  0.1770275975072059
  0.5144003654107653  0.3320889326195832  0.5265796181942517
  0.6598895859467987  0.1662290814957869  0.8707421402724678
  0.4328068776208091  0.8005252749076771  0.8178036322058154
  0.3789483636888921  0.5553513834105904  0.4756935776831621
  0.1946087423278083  0.6464545338736661  0.1504880527612124
  0.0686170372438311  0.3415542442207541  0.2778626631720043
  0.6985733535213117  0.6545409656774933  0.6100602115808995
  0.3348840363075570  0.0177856552653397  0.9461390715970058
  0.3388059885388536  0.0195923078652782  0.7191079789447170
  0.6949189449860437  0.6833827684677164  0.3867521519219254
  0.9616864896408385  0.2786784749614848  0.0613696656029870
  0.1868908434981452  0.1584919695371438  0.1366260355288968
  0.7993600809057931  0.9779636221875497  0.4802318549197954
  0.0065036805958283  0.8031769566540161  0.8000372744874547
  0.1617641769947559  0.1628463043843099  0.8626041974828885
  0.0231389483373428  0.8386660072815825  0.5305975443960447
  0.8272222406386233  1.0202492624737625  0.1954484272253614
  0.0289351511125695  0.4053383821778865  0.8267383106273867
  0.5969546926427599  0.6183914527620542  0.1865302568951100
  0.4055921507692212  0.9454609077174091  0.5081426185305074
  0.4706218431636155  0.0597137772743867  0.1095103190323742
  0.6611850973217586  0.6649699571917690  0.8726482168129346
  1.0008254342004028  0.3530608648645790  0.4392224633704572
 
             NaN             NaN             NaN
             NaN             NaN             NaN
             NaN             NaN             NaN
             NaN             NaN             NaN
             NaN             NaN             NaN
             NaN             NaN             NaN
             NaN             NaN             NaN
             NaN             NaN             NaN
             NaN             NaN             NaN
             NaN             NaN             NaN
             NaN             NaN             NaN
             NaN             NaN             NaN
             NaN             NaN             NaN
             NaN             NaN             NaN
             NaN             NaN             NaN
             NaN             NaN             NaN
             NaN             NaN             NaN
             NaN             NaN             NaN
             NaN             NaN             NaN
             NaN             NaN             NaN
             NaN             NaN             NaN
             NaN             NaN             NaN
             NaN             NaN             NaN
             NaN             NaN             NaN
             NaN             NaN             NaN
             NaN             NaN             NaN
             NaN             NaN             NaN
             NaN             NaN             NaN
             NaN             NaN             NaN
             NaN             NaN             NaN
             NaN             NaN             NaN
             NaN             NaN             NaN
             NaN             NaN             NaN
             NaN             NaN             NaN
             NaN             NaN             NaN
             NaN             NaN             NaN
             NaN             NaN             NaN
             NaN             NaN             NaN
             NaN             NaN             NaN
             NaN             NaN             NaN
             NaN             NaN             NaN
             NaN             NaN             NaN
             NaN             NaN             NaN
             NaN             NaN             NaN
             NaN             NaN             NaN
             NaN             NaN             NaN
             NaN             NaN             NaN
             NaN             NaN             NaN
             NaN             NaN             NaN
             NaN             NaN             NaN
             NaN             NaN             NaN
             NaN             NaN             NaN
             NaN             NaN             NaN
             NaN             NaN             NaN
             NaN             NaN             NaN
             NaN             NaN             NaN
             NaN             NaN             NaN
             NaN             NaN             NaN
             NaN             NaN             NaN
             NaN             NaN             NaN
             NaN             NaN             NaN
             NaN             NaN             NaN
             NaN             NaN             NaN
