Ca9 Ti12 F42
1.0
7.371432 -0.003270 -0.093223
-3.647380 6.361020 0.018776
0.231833 -0.048801 18.762851
Ca Ti F
9 12 42
direct
1.232669 0.502861 0.338251 Ca
0.516226 0.345235 0.669429 Ca
0.166094 0.169700 0.001411 Ca
0.022361 0.831676 0.666136 Ca
0.840053 1.000347 0.328005 Ca
0.655796 0.156343 -0.001459 Ca
0.023389 0.812119 0.159390 Ca
0.824096 -0.000522 0.827462 Ca
0.170227 0.185028 0.497993 Ca
0.341461 0.996497 0.325910 Ti
0.013254 0.334575 0.659402 Ti
0.670856 0.667730 0.996942 Ti
0.356019 0.048469 0.829890 Ti
1.028013 0.331488 0.169281 Ti
0.710115 0.644349 0.497921 Ti
0.496039 0.797429 0.167145 Ti
0.141455 0.649297 0.493467 Ti
0.353267 0.486874 0.832867 Ti
0.796447 0.487595 0.832638 Ti
0.699919 0.208034 0.494864 Ti
0.496177 0.329349 0.170294 Ti
0.723900 0.211314 0.608014 F
0.801539 0.494464 0.946718 F
0.472540 0.288840 0.279784 F
0.207559 0.721052 0.384699 F
0.555484 0.841302 0.057507 F
0.284511 0.447624 0.721696 F
0.827910 -0.007170 0.950515 F
0.049059 0.872369 0.277063 F
0.178863 0.178217 0.617520 F
0.970873 0.832935 0.043149 F
0.891118 0.046868 0.712573 F
0.183259 0.139173 0.381580 F
0.515077 0.340387 0.053131 F
0.629925 0.123757 0.383657 F
0.854089 0.484681 0.716330 F
0.360754 0.496792 0.948964 F
0.143588 0.626829 0.608461 F
0.493419 0.830306 0.280939 F
0.818259 0.443613 0.185839 F
0.516643 0.334055 0.530133 F
0.663081 0.174548 0.866367 F
0.438535 0.806030 0.816682 F
0.381550 0.555960 0.476145 F
0.191457 0.634724 0.133990 F
1.031534 0.324616 0.280127 F
0.698276 0.660841 0.611501 F
0.336337 0.017945 0.942559 F
0.341371 0.024102 0.718098 F
0.697382 0.681802 0.385138 F
0.958100 0.279651 0.061406 F
0.185260 0.174511 0.136048 F
0.796061 0.975687 0.483558 F
0.018933 0.810785 0.803413 F
0.169951 0.173243 0.863642 F
0.021120 0.835882 0.530367 F
0.815904 0.999190 0.195365 F
0.038032 0.418156 0.829054 F
0.634506 0.630142 0.141450 F
0.400045 0.949379 0.505965 F
0.409712 0.018663 0.154980 F
0.663325 0.664227 0.868670 F
-0.001707 0.346712 0.467445 F
