Na2 Ca2 V4 P2 S4 O24                    
   1.00000000000000     
     8.9587199999999996    0.3428000000000000    0.2515370000000000
     4.2490560000000004    7.9253660000000004    0.2806460000000000
     4.2116210000000001    2.6538569999999999    7.4924299999999997
   Ca   Na   V    P    S    O 
     2     2     4     2     4    24
Direct
  0.2613892212639149  0.5955294180908600  0.8504051456303369
  0.9521356010600370 -0.0092027085396950  0.0771112218013078
  0.4114851821302245  0.1076210092340992  0.7540051895108739
  0.5569917973406515  0.7008332623014815  0.2974700537933465
  0.3593879389275666  0.3654938580079231  0.3558868330299408
  0.6642707852710589  0.6673920029187590  0.6204855458328083
  0.1515505671828665  0.1491531514629783  0.1397629479313055
  0.8409267924043711  0.8559279449526561  0.8478964973963373
  0.7546721553492155  0.0481266294907062  0.4397147638750878
  0.4391838226714166  0.7575637615006301  0.0300912024606621
  0.0504446994102453  0.4533575187965466  0.7475504399382229
  0.9786992358948889  0.5521991157610007  0.2440641532775778
  0.2481020443419150  0.9655364357822679  0.5450086745177302
  0.5555416412778410  0.2498969880855470  0.9516619617767389
  0.2290438456938463  0.4453095111763630  0.5964640754725962
  0.8063840880637174  0.5444450646582677  0.3995013996012752
  0.5700711164833623  0.2051029888160907  0.4576519498506528
  0.4145870252847822  0.7882992093413975  0.5539018809523624
  0.4474205763506310  0.5875214742987728  0.2024152931906704
  0.5759873773898219  0.4192809571496510  0.7895947452090906
  0.9001050244633725  0.1232507414453357  0.2604811577424656
  0.1018573503030201  0.9101460658469095  0.7257002413442946
  0.0742597074081495  0.2679864881199875  0.8959788155433748
  0.9370679031742231  0.7305098641888278  0.0849902548384349
  0.2485151890767443  0.9159182874101863  0.0649100373502706
  0.7302683523955543  0.0925263055682007  0.9270050003386162
  0.5091371494229446  0.2708584632973526  0.1228450490747388
  0.4621424161332837  0.7272328337256225  0.8629465062455837
  0.1141931614875258  0.5603290518256908  0.2841459940434052
  0.9004783373619504  0.4973963514799249  0.6933971930594273
  0.2776538481258763  0.1144238166050155  0.5393983469252978
  0.7513801687560733  0.8921296431520402  0.4092253909361843
  0.4009983162107232  0.2243613105555397  0.9531804893389501
  0.5850342154565570  0.8312717890497167 -0.0135556539420446
  0.2051496387720467  0.0067936413553572  0.3887995617213648
  0.8032653597776719  0.9744864462055383  0.6091333192424140
  0.0619200252920391  0.4036737451129150  0.1701948069262547
  0.0135380644984385  0.5905750252518033  0.8211103197442233
 
             NaN             NaN             NaN
             NaN             NaN             NaN
             NaN             NaN             NaN
             NaN             NaN             NaN
             NaN             NaN             NaN
             NaN             NaN             NaN
             NaN             NaN             NaN
             NaN             NaN             NaN
             NaN             NaN             NaN
             NaN             NaN             NaN
             NaN             NaN             NaN
             NaN             NaN             NaN
             NaN             NaN             NaN
             NaN             NaN             NaN
             NaN             NaN             NaN
             NaN             NaN             NaN
             NaN             NaN             NaN
             NaN             NaN             NaN
             NaN             NaN             NaN
             NaN             NaN             NaN
             NaN             NaN             NaN
             NaN             NaN             NaN
             NaN             NaN             NaN
             NaN             NaN             NaN
             NaN             NaN             NaN
             NaN             NaN             NaN
             NaN             NaN             NaN
             NaN             NaN             NaN
             NaN             NaN             NaN
             NaN             NaN             NaN
             NaN             NaN             NaN
             NaN             NaN             NaN
             NaN             NaN             NaN
             NaN             NaN             NaN
             NaN             NaN             NaN
             NaN             NaN             NaN
             NaN             NaN             NaN
             NaN             NaN             NaN
