Na2 Ca2 V4 P2 S4 O24
1.0
8.958720 0.342800 0.251537
4.249056 7.925366 0.280646
4.211621 2.653857 7.492430
Ca Na V P S O
2 2 4 2 4 24
direct
0.322903 0.585582 0.781177 Ca
-0.039161 1.002011 0.062780 Ca
0.409677 0.099329 0.752679 Na
0.553667 0.612766 0.386371 Na
0.353635 0.361174 0.355576 V
0.655992 0.669755 0.625802 V
0.150509 0.151729 0.142602 V
0.844370 0.855999 0.854938 V
0.752039 0.053638 0.445794 P
0.444867 0.755907 0.041360 P
0.051115 0.461913 0.748396 S
0.964089 0.555028 0.249188 S
0.247384 0.963001 0.550095 S
0.547113 0.258625 0.941068 S
0.230623 0.436398 0.596742 O
0.784776 0.563595 0.398639 O
0.574378 0.224963 0.450211 O
0.405776 0.781117 0.561171 O
0.431738 0.590003 0.217571 O
0.572630 0.417557 0.766049 O
0.904422 0.113416 0.266595 O
0.097003 0.925161 0.732279 O
0.066148 0.279059 0.902011 O
0.941355 0.736511 0.089226 O
0.256751 0.921254 0.061482 O
0.723560 0.100143 0.936397 O
0.486160 0.312186 0.097622 O
0.473037 0.720228 0.874910 O
0.102083 0.539825 0.303178 O
0.897269 0.513569 0.696270 O
0.298038 0.103311 0.536120 O
0.731074 0.902991 0.426944 O
0.402743 0.212948 0.951891 O
0.595924 0.816032 0.002394 O
0.193912 0.014190 0.397747 O
0.790406 0.990322 0.618746 O
1.028074 0.410661 0.178247 O
0.031582 0.600498 0.807640 O
