K32 Cr16 P16 C16 O112
1.0
  11.1718444823999992    0.0000000000000000    0.0000000000000000
   0.0000000000000000   13.3968715667999998    0.0000000000000000
  -0.1518983182000000    0.0000000000000000   19.4495106150000012
K Cr P C O
31 16 16 16 112
direct
   0.3780467510000000    0.2621504960000000    0.3707925080000000 K
   0.3780467510000000    0.2621504960000000    0.8707925080000000 K
   0.3780467510000000    0.7621504960000001    0.3707925080000000 K
   0.3780467510000000    0.7621504960000001    0.8707925080000000 K
   0.8780467510000001    0.2621504960000000    0.3707925080000000 K
   0.8780467509999998    0.2621504960000000    0.8707925080000000 K
   0.8780467510000001    0.7621504960000001    0.3707925080000000 K
   0.8780467509999998    0.7621504960000001    0.8707925080000000 K
   0.3780467510000000    0.4878495040000000    0.8707925080000000 K
   0.3780467510000000    0.9878495040000000    0.3707925080000000 K
   0.3780467510000000    0.9878495040000000    0.8707925080000000 K
   0.8780467510000001    0.4878495040000000    0.3707925080000000 K
   0.8780467509999998    0.4878495040000000    0.8707925080000000 K
   0.8780467510000001    0.9878495040000000    0.3707925080000000 K
   0.8780467509999998    0.9878495040000000    0.8707925080000000 K
   0.1219532490000000    0.2378495040000000    0.1292075070000000 K
   0.1219532490000000    0.2378495040000000    0.6292075069999999 K
   0.1219532490000000    0.7378495039999999    0.1292075070000000 K
   0.1219532490000000    0.7378495039999999    0.6292075069999999 K
   0.6219532489999999    0.2378495040000000    0.1292075070000000 K
   0.6219532489999999    0.2378495040000000    0.6292075069999999 K
   0.6219532489999999    0.7378495039999999    0.1292075070000000 K
   0.6219532489999999    0.7378495039999999    0.6292075069999999 K
   0.1219532490000000    0.0121505000000000    0.1292075070000000 K
   0.1219532490000000    0.0121505000000000    0.6292075069999999 K
   0.1219532490000000    0.5121505000000001    0.1292075070000000 K
   0.1219532490000000    0.5121505000000001    0.6292075069999999 K
   0.6219532489999999    0.0121505000000000    0.1292075070000000 K
   0.6219532489999999    0.0121505000000000    0.6292075069999999 K
   0.6219532489999999    0.5121505000000001    0.1292075070000000 K
   0.6219532489999999    0.5121505000000001    0.6292075069999999 K
   0.1141967475000000    0.1250000000000000    0.4288420079999999 Cr
   0.1141967475000000    0.1250000000000000    0.9288420079999999 Cr
   0.1141967475000000    0.6250000000000000    0.4288420079999999 Cr
   0.1141967475000000    0.6250000000000000    0.9288420079999999 Cr
   0.6141967475000000    0.1250000000000000    0.4288420079999999 Cr
   0.6141967475000000    0.1250000000000000    0.9288420079999999 Cr
   0.6141967475000000    0.6250000000000000    0.4288420079999999 Cr
   0.6141967475000000    0.6250000000000000    0.9288420079999999 Cr
   0.3858032525000000    0.3750000000000000    0.0711579995000000 Cr
   0.3858032525000000    0.3750000000000000    0.5711579995000000 Cr
   0.3858032525000000    0.8750000000000000    0.0711579995000000 Cr
   0.3858032525000000    0.8750000000000000    0.5711579995000000 Cr
   0.8858032524999999    0.3750000000000000    0.0711579995000000 Cr
   0.8858032525000000    0.3750000000000000    0.5711579995000000 Cr
   0.8858032524999999    0.8750000000000000    0.0711579995000000 Cr
   0.8858032525000000    0.8750000000000000    0.5711579995000000 Cr
   0.1378267555000000    0.3750000000000000    0.4665670095000000 P
   0.1378267555000000    0.3750000000000000    0.9665670094999999 P
   0.1378267555000000    0.8750000000000000    0.4665670095000000 P
   0.1378267555000000    0.8750000000000000    0.9665670094999999 P
   0.6378267555000000    0.3750000000000000    0.4665670095000000 P
   0.6378267555000000    0.3750000000000000    0.9665670094999999 P
   0.6378267555000000    0.8750000000000000    0.4665670095000000 P
   0.6378267555000000    0.8750000000000000    0.9665670094999999 P
   0.3621732595000000    0.1250000000000000    0.0334330015000000 P
   0.3621732595000000    0.1250000000000000    0.5334330014999999 P
   0.3621732595000000    0.6250000000000000    0.0334330015000000 P
   0.3621732595000000    0.6250000000000000    0.5334330014999999 P
   0.8621732594999999    0.1250000000000000    0.0334330015000000 P
   0.8621732594999999    0.1250000000000000    0.5334330014999999 P
   0.8621732594999999    0.6250000000000000    0.0334330015000000 P
   0.8621732594999999    0.6250000000000000    0.5334330014999999 P
   0.1356097460000000    0.1250000000000000    0.3025540115000000 C
   0.1356097460000000    0.1250000000000000    0.8025540114999999 C
   0.1356097460000000    0.6250000000000000    0.3025540115000000 C
   0.1356097460000000    0.6250000000000000    0.8025540114999999 C
   0.6356097460000000    0.1250000000000000    0.3025540115000000 C
   0.6356097460000000    0.1250000000000000    0.8025540114999999 C
   0.6356097460000000    0.6250000000000000    0.3025540115000000 C
   0.6356097460000000    0.6250000000000000    0.8025540114999999 C
   0.3643902540000000    0.3750000000000000    0.1974460035000000 C
   0.3643902540000000    0.3750000000000000    0.6974460034999999 C
   0.3643902540000000    0.8750000000000000    0.1974460035000000 C
   0.3643902540000000    0.8750000000000000    0.6974460034999999 C
   0.8643902539999999    0.3750000000000000    0.1974460035000000 C
   0.8643902539999999    0.3750000000000000    0.6974460034999999 C
   0.8643902539999999    0.8750000000000000    0.1974460035000000 C
   0.8643902539999999    0.8750000000000000    0.6974460034999999 C
   0.3521667419999999    0.3750000000000000    0.2609269914999999 O
   0.3521667419999999    0.3750000000000000    0.7609269915000000 O
   0.3521667419999999    0.8750000000000000    0.2609269914999999 O
   0.3521667419999999    0.8750000000000000    0.7609269915000000 O
   0.8521667420000000    0.3750000000000000    0.2609269914999999 O
   0.8521667419999999    0.3750000000000000    0.7609269915000000 O
   0.8521667420000000    0.8750000000000000    0.2609269914999999 O
   0.8521667419999999    0.8750000000000000    0.7609269915000000 O
   0.0318837500000000    0.1250000000000000    0.3346450029999999 O
   0.0318837500000000    0.1250000000000000    0.8346450030000000 O
   0.0318837500000000    0.6250000000000000    0.3346450029999999 O
   0.0318837500000000    0.6250000000000000    0.8346450030000000 O
   0.5318837500000000    0.1250000000000000    0.3346450029999999 O
   0.5318837500000000    0.1250000000000000    0.8346450030000000 O
   0.5318837500000000    0.6250000000000000    0.3346450029999999 O
   0.5318837500000000    0.6250000000000000    0.8346450030000000 O
   0.2261422425000000    0.1250000000000000    0.3473255040000000 O
   0.2261422425000000    0.1250000000000000    0.8473255040000000 O
   0.2261422425000000    0.6250000000000000    0.3473255040000000 O
   0.2261422425000000    0.6250000000000000    0.8473255040000000 O
   0.7261422424999998    0.1250000000000000    0.3473255040000000 O
   0.7261422424999999    0.1250000000000000    0.8473255040000000 O
   0.7261422424999998    0.6250000000000000    0.3473255040000000 O
   0.7261422424999999    0.6250000000000000    0.8473255040000000 O
   0.1144547535000000    0.4695034920000000    0.4217664895000000 O
   0.1144547535000000    0.4695034920000000    0.9217664894999998 O
   0.1144547535000000    0.9695034920000001    0.4217664895000000 O
   0.1144547535000000    0.9695034920000001    0.9217664894999998 O
   0.6144547535000000    0.4695034920000000    0.4217664895000000 O
   0.6144547535000000    0.4695034920000000    0.9217664894999998 O
   0.6144547535000000    0.9695034920000001    0.4217664895000000 O
   0.6144547535000000    0.9695034920000001    0.9217664894999998 O
   0.1144547535000000    0.2804965080000000    0.4217664895000000 O
   0.1144547535000000    0.2804965080000000    0.9217664894999998 O
   0.1144547535000000    0.7804965079999999    0.4217664895000000 O
   0.1144547535000000    0.7804965079999999    0.9217664894999998 O
   0.6144547535000000    0.2804965080000000    0.4217664895000000 O
   0.6144547535000000    0.2804965080000000    0.9217664894999998 O
   0.6144547535000000    0.7804965079999999    0.4217664895000000 O
   0.6144547535000000    0.7804965079999999    0.9217664894999998 O
   0.4462662635000000    0.1250000000000000    0.4700484870000000 O
   0.4462662634999999    0.1250000000000000    0.9700484869999999 O
   0.4462662635000000    0.6250000000000000    0.4700484870000000 O
   0.4462662634999999    0.6250000000000000    0.9700484869999999 O
   0.9462662634999999    0.1250000000000000    0.4700484870000000 O
   0.9462662634999999    0.1250000000000000    0.9700484869999999 O
   0.9462662634999999    0.6250000000000000    0.4700484870000000 O
   0.9462662634999999    0.6250000000000000    0.9700484869999999 O
   0.2722747625000000    0.3750000000000000    0.4899674949999999 O
   0.2722747625000000    0.3750000000000000    0.9899674949999999 O
   0.2722747625000000    0.8750000000000000    0.4899674949999999 O
   0.2722747625000000    0.8750000000000000    0.9899674949999999 O
   0.7722747624999999    0.3750000000000000    0.4899674949999999 O
   0.7722747624999999    0.3750000000000000    0.9899674949999999 O
   0.7722747624999999    0.8750000000000000    0.4899674949999999 O
   0.7722747624999999    0.8750000000000000    0.9899674949999999 O
   0.2277252525000000    0.1250000000000000    0.0100325000000000 O
   0.2277252525000000    0.1250000000000000    0.5100325000000000 O
   0.2277252525000000    0.6250000000000000    0.0100325000000000 O
   0.2277252525000000    0.6250000000000000    0.5100325000000000 O
   0.7277252525000000    0.1250000000000000    0.0100325000000000 O
   0.7277252524999999    0.1250000000000000    0.5100325000000000 O
   0.7277252525000000    0.6250000000000000    0.0100325000000000 O
   0.7277252524999999    0.6250000000000000    0.5100325000000000 O
   0.0537337510000000    0.3750000000000000    0.0299515000000000 O
   0.0537337510000000    0.3750000000000000    0.5299514999999999 O
   0.0537337510000000    0.8750000000000000    0.0299515000000000 O
   0.0537337510000000    0.8750000000000000    0.5299514999999999 O
   0.5537337510000000    0.3750000000000000    0.0299515000000000 O
   0.5537337510000000    0.3750000000000000    0.5299514999999999 O
   0.5537337510000000    0.8750000000000000    0.0299515000000000 O
   0.5537337510000000    0.8750000000000000    0.5299514999999999 O
   0.3855452539999999    0.2195035070000000    0.0782335030000000 O
   0.3855452539999999    0.2195035070000000    0.5782335030000000 O
   0.3855452539999999    0.7195035070000000    0.0782335030000000 O
   0.3855452539999999    0.7195035070000000    0.5782335030000000 O
   0.8855452540000001    0.2195035070000000    0.0782335030000000 O
   0.8855452539999998    0.2195035070000000    0.5782335030000000 O
   0.8855452540000001    0.7195035070000000    0.0782335030000000 O
   0.8855452539999998    0.7195035070000000    0.5782335030000000 O
   0.3855452539999999    0.0304965005000000    0.0782335030000000 O
   0.3855452539999999    0.0304965005000000    0.5782335030000000 O
   0.3855452539999999    0.5304965005000000    0.0782335030000000 O
   0.3855452539999999    0.5304965005000000    0.5782335030000000 O
   0.8855452540000001    0.0304965005000000    0.0782335030000000 O
   0.8855452539999998    0.0304965005000000    0.5782335030000000 O
   0.8855452540000001    0.5304965005000000    0.0782335030000000 O
   0.8855452539999998    0.5304965005000000    0.5782335030000000 O
   0.2738577425000000    0.3750000000000000    0.1526744960000000 O
   0.2738577425000000    0.3750000000000000    0.6526744960000000 O
   0.2738577425000000    0.8750000000000000    0.1526744960000000 O
   0.2738577425000000    0.8750000000000000    0.6526744960000000 O
   0.7738577424999999    0.3750000000000000    0.1526744960000000 O
   0.7738577424999999    0.3750000000000000    0.6526744960000000 O
   0.7738577424999999    0.8750000000000000    0.1526744960000000 O
   0.7738577424999999    0.8750000000000000    0.6526744960000000 O
   0.4681162535000000    0.3750000000000000    0.1653549970000000 O
   0.4681162535000000    0.3750000000000000    0.6653549969999999 O
   0.4681162535000000    0.8750000000000000    0.1653549970000000 O
   0.4681162535000000    0.8750000000000000    0.6653549969999999 O
   0.9681162535000000    0.3750000000000000    0.1653549970000000 O
   0.9681162535000001    0.3750000000000000    0.6653549969999999 O
   0.9681162535000000    0.8750000000000000    0.1653549970000000 O
   0.9681162535000001    0.8750000000000000    0.6653549969999999 O
   0.1478332430000000    0.1250000000000000    0.2390729935000000 O
   0.1478332430000000    0.1250000000000000    0.7390729935000000 O
   0.1478332430000000    0.6250000000000000    0.2390729935000000 O
   0.1478332430000000    0.6250000000000000    0.7390729935000000 O
   0.6478332430000000    0.1250000000000000    0.2390729935000000 O
   0.6478332429999999    0.1250000000000000    0.7390729935000000 O
   0.6478332430000000    0.6250000000000000    0.2390729935000000 O
   0.6478332429999999    0.6250000000000000    0.7390729935000000 O
