Na2 Ca2 V4 P4 S2 O24
1.0
8.890970 0.263798 0.187452
4.377828 7.877560 0.241071
4.359397 2.726163 7.390474
Ca Na V P S O
2 2 4 4 2 24
direct
0.705366 0.301115 0.568115 Ca
0.030267 0.975066 0.000685 Ca
0.753847 0.401274 0.107545 Na
0.595382 0.863159 0.240576 Na
0.366097 0.358590 0.352050 V
0.636563 0.657015 0.651866 V
0.149431 0.149537 0.146586 V
0.864969 0.845871 0.850628 V
0.961100 0.537446 0.255742 P
0.760234 0.031684 0.444023 P
0.457757 0.758219 0.036001 P
0.552471 0.251922 0.971216 P
0.051018 0.458000 0.746309 S
0.250833 0.965473 0.547133 S
0.219962 0.439746 0.586073 O
0.780362 0.563055 0.427682 O
0.598983 0.223422 0.435820 O
0.413532 0.792142 0.552542 O
0.443694 0.582296 0.209244 O
0.556949 0.426934 0.792048 O
0.918405 0.067880 0.254214 O
0.096925 0.933148 0.729513 O
0.068655 0.273971 0.907259 O
0.930013 0.727357 0.093477 O
0.277501 0.923354 0.069233 O
0.740051 0.095779 0.912409 O
0.554430 0.272949 0.128895 O
0.478156 0.739068 0.865601 O
0.135739 0.491553 0.284381 O
0.882547 0.498317 0.716788 O
0.293770 0.116286 0.522785 O
0.706928 0.882532 0.469148 O
0.389304 0.197577 0.027076 O
0.628181 0.788469 0.008289 O
0.191309 1.008009 0.400115 O
0.817124 0.990532 0.602029 O
0.959884 0.379938 0.228844 O
0.026751 0.596174 0.805421 O
