Ca1 V12 F42                             
   1.00000000000000     
     7.3758109999999997   -0.0067410000000000   -0.1090860000000000
    -3.6788240000000001    6.4020799999999998    0.1197520000000000
     0.2580060000000000    0.0854270000000000   17.4854950000000002
   Ca   V    F 
     1    12    42
Direct
  0.8427699233662672  0.0166721104947413  0.3341626998395898
  0.2922100986186471  0.0024952456735744  0.3318391436510976
  0.7188695791839153  0.7205232670524411  0.9974652192578953
  0.9964933602040741  0.2849305057086158  0.6689135221289622
  0.3555538595720565  0.0023574910000338  0.8332414918238628
  0.6375127666630430  0.6508873597916530  0.4984705918680386
  0.0082100918558854  0.3621808424130372  0.1676091987090320
  0.6359917243834320  0.1526430747453429  0.5044827959352951
  0.5110161664419226  0.3629310415944568  0.1666553454675971
  0.8549791473203145  0.5029750775784665  0.8329461731957423
  0.3543695467533666  0.5017554791825691  0.8334935846734156
  0.1384625391233656  0.6465927306039732  0.5002130922159025
  0.5064189222658377  0.8583458281346359  0.1648333926494937
  0.5788720076835336  0.8292110680490608  0.0615600513216465
  0.2475385493084361  0.4266641606378843  0.7300467615311987
  0.1798145698111228  0.7558578426293959  0.3949710962508916
  0.4383392092933043  0.2539132777974465  0.2716702726041291
  0.8261656787438667  0.5781345227405174  0.9361382909522324
  0.7448409393995871  0.1775767845775420  0.6063532092086077
  0.8784335683008888  0.0746560007970155  0.7341613332682885
  0.1509670351319966  0.1115271153261337  0.3895580320102412
  0.9328238945709382  0.8156098863745647  0.0604608147368757
  0.1125196861515636  0.1891082531027116  0.6049084063129050
  0.0537351296366477  0.8935047283017327  0.2708796508683948
  0.8093958827646861  0.9314016444532133  0.9324815071253385
  0.1028932134343423  0.5404040448844075  0.6036445454059809
  0.4631143745451026  0.8977637949542581  0.2747028296335660
  0.4577691835380102  0.5695898409591795  0.9368015122726978
  0.8880501981451649  0.4365608320444164  0.7296077358008078
  0.5522491119712966  0.1205629733903243  0.3957797270677464
  0.5733308547639026  0.4644314084570513  0.0624938578024714
  0.3460912774167252  0.5657591243450564  0.4787712315709137
  0.2139135742684944  0.6516554948225652  0.1558603217719970
  0.4351895468210726  0.7914970988770623  0.8136919140676901
  0.6462208862533889  0.2132852246137284  0.8528393874186191
  0.5528081941637233  0.3621142899326454  0.5144064961579194
  0.7997746035898898  0.4443921437212116  0.1865737802886279
  0.6857469358541631  0.6684246472139153  0.3921923484732074
  0.9349238601599579  0.3186241587970970  0.0705363835973752
  0.3926997745207934  0.0748328589681156  0.7351269685546188
  0.3205262596741538  0.9302264791784591  0.9314577056048761
  0.6069580407773953  0.7022058656175558  0.5945296725996569
  0.0336593127400584  0.3490257344817185  0.2751744204386652
  0.9260129315597699  0.7251849054567386  0.5148940322709566
  0.7991363169554816  0.0583434104276775  0.1913107589202213
  0.2739424552343663  0.2111779235901425  0.8529164659298272
  0.0651623760479450  0.7936593743207678  0.8135176529771726
  0.7293827504978014  0.9552159113655909  0.4743432270650977
  0.2199604434047722  0.2848717189956233  0.1531314299768376
  0.6294557697833959  0.5527757315355897  0.8025195145678076
  0.9128898851385256  0.3721934351105672  0.4679038510684392
  0.4606453396866809  0.0881498340006275  0.1373750910434645
  0.3605151733045637  0.9214326882561680  0.5316061991028055
  0.5622481513340920  0.6371697839369943  0.1989904877216317
  0.0794425300036212  0.4518917860223861  0.8638597044643366
 
             NaN             NaN             NaN
             NaN             NaN             NaN
             NaN             NaN             NaN
             NaN             NaN             NaN
             NaN             NaN             NaN
             NaN             NaN             NaN
             NaN             NaN             NaN
             NaN             NaN             NaN
             NaN             NaN             NaN
             NaN             NaN             NaN
             NaN             NaN             NaN
             NaN             NaN             NaN
             NaN             NaN             NaN
             NaN             NaN             NaN
             NaN             NaN             NaN
             NaN             NaN             NaN
             NaN             NaN             NaN
             NaN             NaN             NaN
             NaN             NaN             NaN
             NaN             NaN             NaN
             NaN             NaN             NaN
             NaN             NaN             NaN
             NaN             NaN             NaN
             NaN             NaN             NaN
             NaN             NaN             NaN
             NaN             NaN             NaN
             NaN             NaN             NaN
             NaN             NaN             NaN
             NaN             NaN             NaN
             NaN             NaN             NaN
             NaN             NaN             NaN
             NaN             NaN             NaN
             NaN             NaN             NaN
             NaN             NaN             NaN
             NaN             NaN             NaN
             NaN             NaN             NaN
             NaN             NaN             NaN
             NaN             NaN             NaN
             NaN             NaN             NaN
             NaN             NaN             NaN
             NaN             NaN             NaN
             NaN             NaN             NaN
             NaN             NaN             NaN
             NaN             NaN             NaN
             NaN             NaN             NaN
             NaN             NaN             NaN
             NaN             NaN             NaN
             NaN             NaN             NaN
             NaN             NaN             NaN
             NaN             NaN             NaN
             NaN             NaN             NaN
             NaN             NaN             NaN
             NaN             NaN             NaN
             NaN             NaN             NaN
             NaN             NaN             NaN
