Ca1 V12 F42                             
   1.00000000000000     
     7.3758109999999997   -0.0067410000000000   -0.1090860000000000
    -3.6788240000000001    6.4020799999999998    0.1197520000000000
     0.2580060000000000    0.0854270000000000   17.4854950000000002
   Ca   V    F 
     1    12    42
Direct
  0.8393414497664240  0.0129839205187604  0.3330233503430692
  0.2906827416321434  0.0024118714063708  0.3317751132850929
  0.7218379149192048  0.7227983194335897  0.9967592884090107
 -0.0041478365854905  0.2830272097216389  0.6689793773299102
  0.3570806177574653  1.0021654604181511  0.8332114626824034
  0.6338593092145658  0.6480901733201220  0.4985817951963592
  1.0110661513853245  0.3667765789138924  0.1680016177801388
  0.6331482427958174  0.1503298078245519  0.5048238398199952
  0.5130036985567323  0.3664428164310038  0.1668653907109590
  0.8563767985249081  0.5028961553545237  0.8328095894551887
  0.3555100128792433  0.5013289901764013  0.8334274956523361
  0.1353419086227196  0.6445014133185877  0.5001378594130511
  0.5126456683348907  0.8638051685468786  0.1646378307251976
  0.5792540369232642  0.8329042606307582  0.0610285845307177
  0.2475342750079690  0.4258284428701827  0.7299473291925539
  0.1772700542173904  0.7552387706264163  0.3951864106921905
  0.4367859074484374  0.2534291676344140  0.2703862327930352
  0.8298980963807506  0.5813650668245893  0.9354870754327539
  0.7438021440832346  0.1745191550504044  0.6063711751399541
  0.8784569737303739  0.0736167538060227  0.7345869502600545
  0.1471518030439731  0.1101895783734275  0.3885879405367090
  0.9347252317203599  0.8179091662303793  0.0601803088391214
  0.1117377357530677  0.1870019681184364  0.6049546599894519
  0.0545440297607607  0.8910332083653706  0.2701880586536232
  0.8084359977251770  0.9332439189182107  0.9319059714590582
  0.1005382640406188  0.5380360357240804  0.6035179273437943
  0.4670113680999159  0.8998200407645528  0.2750233998455686
  0.4601789183846818  0.5688655844376346  0.9367855070443278
  0.8876299708434426  0.4353284558532405  0.7296303850343570
  0.5479847144337686  0.1215468894016298  0.3963321295787791
  0.5760659773110919  0.4683949204600649  0.0637649283214813
  0.3423143959998571  0.5628975627938210  0.4786763253272011
  0.2145412517881761  0.6531872084399412  0.1555708547373532
  0.4364664697777780  0.7911173058356975  0.8136863180091828
  0.6476722391166689  0.2136711790357347  0.8533775920366818
  0.5496297802515066  0.3597435195662647  0.5153549755644118
  0.8012930948313332  0.4489111144210520  0.1876539832904924
  0.6827459076842307  0.6647963227804211  0.3924122035152225
  0.9312237413348717  0.3159921429278250  0.0720904919334090
  0.3957288181043992  0.0758170890635514  0.7351905939630983
  0.3211020570303229  0.9293539989465150  0.9312948099642516
  0.6032429839925914  0.7009792833551323  0.5943991606473966
  0.0360110995786453  0.3506510180588857  0.2747854272619324
  0.9225541519045476  0.7223413089351767  0.5152868061444384
  0.8053715485075049  0.0620721821015530  0.1921768985582856
  0.2751103974814608  0.2107554661203298  0.8528760251085492
  0.0669152884784674  0.7934398854525363  0.8128402925680697
  0.7246677355280942  0.9522240106685944  0.4736252588129737
  0.2227313047150449  0.2876998876756439  0.1522072904503185
  0.6302732084326341  0.5523725406137748  0.8023403607839972
  0.9095883050583902  0.3698043086655134  0.4679222062090955
  0.4611890998822517  0.0858939095586880  0.1367404880773164
  0.3576093720268733  0.9192412672705762  0.5319761213680072
  0.5672812387569299  0.6457715458871053  0.2006749433093110
  0.0810232164457043  0.4517331290242018  0.8640156339309522
 
             NaN             NaN             NaN
             NaN             NaN             NaN
             NaN             NaN             NaN
             NaN             NaN             NaN
             NaN             NaN             NaN
             NaN             NaN             NaN
             NaN             NaN             NaN
             NaN             NaN             NaN
             NaN             NaN             NaN
             NaN             NaN             NaN
             NaN             NaN             NaN
             NaN             NaN             NaN
             NaN             NaN             NaN
             NaN             NaN             NaN
             NaN             NaN             NaN
             NaN             NaN             NaN
             NaN             NaN             NaN
             NaN             NaN             NaN
             NaN             NaN             NaN
             NaN             NaN             NaN
             NaN             NaN             NaN
             NaN             NaN             NaN
             NaN             NaN             NaN
             NaN             NaN             NaN
             NaN             NaN             NaN
             NaN             NaN             NaN
             NaN             NaN             NaN
             NaN             NaN             NaN
             NaN             NaN             NaN
             NaN             NaN             NaN
             NaN             NaN             NaN
             NaN             NaN             NaN
             NaN             NaN             NaN
             NaN             NaN             NaN
             NaN             NaN             NaN
             NaN             NaN             NaN
             NaN             NaN             NaN
             NaN             NaN             NaN
             NaN             NaN             NaN
             NaN             NaN             NaN
             NaN             NaN             NaN
             NaN             NaN             NaN
             NaN             NaN             NaN
             NaN             NaN             NaN
             NaN             NaN             NaN
             NaN             NaN             NaN
             NaN             NaN             NaN
             NaN             NaN             NaN
             NaN             NaN             NaN
             NaN             NaN             NaN
             NaN             NaN             NaN
             NaN             NaN             NaN
             NaN             NaN             NaN
             NaN             NaN             NaN
             NaN             NaN             NaN
