Ca1 V16 F48                             
   1.00000000000000     
    15.6514640000000007    0.0000830000000000   -0.0001520000000000
     0.0000740000000000    7.8234570000000003    0.0000300000000000
    -0.0000950000000000   -0.0001180000000000    7.8218829999999997
   Ca   V    F 
     1    16    48
Direct
  0.7029142001771971  0.4999802702417340  0.5000401708704946
  0.1246746949582227  0.2498096286005932  0.2497986207521961
  0.6201849124413904  0.2426803437796086  0.2427309309961290
  0.1246761648122552  0.2498062076254098  0.7501901059725051
  0.6201826436080554  0.2426921429954973  0.7573002423879991
  0.1246874559625746  0.7501963938089394  0.2497991711182213
  0.6201830394358481  0.7572854866989004  0.2427433355463389
  0.1246786640302680  0.7501956276050634  0.7501853297615881
  0.6201779426611681  0.7572993727806726  0.7573061392295264
  0.3727276858221503  0.2500143785896276  0.2500091875467234
  0.8762971338076098  0.2488581076619434  0.2488547033624842
  0.3727377507211571  0.2499961423169095  0.7500007305541907
  0.8762894102744595  0.2488426655905490  0.7511569076912740
  0.3727316203450100  0.7500036817764559  0.2499945736504798
  0.8762950665427499  0.7511622546729813  0.2488421973870016
  0.3727258726312973  0.7499897061772224  0.7499845944917966
  0.8762945525784301  0.7511463304087778  0.7511387093083058
  0.0000961073348579  0.2465308285458554  0.2465119803928436
  0.4974759377048736  0.2526398636267687  0.2526430902889875
  0.0000703677908830  0.2465249733024212  0.7534775385167489
  0.4974637902621795  0.2525929370130593  0.7474053555635471
  0.0000920206539228  0.7534791046303956  0.2465092836362576
  0.4974777179653897  0.7474049752138611  0.2525882289143252
  0.0000945576662403  0.7534777829725161  0.7534733447886648
  0.4974877942052695  0.7473647875802645  0.7473721123399792
  0.2489085894443753  0.2480120994501567  0.2479925107630228
  0.7474498809470715  0.2711007311832838  0.2711281051642192
  0.2489482124532665  0.2480105621049461  0.7519970628047298
  0.7474514196679094  0.2710742862587430  0.7289249705489235
  0.2489441835357653  0.7519960249897860  0.2479967160013336
  0.7474238947306774  0.7289564885191339  0.2710597832731133
  0.2489224270769141  0.7519919752609111  0.7519872541728796
  0.7474232524300772  0.7288867570194301  0.7288948724621177
  0.1248441821083218  0.2503805067879522  1.0000461579732889
  0.6272216829872940  0.2480361806904773 -0.0000224038390669
  0.1243615039155430  0.2503427934986041  0.4999413706595008
  0.6226259060737274  0.2510855651986505  0.5000453239854511
  0.1248428230078748  0.7496250479921370 -0.0000089221273558
  0.6272235436202414  0.7519877263085897 -0.0000099318864494
  0.1243580829827441  0.7496627707106180  0.4999932981409744
  0.6226266006488340  0.7488598498521892  0.5000139911685199
  0.3761150215258137  0.2497553978747508 -0.0000373610853130
  0.8697141848146484  0.2500120318009724 -0.0000068137047405
  0.3728546709064623  0.2502007725268478  0.5000431720340759
  0.8750170913206661  0.2537358001969051  0.5000146918636598
  0.3761166120401174  0.7502478077307432  1.0000113578731034
  0.8697071707626615  0.7499902339160811  0.9999812278033718
  0.3728668771356376  0.7498027124589377  0.4999675787787314
  0.8750115078823069  0.7462692122230810  0.4999986323967236
  0.1248457153018561  1.0000224376355187  0.2503597159151583
  0.6272130465868540  0.9999472011117139  0.2482849231467056
  0.1248426490423823 -0.0000331075710626  0.7496263890507520
  0.6272227275235096 -0.0000493349214706  0.7517097111576752
  0.1243624630354986  0.4999858131067441  0.2503453232771823
  0.6226445214116472  0.5000566744006124  0.2510261396120185
  0.1243578364787170  0.5000388213997407  0.7496405030677253
  0.6226417015037280  0.5000241585852845  0.7490385207612456
  0.3761124571440992 -0.0000402556671118  0.2498676628134429
  0.8697191857329588  0.0000239353886089  0.2501214594399934
  0.3761081521346206  1.0000084334772987  0.7501229891694954
  0.8697202399624634  1.0000117675435463  0.7498694202906577
  0.3728674911066545  0.5000558115989060  0.2500760464749900
  0.8750004837147771  0.4999931114554959  0.2536151903261497
  0.3728672644190970  0.4999794806849650  0.7499137259798732
  0.8750016502275141  0.4999767071930239  0.7463720088223783
 
             NaN             NaN             NaN
             NaN             NaN             NaN
             NaN             NaN             NaN
             NaN             NaN             NaN
             NaN             NaN             NaN
             NaN             NaN             NaN
             NaN             NaN             NaN
             NaN             NaN             NaN
             NaN             NaN             NaN
             NaN             NaN             NaN
             NaN             NaN             NaN
             NaN             NaN             NaN
             NaN             NaN             NaN
             NaN             NaN             NaN
             NaN             NaN             NaN
             NaN             NaN             NaN
             NaN             NaN             NaN
             NaN             NaN             NaN
             NaN             NaN             NaN
             NaN             NaN             NaN
             NaN             NaN             NaN
             NaN             NaN             NaN
             NaN             NaN             NaN
             NaN             NaN             NaN
             NaN             NaN             NaN
             NaN             NaN             NaN
             NaN             NaN             NaN
             NaN             NaN             NaN
             NaN             NaN             NaN
             NaN             NaN             NaN
             NaN             NaN             NaN
             NaN             NaN             NaN
             NaN             NaN             NaN
             NaN             NaN             NaN
             NaN             NaN             NaN
             NaN             NaN             NaN
             NaN             NaN             NaN
             NaN             NaN             NaN
             NaN             NaN             NaN
             NaN             NaN             NaN
             NaN             NaN             NaN
             NaN             NaN             NaN
             NaN             NaN             NaN
             NaN             NaN             NaN
             NaN             NaN             NaN
             NaN             NaN             NaN
             NaN             NaN             NaN
             NaN             NaN             NaN
             NaN             NaN             NaN
             NaN             NaN             NaN
             NaN             NaN             NaN
             NaN             NaN             NaN
             NaN             NaN             NaN
             NaN             NaN             NaN
             NaN             NaN             NaN
             NaN             NaN             NaN
             NaN             NaN             NaN
             NaN             NaN             NaN
             NaN             NaN             NaN
             NaN             NaN             NaN
             NaN             NaN             NaN
             NaN             NaN             NaN
             NaN             NaN             NaN
             NaN             NaN             NaN
             NaN             NaN             NaN
