Ca1 V16 F48
1.0
15.651464 0.000083 -0.000152
0.000074 7.823457 0.000030
-0.000095 -0.000118 7.821883
Ca V F
1 16 48
direct
0.687499 0.500000 0.500004 Ca
0.125508 0.250061 0.250034 V
0.623589 0.246707 0.246765 V
0.125509 0.250061 0.749966 V
0.623590 0.246707 0.753235 V
0.125508 0.749938 0.250034 V
0.623591 0.753294 0.246762 V
0.125508 0.749939 0.749966 V
0.623588 0.753295 0.753238 V
0.373534 0.249222 0.249217 V
0.877370 0.247544 0.247581 V
0.373532 0.249223 0.750782 V
0.877369 0.247547 0.752416 V
0.373531 0.750778 0.249216 V
0.877369 0.752451 0.247582 V
0.373534 0.750778 0.750783 V
0.877371 0.752452 0.752422 V
0.000923 0.250648 0.250689 F
0.499072 0.254416 0.254424 F
0.000929 0.250647 0.749312 F
0.499075 0.254414 0.745581 F
0.000929 0.749353 0.250682 F
0.499077 0.745586 0.254420 F
0.000923 0.749353 0.749314 F
0.499072 0.745584 0.745578 F
0.249695 0.250072 0.250084 F
0.750307 0.261375 0.261287 F
0.249691 0.250073 0.749914 F
0.750306 0.261374 0.738709 F
0.249688 0.749928 0.250089 F
0.750306 0.738625 0.261294 F
0.249696 0.749927 0.749912 F
0.750309 0.738625 0.738708 F
0.125243 0.250018 0.999997 F
0.625346 0.252654 0.000000 F
0.125224 0.250015 0.500003 F
0.628446 0.264942 0.500001 F
0.125244 0.749981 0.000007 F
0.625349 0.747347 0.000001 F
0.125220 0.749985 0.499994 F
0.628450 0.735054 0.499994 F
0.374817 0.250688 0.000006 F
0.874594 0.251993 0.000007 F
0.376386 0.253743 0.499995 F
0.869943 0.261211 0.499995 F
0.374815 0.749313 0.999996 F
0.874594 0.748008 0.999997 F
0.376386 0.746260 0.500004 F
0.869945 0.738788 0.500006 F
0.125245 0.999994 0.250011 F
0.625357 0.999996 0.252872 F
0.125246 0.000004 0.749991 F
0.625355 0.000002 0.747129 F
0.125220 0.500005 0.250017 F
0.628397 0.500006 0.264664 F
0.125219 0.499996 0.749982 F
0.628395 0.499998 0.735343 F
0.374817 0.000004 0.250728 F
0.874584 0.000003 0.252139 F
0.374818 0.999995 0.749271 F
0.874581 0.999993 0.747854 F
0.376364 0.499995 0.253680 F
0.870023 0.499998 0.260999 F
0.376366 0.500005 0.746320 F
0.870018 0.500005 0.738996 F
