Ca7 Mn16 F48                            
   1.00000000000000     
    11.5065609999999996    0.0000130000000000    0.0072450000000000
     0.0000170000000000    8.2087760000000003   -0.0000120000000000
     0.0070170000000000   -0.0000170000000000   11.1468179999999997
   Ca   Mn   F 
     7    16    48
Direct
  0.6488877134005806  0.7499819803424531  0.6490149428165382
  0.2206148046624775  0.7499963667136100  0.2515815374466132
  0.2183996126753803  0.7499953956370171  0.7400442814726109
  0.7121920713715763  0.7499937523412291  0.2462146499599776
  0.4666319432106878  0.7500025225717936  0.0035205531336357
  0.9577061307154920  0.7500025428566204  0.0018806927532802
  0.9669799518505723  0.7499745235431129  0.5070035254057160
  0.4955924702892125  0.4866412007846131  0.2560518165404486
  0.4874061147382590  0.4664357417740940  0.7550420677071221
  0.9999593369170281  0.4844941474354873  0.2476363155026007
  0.9920269217552485  0.4864550092607358  0.7498265063315953
  0.2566152945150905  0.0116785791014018  0.4994106966639740
  0.2433551745185264  0.0176291895177358  0.9966664424611513
  0.7509219011836294  0.0347462313661394  0.4931930255142672
  0.7409844771803230  0.0146257219616094  0.9930165487058858
  0.4956302828996162  0.0133328476042215  0.2560767764167955
  0.4874068639296150  0.0335615618889467  0.7550215835015183
  0.9999590933412335  0.0154914925943118  0.2476251589210126
  0.9920379605448567  0.0135449372526249  0.7498398060616992
  0.2566007642332946  0.4883253321868270  0.4994134952025071
  0.2433522677930783  0.4823779062369633  0.9966647853893241
  0.7509003698941049  0.4653280833977957  0.4931572680744943
  0.7409914372465883  0.4853616047629367  0.9930076676333277
  0.4937991004109345  0.2500048645600057  0.2144296036969009
  0.4225968251102566  0.2499870794670389  0.7162220343025535
  0.9776645264768501  0.2500009979740703  0.2141281409331821
  0.9882058460318920  0.2499987312726880  0.7205552571236665
  0.2243288174170959  0.2500002729884441  0.0432134651733035
  0.2307806358333591  0.2499933988788664  0.5261881487098357
  0.7413934953626149  0.2500005359285246  0.0355704327813646
  0.7876478758401196  0.2501067512282547  0.5575805862309523
  0.0184465417366888  0.7500042399852198  0.2976930592875828
  0.0152419171547564  0.7500053915902272  0.7949451902585146
  0.5132551106113385  0.7500233352901736  0.2883058614952582
  0.5174370380160355  0.7499992331443202  0.7950173662523558
  0.2606231653983291  0.7500007101540335  0.4542544881692087
  0.2684806128262918  0.7500017830412088  0.9443174087401472
  0.7405844280199723  0.7499440322008446  0.4651417408859873
  0.7529836524012374  0.7499910162167677  0.9647041373888376
  0.3508106839978833  0.5806242129854230  0.1462154468831149
  0.3496178661414497  0.5695757927877422  0.6570733662082032
  0.8512575100793530  0.5784121055930660  0.1475492997113120
  0.8536531954058612  0.5797813146203922  0.6390161758339854
  0.1006955301342971  0.9172145505024442  0.0980137173174546
  0.1057454019371385  0.9231920932403928  0.5983328898506722
  0.5989704120124758  0.9264008563373670  0.1057133361703991
  0.6001292968274785  1.0008235875882836  0.6002995614631481
  0.1609223980111400  0.0022174881151323  0.3342401184539203
  0.1569342273041398  0.0018119220908270  0.8342160309102880
  0.6654696915102737  0.0067312075044465  0.3333375296614506
  0.6421104230507163  0.0354854845107477  0.8447137789149906
  0.4007642006621446  0.4630334200100091  0.4015423829075909
  0.4098453116011004  0.4947774294982283  0.9202138412299329
  0.9065958819875236  0.5123724133389317  0.4066230405547185
  0.9071243959945309  0.5007478278066748  0.9143975225072752
  0.1609190308189241  0.4977841200019194  0.3342373337677557
  0.1569281878606170  0.4981923380634267  0.8342097965849448
  0.6654359014903346  0.4932683099814664  0.3333514763253749
  0.6420876577816249  0.4644869912809505  0.8447430325975132
  0.4007841710256598  0.0369627339144420  0.4015619210033239
  0.4098583307288995  0.0052079020814668  0.9202368108547001
  0.9066120771924369 -0.0123737779669978  0.4066505106107283
  0.9071211211629269 -0.0007531783743968  0.9143961278646110
  0.3508167134147342  0.9193782140196558  0.1462218908932792
  0.3496076467548165  0.9304053670748412  0.6570629049655896
  0.8512639139544150  0.9215750053705887  0.1475639431851743
  0.8536405076843402  0.9203136391001233  0.6389830317450281
  0.1006935530335278  0.5827757323035762  0.0980052368756064
  0.1057506517475662  0.5767906190962363  0.5983293091900456
  0.5989544298675861  0.5736015206939090  0.1057038467866718
  0.6001034232577753  0.4991437003470654  0.6003324134707684
 
             NaN             NaN             NaN
             NaN             NaN             NaN
             NaN             NaN             NaN
             NaN             NaN             NaN
             NaN             NaN             NaN
             NaN             NaN             NaN
             NaN             NaN             NaN
             NaN             NaN             NaN
             NaN             NaN             NaN
             NaN             NaN             NaN
             NaN             NaN             NaN
             NaN             NaN             NaN
             NaN             NaN             NaN
             NaN             NaN             NaN
             NaN             NaN             NaN
             NaN             NaN             NaN
             NaN             NaN             NaN
             NaN             NaN             NaN
             NaN             NaN             NaN
             NaN             NaN             NaN
             NaN             NaN             NaN
             NaN             NaN             NaN
             NaN             NaN             NaN
             NaN             NaN             NaN
             NaN             NaN             NaN
             NaN             NaN             NaN
             NaN             NaN             NaN
             NaN             NaN             NaN
             NaN             NaN             NaN
             NaN             NaN             NaN
             NaN             NaN             NaN
             NaN             NaN             NaN
             NaN             NaN             NaN
             NaN             NaN             NaN
             NaN             NaN             NaN
             NaN             NaN             NaN
             NaN             NaN             NaN
             NaN             NaN             NaN
             NaN             NaN             NaN
             NaN             NaN             NaN
             NaN             NaN             NaN
             NaN             NaN             NaN
             NaN             NaN             NaN
             NaN             NaN             NaN
             NaN             NaN             NaN
             NaN             NaN             NaN
             NaN             NaN             NaN
             NaN             NaN             NaN
             NaN             NaN             NaN
             NaN             NaN             NaN
             NaN             NaN             NaN
             NaN             NaN             NaN
             NaN             NaN             NaN
             NaN             NaN             NaN
             NaN             NaN             NaN
             NaN             NaN             NaN
             NaN             NaN             NaN
             NaN             NaN             NaN
             NaN             NaN             NaN
             NaN             NaN             NaN
             NaN             NaN             NaN
             NaN             NaN             NaN
             NaN             NaN             NaN
             NaN             NaN             NaN
             NaN             NaN             NaN
             NaN             NaN             NaN
             NaN             NaN             NaN
             NaN             NaN             NaN
             NaN             NaN             NaN
             NaN             NaN             NaN
             NaN             NaN             NaN
