Ca7 Mn16 F48
1.0
11.506561 0.000013 0.007245
0.000017 8.208776 -0.000012
0.007017 -0.000017 11.146818
Ca Mn F
7 16 48
direct
0.619616 0.749998 0.653822 Ca
0.216477 0.750002 0.248262 Ca
0.217227 0.750000 0.741752 Ca
0.711710 0.750001 0.245391 Ca
0.465078 0.750000 1.003134 Ca
0.963196 0.750002 0.005816 Ca
0.964847 0.750000 0.507610 Ca
0.495566 0.484941 0.254371 Mn
0.498133 0.487762 0.747443 Mn
0.995407 0.481380 0.253181 Mn
0.995028 0.483025 0.752785 Mn
0.251140 0.014163 0.498331 Mn
0.246161 0.018649 0.996509 Mn
0.743593 0.013789 0.500006 Mn
0.744987 0.016200 0.996637 Mn
0.495565 0.015060 0.254369 Mn
0.498131 0.012234 0.747444 Mn
0.995403 0.018617 0.253184 Mn
0.995026 0.016969 0.752786 Mn
0.251141 0.485836 0.498332 Mn
0.246163 0.481349 0.996509 Mn
0.743595 0.486210 0.500005 Mn
0.744990 0.483799 0.996638 Mn
0.485933 0.249999 0.212181 F
0.484274 0.249997 0.715970 F
0.975588 0.249998 0.207339 F
0.977771 0.249997 0.712462 F
0.224840 0.250001 0.042681 F
0.229923 0.250000 0.534954 F
0.733931 0.249999 0.039524 F
0.733827 0.250000 0.532796 F
0.014304 0.749999 0.302415 F
0.018100 0.750001 0.801267 F
0.510906 0.750008 0.289405 F
0.509386 0.750004 0.796334 F
0.260739 0.750003 0.452643 F
0.264790 0.749999 0.945981 F
0.765199 0.750001 0.451499 F
0.762677 0.750002 0.955981 F
0.350611 0.580097 0.145468 F
0.346254 0.565089 0.655267 F
0.851531 0.579964 0.148747 F
0.859789 0.576139 0.646083 F
0.102329 0.918120 0.102714 F
0.104870 0.920472 0.600759 F
0.600460 0.922596 0.102551 F
0.606046 0.938193 0.603311 F
0.159592 0.003736 0.335073 F
0.158424 0.007603 0.834769 F
0.662770 0.002289 0.332224 F
0.653752 0.015271 0.842521 F
0.402375 0.474720 0.405602 F
0.410945 0.496314 0.914370 F
0.907795 0.494846 0.415310 F
0.912161 0.496382 0.918759 F
0.159593 0.496264 0.335070 F
0.158425 0.492397 0.834765 F
0.662768 0.497711 0.332222 F
0.653756 0.484729 0.842520 F
0.402373 0.025279 0.405601 F
0.410944 0.003684 0.914371 F
0.907794 0.005158 0.415315 F
0.912156 0.003621 0.918761 F
0.350606 0.919902 0.145465 F
0.346254 0.934912 0.655269 F
0.851530 0.920036 0.148750 F
0.859789 0.923855 0.646083 F
0.102331 0.581882 0.102712 F
0.104870 0.579530 0.600754 F
0.600462 0.577409 0.102554 F
0.606046 0.561804 0.603310 F
