Ca9 Ti12 F42                            
   1.00000000000000     
     7.3735569999999999   -0.0002570000000000   -0.0799780000000000
    -3.6459250000000001    6.3522270000000001    0.0244410000000000
     0.2661290000000000   -0.0143280000000000   18.7263389999999994
   Ca   Ti   F 
     9    12    42
Direct
  0.2414714751899540  0.5068608002827355  0.3311642137458956
  0.5248894958203865  0.3531612097695583  0.6663961001934897
  0.1524559162634150  0.1677345339341994  0.0133452951780511
  0.0269477331666247  0.8436779846776078  0.6681241343925155
  0.8347516786405921  0.9581143246198109  0.3413754321117259
  0.6288775539426055  0.1350529801491645  0.0034926862233329
  0.0238660545404700  0.8067544534007772  0.1652157480879761
  0.8206660853953516 -0.0000136466957278  0.8235264703228926
  0.1896115631079560  0.2049287478343658  0.4950060343459184
  0.3756343674437195  1.0367210909096367  0.3192930551492965
  0.0219880786211684  0.3501956167357897  0.6434762682746206
  0.6570457171772557  0.6583951387955556  0.9910918460919763
  0.3838695900182515  0.0831961603027814  0.8304539559509109
  0.8758482928234097  0.2385304722320188  0.1709877700790474
  0.7502420777687127  0.6380227525690628  0.4966638423387681
  0.5086205891660232  0.8562753861782715  0.1698979667218481
  0.1705914946230019  0.6519246411628057  0.5035628538628667
  0.3451966927000511  0.4933860831849159  0.8284693497921997
  0.7888756365681416  0.4834162710333552  0.8329312322495903
  0.7428692983871352  0.2240790459848565  0.4982292317217355
  0.4867062153675182  0.2720871319123619  0.1671627970534705
  0.7151419866954984  0.1994529941304435  0.6091183476991645
  0.8013208370778976  0.4982550439406858  0.9452277594225059
  0.4361652005051000  0.3082540249897701  0.2734802691830874
  0.2388151668186366  0.7790992535044924  0.3903666422302484
  0.5501550097084114  0.8140661502562474  0.0583520465531130
  0.2923498360705452  0.4568728200021285  0.7171992941741276
  0.8333035701587431  0.9951218391484103  0.9518188630018443
  0.0702194789502942  0.8755389050167203  0.2827282216617014
  0.1945835029006822  0.1915607117806886  0.6143491646082001
  0.9286122125614168  0.8122191214541806  0.0515552651627793
  0.9010239953050903  0.0730108565639632  0.7076590984859809
  0.2010184811408871  0.1614291596297215  0.3777819005347530
  0.5176745990198770  0.3595288606930424  0.0522121687504523
  0.6329551571219612  0.1392107055896784  0.3837186557877044
  0.8584216510717548  0.4761723723796287  0.7102821789495840
  0.3369809551350132  0.4771789149935668  0.9476421076746330
  0.1862621649077294  0.6665911579963131  0.6165529796711740
  0.4979994790405808  0.8210161769309512  0.2872621947758781
  0.8002476150698437  0.4611936161070795  0.1921650009200720
  0.5390929543103359  0.3362701236965431  0.5233086339656490
  0.6695220340750315  0.1725386154766734  0.8746428952350565
  0.4400656150954964  0.8206851286431147  0.8160203520547624
  0.3935621003472087  0.5639727225706784  0.4732220000660608
  0.1978632155757395  0.6307100571101980  0.1875954402871292
 -0.0384832318398004  0.2665592656658993  0.2768892526334729
  0.7165304211565331  0.6675186573060593  0.6080023437298238
  0.3239084994258512  0.0389365944255467  0.9417473610783899
  0.3395556283743864  0.0412046595049403  0.7236889041616402
  0.7255488887696692  0.6453074401870467  0.3912103839270005
  0.9363476881353802  0.2892002312094261  0.0656307738437369
  0.1646282579934212  0.1822764286783828  0.1418340439488835
  0.8308113285490736  0.9872213021534166  0.4698476777383603
 -0.0297702346504816  0.7901149867077962  0.7942258601286272
  0.1694348947311680  0.1719767856444013  0.8465924512633827
  0.0518490943827208  0.8491337576655544  0.5298443779960487
  0.8089952766705916  0.9393631812961039  0.1994337685023839
  0.0336729755490992  0.4250801372912395  0.8281633723511567
  0.5200451894064164  0.5721309821726087  0.1711235335030911
  0.4430654316039511  0.9505766095032812  0.5131526761804730
  0.3496509827755384 -0.0171995184946877  0.1063454726783572
  0.6480814534884155  0.6596837495693616  0.8710099068565582
  0.0204724972714842  0.3810145135331789  0.4321205188706893
 
             NaN             NaN             NaN
             NaN             NaN             NaN
             NaN             NaN             NaN
             NaN             NaN             NaN
             NaN             NaN             NaN
             NaN             NaN             NaN
             NaN             NaN             NaN
             NaN             NaN             NaN
             NaN             NaN             NaN
             NaN             NaN             NaN
             NaN             NaN             NaN
             NaN             NaN             NaN
             NaN             NaN             NaN
             NaN             NaN             NaN
             NaN             NaN             NaN
             NaN             NaN             NaN
             NaN             NaN             NaN
             NaN             NaN             NaN
             NaN             NaN             NaN
             NaN             NaN             NaN
             NaN             NaN             NaN
             NaN             NaN             NaN
             NaN             NaN             NaN
             NaN             NaN             NaN
             NaN             NaN             NaN
             NaN             NaN             NaN
             NaN             NaN             NaN
             NaN             NaN             NaN
             NaN             NaN             NaN
             NaN             NaN             NaN
             NaN             NaN             NaN
             NaN             NaN             NaN
             NaN             NaN             NaN
             NaN             NaN             NaN
             NaN             NaN             NaN
             NaN             NaN             NaN
             NaN             NaN             NaN
             NaN             NaN             NaN
             NaN             NaN             NaN
             NaN             NaN             NaN
             NaN             NaN             NaN
             NaN             NaN             NaN
             NaN             NaN             NaN
             NaN             NaN             NaN
             NaN             NaN             NaN
             NaN             NaN             NaN
             NaN             NaN             NaN
             NaN             NaN             NaN
             NaN             NaN             NaN
             NaN             NaN             NaN
             NaN             NaN             NaN
             NaN             NaN             NaN
             NaN             NaN             NaN
             NaN             NaN             NaN
             NaN             NaN             NaN
             NaN             NaN             NaN
             NaN             NaN             NaN
             NaN             NaN             NaN
             NaN             NaN             NaN
             NaN             NaN             NaN
             NaN             NaN             NaN
             NaN             NaN             NaN
             NaN             NaN             NaN
