Ca9 Ti12 F42
1.0
7.373557 -0.000257 -0.079978
-3.645925 6.352227 0.024441
0.266129 -0.014328 18.726339
Ca Ti F
9 12 42
direct
1.108085 0.499349 0.337697 Ca
0.518006 0.346917 0.668593 Ca
0.166596 0.172021 0.002914 Ca
0.024122 0.834040 0.666036 Ca
0.838262 0.993623 0.329408 Ca
0.650901 0.153407 0.000492 Ca
0.028711 0.816845 0.159139 Ca
0.825357 0.002110 0.827414 Ca
0.183161 0.184893 0.494740 Ca
0.343821 0.996218 0.320087 Ti
0.016131 0.336047 0.657435 Ti
0.670359 0.667783 0.994996 Ti
0.356585 0.049692 0.830049 Ti
0.998651 0.316426 0.168370 Ti
0.712446 0.646824 0.497167 Ti
0.499014 0.816568 0.168099 Ti
0.147401 0.651686 0.493283 Ti
0.353207 0.487292 0.832099 Ti
0.796266 0.487357 0.832103 Ti
0.704455 0.208564 0.494986 Ti
0.497985 0.311677 0.170572 Ti
0.721187 0.207327 0.608401 F
0.801891 0.494760 0.946059 F
0.487292 0.295355 0.280101 F
0.202255 0.723225 0.383791 F
0.559451 0.834004 0.058706 F
0.285933 0.448612 0.720895 F
0.827922 -0.005758 0.950668 F
0.040129 0.856185 0.277730 F
0.181926 0.178344 0.615992 F
0.963467 0.831236 0.044249 F
0.893898 0.049506 0.712330 F
0.183458 0.130509 0.378578 F
0.520867 0.352809 0.053371 F
0.636038 0.131594 0.381964 F
0.855738 0.484653 0.715534 F
0.359438 0.497048 0.948442 F
0.150121 0.634838 0.608606 F
0.496531 0.831541 0.281012 F
0.817648 0.455036 0.187569 F
0.523657 0.338083 0.530998 F
0.661647 0.174238 0.866781 F
0.438515 0.806583 0.816598 F
0.385876 0.561021 0.477840 F
0.191885 0.628683 0.141675 F
1.014959 0.317754 0.279125 F
0.701023 0.665436 0.611181 F
0.334729 0.019265 0.943309 F
0.342075 0.026375 0.718444 F
0.700734 0.675272 0.384976 F
0.958630 0.285223 0.059660 F
0.185404 0.182885 0.137982 F
0.802739 0.979921 0.477890 F
0.018779 0.810658 0.803416 F
0.170385 0.173719 0.863405 F
0.022351 0.836172 0.529139 F
0.817256 0.989545 0.195040 F
0.036713 0.416336 0.828248 F
0.601057 0.613704 0.153913 F
0.400482 0.957325 0.501591 F
0.398023 0.014082 0.137391 F
0.663127 0.664742 0.868472 F
0.006953 0.345271 0.488300 F
