Ca1 Fe4 P6 O24
1.0
2.726850 6.859779 4.669510
0.446947 0.316267 8.717399
7.375557 0.318469 4.668459
Ca Fe P O
1 4 6 24
direct
0.497648 0.497658 0.497664 Ca
0.643737 0.643736 0.643736 Fe
0.149514 0.149523 0.149515 Fe
0.845150 0.845148 0.845144 Fe
0.351119 0.351118 0.351120 Fe
0.236267 0.537734 0.961356 P
0.033894 0.758372 0.457307 P
0.961359 0.236265 0.537735 P
0.457310 0.033890 0.758372 P
0.537740 0.961353 0.236268 P
0.758367 0.457313 0.033895 P
0.616458 0.748403 0.377013 O
0.320406 0.006820 0.980760 O
0.377000 0.616462 0.748402 O
0.980751 0.320415 0.006807 O
0.748409 0.377005 0.616459 O
0.006829 0.980761 0.320421 O
0.987930 0.014070 0.674841 O
0.618030 0.378493 0.246990 O
0.674849 0.987942 0.014068 O
0.246986 0.618029 0.378489 O
0.014081 0.674839 0.987939 O
0.378496 0.246982 0.618030 O
0.284178 0.325598 0.979866 O
0.876534 0.719675 0.475463 O
0.979884 0.284195 0.325588 O
0.475464 0.876538 0.719661 O
0.325605 0.979861 0.284204 O
0.719653 0.475482 0.876538 O
0.274933 0.519839 0.118644 O
0.015304 0.710548 0.669453 O
0.118636 0.274927 0.519863 O
0.669452 0.015314 0.710549 O
0.519867 0.118630 0.274937 O
0.710561 0.669461 0.015304 O
