Ca8 Cr12 F42                            
   1.00000000000000     
     7.3977539999999999   -0.0183140000000000   -0.5008530000000000
    -3.6005360000000000    6.6923680000000001    0.1880330000000000
     0.9633250000000000    0.1183410000000000   18.5923410000000011
   Ca   Cr   F 
     8    12    42
Direct
  0.6242395428520656  0.8704097190564087  0.7609766288998528
  0.8467749602837001  0.5157010822018484  0.3137886545562129
  0.5746168326612089  0.0697703005407675  0.9907029606998013
  0.0632337476923870  0.8610533202315207  0.6656468879076216
  0.8400735368015375  0.0087016989718802  0.3460055522254875
  0.0866234470056537  0.5786493728783857  0.9785411101180995
  0.9892500070356045  0.8508891539591723  0.1509728702397807
  0.2808694686046137  0.2529505782429362  0.5019522857560802
  0.3474516292341661  0.0147820895787856  0.3437608921339241
  1.0259748173723020  0.3318176166706758  0.6614402438322347
  0.6097851806747686  0.5923866165824623  0.9969385563185305
  0.2975844690068514  0.9563703647898733  0.8324102947269926
  0.9327801743482569  0.3045148369986185  0.1590530347672281
  0.7385427076740247  0.7183267640115305  0.5043876898248904
  0.4396991093693654  0.8045284809470704  0.1722997998989644
  0.2204967749889318  0.7189565876459660  0.4982101467868592
  0.2982489200849787  0.4483313029828077  0.8323061612554998
  0.8068350845152679  0.4623827245672100  0.8157822905006781
  0.7487761635808200  0.2234031693719541  0.5007762121252496
  0.4447185543152171  0.3172606097132558  0.1678677322751780
  0.7674329358777034  0.1849820214243411  0.6035540332331396
  0.7688002858920359  0.4770489579373651  0.9208918566503447
  0.5022741640257913  0.2731842716406029  0.2947496679386656
  0.1778295454688619  0.7395865150103855  0.3885098899854870
  0.3542897036550051  0.7738544089791662  0.0503273107326477
  0.2660986699977172  0.4747138526865063  0.7257106874495926
  0.6935280948820751  0.8602756452564114  0.9598408888658404
  0.9306957006460107  0.8314962533735966  0.2689085490408593
  0.1700466948766373  0.1872362257467957  0.6138608104453519
  0.8886232797723116  0.6932842616371209  0.0458946816230412
  0.9239719420976056  1.0390413953342117  0.7228310347519472
  0.1767376251080338  0.1258381959205391  0.3874809611708159
  0.5135522113177304  0.3196324524064243  0.0383037549366755
  0.7705347163917736  0.2675632455015380  0.3956490271178776
  0.8875844748123601  0.4715953764300515  0.7115380396319154
  0.3387635061986615  0.4843185411506646  0.9438943895425630
  0.2083003196024236  0.7004269522185921  0.6032835542341710
  0.5216633216695120  0.9149106456903103  0.3019993869904994
  0.7528237555422479  0.4324363391618051  0.1788621009120367
  0.6451381453668923  0.4237413532554382  0.5189009421130482
  0.5936977901480512  0.1005151972021775  0.8575405511464952
  0.3577610354855781  0.7280717440406381  0.8373376141008106
  0.4295950557554079  0.6132025253519948  0.4912925752389653
  0.1437754859533341  0.6634591408057512  0.1957889408415916
  0.9402098056994975  0.2795816659209469  0.2655285995054017
  0.7506538807062926  0.7514110569567344  0.6080271426368598
  0.2420975823507868  0.9062031632324267  0.9352107824600662
  0.3833059666843220 -0.0231754705761152  0.7304732343264118
  0.7522975948305516  0.6838434240906788  0.3983820496691209
  0.9001340031425868  0.3041747838146028  0.0514447690987470
  0.1401038014826024  0.2037615969263417  0.1504955382848012
  0.7968035821773167 -0.0057113294306597  0.4729257047740489
  0.0220868928739504  0.7906071950470938  0.7969923616729523
  0.2457180625137244  0.1790435753943687  0.8354069710891947
  0.0518494667770570  0.8592076478277518  0.5139790374463566
  0.7327490632858887  0.9493353229886293  0.1438914658840553
  0.0101033323426788  0.3843945453501738  0.8567736643157067
  0.4920404803219744  0.5811350044369074  0.1968729708173248
  0.4475273633226560  0.0503159858876110  0.4889438655234291
  0.3733347323101088  0.0321814393898466  0.1526118415456695
  0.6043838366176486  0.5688367413812633  0.7994682395397191
  0.0495872686345681  0.3800529950646255  0.5011306641500158
 
             NaN             NaN             NaN
             NaN             NaN             NaN
             NaN             NaN             NaN
             NaN             NaN             NaN
             NaN             NaN             NaN
             NaN             NaN             NaN
             NaN             NaN             NaN
             NaN             NaN             NaN
             NaN             NaN             NaN
             NaN             NaN             NaN
             NaN             NaN             NaN
             NaN             NaN             NaN
             NaN             NaN             NaN
             NaN             NaN             NaN
             NaN             NaN             NaN
             NaN             NaN             NaN
             NaN             NaN             NaN
             NaN             NaN             NaN
             NaN             NaN             NaN
             NaN             NaN             NaN
             NaN             NaN             NaN
             NaN             NaN             NaN
             NaN             NaN             NaN
             NaN             NaN             NaN
             NaN             NaN             NaN
             NaN             NaN             NaN
             NaN             NaN             NaN
             NaN             NaN             NaN
             NaN             NaN             NaN
             NaN             NaN             NaN
             NaN             NaN             NaN
             NaN             NaN             NaN
             NaN             NaN             NaN
             NaN             NaN             NaN
             NaN             NaN             NaN
             NaN             NaN             NaN
             NaN             NaN             NaN
             NaN             NaN             NaN
             NaN             NaN             NaN
             NaN             NaN             NaN
             NaN             NaN             NaN
             NaN             NaN             NaN
             NaN             NaN             NaN
             NaN             NaN             NaN
             NaN             NaN             NaN
             NaN             NaN             NaN
             NaN             NaN             NaN
             NaN             NaN             NaN
             NaN             NaN             NaN
             NaN             NaN             NaN
             NaN             NaN             NaN
             NaN             NaN             NaN
             NaN             NaN             NaN
             NaN             NaN             NaN
             NaN             NaN             NaN
             NaN             NaN             NaN
             NaN             NaN             NaN
             NaN             NaN             NaN
             NaN             NaN             NaN
             NaN             NaN             NaN
             NaN             NaN             NaN
             NaN             NaN             NaN
