Ca8 Cr12 F42
1.0
7.397754 -0.018314 -0.500853
-3.600536 6.692368 0.188033
0.963325 0.118341 18.592341
Ca Cr F
8 12 42
direct
0.662877 0.860448 0.762160 Ca
0.837726 0.514476 0.315387 Ca
0.580522 0.080497 -0.002495 Ca
0.038385 0.846619 0.671355 Ca
0.833667 0.008559 0.345760 Ca
0.106822 0.583735 0.978961 Ca
0.994725 0.858128 0.152889 Ca
0.247075 0.227490 0.502646 Ca
0.336391 0.005730 0.341001 Cr
0.986085 0.284415 0.666207 Cr
0.636765 0.619138 0.996167 Cr
0.323714 0.977180 0.830042 Cr
0.941327 0.314027 0.160260 Cr
0.719204 0.699885 0.502873 Cr
0.448925 0.813545 0.172285 Cr
0.210680 0.704255 0.499064 Cr
0.320578 0.465421 0.826716 Cr
0.815328 0.460373 0.818386 Cr
0.726025 0.203980 0.501712 Cr
0.452715 0.325383 0.167694 Cr
0.729030 0.144761 0.604731 F
0.815729 0.544458 0.918095 F
0.495505 0.265357 0.292123 F
0.159233 0.727567 0.381197 F
0.375523 0.768838 0.051028 F
0.241271 0.441109 0.722422 F
0.730936 0.896828 0.962651 F
0.926553 0.833001 0.269186 F
0.129219 0.153284 0.613623 F
0.910146 0.707944 0.046899 F
0.867398 -0.009655 0.726833 F
0.170275 0.121094 0.385836 F
0.529743 0.342705 0.033934 F
0.760672 0.262962 0.397000 F
0.859403 0.430694 0.714683 F
0.379152 0.525113 0.936307 F
0.218189 0.724255 0.609699 F
0.516752 0.911832 0.299340 F
0.760781 0.443484 0.178728 F
0.608218 0.386050 0.517905 F
0.606793 0.171342 0.866912 F
0.435675 0.787713 0.815858 F
0.412652 0.593024 0.491755 F
0.153598 0.676310 0.194466 F
0.938434 0.283322 0.266785 F
0.727073 0.726539 0.606724 F
0.277090 0.897525 0.931634 F
0.360991 0.038597 0.730188 F
0.733169 0.680247 0.396215 F
0.910326 0.314020 0.051800 F
0.147346 0.209458 0.152335 F
0.815839 1.008008 0.473744 F
0.042115 0.766181 0.798049 F
0.205629 0.153801 0.847023 F
0.025082 0.825163 0.512062 F
0.740475 0.956491 0.142681 F
0.041350 0.412943 0.859514 F
0.495669 0.587174 0.198663 F
0.422102 0.014474 0.483153 F
0.390231 0.043657 0.143883 F
0.605321 0.543845 0.795928 F
0.030078 0.388717 0.511183 F
