Na2 Ca2 V4 P4 S2 O24                    
   1.00000000000000     
     8.8737857673709915    0.2218871898116604    0.1189922659877063
     4.3341367261057853    7.7920434350352279    0.1521959752579427
     4.2855080778912678    2.6332628486300287    7.3143284787884335
   Ca   Na   V    P    S    O 
     2     2     4     4     2    24
Direct
   0.7053662658830433    0.3011147237402909    0.5681151247848604 Ca
  0.0201880321753245  0.9763874441173805  0.0047234502985379
  0.7451279111850213  0.3956178542651387  0.1070269537708275
  0.6070289140499894  0.8956505415108946  0.2453101210914732
  0.3545011086064528  0.3583441994801108  0.3497318138227352
  0.6426994358618713  0.6517678138859666  0.6437825799136940
  0.1438310590051771  0.1518209408747304  0.1425190142997521
  0.8496118227084127  0.8583743423956700  0.8546298750150706
  0.9518628685327396  0.5388117840750679  0.2503879178405835
  0.7504040551425774  0.0388714653489847  0.4519485664211533
  0.4593933010496928  0.7559670540271192  0.0467808246667061
  0.5467651373001654  0.2559624594984386  0.9592630648804179
  0.0443407535046817  0.4595824623168790  0.7433736274639176
  0.2434701492750269  0.9595166430826435  0.5444377351747537
  0.2271751990187599  0.4330965589077363  0.5930519850185244
  0.7604301780774170  0.5718699155295277  0.4099012535000746
  0.5870552511008668  0.2305172181593559  0.4342026618734685
  0.4050694488040009  0.7783313570869608  0.5546571201822350
  0.4383976658264991  0.5880048801187747  0.2335693541581359
  0.5623140760064764  0.4208026565563441  0.7736629447419474
  0.9100056337214412  0.0717435152141473  0.2605421469764330
  0.0929586460582004  0.9330432294415419  0.7271610578048057
  0.0543784564645061  0.2784551981037446  0.9050809402249498
  0.9343043376239306  0.7304553669853585  0.0870271687031345
  0.2738051245026561  0.9208782987720044  0.0619237487350290
  0.7335161467174535  0.0879309163014629  0.9385154715457340
  0.5289425358467519  0.3003143816316308  0.1160447893917792
  0.5089906823994028  0.7040901983442898  0.8834925491107540
  0.1147910708328299  0.4910926648627341  0.3016353211033747
  0.8968123711171099  0.4964767596901077  0.6858298113973448
  0.3005561909998860  0.1044221185530639  0.5123258674321483
  0.6968418949122144  0.8898879978980988  0.4689281469055078
  0.3834371467569823  0.2044871420286098  0.0082158278801293
  0.6159710057041613  0.8003924696601394  0.0292294532293604
  0.1863845063091332  0.9965819718820887  0.3965427043027430
  0.8014395698253520  0.9914141164276684  0.6149220408062540
  0.9687598297923665  0.3898415872667181  0.1968592559610114
  0.0118434982710751  0.6046160859555287  0.8004510832766989
 
  0.00000000E+00  0.00000000E+00  0.00000000E+00
  0.00000000E+00  0.00000000E+00  0.00000000E+00
  0.00000000E+00  0.00000000E+00  0.00000000E+00
  0.00000000E+00  0.00000000E+00  0.00000000E+00
  0.00000000E+00  0.00000000E+00  0.00000000E+00
  0.00000000E+00  0.00000000E+00  0.00000000E+00
  0.00000000E+00  0.00000000E+00  0.00000000E+00
  0.00000000E+00  0.00000000E+00  0.00000000E+00
  0.00000000E+00  0.00000000E+00  0.00000000E+00
  0.00000000E+00  0.00000000E+00  0.00000000E+00
  0.00000000E+00  0.00000000E+00  0.00000000E+00
  0.00000000E+00  0.00000000E+00  0.00000000E+00
  0.00000000E+00  0.00000000E+00  0.00000000E+00
  0.00000000E+00  0.00000000E+00  0.00000000E+00
  0.00000000E+00  0.00000000E+00  0.00000000E+00
  0.00000000E+00  0.00000000E+00  0.00000000E+00
  0.00000000E+00  0.00000000E+00  0.00000000E+00
  0.00000000E+00  0.00000000E+00  0.00000000E+00
  0.00000000E+00  0.00000000E+00  0.00000000E+00
  0.00000000E+00  0.00000000E+00  0.00000000E+00
  0.00000000E+00  0.00000000E+00  0.00000000E+00
  0.00000000E+00  0.00000000E+00  0.00000000E+00
  0.00000000E+00  0.00000000E+00  0.00000000E+00
  0.00000000E+00  0.00000000E+00  0.00000000E+00
  0.00000000E+00  0.00000000E+00  0.00000000E+00
  0.00000000E+00  0.00000000E+00  0.00000000E+00
  0.00000000E+00  0.00000000E+00  0.00000000E+00
  0.00000000E+00  0.00000000E+00  0.00000000E+00
  0.00000000E+00  0.00000000E+00  0.00000000E+00
  0.00000000E+00  0.00000000E+00  0.00000000E+00
  0.00000000E+00  0.00000000E+00  0.00000000E+00
  0.00000000E+00  0.00000000E+00  0.00000000E+00
  0.00000000E+00  0.00000000E+00  0.00000000E+00
  0.00000000E+00  0.00000000E+00  0.00000000E+00
  0.00000000E+00  0.00000000E+00  0.00000000E+00
  0.00000000E+00  0.00000000E+00  0.00000000E+00
  0.00000000E+00  0.00000000E+00  0.00000000E+00
  0.00000000E+00  0.00000000E+00  0.00000000E+00
