Ca1 Cr12 F42                            
   1.00000000000000     
     7.2524369999999996   -0.0306670000000000   -0.0163350000000000
    -3.6031270000000002    6.2697079999999996    0.0121690000000000
     0.0392280000000000    0.0842160000000000   17.3442210000000010
   Ca   Cr   F 
     1    12    42
Direct
  0.8529285725036388  0.0034757816229972  0.3316802469941272
  0.3068186219975360  0.0084350042905137  0.3330336407645565
  0.7087182754857015  0.7096860107509695  0.9990741173345891
  0.0064121755203686  0.3078684889657787  0.6673272891152191
  0.3604682557713957  0.0082151543844839  0.8332921511205520
  0.6554177669607760  0.6715367650305418  0.5017261586247920
  0.9997518452134735  0.3485762434947838  0.1653348804537186
  0.6548182840962008  0.1727407785871450  0.5031491796479697
  0.5021826288878813  0.3505227448104439  0.1647654983210723
  0.8599657336044358  0.5108944371197073  0.8335907488555169
  0.3573446038580235  0.5055915205904069  0.8330388266998233
  0.1556417579714933  0.6688171390640186  0.5021940535002328
  0.4979685638988919  0.8469052114804135  0.1640436354513007
  0.5498437288141994  0.8098818817736125  0.0595250238093613
  0.2643566189429426  0.4486914396491108  0.7276496713424107
  0.1894806728351078  0.7535886784620102  0.3954197696722910
  0.4416400696343046  0.2638760126899625  0.2708184524293769
  0.8311688714338009  0.5749738966962090  0.9386729687026736
  0.7459749627788187  0.2003372386353629  0.6073568877595981
  0.8903433758503783  0.0880114089884026  0.7287610892495718
  0.1702788964524355  0.1163218646438572  0.3928398379900376
  0.9206404953316868  0.8123429468043472  0.0636633765999072
  0.1210649529320857  0.2138741988646982  0.6016022362789554
  0.0646659462175717  0.8934764586399739  0.2715738916998729
  0.8037951420905416  0.9279705264390408  0.9371025684838128
  0.1234891534967091  0.5747536592083390  0.6065961766581054
  0.4689897717231083  0.8963782611373670  0.2733984808845188
  0.4486375968561926  0.5615378742725043  0.9379851032273776
  0.8875554511458223  0.4470879318628327  0.7290827016990544
  0.5749593960332099  0.1323886956453658  0.3944832144543544
  0.5698890693913408  0.4447534164241761  0.0605778182647031
  0.3633449636626302  0.5850991907863279  0.4820089687618558
  0.2010464785040794  0.6465764252171213  0.1570633406129165
  0.4469898916666228  0.8018774188738313  0.8158532526711176
  0.6518243296558296  0.2166557422172678  0.8536564027748650
  0.5617882992282888  0.3749832739846897  0.5148982585008594
  0.7912429863361825  0.4298910590152080  0.1873872744946772
  0.7015777155621326  0.6753927848399041  0.3941605598901838
  0.9397799264218886  0.3249067874169185  0.0660066612948567
  0.3973309438451271  0.0766923292657773  0.7344484715301148
  0.3215668281978775  0.9398648637763071  0.9321257236506776
  0.6260390820701808  0.7057324208827610  0.6007608975205996
  0.0376410066031008  0.3349988920629427  0.2727304247806103
  0.9490809914564883  0.7556024293155688  0.5175981258357730
  0.7953264050693153  0.0446733352715115  0.1834272321068073
  0.2688761295295827  0.2113111250750077  0.8504037757367313
  0.0672302073395310  0.8029887670191941  0.8132910954203414
  0.7496988854211999  0.9728704604857588  0.4795303719606109
  0.2111099686272230  0.2680731290196660  0.1470243874893773
  0.6374092326931277  0.5662972357911300  0.8016499290055442
  0.9338426134571300  0.3900276065334370  0.4689041274243564
  0.4420519588390758  0.0702493750567918  0.1340334085665146
  0.3752374026501844  0.9489658839299462  0.5330376954897889
  0.5607757699279032  0.6302955445115512  0.1983517321349008
  0.0794464844573769  0.4501878465640807  0.8649818266160989
 
             NaN             NaN             NaN
             NaN             NaN             NaN
             NaN             NaN             NaN
             NaN             NaN             NaN
             NaN             NaN             NaN
             NaN             NaN             NaN
             NaN             NaN             NaN
             NaN             NaN             NaN
             NaN             NaN             NaN
             NaN             NaN             NaN
             NaN             NaN             NaN
             NaN             NaN             NaN
             NaN             NaN             NaN
             NaN             NaN             NaN
             NaN             NaN             NaN
             NaN             NaN             NaN
             NaN             NaN             NaN
             NaN             NaN             NaN
             NaN             NaN             NaN
             NaN             NaN             NaN
             NaN             NaN             NaN
             NaN             NaN             NaN
             NaN             NaN             NaN
             NaN             NaN             NaN
             NaN             NaN             NaN
             NaN             NaN             NaN
             NaN             NaN             NaN
             NaN             NaN             NaN
             NaN             NaN             NaN
             NaN             NaN             NaN
             NaN             NaN             NaN
             NaN             NaN             NaN
             NaN             NaN             NaN
             NaN             NaN             NaN
             NaN             NaN             NaN
             NaN             NaN             NaN
             NaN             NaN             NaN
             NaN             NaN             NaN
             NaN             NaN             NaN
             NaN             NaN             NaN
             NaN             NaN             NaN
             NaN             NaN             NaN
             NaN             NaN             NaN
             NaN             NaN             NaN
             NaN             NaN             NaN
             NaN             NaN             NaN
             NaN             NaN             NaN
             NaN             NaN             NaN
             NaN             NaN             NaN
             NaN             NaN             NaN
             NaN             NaN             NaN
             NaN             NaN             NaN
             NaN             NaN             NaN
             NaN             NaN             NaN
             NaN             NaN             NaN
