Ca1 Cr12 F42                            
   1.00000000000000     
     7.2524369999999996   -0.0306670000000000   -0.0163350000000000
    -3.6031270000000002    6.2697079999999996    0.0121690000000000
     0.0392280000000000    0.0842160000000000   17.3442210000000010
   Ca   Cr   F 
     1    12    42
Direct
 -0.1267333260563520  0.0437857231780975  0.3455557902799217
  0.3054543831637124  0.0148935445684250  0.3373117112620660
  0.7126845100965872  0.7122100589515455  0.9955253587565331
  0.0073219841086925  0.2985414530479086  0.6652130689610039
  0.3607953598720218  1.0029364535628176  0.8285934388007383
  0.6516867627461350  0.6695329926936706  0.5059294438691725
  0.9982408525629966  0.3499282413473431  0.1633070435396244
  0.6506852925426360  0.1714091527095286  0.5061051772730073
  0.5011941956153487  0.3525586009590787  0.1641151337826882
  0.8600026985337965  0.5049432624758868  0.8300024517170209
  0.3590899080008637  0.5011464528968200  0.8292050092897355
  0.1525340703015473  0.6685843472262567  0.5054659843436567
  0.4978476881866505  0.8496588921182818  0.1643436610403938
  0.5662265856454549  0.8218922391581553  0.0587573574288285
  0.2655445546346994  0.4417931311650693  0.7234425685722411
  0.1850202301622126  0.7594866938818170  0.4011188945384182
  0.4415317295666457  0.2636538690701263  0.2723208700431257
  0.8326116825004130  0.5735720805941603  0.9338498654395138
  0.7431987474485979  0.1875955597425059  0.6085017156317947
  0.8953420969723065  0.0758492192837888  0.7250177615278540
  0.1903792994822326  0.1393687895054457  0.4024232036779218
  0.9260446556655820  0.8120944554452375  0.0589006716038075
  0.1233682622330451  0.2111516996135581  0.5973843454709866
  0.0527281635149947  0.9088048587505551  0.2834079537502013
  0.8086215207709163  0.9264771754817546  0.9313976531878985
  0.1195431828986269  0.5689516376769232  0.6081368162413042
  0.4439848034998292  0.8870028530841417  0.2745739356008860
  0.4523690962565176  0.5637515516297797  0.9334533737645953
  0.8832722057276092  0.4327282694621729  0.7260466317028510
  0.5776596212773298  0.1345694380189024  0.3974851175028242
  0.5692912281401249  0.4483476065350475  0.0586238528299397
  0.3619700521094478  0.5855848473738035  0.4855159481608058
  0.2033464884414236  0.6482426753969524  0.1464723086275387
  0.4476546614228874  0.7973003788186924  0.8103365002158998
  0.6509652005479227  0.2113831927733467  0.8508886294528141
  0.5643316819760669  0.3762129619664908  0.5228804769740628
  0.7926398122663249  0.4386019291594074  0.1861600481496359
  0.7051315660141625  0.6708054100591113  0.4000695828888628
  0.9274717945228360  0.3099741646767409  0.0646759691582586
  0.3995916401223024  0.0758965066336785  0.7302142026909184
  0.3174690445059758  0.9297840405267008  0.9271910858414266
  0.6224916745025473  0.7142911558929114  0.6045365793085907
  0.0501884402298809  0.3568538885665665  0.2744396877734271
  0.9448126469332055  0.7527935137926627  0.5230565624113438
  0.7898061484937585  0.0504836391836959  0.1922900288723034
  0.2706673597273496  0.2067499138771836  0.8470024965147470
  0.0680751510700333  0.7956653767496908  0.8069947249891909
  0.7442012785586357  0.9703270008622841  0.4815719884729192
  0.2081139320717246  0.2638604259919418  0.1458943629868491
  0.6383054179647625  0.5607866988625908  0.7969584522780765
  0.9307536320869915  0.3882056114197234  0.4719431411422304
  0.4422639554501787  0.0729935985329104  0.1327855394190636
  0.3723038380946527  0.9480629322176852  0.5360842912744999
  0.5570021838521535  0.6303425344029642  0.1986608370397231
  0.0806906076066397  0.4453698600023628  0.8605749748548798
 
             NaN             NaN             NaN
             NaN             NaN             NaN
             NaN             NaN             NaN
             NaN             NaN             NaN
             NaN             NaN             NaN
             NaN             NaN             NaN
             NaN             NaN             NaN
             NaN             NaN             NaN
             NaN             NaN             NaN
             NaN             NaN             NaN
             NaN             NaN             NaN
             NaN             NaN             NaN
             NaN             NaN             NaN
             NaN             NaN             NaN
             NaN             NaN             NaN
             NaN             NaN             NaN
             NaN             NaN             NaN
             NaN             NaN             NaN
             NaN             NaN             NaN
             NaN             NaN             NaN
             NaN             NaN             NaN
             NaN             NaN             NaN
             NaN             NaN             NaN
             NaN             NaN             NaN
             NaN             NaN             NaN
             NaN             NaN             NaN
             NaN             NaN             NaN
             NaN             NaN             NaN
             NaN             NaN             NaN
             NaN             NaN             NaN
             NaN             NaN             NaN
             NaN             NaN             NaN
             NaN             NaN             NaN
             NaN             NaN             NaN
             NaN             NaN             NaN
             NaN             NaN             NaN
             NaN             NaN             NaN
             NaN             NaN             NaN
             NaN             NaN             NaN
             NaN             NaN             NaN
             NaN             NaN             NaN
             NaN             NaN             NaN
             NaN             NaN             NaN
             NaN             NaN             NaN
             NaN             NaN             NaN
             NaN             NaN             NaN
             NaN             NaN             NaN
             NaN             NaN             NaN
             NaN             NaN             NaN
             NaN             NaN             NaN
             NaN             NaN             NaN
             NaN             NaN             NaN
             NaN             NaN             NaN
             NaN             NaN             NaN
             NaN             NaN             NaN
