Ca3 V8 F24                              
   1.00000000000000     
     7.8702319999999997    0.0001410000000000    0.0000150000000000
     0.0001260000000000    8.1133030000000002    0.0001400000000000
     0.0000120000000000    0.0001590000000000    7.9622780000000004
   Ca   V    F 
     3     8    24
Direct
  0.4999237902346452  0.7676117258412041  0.4999973967624444
 -0.0000027179753328  0.4859743492152040  0.5000124323627847
  0.5000940417534255  0.0028845888052307  1.0000026296470781
  0.2508443727927908  0.2488521114860070  0.2497552164539191
  0.2508350592808417  0.2488303305014761  0.7501600050255884
  0.2362892342775797  0.7475076162651004  0.2381475388736665
  0.2364704185679623  0.7473995601266172  0.7619215754371964
  0.7492323653431208  0.2489091053336268  0.2497951404695570
  0.7492017997867272  0.2488677793437118  0.7501539931857608
  0.7634604511233323  0.7474094030450721  0.2381484022470816
  0.7635252800198380  0.7474093048127114  0.7618930958341382
  1.0000267094492197  0.2064880805794678  0.2219087069604471
  0.0000091350087237  0.2064175075105601  0.7779894594943806
 -0.0001123136206989  0.8186101772826545  0.2654804939409405
  0.9998815503079721  0.8183788663989401  0.7346055913708636
  0.5000211970919632  0.3000445310580778  0.2838892769869008
  0.5000152701725340  0.2999605751544762  0.7160207448630848
  0.5002680855696636  0.6883929532720883  0.2334257367766508
  0.5001222714236986  0.6884287888376065  0.7666987580225577
  0.3053919040207845  0.2193852781469884  0.9999584083288002
  0.2009769537422429  0.2766701235159274  0.4999691758074212
  0.2705851961894436  0.8058305523950705  1.0001353527243548
  0.2262372974885038  0.7014916154081764  0.5000645847636218
  0.6946144552909859  0.2193991972102180 -0.0000305582679641
  0.7990596366774503  0.2765737045243523  0.4999861533599520
  0.7295669518087607  0.8058476120477854  0.0000097115190282
  0.7737083693840868  0.7015147764971346  0.5000371185005485
  0.3221128036637766  0.9951824206720703  0.2600755939525312
  0.3220731805072427  0.9952365601913830  0.7398440653106596
  0.1818779130274369  0.4987743518701895  0.2513257329436326
  0.1818963336779169  0.4986644175988744  0.7486332074273299
  0.6779129549840560  0.9953053458113227  0.2600517548476855
  0.6779024626818613  0.9952072901301675  0.7399292273439905
  0.8181010194513714  0.4987598413585325  0.2514590647369242
  0.8180542194626123  0.4987338852853507  0.7485341314027588
 
             NaN             NaN             NaN
             NaN             NaN             NaN
             NaN             NaN             NaN
             NaN             NaN             NaN
             NaN             NaN             NaN
             NaN             NaN             NaN
             NaN             NaN             NaN
             NaN             NaN             NaN
             NaN             NaN             NaN
             NaN             NaN             NaN
             NaN             NaN             NaN
             NaN             NaN             NaN
             NaN             NaN             NaN
             NaN             NaN             NaN
             NaN             NaN             NaN
             NaN             NaN             NaN
             NaN             NaN             NaN
             NaN             NaN             NaN
             NaN             NaN             NaN
             NaN             NaN             NaN
             NaN             NaN             NaN
             NaN             NaN             NaN
             NaN             NaN             NaN
             NaN             NaN             NaN
             NaN             NaN             NaN
             NaN             NaN             NaN
             NaN             NaN             NaN
             NaN             NaN             NaN
             NaN             NaN             NaN
             NaN             NaN             NaN
             NaN             NaN             NaN
             NaN             NaN             NaN
             NaN             NaN             NaN
             NaN             NaN             NaN
             NaN             NaN             NaN
