Ca3 V8 F24                              
   1.00000000000000     
     7.8702319999999997    0.0001410000000000    0.0000150000000000
     0.0001260000000000    8.1133030000000002    0.0001400000000000
     0.0000120000000000    0.0001590000000000    7.9622780000000004
   Ca   V    F 
     3     8    24
Direct
  0.4999664819712059  0.6913068966838180  0.5003370231559289
  0.0000129608616395  0.4848353226237087  0.5000045862374981
  0.4999463319052098  1.0011431075814161  0.9998848409909180
  0.2500219099218083  0.2477739259005850  0.2494476343795826
  0.2502836347704910  0.2478324842910596  0.7506243039401241
  0.2366965209780163  0.7535480070412999  0.2388486038459896
  0.2368705574892788  0.7539635302077310  0.7611999420122870
  0.7497087965886132  0.2477215011973425  0.2494226585225332
  0.7496913432587022  0.2477927013519343  0.7505874723813197
  0.7629315450356898  0.7535475035045472  0.2386400857313091
  0.7626896399026241  0.7538268020437082  0.7618035213266513
  0.9993386339703910  0.2083128754713570  0.2222744729487710
  1.0009466665471791  0.2083527837588944  0.7776408493126854
  1.0003356421649017  0.8217885795294227  0.2525182822079232
  0.9991462430898788  0.8218484242552185  0.7472797000473294
  0.5008142034058825  0.2990661526440627  0.2840159104063815
  0.4991123549054385  0.2990048813369533  0.7159595230577441
  0.5000500371098227  0.6977149588855415  0.2277366736383971
  0.5012846685480814  0.6976384057934477  0.7720127736684359
  0.3037625109090933  0.2177365917198239 -0.0003977201235089
  0.2015971783542472  0.2765597644517165  0.5003107657896461
  0.2737133731278235  0.8035509400538940  0.9999160752623982
  0.2172660448177015  0.7115959792172786  0.5003294902536354
  0.6962567968814505  0.2177135812247207  0.0004319471003724
  0.7984096318425249  0.2765640986664302  0.4995185441975667
  0.7262190213273415  0.8033707499661032  1.0011848740042157
  0.7830230792407342  0.7117676388134979  0.4988023559632186
  0.3181468087647273  0.9982768766961220  0.2561945998000869
  0.3181406193201141 -0.0016217683092475  0.7437582586835997
  0.1868293558478482  0.5005775251581628  0.2551652699792479
  0.1869184620044342  0.4998990243661723  0.7446465808234886
  0.6818847155468413 -0.0015137960722753  0.2561386359583150
  0.6819734559976575  0.9988021443209787  0.7435861848041734
  0.8131470616651723  0.5006705139779473  0.2554536708457629
  0.8130413665781810  0.4999885724805291  0.7447105277885340
 
             NaN             NaN             NaN
             NaN             NaN             NaN
             NaN             NaN             NaN
             NaN             NaN             NaN
             NaN             NaN             NaN
             NaN             NaN             NaN
             NaN             NaN             NaN
             NaN             NaN             NaN
             NaN             NaN             NaN
             NaN             NaN             NaN
             NaN             NaN             NaN
             NaN             NaN             NaN
             NaN             NaN             NaN
             NaN             NaN             NaN
             NaN             NaN             NaN
             NaN             NaN             NaN
             NaN             NaN             NaN
             NaN             NaN             NaN
             NaN             NaN             NaN
             NaN             NaN             NaN
             NaN             NaN             NaN
             NaN             NaN             NaN
             NaN             NaN             NaN
             NaN             NaN             NaN
             NaN             NaN             NaN
             NaN             NaN             NaN
             NaN             NaN             NaN
             NaN             NaN             NaN
             NaN             NaN             NaN
             NaN             NaN             NaN
             NaN             NaN             NaN
             NaN             NaN             NaN
             NaN             NaN             NaN
             NaN             NaN             NaN
             NaN             NaN             NaN
