Na24 Se8 Cl8
1.0
  10.8706436123967389    0.0000006559992290    0.0000001786060468
   0.0000006551838340   10.8706389443265827   -0.0000009870099654
   0.0000001737436900   -0.0000009913998146   10.8706406077428728
Na Cl Se
23 8 8
direct
   0.9999999668280345    0.2500000419963124    0.7499999772577247 Na
   0.9999999668280343    0.7500000419963121    0.2499999772577247 Na
   0.9999999668280346    0.2500000419963124    0.2499999772577247 Na
   0.4999999668280344    0.2500000419963122    0.2499999772577247 Na
   0.4999999668280343    0.2500000419963123    0.7499999772577246 Na
   0.4999999668280345    0.7500000419963119    0.2499999772577247 Na
   0.4999999668280345    0.7500000419963119    0.7499999772577247 Na
   0.2499999668271248    0.0000000313149957    0.2500000055347851 Na
   0.2499999668271248    0.0000000313149957    0.7500000055347850 Na
   0.2499999668271248    0.5000000313149956    0.2500000055347851 Na
   0.2499999668271248    0.5000000313149956    0.7500000055347851 Na
   0.7499999668271247    0.0000000313149957    0.2500000055347851 Na
   0.7499999668271247    0.0000000313149957    0.7500000055347852 Na
   0.7499999668271246    0.5000000313149956    0.2500000055347851 Na
   0.7499999668271246    0.5000000313149956    0.7500000055347850 Na
   0.2499999845579139    0.2500000779313236    0.0000000146051778 Na
   0.2499999845579138    0.2500000779313236    0.5000000146051777 Na
   0.2499999845579138    0.7500000779313235    0.0000000146051778 Na
   0.2499999845579139    0.7500000779313235    0.5000000146051777 Na
   0.7499999845579136    0.2500000779313237    0.0000000146051778 Na
   0.7499999845579136    0.2500000779313237    0.5000000146051778 Na
   0.7499999845579137    0.7500000779313234    0.0000000146051778 Na
   0.7499999845579137    0.7500000779313234    0.5000000146051778 Na
   0.0000001581909314    0.9999997805980232    0.4999999965021269 Cl
   0.0000001581909314    0.9999997805980231    0.9999999965021269 Cl
   0.0000001581909314    0.4999997805980234    0.4999999965021269 Cl
   0.0000001581909314    0.4999997805980234    0.9999999965021268 Cl
   0.5000001581909314    0.9999997805980233    0.4999999965021269 Cl
   0.5000001581909312    0.9999997805980232    0.9999999965021268 Cl
   0.5000001581909314    0.4999997805980233    0.4999999965021269 Cl
   0.5000001581909314    0.4999997805980233    0.9999999965021270 Cl
   0.2499999235959918    0.2500000681593446    0.2500000061001856 Se
   0.2499999235959918    0.2500000681593446    0.7500000061001855 Se
   0.2499999235959918    0.7500000681593445    0.2500000061001856 Se
   0.2499999235959918    0.7500000681593444    0.7500000061001857 Se
   0.7499999235959917    0.2500000681593446    0.2500000061001856 Se
   0.7499999235959915    0.2500000681593446    0.7500000061001857 Se
   0.7499999235959918    0.7500000681593443    0.2500000061001856 Se
   0.7499999235959918    0.7500000681593443    0.7500000061001856 Se
