Na2 Ca2 V4 P4 S2 O24                    
   1.00000000000000     
     8.8802299999999992    0.2376040000000000    0.1446650000000000
     4.3505209999999996    7.8241120000000004    0.1855240000000000
     4.3132169999999999    2.6681010000000001    7.3428829999999996
   Ca   Na   V    P    S    O 
     2     2     4     4     2    24
Direct
  0.5607057583677862  0.4114799015069813  0.5390679947608731
  0.0283982027890836  0.9689239192566398  0.0069350847491361
  0.7528534891674460  0.3938654250070235  0.0998335831743732
  0.6041474088471264  0.8748886573938623  0.2423763064624815
  0.3570478794712206  0.3592124142693192  0.3503504162007625
  0.6466481243906798  0.6491036897786338  0.6500170000988640
  0.1497792790316514  0.1490570602121707  0.1458957651614702
  0.8566337041136225  0.8592753228896691  0.8493447363292462
  0.9556516632947324  0.5362651588527754  0.2532157614025269
  0.7584359067011446  0.0361827276251101  0.4497770800804460
  0.4613872376655067  0.7536114295064499  0.0439935255697182
  0.5534248013264300  0.2492240537232673  0.9669662322378867
  0.0554721363679773  0.4582203461954831  0.7432675387483317
  0.2505992878118010  0.9594964219946767  0.5478937745210108
  0.2374602286276071  0.4337182255924066  0.5912759297218488
  0.7676400467468267  0.5655111505261725  0.4180385445115127
  0.5908736131099992  0.2222214044591690  0.4242964250997248
  0.4149711645347647  0.7832639749870565  0.5561320045851720
  0.4485214908452219  0.5811745366269906  0.2256970548658374
  0.5714682891138546  0.4162185534268644  0.7827277761985432
  0.9182004335742134  0.0677625405879938  0.2595547013922826
  0.0986547154647539  0.9287624538903725  0.7303024910308754
  0.0674487540447682  0.2770920856320115  0.9059297283091439
  0.9333841490774883  0.7269210248508766  0.0902691609026905
  0.2771292861344772  0.9179495904768439  0.0699491054247643
  0.7395732104491739  0.0823305521860606  0.9434718829795484
  0.5330740786429399  0.2908544245100244  0.1242964470882309
  0.4929541740040757  0.7155069082036664  0.8790213282822414
  0.1211241272228139  0.4925861988684893  0.2978251866904523
  0.9036577665753656  0.4921465931705932  0.6930273800054260
  0.2965344027217773  0.1102003269049749  0.5202955055397586
  0.7159463455937127  0.8756031892921093  0.4796903468715914
  0.3912145273274510  0.2004544115753319  0.0081799156699618
  0.6254240944496439  0.7943439164090265  0.0151608979345833
  0.1954538023154551 -0.0030524646724389  0.3988505871834337
  0.7960468333819446  1.0198344925016152  0.6091308416491754
  0.9676722022790362  0.3845485260342625  0.2078738124482483
  0.0205312469651913  0.6054638731142890  0.7977271398979594
 
             NaN             NaN             NaN
             NaN             NaN             NaN
             NaN             NaN             NaN
             NaN             NaN             NaN
             NaN             NaN             NaN
             NaN             NaN             NaN
             NaN             NaN             NaN
             NaN             NaN             NaN
             NaN             NaN             NaN
             NaN             NaN             NaN
             NaN             NaN             NaN
             NaN             NaN             NaN
             NaN             NaN             NaN
             NaN             NaN             NaN
             NaN             NaN             NaN
             NaN             NaN             NaN
             NaN             NaN             NaN
             NaN             NaN             NaN
             NaN             NaN             NaN
             NaN             NaN             NaN
             NaN             NaN             NaN
             NaN             NaN             NaN
             NaN             NaN             NaN
             NaN             NaN             NaN
             NaN             NaN             NaN
             NaN             NaN             NaN
             NaN             NaN             NaN
             NaN             NaN             NaN
             NaN             NaN             NaN
             NaN             NaN             NaN
             NaN             NaN             NaN
             NaN             NaN             NaN
             NaN             NaN             NaN
             NaN             NaN             NaN
             NaN             NaN             NaN
             NaN             NaN             NaN
             NaN             NaN             NaN
             NaN             NaN             NaN
