Na2 Ca2 V4 P4 S2 O24
1.0
8.880230 0.237604 0.144665
4.350521 7.824112 0.185524
4.313217 2.668101 7.342883
Ca Na V P S O
2 2 4 4 2 24
direct
0.579988 0.410594 0.538217 Ca
0.023968 0.975892 0.003209 Ca
0.748398 0.397739 0.107221 Na
0.602661 0.883466 0.243535 Na
0.358850 0.358436 0.350601 V
0.640398 0.653736 0.646814 V
0.145931 0.150965 0.144044 V
0.855371 0.853685 0.853129 V
0.955327 0.538300 0.252396 P
0.754090 0.036176 0.448976 P
0.458780 0.756811 0.042738 P
0.548905 0.254447 0.963745 P
0.046845 0.458989 0.744474 S
0.246231 0.961750 0.545449 S
0.224470 0.435590 0.590435 O
0.767905 0.568564 0.416569 O
0.591528 0.227856 0.434809 O
0.408243 0.783510 0.553864 O
0.440384 0.585864 0.224447 O
0.560302 0.423102 0.780557 O
0.913155 0.070295 0.258169 O
0.094446 0.933083 0.728043 O
0.059732 0.276774 0.905898 O
0.932695 0.729294 0.089446 O
0.275191 0.921807 0.064665 O
0.735967 0.090874 0.928725 O
0.538500 0.290052 0.120863 O
0.497428 0.717207 0.876783 O
0.122647 0.491265 0.295165 O
0.891463 0.497167 0.697439 O
0.298011 0.108871 0.516248 O
0.700624 0.887129 0.469010 O
0.385637 0.201896 0.015288 O
0.620550 0.795921 0.021377 O
0.188231 1.000867 0.397882 O
0.807321 0.991083 0.610087 O
0.965431 0.386128 0.208854 O
0.017434 0.601450 0.802315 O
