Ca1 Fe4 S6 O24                          
   1.00000000000000     
     7.6686670000000001    0.1822790000000000    4.6125920000000002
     2.6925279999999998    7.1832510000000003    4.6203430000000001
     0.2535880000000000    0.1898950000000000    8.9455190000000009
   Ca   Fe   S    O 
     1     4     6    24
Direct
  0.3791005204341497  0.6310651011243513  0.5094704907801691
  0.6522025472810725  0.6405479558349867  0.6574867707657229
  0.1414114069559111  0.1518369303310931  0.1421683366139700
  0.8425913237535426  0.8573056391859448  0.8471459050877157
  0.3505591825992988  0.3471851147904949  0.3563755484829570
  0.9609750871143559  0.2464233053553492  0.5336237938623335
  0.4542737584698938  0.0492577535980312  0.7487188102779720
  0.5406415743672869  0.9554556957976700  0.2517479542040119
  0.7379100596945085  0.4656708242554921  0.0516132958430560
  0.2492292747406403  0.5338152665403484  0.9603531168248676
  0.0298335622008140  0.7564807571480064  0.4453604923634001
  0.4010087007358735  0.5936103056050097  0.7720697109496057
  0.9275135125674709  0.3184516417325420  0.0357988520260394
  0.7734899789652474  0.3820874608290336  0.6070925706955933
  0.0065226771712756  0.9511100470267025  0.3094807472684005
  0.5980892371922738  0.7642197102082042  0.4001082294264458
  0.3077777396464653  0.0293154535330137  0.9418394573758212
  0.6872785096746370  0.9617264902458167  0.0643010869938354
  0.2274561396565738  0.6251939834326489  0.3730209379331842
  0.0665914741231700  0.6849489667352069  0.9498287114718159
  0.3840542658864809  0.2429716777389411  0.6126822912870046
  0.9781338539928364  0.0483308465871351  0.6676979990502775
  0.5950357520731883  0.4073967409703922  0.2431183411979091
  0.9825412545924844  0.2671005268072885  0.3467020786553023
  0.4933594156714537  0.9005536182178034  0.6919065185717345
  0.3580178180130635  0.9649154273436938  0.2684346216051668
  0.6837101007041370  0.4947713892836971  0.9050258402357860
  0.2639604958494750  0.3540981398541485  0.9732020329345225
  0.8924102197161415  0.6923780259688811  0.4758249561441905
  0.1143382010410885  0.2861865069927037  0.5117886684974443
  0.6302548618874438  0.0340849090249923  0.7446274373943212
  0.5116971745602601  0.1062123981214664  0.2967030905179444
  0.7349595140560813  0.6461890086817783  0.0252475131096380
  0.2868156369045760  0.5085237226314020  0.1144005572664395
  0.0205168488765652  0.7363591405980414  0.6289056331462490
 
             NaN             NaN             NaN
             NaN             NaN             NaN
             NaN             NaN             NaN
             NaN             NaN             NaN
             NaN             NaN             NaN
             NaN             NaN             NaN
             NaN             NaN             NaN
             NaN             NaN             NaN
             NaN             NaN             NaN
             NaN             NaN             NaN
             NaN             NaN             NaN
             NaN             NaN             NaN
             NaN             NaN             NaN
             NaN             NaN             NaN
             NaN             NaN             NaN
             NaN             NaN             NaN
             NaN             NaN             NaN
             NaN             NaN             NaN
             NaN             NaN             NaN
             NaN             NaN             NaN
             NaN             NaN             NaN
             NaN             NaN             NaN
             NaN             NaN             NaN
             NaN             NaN             NaN
             NaN             NaN             NaN
             NaN             NaN             NaN
             NaN             NaN             NaN
             NaN             NaN             NaN
             NaN             NaN             NaN
             NaN             NaN             NaN
             NaN             NaN             NaN
             NaN             NaN             NaN
             NaN             NaN             NaN
             NaN             NaN             NaN
             NaN             NaN             NaN
