Li24 Cl8 O8
1.0
   7.8166739999999999    0.0000000000000000    0.0000000000000004
   0.0000000000000012    7.8166739999999999    0.0000000000000004
   0.0000000000000000    0.0000000000000000    7.8166739999999999
Li Cl O
23 8 8
direct
   0.7500000000000001    0.5000000000000000    0.7500000000000000 Li
   0.7500000000000001    0.5000000000000000    0.2500000000000000 Li
   0.2500000000000002    0.5000000000000000    0.2500000000000000 Li
   0.0000000000000000    0.2500000000000000    0.2500000000000000 Li
   0.0000000000000000    0.2500000000000000    0.7500000000000000 Li
   0.0000000000000000    0.7500000000000002    0.2500000000000000 Li
   0.0000000000000000    0.7500000000000002    0.7500000000000000 Li
   0.5000000000000002    0.2500000000000000    0.2500000000000000 Li
   0.5000000000000002    0.2500000000000000    0.7500000000000000 Li
   0.5000000000000000    0.7500000000000002    0.2500000000000000 Li
   0.5000000000000000    0.7500000000000002    0.7500000000000000 Li
   0.2500000000000000    0.0000000000000000    0.2500000000000000 Li
   0.2500000000000000    0.0000000000000000    0.7500000000000000 Li
   0.7500000000000002    0.0000000000000000    0.2500000000000000 Li
   0.7500000000000002    0.0000000000000000    0.7500000000000000 Li
   0.2500000000000000    0.2500000000000000    0.0000000000000000 Li
   0.2500000000000000    0.2500000000000000    0.5000000000000000 Li
   0.2500000000000000    0.7500000000000002    0.0000000000000000 Li
   0.2500000000000000    0.7500000000000002    0.5000000000000000 Li
   0.7500000000000002    0.2500000000000000    0.0000000000000000 Li
   0.7500000000000002    0.2500000000000000    0.5000000000000000 Li
   0.7500000000000002    0.7500000000000002    0.0000000000000000 Li
   0.7500000000000002    0.7500000000000002    0.5000000000000000 Li
   0.0000000000000000    0.0000000000000000    0.0000000000000000 Cl
   0.0000000000000000    0.0000000000000000    0.5000000000000000 Cl
   0.0000000000000000    0.5000000000000000    0.0000000000000000 Cl
   0.0000000000000000    0.5000000000000000    0.5000000000000000 Cl
   0.5000000000000000    0.0000000000000000    0.0000000000000000 Cl
   0.5000000000000000    0.0000000000000000    0.5000000000000000 Cl
   0.5000000000000000    0.5000000000000000    0.0000000000000000 Cl
   0.5000000000000000    0.5000000000000000    0.5000000000000000 Cl
   0.2500000000000000    0.2500000000000000    0.2500000000000000 O
   0.2500000000000000    0.2500000000000000    0.7500000000000000 O
   0.2500000000000000    0.7500000000000002    0.2500000000000000 O
   0.2500000000000000    0.7500000000000002    0.7500000000000000 O
   0.7500000000000002    0.2500000000000000    0.2500000000000000 O
   0.7500000000000002    0.2500000000000000    0.7500000000000000 O
   0.7500000000000002    0.7500000000000002    0.2500000000000000 O
   0.7500000000000002    0.7500000000000002    0.7500000000000001 O
