Na15 V32 O64                            
   1.00000000000000     
     8.9033158324123853   -0.0019743812754301    0.0037493138638378
    -0.0025767262078061   11.4402194675121915    0.0002070901747844
     0.0044146995364597    0.0003089486659014   10.6577327935902897
   Na   V    O 
     1    32    64
Direct
  0.7365666999275149  0.3141434171317883  0.1581889702912278
  0.5941799750571732  0.0610143768367166  0.9013258213251092
  0.5953444809033286  0.3122845571436983  0.8927833142698702
  0.6077366738645011  0.5646119799061395  0.8993276598539310
  0.5966829806846761  0.8130005657731516  0.8983747431244922
  0.0977194398414980  0.0618188139417271  0.6018632433046776
  0.1044437649123182  0.3111272768094864  0.6000930479771043
  0.0967468020615243  0.5640468542702024  0.6015129940029453
  0.0921603911386342  0.8136080725304353  0.5995201991662640
  0.4073410952056449  0.1829860853306400  0.0968688818520320
  0.4026704856016892  0.4438568357533370  0.0864659453405139
  0.4029752076738973  0.6922554764110629  0.0990917689210988
  0.4045594528574554  0.9358206195430654  0.0976979524951389
  0.8985202756771073  0.1822691040319029  0.4097102414102665
  0.9013694246817323  0.4399821796828718  0.4107298246879481
  0.9058493276315716  0.6918929158749876  0.4014797684551041
  0.9060905335818816  0.9342166219038006  0.3990968256655236
  0.5466937764046094  0.0566763278870113  0.3753079267079329
  0.5312028741905834  0.3139436739926609  0.3785345637739752
  0.5464408293609040  0.5670236683482699  0.3711346963155222
  0.5460800036097950  0.8115232972146416  0.3770879747915217
  0.0418469379110178  0.0612873327424026  0.1241717996432214
  0.0598730539141457  0.3113067422249287  0.1321146282046612
  0.0404295168062703  0.5634496562008380  0.1264395578077639
  0.0503476715505542  0.8139841251634792  0.1230039929545441
  0.4589977716957705  0.1830706681055858  0.6200433142437447
  0.4601111382952325  0.4435327738042858  0.6208740638209704
  0.4527230741405219  0.6911089093101666  0.6229370850589362
  0.4521831883542617  0.9342001798964432  0.6224792647382742
  0.9543786386369035  0.1840975031401939  0.8781728918521949
  0.9663031217539526  0.4317829085805798  0.8806027301229875
  0.9603197665238170  0.6928283081078419  0.8799206558717572
  0.9521265678749202  0.9409134932298926  0.8780562440138411
  0.8014529671029251  0.0642910286785181  0.8612662528820607
  0.8044923738426206  0.3144861137453532  0.8632644418326691
  0.8031079491979085  0.5630903705253871  0.8615589992753598
  0.8030197364974683  0.8113982925644549  0.8619568876848618
  0.3017135783805003  0.0636917365525136  0.6388237639090306
  0.3008772275639515  0.3129697467853205  0.6381208997636634
  0.3022522397482632  0.5611452725258204  0.6384947999396360
  0.3004823450679766  0.8119463180907616  0.6391282101447402
  0.2017637700225805  0.1885872219579880  0.1414657159225996
  0.2003439995711958  0.4375142900719524  0.1392595397656535
  0.1981051247318319  0.6860860225554717  0.1396176474770741
  0.1984830983096799  0.9392778714055368  0.1395802849714940
  0.6954929419434492  0.1898841243914262  0.3593622744328471
  0.6940983193723866  0.4357921051206546  0.3593563319583168
  0.6988701420387997  0.6863929081426221  0.3584640405856447
  0.6990439079283419  0.9385172661297645  0.3593003950702283
  0.8834416675835328  0.0636070763555026  0.5199201364348127
  0.8787740663649188  0.3121268982131866  0.5136409349495281
  0.8840085300248433  0.5618949764950401  0.5186460957093431
  0.8852540850314199  0.8123430946350396  0.5207539387788671
  0.3869496944945041  0.0635140159654100  0.9796392597170822
  0.3882658368253047  0.3137674576160379  0.9838873827260244
  0.3817329768216240  0.5618800875350374  0.9799161590516263
  0.3869696885422726  0.8124210860853225  0.9791868612411108
  0.1095371265459590  0.1887627711751136  0.4836970037767685
  0.1091856552231434  0.4360200262254637  0.4848325389038166
  0.1099507608951882  0.6868199826569565  0.4821339056734715
  0.1093641990809573  0.9387537818926219  0.4817081711337678
  0.6129181352005517  0.1886136294961744  0.0174748918562884
  0.6133746958381892  0.4393231128405191  0.0160463067344381
  0.6101778017121831  0.6857133566854685  0.0167881760382826
  0.6117827539043148  0.9372883885904244  0.0179746717261153
  0.9665683443955473  0.0664044193467461  0.2870276127119951
  0.9697036570188189  0.3131399239474248  0.2865588992921602
  0.9678130609828273  0.5594143022593059  0.2872569799578741
  0.9701939883488677  0.8121519051619117  0.2852378251110537
  0.4711809705584145  0.0648628389169730  0.2135475307792944
  0.4734048692572372  0.3124336153564542  0.2130409724566533
  0.4697060984869879  0.5607221159312630  0.2104689969936118
  0.4688460759186626  0.8125324657151936  0.2137400841722581
  0.0294587194487690  0.1895725096280998  0.7138158469874298
  0.0306530259747859  0.4361061470694096  0.7139975225524253
  0.0308157939156715  0.6857366233434092  0.7153927355516103
  0.0291618979287094  0.9380781384897503  0.7150778609389761
  0.5296055982025081  0.1887574050105698  0.7841465802325871
  0.5309734251354712  0.4393771266547830  0.7855657382741441
  0.5314040124877124  0.6855472895981052  0.7855240950333737
  0.5299569772828363  0.9380307791092193  0.7850792500831929
  0.5783439848423271  0.0627350035664307  0.5670520181971170
  0.5736016970085061  0.3135223749476523  0.5731472568574887
  0.5785825140806011  0.5624575008484101  0.5672515351520602
  0.5800241252302882  0.8121083082526752  0.5674920588350574
  0.0804903760852511  0.0638329331247718  0.9326996931378773
  0.0832536980380283  0.3125307151244883  0.9308430599587538
  0.0764535907617443  0.5613087706123423  0.9262517462273436
  0.0803278188080512  0.8132021581021363  0.9324347431447961
  0.4208124353527793  0.1880279976592334  0.4282586404279414
  0.4191375355471578  0.4383366410756508  0.4283753209012602
  0.4206236143260682  0.6865017006653744  0.4307076507536962
  0.4200282655911849  0.9376736298152650  0.4311912374785862
  0.9242496456650713  0.1902752354619324  0.0706537281449116
  0.9252901441854604  0.4357031032871959  0.0714664598971595
  0.9230567016191387  0.6858472995365403  0.0694243320884169
  0.9206119997803413  0.9387602698502207  0.0693744755365557
 
  0.00000000E+00  0.00000000E+00  0.00000000E+00
  0.00000000E+00  0.00000000E+00  0.00000000E+00
  0.00000000E+00  0.00000000E+00  0.00000000E+00
  0.00000000E+00  0.00000000E+00  0.00000000E+00
  0.00000000E+00  0.00000000E+00  0.00000000E+00
  0.00000000E+00  0.00000000E+00  0.00000000E+00
  0.00000000E+00  0.00000000E+00  0.00000000E+00
  0.00000000E+00  0.00000000E+00  0.00000000E+00
  0.00000000E+00  0.00000000E+00  0.00000000E+00
  0.00000000E+00  0.00000000E+00  0.00000000E+00
  0.00000000E+00  0.00000000E+00  0.00000000E+00
  0.00000000E+00  0.00000000E+00  0.00000000E+00
  0.00000000E+00  0.00000000E+00  0.00000000E+00
  0.00000000E+00  0.00000000E+00  0.00000000E+00
  0.00000000E+00  0.00000000E+00  0.00000000E+00
  0.00000000E+00  0.00000000E+00  0.00000000E+00
  0.00000000E+00  0.00000000E+00  0.00000000E+00
  0.00000000E+00  0.00000000E+00  0.00000000E+00
  0.00000000E+00  0.00000000E+00  0.00000000E+00
  0.00000000E+00  0.00000000E+00  0.00000000E+00
  0.00000000E+00  0.00000000E+00  0.00000000E+00
  0.00000000E+00  0.00000000E+00  0.00000000E+00
  0.00000000E+00  0.00000000E+00  0.00000000E+00
  0.00000000E+00  0.00000000E+00  0.00000000E+00
  0.00000000E+00  0.00000000E+00  0.00000000E+00
  0.00000000E+00  0.00000000E+00  0.00000000E+00
  0.00000000E+00  0.00000000E+00  0.00000000E+00
  0.00000000E+00  0.00000000E+00  0.00000000E+00
  0.00000000E+00  0.00000000E+00  0.00000000E+00
  0.00000000E+00  0.00000000E+00  0.00000000E+00
  0.00000000E+00  0.00000000E+00  0.00000000E+00
  0.00000000E+00  0.00000000E+00  0.00000000E+00
  0.00000000E+00  0.00000000E+00  0.00000000E+00
  0.00000000E+00  0.00000000E+00  0.00000000E+00
  0.00000000E+00  0.00000000E+00  0.00000000E+00
  0.00000000E+00  0.00000000E+00  0.00000000E+00
  0.00000000E+00  0.00000000E+00  0.00000000E+00
  0.00000000E+00  0.00000000E+00  0.00000000E+00
  0.00000000E+00  0.00000000E+00  0.00000000E+00
  0.00000000E+00  0.00000000E+00  0.00000000E+00
  0.00000000E+00  0.00000000E+00  0.00000000E+00
  0.00000000E+00  0.00000000E+00  0.00000000E+00
  0.00000000E+00  0.00000000E+00  0.00000000E+00
  0.00000000E+00  0.00000000E+00  0.00000000E+00
  0.00000000E+00  0.00000000E+00  0.00000000E+00
  0.00000000E+00  0.00000000E+00  0.00000000E+00
  0.00000000E+00  0.00000000E+00  0.00000000E+00
  0.00000000E+00  0.00000000E+00  0.00000000E+00
  0.00000000E+00  0.00000000E+00  0.00000000E+00
  0.00000000E+00  0.00000000E+00  0.00000000E+00
  0.00000000E+00  0.00000000E+00  0.00000000E+00
  0.00000000E+00  0.00000000E+00  0.00000000E+00
  0.00000000E+00  0.00000000E+00  0.00000000E+00
  0.00000000E+00  0.00000000E+00  0.00000000E+00
  0.00000000E+00  0.00000000E+00  0.00000000E+00
  0.00000000E+00  0.00000000E+00  0.00000000E+00
  0.00000000E+00  0.00000000E+00  0.00000000E+00
  0.00000000E+00  0.00000000E+00  0.00000000E+00
  0.00000000E+00  0.00000000E+00  0.00000000E+00
  0.00000000E+00  0.00000000E+00  0.00000000E+00
  0.00000000E+00  0.00000000E+00  0.00000000E+00
  0.00000000E+00  0.00000000E+00  0.00000000E+00
  0.00000000E+00  0.00000000E+00  0.00000000E+00
  0.00000000E+00  0.00000000E+00  0.00000000E+00
  0.00000000E+00  0.00000000E+00  0.00000000E+00
  0.00000000E+00  0.00000000E+00  0.00000000E+00
  0.00000000E+00  0.00000000E+00  0.00000000E+00
  0.00000000E+00  0.00000000E+00  0.00000000E+00
  0.00000000E+00  0.00000000E+00  0.00000000E+00
  0.00000000E+00  0.00000000E+00  0.00000000E+00
  0.00000000E+00  0.00000000E+00  0.00000000E+00
  0.00000000E+00  0.00000000E+00  0.00000000E+00
  0.00000000E+00  0.00000000E+00  0.00000000E+00
  0.00000000E+00  0.00000000E+00  0.00000000E+00
  0.00000000E+00  0.00000000E+00  0.00000000E+00
  0.00000000E+00  0.00000000E+00  0.00000000E+00
  0.00000000E+00  0.00000000E+00  0.00000000E+00
  0.00000000E+00  0.00000000E+00  0.00000000E+00
  0.00000000E+00  0.00000000E+00  0.00000000E+00
  0.00000000E+00  0.00000000E+00  0.00000000E+00
  0.00000000E+00  0.00000000E+00  0.00000000E+00
  0.00000000E+00  0.00000000E+00  0.00000000E+00
  0.00000000E+00  0.00000000E+00  0.00000000E+00
  0.00000000E+00  0.00000000E+00  0.00000000E+00
  0.00000000E+00  0.00000000E+00  0.00000000E+00
  0.00000000E+00  0.00000000E+00  0.00000000E+00
  0.00000000E+00  0.00000000E+00  0.00000000E+00
  0.00000000E+00  0.00000000E+00  0.00000000E+00
  0.00000000E+00  0.00000000E+00  0.00000000E+00
  0.00000000E+00  0.00000000E+00  0.00000000E+00
  0.00000000E+00  0.00000000E+00  0.00000000E+00
  0.00000000E+00  0.00000000E+00  0.00000000E+00
  0.00000000E+00  0.00000000E+00  0.00000000E+00
  0.00000000E+00  0.00000000E+00  0.00000000E+00
  0.00000000E+00  0.00000000E+00  0.00000000E+00
  0.00000000E+00  0.00000000E+00  0.00000000E+00
  0.00000000E+00  0.00000000E+00  0.00000000E+00
