Ca8 Ti12 F42                            
   1.00000000000000     
     7.4367060000000000   -0.0466160000000000   -0.1462460000000000
    -3.7191149999999999    6.3738049999999999    0.0913440000000000
     0.0988710000000000    0.0802310000000000   18.7545369999999991
   Ca   Ti   F 
     8    12    42
Direct
  0.8510898232300528  0.2939935427393811  0.3300933836381248
  0.5081320076286100  0.3544805000423737  0.6716197850574624
  0.1727287417392954  0.1778697586010715  0.0061755899691925
  0.0136837883566518  0.8372012598106650  0.6701729301922477
  0.6644224165121645  0.1687261037079935  0.9962106494577344
 -0.0051256726604430  0.7934710126627238  0.1645904736719344
  0.8232972131306754  0.0147872248599724  0.8210439141948777
  0.1746687012544365  0.1770148192681640  0.4924377434362902
  0.3273529485344068  0.9769640027996682  0.3369244480257740
  0.0005799054271300  0.3383930394289462  0.6447280106844515
  0.6743716043624418  0.6768971366431771  0.9854297710347902
  0.3666805507275426  0.0655334029205806  0.8295647530919353
  0.9833708016422282  0.3132344258895810  0.1596563165914191
  0.6979638675917454  0.6488399019506133  0.5001765229253737
  0.5303276754699600  0.8648704442398677  0.1623484180913972
  0.1533635989759620  0.6281791073960121  0.5101458785108559
  0.3510057975327538  0.4952813221136738  0.8271346286925938
  0.7793589433954828  0.4841176807555184  0.8272195990593137
  0.7140743703285082  0.1887060291330293  0.5142726000002709
  0.5307772439132630  0.3067745198067330  0.1628520119287916
  0.6855357381254858  0.1805208321261950  0.6218077166618898
  0.8067099687741405  0.5089804508178780  0.9421002894127247
  0.4658387175477464  0.2268290035440286  0.2670873732943139
  0.1988252051715287  0.7249419653368854  0.4049453583231398
  0.5657756597625357  0.8348293645371534  0.0521412109280583
  0.2711856030500171  0.4461784781672408  0.7165025754485962
  0.8458333182181641  0.0067683076767701  0.9469182532018310
  0.0850657244095279  0.8213542677114386  0.2759261357008420
  0.1737873063473695  0.1805498965640406  0.6121432844581528
  0.9459734665963626  0.8294978957632893  0.0481276241164923
  0.8890797186886221  0.0564437761314098  0.7056823685131105
  0.1825029352847077  0.1067351465735308  0.3805546937033751
  0.5418234644917669  0.3758273237080192  0.0489739181188274
  0.5878957987543694  0.1278676811480088  0.4043648696941940
  0.8550416765854522  0.4837127210893733  0.7090780094823123
  0.3576350026804813  0.4907554478200122  0.9430469434028389
  0.1668048983788408  0.6556953375348910  0.6184028420296370
  0.5196772209305482  0.9110049830870893  0.2755074906279844
  0.8311623593076871  0.4511220538053551  0.2126659050187686
  0.5349625990461884  0.3302158015313454  0.5249115722161903
  0.6629897028347042  0.1739400058784025  0.8707079486709245
  0.4263297002582096  0.8129625341185637  0.8182288038460586
  0.3779296307772372  0.5500795958100151  0.4965137671954087
  0.2069741740968791  0.6246418260503799  0.1532490269261502
  0.0864073503343610  0.3301229181805898  0.2592430881190771
  0.6928937249697737  0.6679276616967508  0.6100967496839838
  0.3363596280384744  0.0410477950581193  0.9431792742364588
  0.3286802199710813  0.0353714217058912  0.7214252532387602
  0.7174837953012086  0.5891420144394024  0.4055820723821723
  0.9761167737425605  0.3085144849017060  0.0500100024669535
  0.2192897304125604  0.2431663531430064  0.1319160361882899
  0.7905125098512443  0.9606514034475661  0.4933196405573922
 -0.0028645511841346  0.8040801121836845  0.7972505300437971
  0.1731766775944586  0.1781990583747840  0.8440686315612220
  0.0166563894393740  0.8116951315797273  0.5236827628833709
  0.8450036872336468  0.9989329927457851  0.1778803492175836
  0.0273175315046785  0.4172577881343307  0.8255720854757612
  0.6024400229923583  0.6133324851687103  0.1706938800798946
  0.4088933355747843  0.9348589263403621  0.5252768732338187
  0.3543456900621524 -0.0004898439787081  0.1317864103261011
  0.6605225690281131  0.6782379454610309  0.8664628179679082
  0.9843342548991295  0.3400367016721249  0.4441356680626667
 
             NaN             NaN             NaN
             NaN             NaN             NaN
             NaN             NaN             NaN
             NaN             NaN             NaN
             NaN             NaN             NaN
             NaN             NaN             NaN
             NaN             NaN             NaN
             NaN             NaN             NaN
             NaN             NaN             NaN
             NaN             NaN             NaN
             NaN             NaN             NaN
             NaN             NaN             NaN
             NaN             NaN             NaN
             NaN             NaN             NaN
             NaN             NaN             NaN
             NaN             NaN             NaN
             NaN             NaN             NaN
             NaN             NaN             NaN
             NaN             NaN             NaN
             NaN             NaN             NaN
             NaN             NaN             NaN
             NaN             NaN             NaN
             NaN             NaN             NaN
             NaN             NaN             NaN
             NaN             NaN             NaN
             NaN             NaN             NaN
             NaN             NaN             NaN
             NaN             NaN             NaN
             NaN             NaN             NaN
             NaN             NaN             NaN
             NaN             NaN             NaN
             NaN             NaN             NaN
             NaN             NaN             NaN
             NaN             NaN             NaN
             NaN             NaN             NaN
             NaN             NaN             NaN
             NaN             NaN             NaN
             NaN             NaN             NaN
             NaN             NaN             NaN
             NaN             NaN             NaN
             NaN             NaN             NaN
             NaN             NaN             NaN
             NaN             NaN             NaN
             NaN             NaN             NaN
             NaN             NaN             NaN
             NaN             NaN             NaN
             NaN             NaN             NaN
             NaN             NaN             NaN
             NaN             NaN             NaN
             NaN             NaN             NaN
             NaN             NaN             NaN
             NaN             NaN             NaN
             NaN             NaN             NaN
             NaN             NaN             NaN
             NaN             NaN             NaN
             NaN             NaN             NaN
             NaN             NaN             NaN
             NaN             NaN             NaN
             NaN             NaN             NaN
             NaN             NaN             NaN
             NaN             NaN             NaN
             NaN             NaN             NaN
