Ca8 Ti12 F42
1.0
7.436706 -0.046616 -0.146246
-3.719115 6.373805 0.091344
0.098871 0.080231 18.754537
Ca Ti F
8 12 42
direct
0.864794 0.355225 0.333139 Ca
0.508690 0.349385 0.671931 Ca
0.165653 0.172967 0.001836 Ca
0.020432 0.839167 0.667396 Ca
0.655770 0.160540 0.997518 Ca
0.026488 0.825398 0.163136 Ca
0.820145 0.010516 0.822905 Ca
0.175271 0.187022 0.490106 Ca
0.354639 0.987519 0.335155 Ti
0.006107 0.338468 0.647977 Ti
0.671060 0.672144 0.986347 Ti
0.351231 0.050221 0.829948 Ti
0.971235 0.303271 0.166365 Ti
0.703597 0.656997 0.502469 Ti
0.519856 0.847179 0.160651 Ti
0.162288 0.643680 0.508750 Ti
0.347698 0.488004 0.828328 Ti
0.794580 0.489839 0.829552 Ti
0.711980 0.194750 0.506251 Ti
0.521555 0.304144 0.161288 Ti
0.702282 0.203703 0.615184 F
0.807960 0.502464 0.943313 F
0.502967 0.245757 0.268906 F
0.201906 0.737615 0.402418 F
0.563537 0.827008 0.051983 F
0.275872 0.445329 0.717758 F
0.831186 0.001253 0.946746 F
0.073410 0.827234 0.279221 F
0.178772 0.184646 0.611802 F
0.945206 0.830239 0.048108 F
0.891557 0.052802 0.707640 F
0.216984 0.122083 0.381814 F
0.527569 0.369802 0.047582 F
0.626174 0.144896 0.396514 F
0.852754 0.485180 0.714247 F
0.355907 0.495904 0.943749 F
0.161838 0.650678 0.618097 F
0.475977 0.872143 0.267398 F
0.832037 0.475879 0.187101 F
0.543622 0.341157 0.513744 F
0.656998 0.175564 0.866920 F
0.433150 0.808507 0.816042 F
0.378920 0.554493 0.501018 F
0.203454 0.616612 0.153341 F
0.010340 0.319654 0.269801 F
0.697333 0.661017 0.612804 F
0.331852 0.023571 0.944960 F
0.336866 0.028051 0.719082 F
0.711912 0.648140 0.399610 F
0.965297 0.288622 0.055484 F
0.200943 0.213875 0.140225 F
0.803760 0.974552 0.501024 F
0.013927 0.812309 0.801060 F
0.166677 0.172573 0.859941 F
0.020731 0.816894 0.523908 F
0.831482 0.985616 0.182990 F
0.030630 0.414402 0.827317 F
0.571011 0.598408 0.173187 F
0.406785 0.952905 0.521724 F
0.368048 0.000851 0.119570 F
0.661965 0.667822 0.865049 F
0.992646 0.360979 0.452740 F
