Li16 Mg16 As16 O64
1.0
   9.8931455612000008    0.0000000000000000    0.0000000000000000
   0.0000000000000000   12.1015357972000004    0.0000000000000000
   0.0000000000000000    0.0000000000000000   10.5792779921999998
Li Mg As O
15 16 16 64
direct
   0.7500000000000000    0.5000000000000000    0.5000000000000000 Li
   0.2500000000000000    0.0000000000000000    0.5000000000000000 Li
   0.2500000000000000    0.5000000000000000    0.5000000000000000 Li
   0.7500000000000000    0.0000000000000000    0.5000000000000000 Li
   0.2500000000000000    0.2500000000000000    0.5000000000000000 Li
   0.2500000000000000    0.7500000000000000    0.5000000000000000 Li
   0.7500000000000000    0.2500000000000000    0.5000000000000000 Li
   0.0000000000000000    0.0000000000000000    0.0000000000000000 Li
   0.0000000000000000    0.5000000000000000    0.0000000000000000 Li
   0.5000000000000000    0.0000000000000000    0.0000000000000000 Li
   0.5000000000000000    0.5000000000000000    0.0000000000000000 Li
   0.0000000000000000    0.2500000000000000    0.0000000000000000 Li
   0.0000000000000000    0.7500000000000000    0.0000000000000000 Li
   0.5000000000000000    0.2500000000000000    0.0000000000000000 Li
   0.5000000000000000    0.7500000000000000    0.0000000000000000 Li
   0.0030620000000000    0.3750000000000000    0.7252230050000001 Mg
   0.0030620000000000    0.8750000000000000    0.7252230050000001 Mg
   0.5030619999999999    0.3750000000000000    0.7252230050000001 Mg
   0.5030619999999999    0.8750000000000000    0.7252230050000001 Mg
   0.4969379900000000    0.1250000000000000    0.2747769950000000 Mg
   0.4969379900000000    0.6250000000000000    0.2747769950000000 Mg
   0.9969379899999998    0.1250000000000000    0.2747769950000000 Mg
   0.9969379899999998    0.6250000000000000    0.2747769950000000 Mg
   0.2469380050000000    0.3750000000000000    0.2252230050000000 Mg
   0.2469380050000000    0.8750000000000000    0.2252230050000000 Mg
   0.7469380050000000    0.3750000000000000    0.2252230050000000 Mg
   0.7469380050000000    0.8750000000000000    0.2252230050000000 Mg
   0.2530620100000000    0.1250000000000000    0.7747769950000000 Mg
   0.2530620100000000    0.6250000000000000    0.7747769950000000 Mg
   0.7530620099999999    0.1250000000000000    0.7747769950000000 Mg
   0.7530620099999999    0.6250000000000000    0.7747769950000000 Mg
   0.0325549990000000    0.1250000000000000    0.5942900180000001 As
   0.0325549990000000    0.6250000000000000    0.5942900180000001 As
   0.5325549990000000    0.1250000000000000    0.5942900180000001 As
   0.5325549990000000    0.6250000000000000    0.5942900180000001 As
   0.2174450010000000    0.1250000000000000    0.0942900030000000 As
   0.2174450010000000    0.6250000000000000    0.0942900030000000 As
   0.7174450010000000    0.1250000000000000    0.0942900030000000 As
   0.7174450010000000    0.6250000000000000    0.0942900030000000 As
   0.4674449860000000    0.3750000000000000    0.4057100120000000 As
   0.4674449860000000    0.8750000000000000    0.4057100120000000 As
   0.9674449860000000    0.3750000000000000    0.4057100120000000 As
   0.9674449860000000    0.8750000000000000    0.4057100120000000 As
   0.2825550139999999    0.3750000000000000    0.9057099820000001 As
   0.2825550139999999    0.8750000000000000    0.9057099820000001 As
   0.7825550139999999    0.3750000000000000    0.9057099820000001 As
   0.7825550139999999    0.8750000000000000    0.9057099820000001 As
   0.3891449870000000    0.2654834985000000    0.3289130030000000 O
   0.3891449870000000    0.7654834985000000    0.3289130030000000 O
   0.8891449869999999    0.2654834985000000    0.3289130030000000 O
   0.8891449869999999    0.7654834985000000    0.3289130030000000 O
   0.1108549980000000    0.2345165015000000    0.6710870270000000 O
   0.1108549980000000    0.7345165015000000    0.6710870270000000 O
   0.6108549979999999    0.2345165015000000    0.6710870270000000 O
   0.6108549979999999    0.7345165015000000    0.6710870270000000 O
   0.3608550129999999    0.2654834985000000    0.8289129730000000 O
   0.3608550129999999    0.7654834985000000    0.8289129730000000 O
   0.8608550130000000    0.2654834985000000    0.8289129730000000 O
   0.8608550130000000    0.7654834985000000    0.8289129730000000 O
   0.3891449870000000    0.4845165015000000    0.3289130030000000 O
   0.3891449870000000    0.9845165015000000    0.3289130030000000 O
   0.8891449869999999    0.4845165015000000    0.3289130030000000 O
   0.8891449869999999    0.9845165015000000    0.3289130030000000 O
   0.1391450020000000    0.0154835005000000    0.1710869970000000 O
   0.1391450020000000    0.5154835005000000    0.1710869970000000 O
   0.6391450019999999    0.0154835005000000    0.1710869970000000 O
   0.6391450019999999    0.5154835005000000    0.1710869970000000 O
   0.3900530040000000    0.1250000000000000    0.0981180000000000 O
   0.3900530040000000    0.6250000000000000    0.0981180000000000 O
   0.8900530039999999    0.1250000000000000    0.0981180000000000 O
   0.8900530039999999    0.6250000000000000    0.0981180000000000 O
   0.1391450020000000    0.2345165015000000    0.1710869970000000 O
   0.1391450020000000    0.7345165015000000    0.1710869970000000 O
   0.6391450019999999    0.2345165015000000    0.1710869970000000 O
   0.6391450019999999    0.7345165015000000    0.1710869970000000 O
   0.1108549980000000    0.0154835005000000    0.6710870270000000 O
   0.1108549980000000    0.5154835005000000    0.6710870270000000 O
   0.6108549979999999    0.0154835005000000    0.6710870270000000 O
   0.6108549979999999    0.5154835005000000    0.6710870270000000 O
   0.1099470035000000    0.3750000000000000    0.9018819930000000 O
   0.1099470035000000    0.8750000000000000    0.9018819930000000 O
   0.6099470035000000    0.3750000000000000    0.9018819930000000 O
   0.6099470035000000    0.8750000000000000    0.9018819930000000 O
   0.3599469960000000    0.1250000000000000    0.5981180070000000 O
   0.3599469960000000    0.6250000000000000    0.5981180070000000 O
   0.8599469960000000    0.1250000000000000    0.5981180070000000 O
   0.8599469960000000    0.6250000000000000    0.5981180070000000 O
   0.3982369900000000    0.3750000000000000    0.5550320150000000 O
   0.3982369900000000    0.8750000000000000    0.5550320150000000 O
   0.8982369900000000    0.3750000000000000    0.5550320150000000 O
   0.8982369900000000    0.8750000000000000    0.5550320150000000 O
   0.1400530040000000    0.3750000000000000    0.4018819930000000 O
   0.1400530040000000    0.8750000000000000    0.4018819930000000 O
   0.6400530040000000    0.3750000000000000    0.4018819930000000 O
   0.6400530040000000    0.8750000000000000    0.4018819930000000 O
   0.3517630100000000    0.3750000000000000    0.0550320000000000 O
   0.3517630100000000    0.8750000000000000    0.0550320000000000 O
   0.8517630099999999    0.3750000000000000    0.0550320000000000 O
   0.8517630099999999    0.8750000000000000    0.0550320000000000 O
   0.1482370050000000    0.1250000000000000    0.9449679850000001 O
   0.1482370050000000    0.6250000000000000    0.9449679850000001 O
   0.6482370049999999    0.1250000000000000    0.9449679850000001 O
   0.6482370049999999    0.6250000000000000    0.9449679850000001 O
   0.1017630025000000    0.1250000000000000    0.4449679850000000 O
   0.1017630025000000    0.6250000000000000    0.4449679850000000 O
   0.6017630024999999    0.1250000000000000    0.4449679850000000 O
   0.6017630024999999    0.6250000000000000    0.4449679850000000 O
   0.3608550129999999    0.4845165015000000    0.8289129730000000 O
   0.3608550129999999    0.9845165015000000    0.8289129730000000 O
   0.8608550130000000    0.4845165015000000    0.8289129730000000 O
   0.8608550130000000    0.9845165015000000    0.8289129730000000 O
