Ca9 Ti12 F42
1.0
7.377806 0.005770 -0.053487
-3.643013 6.334641 0.035772
0.334720 0.054619 18.653316
Ca Ti F
9 12 42
direct
0.858916 0.492323 0.336589 Ca
0.521565 0.350282 0.666919 Ca
0.167599 0.176663 0.005920 Ca
0.027644 0.838767 0.665838 Ca
0.834679 0.980175 0.332215 Ca
0.641112 0.147535 0.004393 Ca
0.039357 0.826298 0.158638 Ca
0.827881 0.007375 0.827320 Ca
0.209028 0.184623 0.488235 Ca
0.348541 0.995661 0.308441 Ti
0.021886 0.338991 0.653501 Ti
0.669363 0.667888 0.991105 Ti
0.357719 0.052138 0.830367 Ti
0.939926 0.286303 0.166546 Ti
0.717109 0.651772 0.495659 Ti
0.504964 0.854845 0.170006 Ti
0.159292 0.656462 0.492914 Ti
0.353087 0.488128 0.830562 Ti
0.795905 0.486881 0.831033 Ti
0.713525 0.209624 0.495230 Ti
0.501600 0.276333 0.171128 Ti
0.715762 0.199353 0.609175 F
0.802594 0.495350 0.944741 F
0.516797 0.308386 0.280736 F
0.191647 0.727570 0.381973 F
0.567383 0.819408 0.061104 F
0.288777 0.450589 0.719294 F
0.827946 -0.002936 0.950975 F
0.022270 0.823816 0.279066 F
0.188053 0.178600 0.612936 F
0.948654 0.827839 0.046448 F
0.899458 0.054783 0.711844 F
0.183855 0.113182 0.372575 F
0.532447 0.377654 0.053850 F
0.648264 0.147269 0.378578 F
0.859037 0.484597 0.713942 F
0.356807 0.497559 0.947397 F
0.163188 0.650856 0.608896 F
0.502755 0.834010 0.281158 F
0.816427 0.477881 0.191029 F
0.537686 0.346139 0.532728 F
0.658779 0.173617 0.867610 F
0.438474 0.807691 0.816429 F
0.394529 0.571142 0.481229 F
0.192741 0.616600 0.157045 F
0.981807 0.304029 0.277122 F
0.706519 0.674624 0.610542 F
0.331513 0.021904 0.944810 F
0.343482 0.030920 0.719135 F
0.707438 0.662213 0.384652 F
0.959690 0.296366 0.056167 F
0.185690 0.199634 0.141851 F
0.816094 0.988388 0.466554 F
0.018472 0.810405 0.803423 F
0.171254 0.174672 0.862932 F
0.024813 0.836754 0.526683 F
0.819959 0.970255 0.194391 F
0.034076 0.412695 0.826637 F
0.534160 0.580827 0.178839 F
0.401356 0.973218 0.492841 F
0.374646 0.004918 0.102212 F
0.662731 0.665771 0.868078 F
0.024272 0.342389 0.530010 F
