Ca1 Ti12 F42                            
   1.00000000000000     
     7.5109800000000000   -0.0040020000000000    0.0331000000000000
    -3.7484929999999999    6.5188030000000001    0.0281580000000000
    -0.0450470000000000    0.1030010000000000   17.6320769999999989
   Ca   Ti   F 
     1    12    42
Direct
  0.8287207925109000  0.9404541320226247  0.3161884854813841
  0.2938499166491479 -0.0082431898965804  0.3325143606549775
  0.7275843559025772  0.7246962835092652  0.9971071427572303
  0.0039295959188620  0.2721507312150265  0.6689331087540352
  0.3588526200031837  0.9986303581626507  0.8337612302476746
  0.6506456464687157  0.6564298014042751  0.5012192693220882
  0.9864703031863363  0.3368130675590844  0.1690279996197494
  0.6453674233213866  0.1524348439677581  0.5040851089924814
  0.4987884141704182  0.3504540530669393  0.1639602599527284
  0.8589147028536772  0.4976044256088388  0.8323911338898623
  0.3594563798803250  0.4988372699776302  0.8340244819882867
  0.1489279880492688  0.6440210456655319  0.5038873358227363
  0.4867569681552671  0.8407151068584929  0.1614919373254211
  0.5633282349437755  0.8100511405023297  0.0591095672808933
  0.2538296476757358  0.4228756181232294  0.7296327119897236
  0.1930847101053116  0.7469020467028310  0.3979919720703619
  0.4181206158354321  0.2389306045099981  0.2679935795405263
  0.8308400731419159  0.5781723132784106  0.9369260016693822
  0.7551690563265471  0.1726627486203612  0.6060265181508299
  0.8887589204803884  0.0643301920378088  0.7345681145477312
  0.1273362807803357  0.0707868518642883  0.3856418549154590
  0.9276429106618134  0.8153813494160009  0.0654015139783336
  0.1230417255165635  0.1905682756887069  0.6009860990798409
  0.0647293665208263  0.8637243932020467  0.2659850337623324
  0.8168720580824748  0.9341299137803775  0.9322643079849334
  0.1113173876528289  0.5418755256994165  0.6065982734829576
  0.4664297609877053  0.8910844234379489  0.2759665558489597
  0.4621071351090238  0.5667380874628822  0.9367931162069361
  0.8903543539588695  0.4249054371043061  0.7303393166626594
  0.5406910508200370  0.1289688948209546  0.3980130309743111
  0.5744790999973967  0.4581159341034483  0.0626069767723709
  0.3568403012201226  0.5666436019699893  0.4820635495367148
  0.1994581681487782  0.6297075655447928  0.1599801100161579
  0.4346702711999956  0.7827417885259128  0.8131040409914274
  0.6495470434938124  0.2155709061037754  0.8556438468972362
  0.5768743212666787  0.3688830477825351  0.5201818405374109
  0.7768020093569266  0.4167725058196754  0.1929130676965573
  0.6926086915103202  0.6560818511624484  0.3922148119406355
  0.9017973541484572  0.2917573094068930  0.0727616386300597
  0.4001656937856918  0.0767115575175202  0.7345661419372945
  0.3182394938170026  0.9219185065995814  0.9331878816598094
  0.6301114479440626  0.7213622995728212  0.5967363241164868
  0.0031585344905261  0.2891566883526625  0.2754420504414845
  0.9425583242577148  0.7275281662863139  0.5153536193457465
  0.7814304322200374  0.0219047120994033  0.1857755298443557
  0.2808250754432349  0.2128830458415020  0.8538455877696982
  0.0679571444706756  0.7829848912601287  0.8123823480270912
  0.7282679001853387  0.9534882992645269  0.4691593923458268
  0.2134092715398907  0.2788261796199837  0.1484300489454091
  0.6339835588563922  0.5488335945253121  0.8034418720365836
  0.9233007308502809  0.3724220700679424  0.4717709642102582
  0.4494849866189625  0.0752232177028564  0.1376847255813669
  0.3741767556743245  0.9200623413268095  0.5313209979505146
  0.5539728596217658  0.6256274251366953  0.2014827279926909
  0.0835099224013761  0.4477514093710339  0.8632579961179615
 
             NaN             NaN             NaN
             NaN             NaN             NaN
             NaN             NaN             NaN
             NaN             NaN             NaN
             NaN             NaN             NaN
             NaN             NaN             NaN
             NaN             NaN             NaN
             NaN             NaN             NaN
             NaN             NaN             NaN
             NaN             NaN             NaN
             NaN             NaN             NaN
             NaN             NaN             NaN
             NaN             NaN             NaN
             NaN             NaN             NaN
             NaN             NaN             NaN
             NaN             NaN             NaN
             NaN             NaN             NaN
             NaN             NaN             NaN
             NaN             NaN             NaN
             NaN             NaN             NaN
             NaN             NaN             NaN
             NaN             NaN             NaN
             NaN             NaN             NaN
             NaN             NaN             NaN
             NaN             NaN             NaN
             NaN             NaN             NaN
             NaN             NaN             NaN
             NaN             NaN             NaN
             NaN             NaN             NaN
             NaN             NaN             NaN
             NaN             NaN             NaN
             NaN             NaN             NaN
             NaN             NaN             NaN
             NaN             NaN             NaN
             NaN             NaN             NaN
             NaN             NaN             NaN
             NaN             NaN             NaN
             NaN             NaN             NaN
             NaN             NaN             NaN
             NaN             NaN             NaN
             NaN             NaN             NaN
             NaN             NaN             NaN
             NaN             NaN             NaN
             NaN             NaN             NaN
             NaN             NaN             NaN
             NaN             NaN             NaN
             NaN             NaN             NaN
             NaN             NaN             NaN
             NaN             NaN             NaN
             NaN             NaN             NaN
             NaN             NaN             NaN
             NaN             NaN             NaN
             NaN             NaN             NaN
             NaN             NaN             NaN
             NaN             NaN             NaN
