Ca1 Ti12 F42
1.0
7.510980 -0.004002 0.033100
-3.748493 6.518803 0.028158
-0.045047 0.103001 17.632077
Ca Ti F
1 12 42
direct
0.845865 0.932584 0.331767 Ca
0.290747 0.001046 0.333580 Ti
0.727389 0.726531 0.997249 Ti
0.001696 0.271587 0.668881 Ti
0.359378 0.997901 0.833443 Ti
0.646846 0.658248 0.499585 Ti
0.988599 0.343357 0.167385 Ti
0.643537 0.155274 0.503718 Ti
0.497474 0.353703 0.163524 Ti
0.858868 0.498070 0.832622 Ti
0.358570 0.497678 0.834234 Ti
0.146081 0.646558 0.503362 Ti
0.489696 0.846381 0.162918 Ti
0.569166 0.817583 0.060272 F
0.250716 0.418271 0.729902 F
0.181100 0.751432 0.397656 F
0.420006 0.247329 0.268539 F
0.830375 0.579062 0.936848 F
0.753751 0.178923 0.605567 F
0.882302 0.062567 0.733917 F
0.158484 0.103578 0.394392 F
0.929528 0.817260 0.064651 F
0.117758 0.186029 0.601169 F
0.052128 0.884529 0.273585 F
0.814853 0.933453 0.931308 F
0.111726 0.539770 0.605078 F
0.444276 0.888390 0.274124 F
0.461241 0.568564 0.936778 F
0.891638 0.427360 0.730077 F
0.555962 0.127394 0.393460 F
0.573458 0.459379 0.061771 F
0.355976 0.574084 0.478009 F
0.201550 0.635648 0.156316 F
0.432872 0.780694 0.811717 F
0.650105 0.215095 0.855122 F
0.569231 0.367893 0.515021 F
0.777280 0.422395 0.191893 F
0.696545 0.668650 0.391762 F
0.903015 0.296058 0.071580 F
0.400100 0.076901 0.734318 F
0.320250 0.919421 0.932596 F
0.618451 0.717304 0.595216 F
0.019348 0.325184 0.275400 F
0.935674 0.724236 0.517100 F
0.779357 0.036153 0.191564 F
0.281817 0.212070 0.854654 F
0.068193 0.783555 0.812176 F
0.738122 0.962471 0.471378 F
0.210820 0.278570 0.148013 F
0.633023 0.547798 0.803558 F
0.921653 0.375787 0.467807 F
0.449858 0.078922 0.137801 F
0.371870 0.921972 0.528930 F
0.548491 0.626230 0.197810 F
0.082997 0.447502 0.863466 F
