Mg16 V32 O64
1.0
   9.5858110831909826   -0.0975974891309090   -0.0000000101940712
  -0.0940480552358956    9.6486666761723487   -0.0000000271326566
  -0.0000002328553380   -0.0000001219418506   11.2564801495418312
Mg V O
1 32 64
direct
   0.5000002357227589    0.7500000307986469    0.7499892877090939 Mg
   0.9999999994378306    0.9999999973212962    0.9999986336799501 V
   0.9999999994378306    0.9999999973212962    0.4999986336799501 V
   0.9999999994378306    0.4999999973212962    0.9999986336799501 V
   0.9999999994378306    0.4999999973212962    0.4999986336799501 V
   0.4999999994378306    0.9999999973212962    0.9999986336799501 V
   0.4999999994378306    0.9999999973212962    0.4999986336799501 V
   0.4999999994378306    0.4999999973212962    0.9999986336799501 V
   0.4999999994378306    0.4999999973212962    0.4999986336799501 V
   0.9999999997117563    0.9999999994184561    0.2500039855221630 V
   0.9999999997117563    0.9999999994184561    0.7500039855221630 V
   0.9999999997117563    0.4999999994184560    0.2500039855221630 V
   0.9999999997117563    0.4999999994184560    0.7500039855221630 V
   0.4999999997117563    0.9999999994184561    0.2500039855221630 V
   0.4999999997117562    0.9999999994184561    0.7500039855221630 V
   0.4999999997117563    0.4999999994184560    0.2500039855221630 V
   0.4999999997117563    0.4999999994184560    0.7500039855221630 V
   0.2499999980057245    0.2500000036014400    0.1342102625887674 V
   0.2499999980057246    0.2500000036014400    0.6342102625887674 V
   0.2499999980057245    0.7500000036014400    0.1342102625887674 V
   0.2499999980057245    0.7500000036014399    0.6342102625887674 V
   0.7499999980057244    0.2500000036014400    0.1342102625887674 V
   0.7499999980057244    0.2500000036014400    0.6342102625887674 V
   0.7499999980057245    0.7500000036014400    0.1342102625887674 V
   0.7499999980057245    0.7500000036014399    0.6342102625887673 V
   0.2500000035510734    0.2499999974952656    0.3658102260227471 V
   0.2500000035510735    0.2499999974952656    0.8658102260227472 V
   0.2500000035510734    0.7499999974952656    0.3658102260227471 V
   0.2500000035510734    0.7499999974952656    0.8658102260227470 V
   0.7500000035510735    0.2499999974952656    0.3658102260227471 V
   0.7500000035510735    0.2499999974952656    0.8658102260227472 V
   0.7500000035510735    0.7499999974952656    0.3658102260227471 V
   0.7500000035510734    0.7499999974952656    0.8658102260227470 V
   0.1633293439100876    0.1399613983090379    0.0000016708588834 O
   0.1633293439100876    0.1399613983090380    0.5000016708588834 O
   0.1633293439100875    0.6399613983090380    0.0000016708588834 O
   0.1633293439100876    0.6399613983090379    0.5000016708588834 O
   0.6633293439100876    0.1399613983090380    0.0000016708588833 O
   0.6633293439100876    0.1399613983090380    0.5000016708588834 O
   0.6633293439100877    0.6399613983090380    0.0000016708588834 O
   0.6633293439100876    0.6399613983090379    0.5000016708588834 O
   0.1548378114952452    0.1388927851814472    0.2499949697379059 O
   0.1548378114952452    0.1388927851814472    0.7499949697379058 O
   0.1548378114952451    0.6388927851814472    0.2499949697379059 O
   0.1548378114952452    0.6388927851814471    0.7499949697379058 O
   0.6548378114952451    0.1388927851814472    0.2499949697379059 O
   0.6548378114952452    0.1388927851814472    0.7499949697379058 O
   0.6548378114952452    0.6388927851814472    0.2499949697379059 O
   0.6548378114952452    0.6388927851814471    0.7499949697379058 O
   0.3366706585942515    0.3600385996735739    0.0000016661783553 O
   0.3366706585942515    0.3600385996735739    0.5000016661783554 O
   0.3366706585942515    0.8600385996735738    0.0000016661783553 O
   0.3366706585942515    0.8600385996735740    0.5000016661783554 O
   0.8366706585942515    0.3600385996735739    0.0000016661783553 O
   0.8366706585942515    0.3600385996735739    0.5000016661783554 O
   0.8366706585942516    0.8600385996735739    0.0000016661783553 O
   0.8366706585942516    0.8600385996735738    0.5000016661783554 O
   0.3451621894073220    0.3611072138377996    0.2499949677683496 O
   0.3451621894073220    0.3611072138377996    0.7499949677683496 O
   0.3451621894073220    0.8611072138377995    0.2499949677683496 O
   0.3451621894073220    0.8611072138377995    0.7499949677683496 O
   0.8451621894073219    0.3611072138377996    0.2499949677683496 O
   0.8451621894073219    0.3611072138377996    0.7499949677683496 O
   0.8451621894073220    0.8611072138377995    0.2499949677683496 O
   0.8451621894073220    0.8611072138377998    0.7499949677683496 O
   0.0900251954171949    0.3852802285745628    0.1231423985692062 O
   0.0900251954171949    0.3852802285745628    0.6231423985692062 O
   0.0900251954171949    0.8852802285745627    0.1231423985692062 O
   0.0900251954171949    0.8852802285745627    0.6231423985692062 O
   0.5900251954171949    0.3852802285745628    0.1231423985692062 O
   0.5900251954171949    0.3852802285745627    0.6231423985692062 O
   0.5900251954171950    0.8852802285745628    0.1231423985692062 O
   0.5900251954171950    0.8852802285745628    0.6231423985692062 O
   0.0900288069474584    0.3852764975985437    0.3768498879174491 O
   0.0900288069474584    0.3852764975985437    0.8768498879174491 O
   0.0900288069474584    0.8852764975985435    0.3768498879174491 O
   0.0900288069474584    0.8852764975985437    0.8768498879174491 O
   0.5900288069474584    0.3852764975985437    0.3768498879174491 O
   0.5900288069474584    0.3852764975985437    0.8768498879174491 O
   0.5900288069474584    0.8852764975985435    0.3768498879174491 O
   0.5900288069474584    0.8852764975985438    0.8768498879174491 O
   0.4099748000530969    0.1147197809777239    0.1231423953479811 O
   0.4099748000530968    0.1147197809777239    0.6231423953479811 O
   0.4099748000530968    0.6147197809777238    0.1231423953479811 O
   0.4099748000530969    0.6147197809777237    0.6231423953479811 O
   0.9099748000530969    0.1147197809777239    0.1231423953479811 O
   0.9099748000530968    0.1147197809777239    0.6231423953479811 O
   0.9099748000530969    0.6147197809777238    0.1231423953479811 O
   0.9099748000530968    0.6147197809777238    0.6231423953479811 O
   0.4099711973993915    0.1147234940363001    0.3768498842823447 O
   0.4099711973993915    0.1147234940363001    0.8768498842823447 O
   0.4099711973993915    0.6147234940363000    0.3768498842823447 O
   0.4099711973993915    0.6147234940363000    0.8768498842823447 O
   0.9099711973993915    0.1147234940363001    0.3768498842823447 O
   0.9099711973993914    0.1147234940363001    0.8768498842823447 O
   0.9099711973993915    0.6147234940363000    0.3768498842823447 O
   0.9099711973993915    0.6147234940363001    0.8768498842823447 O
