Ca1 Ti12 F42                            
   1.00000000000000     
     7.5114520000000002   -0.0032510000000000    0.0359490000000000
    -3.7480780000000000    6.5153090000000002    0.0211560000000000
    -0.0384110000000000    0.0878930000000000   17.6404910000000008
   Ca   Ti   F 
     1    12    42
Direct
  0.8121321077702707  0.8701854247740382  0.2999559466185422
  0.2962088124709734 -0.0084309610377930  0.3321284405434461
  0.7305632898323648  0.7282742230011110  0.9975128652220122
  0.0056304036569597  0.2736043560690288  0.6695119956934583
  0.3608005145971429  1.0027528528216541  0.8339286287102132
  0.6508689176097601  0.6561058975835724  0.5051401439303695
  0.9851378794452116  0.3429452124960600  0.1687643926710808
  0.6467296902306088  0.1518587892404697  0.5050883722540461
  0.4938862886071304  0.3497128928730852  0.1632282929046366
  0.8613454145838773  0.5010441833732473  0.8326899082091107
  0.3625184938395903  0.5036102939839895  0.8339450730508643
  0.1499223288921850  0.6452383430845868  0.5046201206276496
  0.4855324096568606  0.8451399418098217  0.1605973604124740
  0.5685914310782035  0.8166099343081824  0.0591816531907442
  0.2559168657961369  0.4251318642166211  0.7298352162551334
  0.1914499587669507  0.7467767562388692  0.3989970762313151
  0.4181573350285998  0.2413549180274206  0.2680310370037923
  0.8316434201139098  0.5796597512369517  0.9374444032681593
  0.7559846714660444  0.1746149451537408  0.6076625932525932
  0.8922146891568612  0.0666176175529386  0.7354004154417084
  0.1015488891788757  0.0492786962597992  0.3747186764413385
  0.9269462993492573  0.8122825554516416  0.0674172725725558
  0.1226486830688535  0.1897892094706419  0.6014852731080526
  0.0815742227176370  0.8473459834428098  0.2584050448796728
  0.8267759151943120  0.9407520691041623  0.9340669807529528
  0.1146014803707900  0.5434192112020340  0.6072298665380009
  0.4653123211715851  0.8897161387655795  0.2751403788342265
  0.4669023241233251  0.5752353058363301  0.9364116365875289
  0.8931844893867409  0.4275520880620839  0.7307480514557413
  0.5342768668974034  0.1258976484816505  0.4002954936621067
  0.5690803318948405  0.4618494917085177  0.0626656909828951
  0.3584164326954432  0.5680329789362780  0.4837090614400629
  0.2013074294172855  0.6308632917329315  0.1539456491845490
  0.4367869662700837  0.7870792007320082  0.8125096622461532
  0.6520813848208348  0.2186742034252171  0.8554857146680545
  0.5764306602988017  0.3663103805070053  0.5221165903483311
  0.7747374707978049  0.4250336102326726  0.1920367432331753
  0.6879439869899185  0.6434264179226329  0.3952860308499922
  0.8896953504890869  0.2900855414242312  0.0733038771795846
  0.3999406238637012  0.0808360534398016  0.7348580057280164
  0.3203972530018060  0.9257564382218482  0.9332627258803385
  0.6248571661596719  0.7080700846063994  0.6017757499587235
  0.0093468464015537  0.3114500070054507  0.2724055945099541
  0.9427588598708972  0.7279082456197082  0.5176255253023470
  0.7819979906984994  0.0262313128985973  0.1863696011686775
  0.2845299793452030  0.2183130988137345  0.8546994776497325
  0.0694505952665014  0.7865259781642616  0.8129443961186240
  0.7252389258902502  0.9482088648432204  0.4761097225792699
  0.2084341501335939  0.2789348088177020  0.1481907616770842
  0.6369980117844203  0.5529365614689090  0.8034964375574186
  0.9240909666241121  0.3734267843870985  0.4735462007925602
  0.4474307814919598  0.0776232271382242  0.1366684301859017
  0.3735339664111239  0.9207930232980990  0.5332973882858535
  0.5587206296063221  0.6313077639825541  0.2047238938920549
  0.0865549243641156  0.4521222852259575  0.8635118567608041
 
             NaN             NaN             NaN
             NaN             NaN             NaN
             NaN             NaN             NaN
             NaN             NaN             NaN
             NaN             NaN             NaN
             NaN             NaN             NaN
             NaN             NaN             NaN
             NaN             NaN             NaN
             NaN             NaN             NaN
             NaN             NaN             NaN
             NaN             NaN             NaN
             NaN             NaN             NaN
             NaN             NaN             NaN
             NaN             NaN             NaN
             NaN             NaN             NaN
             NaN             NaN             NaN
             NaN             NaN             NaN
             NaN             NaN             NaN
             NaN             NaN             NaN
             NaN             NaN             NaN
             NaN             NaN             NaN
             NaN             NaN             NaN
             NaN             NaN             NaN
             NaN             NaN             NaN
             NaN             NaN             NaN
             NaN             NaN             NaN
             NaN             NaN             NaN
             NaN             NaN             NaN
             NaN             NaN             NaN
             NaN             NaN             NaN
             NaN             NaN             NaN
             NaN             NaN             NaN
             NaN             NaN             NaN
             NaN             NaN             NaN
             NaN             NaN             NaN
             NaN             NaN             NaN
             NaN             NaN             NaN
             NaN             NaN             NaN
             NaN             NaN             NaN
             NaN             NaN             NaN
             NaN             NaN             NaN
             NaN             NaN             NaN
             NaN             NaN             NaN
             NaN             NaN             NaN
             NaN             NaN             NaN
             NaN             NaN             NaN
             NaN             NaN             NaN
             NaN             NaN             NaN
             NaN             NaN             NaN
             NaN             NaN             NaN
             NaN             NaN             NaN
             NaN             NaN             NaN
             NaN             NaN             NaN
             NaN             NaN             NaN
             NaN             NaN             NaN
