Ca1 Ti12 F42
1.0
7.511452 -0.003251 0.035949
-3.748078 6.515309 0.021156
-0.038411 0.087893 17.640491
Ca Ti F
1 12 42
direct
0.848140 0.870666 0.331593 Ca
0.289884 0.001694 0.333794 Ti
0.727674 0.726972 0.997291 Ti
0.001494 0.270510 0.668890 Ti
0.359128 0.997745 0.833403 Ti
0.647278 0.658399 0.500602 Ti
0.988698 0.343600 0.166282 Ti
0.644549 0.155566 0.503192 Ti
0.495927 0.352698 0.162964 Ti
0.858664 0.497819 0.832541 Ti
0.358484 0.497646 0.834285 Ti
0.147154 0.647746 0.504092 Ti
0.490116 0.846603 0.163244 Ti
0.569520 0.817568 0.060419 F
0.250131 0.417577 0.730032 F
0.180531 0.750231 0.397815 F
0.416694 0.246626 0.267988 F
0.830328 0.579394 0.936694 F
0.755109 0.178887 0.605070 F
0.881734 0.060965 0.733544 F
0.163813 0.105969 0.395586 F
0.929913 0.817742 0.064623 F
0.118287 0.185187 0.601327 F
0.050616 0.876480 0.274572 F
0.815612 0.934343 0.931653 F
0.111975 0.539219 0.605272 F
0.442425 0.889019 0.273675 F
0.461581 0.569166 0.936758 F
0.891157 0.426173 0.730057 F
0.558497 0.131900 0.392804 F
0.573813 0.459472 0.061604 F
0.356434 0.574091 0.478750 F
0.202372 0.636344 0.155060 F
0.432874 0.780573 0.811628 F
0.649921 0.214855 0.855112 F
0.570426 0.367641 0.516261 F
0.776165 0.422535 0.192863 F
0.696232 0.660428 0.393223 F
0.901139 0.300712 0.070926 F
0.399849 0.076636 0.734346 F
0.319817 0.919269 0.932471 F
0.618022 0.715236 0.596431 F
0.022819 0.333397 0.274252 F
0.936611 0.725243 0.518031 F
0.779506 0.038662 0.190405 F
0.281540 0.212029 0.854718 F
0.067950 0.783239 0.811996 F
0.736125 0.960170 0.472083 F
0.209527 0.277974 0.146599 F
0.632835 0.547444 0.803547 F
0.922062 0.377960 0.466629 F
0.449254 0.078299 0.137465 F
0.372605 0.923349 0.528824 F
0.547228 0.625261 0.197647 F
0.082839 0.447586 0.863492 F
