Ca1 V12 F42                             
   1.00000000000000     
     7.3830619999999998   -0.0053430000000000   -0.1087230000000000
    -3.6819329999999999    6.3757219999999997    0.0778510000000000
     0.2606190000000000   -0.0280280000000000   17.6058200000000014
   Ca   V    F 
     1    12    42
Direct
  0.1478665648278847  0.4424072361431234  0.3670363974802768
  0.2976757096124684  1.0087236083826236  0.3306749601682705
  0.7147321860586762  0.7149358558919722  0.9975574307109377
  0.0014233425500895  0.2834453990715011  0.6701534311609789
  0.3567583433732986  0.9955723484053643  0.8345897526657335
  0.6512682733082675  0.6688072563610924  0.5068454692462282
  0.9897295631395342  0.3363660784923246  0.1462826606842653
  0.6441277514778003  0.1650862659015022  0.5047110229869922
  0.4934737042102462  0.3399128913335415  0.1558065702017035
  0.8563985559840724  0.4970905280460146  0.8350748593794126
  0.3551783208241489  0.4941764442108731  0.8342203514778794
  0.1520839461367923  0.6791335868873229  0.5179838150397099
  0.4909934362614591  0.8390370936630024  0.1627145403958590
  0.5543971578577271  0.8029938584467838  0.0587976465780125
  0.2495832537077455  0.4120450994437773  0.7322359879273116
  0.1969657610042545  0.7713458852343257  0.4081493082454716
  0.4167287303885504  0.2408837125329404  0.2606928666617421
  0.8334791519290794  0.5825658815214937  0.9362908523769988
  0.7590367536313802  0.1938081254879399  0.6053269797114357
  0.8782680235330700  0.0615471699644738  0.7287491099710196
  0.1801704742811909  0.1571678592986964  0.3803392092154325
  0.9200470400935721  0.8092033119597266  0.0641861999899807
  0.1222478094391091  0.2058048468044575  0.6006293258256887
  0.0670127472935941  0.8276946311389148  0.2814510382198496
  0.8066391222719512  0.9307925084985265  0.9359025350588258
  0.1169536220405852  0.5578085494505316  0.6163615959175400
  0.4378784473993138  0.8747466026141636  0.2723424876017764
  0.4571802906759104  0.5631258188952474  0.9360749195428933
  0.8853580997668449  0.4229427506707114  0.7332677289168381
  0.5426097714741662  0.1407812089325913  0.3991358725503448
  0.5700367511542268  0.4460828219781721  0.0546308907585445
  0.3471158514307943  0.5792972758135437  0.4826809510172235
  0.2006932710815526  0.6307209028931160  0.1439812135650015
  0.4364494116376748  0.7841717642898348  0.8141939848412234
  0.6468728746070056  0.2076166187443540  0.8557501943018763
  0.5708117685869392  0.3792675292953214  0.5260333086080878
  0.7824339760882346  0.4151119056148349  0.1742731376761913
  0.6689301309086987  0.6229968547499825  0.4068829479844833
  0.9278688678117898  0.3151827142039690  0.0490966777652461
  0.3947066013652037  0.0681614142544775  0.7373856552012029
  0.3192462804393584  0.9219966280448223  0.9316116854265354
  0.5942445797347878  0.7048545055592790  0.6015419262183208
  0.0536433212065803  0.3548482501674206  0.2533475588643722
  0.9383917400164179  0.7567835539716238  0.5283065047263359
  0.7855450197060495  0.0473950276256631  0.1710687739712479
  0.2734333915570376  0.2032833965819613  0.8545282150684900
  0.0662935218851367  0.7866375709075407  0.8135002739050483
  0.7278172701126371  0.9585335421611418  0.4810440737094998
  0.2056357686285287  0.2619388233301288  0.1331790998025949
  0.6307519180913965  0.5454808597444392  0.8043549255528117
  0.9310686920446203  0.3983543596496586  0.4703095842998862
  0.4365726983694936  0.0597769961546478  0.1310514567553435
  0.3758604444124543  0.9526333972289045  0.5443161267080134
  0.5413704951480657  0.6122324467045798  0.1916642233644915
  0.0809807903545189  0.4458498630197320  0.8644987323936171
 
             NaN             NaN             NaN
             NaN             NaN             NaN
             NaN             NaN             NaN
             NaN             NaN             NaN
             NaN             NaN             NaN
             NaN             NaN             NaN
             NaN             NaN             NaN
             NaN             NaN             NaN
             NaN             NaN             NaN
             NaN             NaN             NaN
             NaN             NaN             NaN
             NaN             NaN             NaN
             NaN             NaN             NaN
             NaN             NaN             NaN
             NaN             NaN             NaN
             NaN             NaN             NaN
             NaN             NaN             NaN
             NaN             NaN             NaN
             NaN             NaN             NaN
             NaN             NaN             NaN
             NaN             NaN             NaN
             NaN             NaN             NaN
             NaN             NaN             NaN
             NaN             NaN             NaN
             NaN             NaN             NaN
             NaN             NaN             NaN
             NaN             NaN             NaN
             NaN             NaN             NaN
             NaN             NaN             NaN
             NaN             NaN             NaN
             NaN             NaN             NaN
             NaN             NaN             NaN
             NaN             NaN             NaN
             NaN             NaN             NaN
             NaN             NaN             NaN
             NaN             NaN             NaN
             NaN             NaN             NaN
             NaN             NaN             NaN
             NaN             NaN             NaN
             NaN             NaN             NaN
             NaN             NaN             NaN
             NaN             NaN             NaN
             NaN             NaN             NaN
             NaN             NaN             NaN
             NaN             NaN             NaN
             NaN             NaN             NaN
             NaN             NaN             NaN
             NaN             NaN             NaN
             NaN             NaN             NaN
             NaN             NaN             NaN
             NaN             NaN             NaN
             NaN             NaN             NaN
             NaN             NaN             NaN
             NaN             NaN             NaN
             NaN             NaN             NaN
