Ca1 V12 F42
1.0
7.383062 -0.005343 -0.108723
-3.681933 6.375722 0.077851
0.260619 -0.028028 17.605820
Ca V F
1 12 42
direct
1.156420 0.502419 0.335447 Ca
0.296093 -0.000601 0.333525 V
0.715144 0.715069 0.997978 V
0.000082 0.285325 0.668255 V
0.352167 0.998974 0.833116 V
0.651028 0.653386 0.506513 V
0.994003 0.344650 0.160135 V
0.650444 0.150757 0.501806 V
0.495569 0.346385 0.161159 V
0.852221 0.499065 0.832938 V
0.352382 0.499010 0.833744 V
0.147744 0.651924 0.505672 V
0.496872 0.846491 0.165060 V
0.574524 0.820077 0.062570 F
0.248452 0.425256 0.730443 F
0.182634 0.735652 0.396009 F
0.439434 0.261695 0.270656 F
0.825594 0.578855 0.934947 F
0.752982 0.179992 0.604454 F
0.879961 0.069076 0.729726 F
0.206218 0.144341 0.391772 F
0.927545 0.805854 0.061691 F
0.122146 0.198192 0.603183 F
0.066775 0.864569 0.274169 F
0.811047 0.933430 0.937130 F
0.108680 0.547592 0.607872 F
0.427697 0.864591 0.273295 F
0.457607 0.569961 0.936308 F
0.884084 0.429412 0.730378 F
0.559239 0.124280 0.394095 F
0.566069 0.453729 0.059364 F
0.354033 0.564630 0.482229 F
0.206754 0.636037 0.144732 F
0.434853 0.790217 0.813774 F
0.643860 0.208832 0.853636 F
0.572735 0.361778 0.519231 F
0.790202 0.434271 0.184832 F
0.666606 0.614899 0.399818 F
0.917543 0.309695 0.064758 F
0.389960 0.070106 0.736345 F
0.316300 0.929107 0.930055 F
0.607943 0.684987 0.602851 F
0.061350 0.385855 0.264386 F
0.941225 0.738207 0.517938 F
0.787508 0.056685 0.186295 F
0.268487 0.206695 0.853017 F
0.061704 0.790588 0.812308 F
0.731159 0.942404 0.482372 F
0.200982 0.261952 0.145946 F
0.624877 0.546198 0.802967 F
0.925906 0.378426 0.468857 F
0.445754 0.071073 0.136756 F
0.373688 0.928424 0.531632 F
0.541425 0.616950 0.200621 F
0.079041 0.451195 0.863859 F
