Na2 Ca2 V4 P2 S4 O24
1.0
8.969714 0.333079 0.204596
4.245144 7.925823 0.247861
4.174254 2.640427 7.452974
Ca Na V P S O
2 2 4 2 4 24
direct
0.647257 0.442798 0.273560 Ca
0.015360 0.982974 0.011583 Ca
0.435610 0.124915 0.743957 Na
0.588974 0.881925 0.249040 Na
0.347612 0.353489 0.360375 V
0.643283 0.653786 0.635718 V
0.146206 0.149987 0.147967 V
0.852032 0.848827 0.852796 V
0.751222 0.035129 0.443474 P
0.454900 0.752304 0.041285 P
0.040952 0.455008 0.747849 S
0.949068 0.546099 0.252243 S
0.241195 0.963575 0.559197 S
0.553660 0.252901 0.952301 S
0.223909 0.420820 0.605319 O
0.767344 0.567630 0.399595 O
0.587687 0.223513 0.429695 O
0.400820 0.789170 0.554958 O
0.420788 0.587965 0.217848 O
0.573647 0.403236 0.776255 O
0.912203 0.078882 0.261936 O
0.089934 0.928118 0.736741 O
0.049140 0.276661 0.912653 O
0.934033 0.728736 0.097037 O
0.280616 0.927817 0.051429 O
0.728818 0.088285 0.945436 O
0.517301 0.301737 0.104967 O
0.497683 0.726707 0.866674 O
0.095317 0.501010 0.311833 O
0.895183 0.491298 0.690861 O
0.291418 0.101929 0.552056 O
0.709413 0.891609 0.438460 O
0.407943 0.193901 0.988874 O
0.616656 0.775946 0.038460 O
0.183872 0.027858 0.402863 O
0.781787 0.981050 0.619905 O
0.979670 0.406941 0.187506 O
0.009891 0.597919 0.805005 O
