Ca1 Ni12 F42
1.0
7.053293 0.008344 0.024889
-3.515991 6.058565 -0.005477
-0.057214 0.051340 16.874273
Ca Ni F
1 12 42
direct
0.853772 0.492875 0.325545 Ca
0.308822 0.000409 0.331954 Ni
0.696616 0.697753 0.996440 Ni
0.000591 0.301857 0.671020 Ni
0.347960 0.000534 0.833580 Ni
0.653159 0.658443 0.507323 Ni
0.999728 0.340440 0.159511 Ni
0.652984 0.156018 0.506183 Ni
0.493088 0.342841 0.158573 Ni
0.848603 0.500274 0.834395 Ni
0.348523 0.500554 0.832684 Ni
0.155962 0.657719 0.507808 Ni
0.497825 0.843935 0.162043 Ni
0.566658 0.824110 0.054646 F
0.265692 0.435635 0.726897 F
0.184904 0.744464 0.398746 F
0.451382 0.260712 0.267588 F
0.826678 0.562437 0.939949 F
0.744907 0.179162 0.613801 F
0.891147 0.072679 0.733908 F
0.193954 0.120699 0.391940 F
0.917690 0.803576 0.062076 F
0.112382 0.191933 0.605508 F
0.060222 0.852977 0.274795 F
0.818486 0.928140 0.934244 F
0.122653 0.569125 0.613734 F
0.434750 0.867199 0.272440 F
0.433390 0.566966 0.937518 F
0.871590 0.437617 0.729493 F
0.572288 0.144055 0.390993 F
0.550028 0.427820 0.052577 F
0.360444 0.566059 0.484987 F
0.203667 0.632762 0.136330 F
0.438633 0.792173 0.808399 F
0.647333 0.207628 0.857663 F
0.565926 0.365881 0.530689 F
0.798751 0.435836 0.184237 F
0.686766 0.614760 0.402459 F
0.919231 0.297940 0.059735 F
0.386753 0.080113 0.733683 F
0.309030 0.921279 0.933457 F
0.619642 0.702795 0.607239 F
0.073818 0.387412 0.265010 F
0.947752 0.750514 0.526305 F
0.791044 0.054062 0.188098 F
0.257704 0.209170 0.857717 F
0.048817 0.792923 0.810516 F
0.738237 0.948092 0.479895 F
0.191354 0.240777 0.140214 F
0.629701 0.560230 0.801126 F
0.929865 0.384531 0.465323 F
0.431701 0.060256 0.128692 F
0.371498 0.939193 0.539617 F
0.560113 0.622835 0.195148 F
0.068134 0.440527 0.866080 F
