Ca1 Co16 F48                            
   1.00000000000000     
    10.7089029999999994   -0.0053210000000000   -0.0378050000000000
    -0.0033060000000000    7.4769310000000004   -0.0031020000000000
    -0.0348580000000000   -0.0046990000000000   10.4080969999999997
   Ca   Co   F 
     1    16    48
Direct
  0.4878335268331794  0.1622725382214221  0.5157056110296288
  0.0004986915383989  0.5023166508830743  0.2494926554379683
  1.0018615540003910  0.4984413619347708  0.7510902448150752
  0.5017185994808860  0.5031994772089097  0.2434190367033424
  0.5034001605921592  0.4986083083725980  0.7624037729393192
  0.2154779123047097 -0.0043525981249270  0.4758510182009529
  0.2399472869690198  0.9957016119343185  0.9986309532543867
  0.7604659059947154  0.9888688621505557  0.4980149679411227
  0.7586588232878511  0.0013044809469954  1.0029137764424894
  0.4920485005159493  0.9927667025591256  0.2257847360814818
  0.5055342174111981  0.9783651738327453  0.7798687692909453
 -0.0084286702044411  0.0045771935637501  0.2396687805552202
  0.0002256770626668  0.9993722949848458  0.7527174673052283
  0.2481424356224642  0.4939417027845354  0.0007367454492024
  0.2525714357867632  0.5027918822193811  0.5014246956802643
  0.7549710074168973  0.5018289489876101  1.0010470710733401
  0.7522398879595458  0.4991304780673755  0.5002577804402583
  0.4995823963875710  0.2457832066179925  0.1954755612553631
  0.4942428687831090  0.2434007718390435  0.7164439481852346
  0.9778109661300632  0.2460034602031853  0.1926679531427176
  0.9945674472333262  0.2494549621236642  0.7027104383447559
  0.2362810710484548  0.2539948776142775  0.0515844497127733
  0.2586425913717817  0.2287549459083855  0.5432790821541631
  0.7470426617415419  0.2461064288407826  0.0528094105742445
  0.7362622824391849  0.2551156488165342  0.5451510665592898
  0.0150207477970974  0.7669148631612002  0.2937015584816321
  0.0082864962876620  0.7480045256398643  0.7974261117303886
  0.5027861756865344  0.7557042687601332  0.2948351862561072
  0.5185292508428275  0.7343303785595400  0.8318445930873427
  0.2692933354222752  0.7600305796684825  0.4572853441115270
  0.2537104525470338  0.7327712103501841  0.9476354163897981
  0.7645242589834483  0.7378009625544774  0.4488929377459525
  0.7666371081216525  0.7548398336530489  0.9504010631913080
  0.3488381179994769  0.5459578109909869  0.1440761915251314
  0.3628500042284596  0.5358806610226400  0.6479858401266178
  0.8561048681166247  0.5553981151632787  0.1510569307114901
  0.8520277195534607  0.5490311725586877  0.6429641419860164
  0.0816873325272383  0.9538289056009761  0.0902230069242209
  0.0862863542333437  0.9479981342135867  0.5917862482767657
  0.6032253616110699  0.9435627108724394  0.0898366097441885
  0.6085566918503454  0.9425499592163613  0.6101658245225630
  0.1376582499245592  0.0688811004527725  0.3202027432700413
  0.1573852488056764  0.0430852723821748  0.8414433185131209
  0.6301277226525102  0.0470991638546457  0.3708574016596094
  0.6577778804054422  0.0545561853188919  0.8486356858757311
  0.4042742883601340  0.4390618764038996  0.3996023265114851
  0.3911608093118985  0.4410502492927088  0.9068201706105536
  0.8948371650420326  0.4530087777854899  0.4020165485275120
  0.9004496701822666  0.4501318300539788  0.8976620155345637
  0.1457357244031633  0.4617312700949885  0.3548301324236695
  0.1516841085171458  0.4418232259036746  0.8569982333295583
  0.6484692312164738  0.4495463584204469  0.3581485326894529
  0.6529864922012639  0.4411052616423343  0.8544076047331011
  0.3698322768405476  0.0548415594499015  0.3645079374380254
  0.4004190033308397  0.0487613301573586  0.9179245766154780
  0.9016211044123266  0.0535549514443159  0.3896613033205051
  0.9063152549111620  0.0500923069857052  0.9034765975423265
  0.3357879134337762  0.9284310650619709  0.1421085379997177
  0.3756251696107869  0.9452145891373815  0.6623245061561103
  0.8446234562672893  0.9425630253564948  0.1614163013355665
  0.8511080419903928  0.9546278152457950  0.6492371694717940
  0.1068218057107470  0.5459446516661757  0.0979816144849404
  0.1090000341131881  0.5432493358103307  0.6073698502971294
  0.6080837313538542  0.5521673724893841  0.1026713484110091
  0.6084528691963017  0.5392232594726819  0.6003622204686078
 
             NaN             NaN             NaN
             NaN             NaN             NaN
             NaN             NaN             NaN
             NaN             NaN             NaN
             NaN             NaN             NaN
             NaN             NaN             NaN
             NaN             NaN             NaN
             NaN             NaN             NaN
             NaN             NaN             NaN
             NaN             NaN             NaN
             NaN             NaN             NaN
             NaN             NaN             NaN
             NaN             NaN             NaN
             NaN             NaN             NaN
             NaN             NaN             NaN
             NaN             NaN             NaN
             NaN             NaN             NaN
             NaN             NaN             NaN
             NaN             NaN             NaN
             NaN             NaN             NaN
             NaN             NaN             NaN
             NaN             NaN             NaN
             NaN             NaN             NaN
             NaN             NaN             NaN
             NaN             NaN             NaN
             NaN             NaN             NaN
             NaN             NaN             NaN
             NaN             NaN             NaN
             NaN             NaN             NaN
             NaN             NaN             NaN
             NaN             NaN             NaN
             NaN             NaN             NaN
             NaN             NaN             NaN
             NaN             NaN             NaN
             NaN             NaN             NaN
             NaN             NaN             NaN
             NaN             NaN             NaN
             NaN             NaN             NaN
             NaN             NaN             NaN
             NaN             NaN             NaN
             NaN             NaN             NaN
             NaN             NaN             NaN
             NaN             NaN             NaN
             NaN             NaN             NaN
             NaN             NaN             NaN
             NaN             NaN             NaN
             NaN             NaN             NaN
             NaN             NaN             NaN
             NaN             NaN             NaN
             NaN             NaN             NaN
             NaN             NaN             NaN
             NaN             NaN             NaN
             NaN             NaN             NaN
             NaN             NaN             NaN
             NaN             NaN             NaN
             NaN             NaN             NaN
             NaN             NaN             NaN
             NaN             NaN             NaN
             NaN             NaN             NaN
             NaN             NaN             NaN
             NaN             NaN             NaN
             NaN             NaN             NaN
             NaN             NaN             NaN
             NaN             NaN             NaN
             NaN             NaN             NaN
