Ca1 Co16 F48
1.0
10.708903 -0.005321 -0.037805
-0.003306 7.476931 -0.003102
-0.034858 -0.004699 10.408097
Ca Co F
1 16 48
direct
0.514976 1.125911 0.497590 Ca
0.000279 0.501151 0.249187 Co
-0.000005 0.499027 0.750911 Co
0.496795 0.504001 0.236303 Co
0.495911 0.502688 0.762306 Co
0.242266 0.001598 0.498917 Co
0.246195 0.998616 -0.000780 Co
0.760018 -0.008824 0.499017 Co
0.753087 0.000088 -0.000573 Co
0.499253 -0.004594 0.238378 Co
0.498772 -0.001550 0.759440 Co
0.000542 0.000665 0.246848 Co
1.000014 -0.000434 0.752251 Co
0.245281 0.499426 0.000137 Co
0.244598 0.502976 0.500679 Co
0.753328 0.500448 -0.001117 Co
0.754916 0.501000 0.499474 Co
0.490298 0.250620 0.206349 F
0.484215 0.250262 0.707567 F
0.987513 0.251446 0.203509 F
0.992416 0.249766 0.701421 F
0.239490 0.259001 0.048949 F
0.253543 0.252460 0.547608 F
0.741190 0.249362 0.047425 F
0.745004 0.258311 0.546620 F
0.014053 0.750749 0.295777 F
0.008335 0.748557 0.798457 F
0.510605 0.748075 0.294704 F
0.514757 0.751126 0.801822 F
0.258270 0.749322 0.452625 F
0.253311 0.739817 0.950672 F
0.751724 0.739160 0.449935 F
0.761189 0.751620 0.949542 F
0.341640 0.552460 0.145275 F
0.357298 0.550013 0.646294 F
0.850917 0.551232 0.152101 F
0.848970 0.553068 0.644642 F
0.097662 0.957210 0.096496 F
0.100441 0.953002 0.600273 F
0.602835 0.950241 0.094326 F
0.601231 0.974045 0.599173 F
0.147915 0.052588 0.345696 F
0.152785 0.048501 0.846896 F
0.644284 0.052261 0.356490 F
0.647357 0.051596 0.846435 F
0.399932 0.457676 0.399222 F
0.391515 0.452542 0.909364 F
0.897855 0.457780 0.405743 F
0.899099 0.449418 0.898123 F
0.148566 0.448503 0.351476 F
0.152310 0.448506 0.853640 F
0.649137 0.444252 0.357900 F
0.646815 0.449990 0.849206 F
0.400461 0.039812 0.401761 F
0.398867 0.042165 0.906882 F
0.903961 0.041990 0.401231 F
0.901048 0.050275 0.902486 F
0.346058 0.949825 0.149577 F
0.359794 0.952251 0.650573 F
0.850492 0.951156 0.154515 F
0.850623 0.947014 0.652401 F
0.101560 0.546377 0.093674 F
0.101840 0.547251 0.602450 F
0.602444 0.549361 0.095386 F
0.604177 0.530790 0.594114 F
