Na32 Co16 Si16 O64                      
   1.00000000000000     
    -0.0000001035695004   10.6564196233504784   -0.0018128235306739
    11.1319065932448211   -0.0000001163073969   -0.0000012560703006
     0.0000016960495216  -10.6139389024218218  -14.0189424689792670
   Na   Co   Si   O 
    31    16    16    64
Direct
   0.2465762423234779    0.3342793768088228    0.5013982871070937 Na
  0.1204849733972893  0.0890759392454825  0.3734493912897179
  0.1204851536302343  0.0890759543180550  0.8734493998808617
  0.1204853049249763  0.5890759634544480  0.3734495879554629
  0.1204850307118903  0.5890759901989426  0.8734496122736317
  0.6204851396626268  0.0890759399264809  0.3734495405933842
  0.6204851800818645  0.0890759189252393  0.8734496399803717
  0.6204850002420343  0.5890759706257214  0.3734494425096173
  0.1204850791578238  0.4109239723894831  0.1234496575514257
  0.1204850762545675  0.4109240049377618  0.6234495739768704
  0.1204851703538097  0.9109240739405635  0.1234493239554553
  0.1204852079284606  0.9109240792868647  0.6234493367232332
  0.6204852684701692  0.4109240844821116  0.1234494088678844
  0.6204850102804187  0.4109240615999923  0.6234493364756020
  0.6204849013384788  0.9109239871107491  0.1234495903050927
  0.6204848936944884  0.9109240005159265  0.6234495975335079
  0.2465763147102962  0.1657203308677211  0.2513982361825668
  0.2465763053183210  0.1657204478865353  0.7513982040793366
  0.2465761812938609  0.6657209489407521  0.2513983900664698
  0.2465761043305577  0.6657209670801763  0.7513982899209424
  0.7465761618047750  0.1657208782959501  0.2513983365339243
  0.7465761444833063  0.1657208926146154  0.7513982635056564
  0.7465762890454002  0.6657203499153113  0.2513982455976347
  0.7465764008103832  0.6657204018941130  0.7513982385732163
  0.2465763114121486  0.3342793787276435  0.0013982792050555
  0.2465763203232854  0.8342793688885237  0.0013981858512508
  0.2465761056624132  0.8342794163007454  0.5013981746751810
  0.7465761297862770  0.3342794910553977  0.0013982221047542
  0.7465761213604054  0.3342794146863284  0.5013982094362603
  0.7465760586118506  0.8342789043104872  0.0013983414770919
  0.7465762526708772  0.8342794659333421  0.5013982788503384
  0.3791995619791422  0.4069412229847487  0.3777386133834568
  0.3791992553603052  0.4069411213861045  0.8777384900601746
  0.3791995506518191  0.9069412538638133  0.3777386061300945
  0.3791995304500944  0.9069410865172287  0.8777385533844964
  0.8791997581854432  0.4069412785925053  0.3777387041244751
  0.8791994552507063  0.4069411547510811  0.8777385592940377
  0.8791995102135601  0.9069412153952570  0.3777386304696719
  0.8791993319641378  0.9069412415268943  0.8777385746456616
  0.3791994897844759  0.0930590383805452  0.1277385397708812
  0.3791994298853822  0.0930590409448087  0.6277385391078738
  0.3791994825298843  0.5930587771702420  0.1277386343246931
  0.3791994355498858  0.5930589153094132  0.6277385207770863
  0.8791994865045538  0.0930586928380137  0.1277385820317676
  0.8791993347914655  0.0930588608983527  0.6277385078054749
  0.8791996631623817  0.5930587899722894  0.1277386240794627
  0.8791995544545301  0.5930589194743661  0.6277386057418042
  0.0035434984586260  0.1558533904532382  0.0004049572980449
  0.0035434925736197  0.1558535160996755  0.5004049531236063
  0.0035434928444360  0.6558533584195345  0.0004051247991299
  0.0035434493504525  0.6558532924392750  0.5004050293353970
  0.5035435689423196  0.1558533144747045  0.0004050651355811
  0.5035434276185100  0.1558533323162052  0.5004049948311717
  0.5035436051424540  0.6558533842100189  0.0004049476996144
  0.5035435377303656  0.6558535345635121  0.5004049666414900
  0.0035433773268707  0.3441465782749304  0.2504050672311067
  0.0035433877007236  0.3441466278486089  0.7504050027157518
  0.0035435778923514  0.8441465341721539  0.2504049255341414
  0.0035436196046632  0.8441466193047162  0.7504049794879535
  0.5035436570073273  0.3441465664811645  0.2504049570116678
  0.5035435731867963  0.3441465888415678  0.7504049022048633
  0.5035434038391742  0.8441466543538780  0.2504050486516647
  0.5035434871832862  0.8441466211510971  0.7504050312949531
  0.4510921116911319  0.2993414259078264  0.9862719714354853
  0.4510920396910052  0.2993414117473563  0.4862720077546427
  0.4510920530257039  0.7993413924712129  0.9862718049685739
  0.4510916824127733  0.7993414602791660  0.4862716819808952
  0.9510918612456649  0.2993413721052889  0.9862719226049350
  0.9510917188631325  0.2993414534118699  0.4862717445525178
  0.9510920360117012  0.7993414749424375  0.9862720010610388
  0.9510921082538886  0.7993414213895917  0.4862720512510492
  0.4510921288417364  0.2006586213050880  0.2362719360852878
  0.4510920524064019  0.2006585961683953  0.7362718795431746
  0.4510919994964411  0.7006585898194118  0.2362719837636931
  0.4510919460313687  0.7006585749880472  0.7362719043319004
  0.9510920675960506  0.2006584588393778  0.2362719717601465
  0.9510919517019403  0.2006585662916152  0.7362719169469756
  0.9510920920427210  0.7006586010332114  0.2362719302927303
  0.9510921045964267  0.7006586518400795  0.7362719605961985
  0.3663382538038817  0.0788955651485992  0.4038436995705297
  0.3663378045237948  0.0788954110883111  0.9038440043284908
  0.3663375184203375  0.5788955965497351  0.4038439121442181
  0.3663374395794818  0.5788954106752442  0.9038439996922563
  0.8663380613505822  0.0788957993422841  0.4038436467511772
  0.8663380739157489  0.0788956614130925  0.9038436222901467
  0.8663383495957149  0.5788955584092932  0.4038437656148375
  0.8663377939072774  0.5788955032478853  0.9038440297130208
  0.3663375651537137  0.4211045012950407  0.1538440723776446
  0.3663375391741326  0.4211045320942333  0.6538439753706342
  0.3663377576917526  0.9211045391757438  0.1538440049430534
  0.3663377106897769  0.9211045040463404  0.6538439642925269
  0.8663378220037998  0.4211044594198938  0.1538440696270627
  0.8663382303248355  0.4211043781130854  0.6538437065404992
  0.8663376970442584  0.9211045700265004  0.1538440116083208
  0.8663376404589300  0.9211045496360697  0.6538440097259937
  0.0305862448433771  0.3948992439318602  0.3476125396951559
  0.0305862249597979  0.3948991430566764  0.8476124440918227
  0.0305863202049750  0.8948995448129651  0.3476123197011631
  0.0305861671427934  0.8948995527904344  0.8476123284525343
  0.5305864429072003  0.3948995443218379  0.3476123682602079
  0.5305861559908251  0.3948994221367386  0.8476122755355462
  0.5305861497938693  0.8948992255240427  0.3476125044970502
  0.5305862426969981  0.8948991435626539  0.8476124586969007
  0.0305861937198557  0.1051005079605929  0.0976123745319342
  0.0305862147669771  0.1051006005036257  0.5976123540355047
  0.0305864024915721  0.6051007545318328  0.0976125231149325
  0.0305863249194545  0.6051007779218551  0.5976124575858250
  0.5305863592335314  0.1051008589927136  0.0976124573299657
  0.5305862891807607  0.1051008683470300  0.5976124210149365
  0.5305862340584611  0.6051004420019339  0.0976122968721072
  0.5305862728573914  0.6051006429316459  0.5976123262060256
  0.1713183537305483  0.3565708122693749  0.2646190246486100
  0.1713182566746525  0.3565708508476817  0.7646188951534683
  0.1713184599076882  0.8565708605454248  0.2646190068678251
  0.1713184087423727  0.8565708560405270  0.7646189469622158
  0.6713185639077821  0.3565708339624720  0.2646190468685745
  0.6713184206520779  0.3565707733046608  0.7646189228475180
  0.6713183127651732  0.8565707816954387  0.2646189958243710
  0.6713184054689094  0.8565708154382037  0.7646190043658763
  0.1713181536675066  0.1434289658514771  0.5146188772077807
  0.1713182041264503  0.1434288973442719  0.0146189072272449
  0.1713182327815943  0.6434290390731050  0.5146188664375586
  0.1713183794468733  0.6434291030347836  0.0146189900365599
  0.6713181854152523  0.1434290726078657  0.5146188102292371
  0.6713184734687587  0.1434290846021042  0.0146190010657676
  0.6713182826353403  0.6434289789623762  0.5146189284565565
  0.6713184291206673  0.6434290885617813  0.0146189477284935
 
  0.00000000E+00  0.00000000E+00  0.00000000E+00
  0.00000000E+00  0.00000000E+00  0.00000000E+00
  0.00000000E+00  0.00000000E+00  0.00000000E+00
  0.00000000E+00  0.00000000E+00  0.00000000E+00
  0.00000000E+00  0.00000000E+00  0.00000000E+00
  0.00000000E+00  0.00000000E+00  0.00000000E+00
  0.00000000E+00  0.00000000E+00  0.00000000E+00
  0.00000000E+00  0.00000000E+00  0.00000000E+00
  0.00000000E+00  0.00000000E+00  0.00000000E+00
  0.00000000E+00  0.00000000E+00  0.00000000E+00
  0.00000000E+00  0.00000000E+00  0.00000000E+00
  0.00000000E+00  0.00000000E+00  0.00000000E+00
  0.00000000E+00  0.00000000E+00  0.00000000E+00
  0.00000000E+00  0.00000000E+00  0.00000000E+00
  0.00000000E+00  0.00000000E+00  0.00000000E+00
  0.00000000E+00  0.00000000E+00  0.00000000E+00
  0.00000000E+00  0.00000000E+00  0.00000000E+00
  0.00000000E+00  0.00000000E+00  0.00000000E+00
  0.00000000E+00  0.00000000E+00  0.00000000E+00
  0.00000000E+00  0.00000000E+00  0.00000000E+00
  0.00000000E+00  0.00000000E+00  0.00000000E+00
  0.00000000E+00  0.00000000E+00  0.00000000E+00
  0.00000000E+00  0.00000000E+00  0.00000000E+00
  0.00000000E+00  0.00000000E+00  0.00000000E+00
  0.00000000E+00  0.00000000E+00  0.00000000E+00
  0.00000000E+00  0.00000000E+00  0.00000000E+00
  0.00000000E+00  0.00000000E+00  0.00000000E+00
  0.00000000E+00  0.00000000E+00  0.00000000E+00
  0.00000000E+00  0.00000000E+00  0.00000000E+00
  0.00000000E+00  0.00000000E+00  0.00000000E+00
  0.00000000E+00  0.00000000E+00  0.00000000E+00
  0.00000000E+00  0.00000000E+00  0.00000000E+00
  0.00000000E+00  0.00000000E+00  0.00000000E+00
  0.00000000E+00  0.00000000E+00  0.00000000E+00
  0.00000000E+00  0.00000000E+00  0.00000000E+00
  0.00000000E+00  0.00000000E+00  0.00000000E+00
  0.00000000E+00  0.00000000E+00  0.00000000E+00
  0.00000000E+00  0.00000000E+00  0.00000000E+00
  0.00000000E+00  0.00000000E+00  0.00000000E+00
  0.00000000E+00  0.00000000E+00  0.00000000E+00
  0.00000000E+00  0.00000000E+00  0.00000000E+00
  0.00000000E+00  0.00000000E+00  0.00000000E+00
  0.00000000E+00  0.00000000E+00  0.00000000E+00
  0.00000000E+00  0.00000000E+00  0.00000000E+00
  0.00000000E+00  0.00000000E+00  0.00000000E+00
  0.00000000E+00  0.00000000E+00  0.00000000E+00
  0.00000000E+00  0.00000000E+00  0.00000000E+00
  0.00000000E+00  0.00000000E+00  0.00000000E+00
  0.00000000E+00  0.00000000E+00  0.00000000E+00
  0.00000000E+00  0.00000000E+00  0.00000000E+00
  0.00000000E+00  0.00000000E+00  0.00000000E+00
  0.00000000E+00  0.00000000E+00  0.00000000E+00
  0.00000000E+00  0.00000000E+00  0.00000000E+00
  0.00000000E+00  0.00000000E+00  0.00000000E+00
  0.00000000E+00  0.00000000E+00  0.00000000E+00
  0.00000000E+00  0.00000000E+00  0.00000000E+00
  0.00000000E+00  0.00000000E+00  0.00000000E+00
  0.00000000E+00  0.00000000E+00  0.00000000E+00
  0.00000000E+00  0.00000000E+00  0.00000000E+00
  0.00000000E+00  0.00000000E+00  0.00000000E+00
  0.00000000E+00  0.00000000E+00  0.00000000E+00
  0.00000000E+00  0.00000000E+00  0.00000000E+00
  0.00000000E+00  0.00000000E+00  0.00000000E+00
  0.00000000E+00  0.00000000E+00  0.00000000E+00
  0.00000000E+00  0.00000000E+00  0.00000000E+00
  0.00000000E+00  0.00000000E+00  0.00000000E+00
  0.00000000E+00  0.00000000E+00  0.00000000E+00
  0.00000000E+00  0.00000000E+00  0.00000000E+00
  0.00000000E+00  0.00000000E+00  0.00000000E+00
  0.00000000E+00  0.00000000E+00  0.00000000E+00
  0.00000000E+00  0.00000000E+00  0.00000000E+00
  0.00000000E+00  0.00000000E+00  0.00000000E+00
  0.00000000E+00  0.00000000E+00  0.00000000E+00
  0.00000000E+00  0.00000000E+00  0.00000000E+00
  0.00000000E+00  0.00000000E+00  0.00000000E+00
  0.00000000E+00  0.00000000E+00  0.00000000E+00
  0.00000000E+00  0.00000000E+00  0.00000000E+00
  0.00000000E+00  0.00000000E+00  0.00000000E+00
  0.00000000E+00  0.00000000E+00  0.00000000E+00
  0.00000000E+00  0.00000000E+00  0.00000000E+00
  0.00000000E+00  0.00000000E+00  0.00000000E+00
  0.00000000E+00  0.00000000E+00  0.00000000E+00
  0.00000000E+00  0.00000000E+00  0.00000000E+00
  0.00000000E+00  0.00000000E+00  0.00000000E+00
  0.00000000E+00  0.00000000E+00  0.00000000E+00
  0.00000000E+00  0.00000000E+00  0.00000000E+00
  0.00000000E+00  0.00000000E+00  0.00000000E+00
  0.00000000E+00  0.00000000E+00  0.00000000E+00
  0.00000000E+00  0.00000000E+00  0.00000000E+00
  0.00000000E+00  0.00000000E+00  0.00000000E+00
  0.00000000E+00  0.00000000E+00  0.00000000E+00
  0.00000000E+00  0.00000000E+00  0.00000000E+00
  0.00000000E+00  0.00000000E+00  0.00000000E+00
  0.00000000E+00  0.00000000E+00  0.00000000E+00
  0.00000000E+00  0.00000000E+00  0.00000000E+00
  0.00000000E+00  0.00000000E+00  0.00000000E+00
  0.00000000E+00  0.00000000E+00  0.00000000E+00
  0.00000000E+00  0.00000000E+00  0.00000000E+00
  0.00000000E+00  0.00000000E+00  0.00000000E+00
  0.00000000E+00  0.00000000E+00  0.00000000E+00
  0.00000000E+00  0.00000000E+00  0.00000000E+00
  0.00000000E+00  0.00000000E+00  0.00000000E+00
  0.00000000E+00  0.00000000E+00  0.00000000E+00
  0.00000000E+00  0.00000000E+00  0.00000000E+00
  0.00000000E+00  0.00000000E+00  0.00000000E+00
  0.00000000E+00  0.00000000E+00  0.00000000E+00
  0.00000000E+00  0.00000000E+00  0.00000000E+00
  0.00000000E+00  0.00000000E+00  0.00000000E+00
  0.00000000E+00  0.00000000E+00  0.00000000E+00
  0.00000000E+00  0.00000000E+00  0.00000000E+00
  0.00000000E+00  0.00000000E+00  0.00000000E+00
  0.00000000E+00  0.00000000E+00  0.00000000E+00
  0.00000000E+00  0.00000000E+00  0.00000000E+00
  0.00000000E+00  0.00000000E+00  0.00000000E+00
  0.00000000E+00  0.00000000E+00  0.00000000E+00
  0.00000000E+00  0.00000000E+00  0.00000000E+00
  0.00000000E+00  0.00000000E+00  0.00000000E+00
  0.00000000E+00  0.00000000E+00  0.00000000E+00
  0.00000000E+00  0.00000000E+00  0.00000000E+00
  0.00000000E+00  0.00000000E+00  0.00000000E+00
  0.00000000E+00  0.00000000E+00  0.00000000E+00
  0.00000000E+00  0.00000000E+00  0.00000000E+00
  0.00000000E+00  0.00000000E+00  0.00000000E+00
  0.00000000E+00  0.00000000E+00  0.00000000E+00
  0.00000000E+00  0.00000000E+00  0.00000000E+00
  0.00000000E+00  0.00000000E+00  0.00000000E+00
  0.00000000E+00  0.00000000E+00  0.00000000E+00
  0.00000000E+00  0.00000000E+00  0.00000000E+00
