Na6 Sn12 P18 O72
1.0
        8.7552108765         0.0000000000         0.0000000000
       -4.3776054382         7.5822350345         0.0000000000
        0.0000000000         0.0000000000        22.5505695343
   Na   Sn    P    O
    5   12   18   72
Direct
     1.000000000         1.000000000         0.500000000
     0.333333343         0.666666687         0.166666672
     0.000000000         0.000000000         0.000000000
     0.666666687         0.333333343         0.333333343
     0.666666687         0.333333343         0.833333313
     0.000000000         0.000000000         0.145799994
     0.333333343         0.666666687         0.020866670
     0.333333343         0.666666687         0.312466681
     0.666666687         0.333333343         0.187533334
     0.666666687         0.333333343         0.479133338
     0.000000000         0.000000000         0.354200006
     0.000000000         0.000000000         0.645799994
     0.333333343         0.666666687         0.520866692
     0.333333343         0.666666687         0.812466681
     0.666666687         0.333333343         0.687533319
     0.666666687         0.333333343         0.979133308
     0.000000000         0.000000000         0.854200006
     0.373843670         0.040510330         0.083333328
     0.666666687         0.626156330         0.083333328
     0.292822987         0.292822987         0.250000000
     0.000000000         0.707176983         0.250000000
     0.959489644         0.333333343         0.083333328
     0.707176983         0.000000000         0.250000000
     0.040510330         0.373843670         0.416666657
     0.333333343         0.959489644         0.416666657
     0.959489644         0.626156330         0.583333313
     0.666666687         0.040510330         0.583333313
     0.626156330         0.666666687         0.416666657
     0.373843670         0.333333343         0.583333313
     0.707176983         0.707176983         0.750000000
     0.000000000         0.292822987         0.750000000
     0.626156330         0.959489644         0.916666687
     0.333333343         0.373843670         0.916666687
     0.292822987         0.000000000         0.750000000
     0.040510330         0.666666687         0.916666687
     0.688463986         0.166723996         0.247721002
     0.478260010         0.311536014         0.247721002
     0.833275974         0.521740019         0.247721002
     0.521740019         0.833275974         0.252279013
     0.311536014         0.478260010         0.252279013
     0.166723996         0.688463986         0.252279013
     0.978202641         0.166609332         0.085612327
     0.188406676         0.021797329         0.085612327
     0.833390653         0.811593354         0.085612327
     0.144926667         0.500057340         0.081054330
     0.355130672         0.855073333         0.081054330
     0.499942660         0.644869328         0.081054330
     0.980436683         0.792862356         0.306873322
     0.207137674         0.187574327         0.306873322
     0.812425673         0.019563330         0.306873322
     0.019563330         0.812425673         0.193126664
     0.187574327         0.207137674         0.193126664
     0.792862356         0.980436683         0.193126664
     0.686230004         0.540471017         0.026459999
     0.459529012         0.145759001         0.026459999
     0.854241014         0.313769996         0.026459999
     0.647103310         0.520907640         0.140206665
     0.479092330         0.126195669         0.140206665
     0.873804331         0.352896661         0.140206665
     0.355130672         0.500057340         0.581054330
     0.144926667         0.644869328         0.581054330
     0.499942660         0.855073333         0.581054330
     0.188406676         0.166609332         0.585612357
     0.978202641         0.811593354         0.585612357
     0.833390653         0.021797329         0.585612357
     0.644869328         0.499942660         0.418945670
     0.855073333         0.355130672         0.418945670
     0.500057340         0.144926667         0.418945670
     0.811593354         0.833390653         0.414387673
     0.021797329         0.188406676         0.414387673
     0.166609332         0.978202641         0.414387673
     0.647103310         0.126195669         0.640206695
     0.873804331         0.520907640         0.640206695
     0.479092330         0.352896661         0.640206695
     0.686230004         0.145759001         0.526459992
     0.854241014         0.540471017         0.526459992
     0.459529012         0.313769996         0.526459992
     0.352896661         0.873804331         0.359793335
     0.126195669         0.479092330         0.359793335
     0.520907640         0.647103310         0.359793335
     0.313769996         0.854241014         0.473540008
     0.145759001         0.459529012         0.473540008
     0.540471017         0.686230004         0.473540008
     0.021797329         0.833390653         0.914387643
     0.811593354         0.978202641         0.914387643
     0.166609332         0.188406676         0.914387643
     0.855073333         0.499942660         0.918945670
     0.644869328         0.144926667         0.918945670
     0.500057340         0.355130672         0.918945670
     0.311536014         0.833275974         0.752278984
     0.521740019         0.688463986         0.752278984
     0.166723996         0.478260010         0.752278984
     0.478260010         0.166723996         0.747721016
     0.688463986         0.521740019         0.747721016
     0.833275974         0.311536014         0.747721016
     0.313769996         0.459529012         0.973540008
     0.540471017         0.854241014         0.973540008
     0.145759001         0.686230004         0.973540008
     0.352896661         0.479092330         0.859793305
     0.520907640         0.873804331         0.859793305
     0.126195669         0.647103310         0.859793305
     0.019563330         0.207137674         0.693126678
     0.792862356         0.812425673         0.693126678
     0.187574327         0.980436683         0.693126678
     0.980436683         0.187574327         0.806873322
     0.812425673         0.792862356         0.806873322
     0.207137674         0.019563330         0.806873322
