Ca16 Ni32 O64                           
   1.00000000000000     
     9.4388296518681276   -0.0000017981809176   -2.5806932002748550
     0.0000003364128401   11.2977856207670371    0.0000126314747684
    -0.1775234458701847    0.0000128762570770   10.8141222284541705
   Ca   Ni   O 
     1    32    64
Direct
  0.3347310446962689  0.8750003009002286  0.5018061655274293
  0.9987853281161752  0.2499030194657314  0.2433269643588795
  0.0018512265340161  0.2501891520125146  0.7576887370624247
  0.9963032101385587  0.7502037332671099  0.2392908987015374
  0.0028116444568593  0.7495922487079378  0.7596123079481210
  0.4985003432182992  0.2503027486342639  0.2421077851751991
  0.5022448877601575  0.2502107388582365  0.7584605176107306
  0.4970961121520600  0.7490873231063563  0.2377351653812737
  0.5049126614057600  0.7492244862043145  0.7649215607394756
  0.9963025434967793  0.9997967210248992  0.2392906330210293
  0.0028119086702080  0.0004077581008021  0.7596123867601512
  0.9987853606575481  0.5000972692757935  0.2433268911562274
  0.0018513685396285  0.4998105710418670  0.7576887188434359
  0.4970959118129822  0.0009127663705591  0.2377355508687611
  0.5049119548065668  0.0007745295841529  0.7649207234378037
  0.4985005023080371  0.4996973959234041  0.2421079688450837
  0.5022447407396550  0.4997891201217169  0.7584606563074126
  0.2479154620958815  0.1255669209929354  0.2392641633958130
  0.2522397717136697  0.1259094765889700  0.7597838092460268
  0.2479156513843186  0.6244332596144064  0.2392638245676622
  0.2522400564578118  0.6240894420245329  0.7597844893999702
  0.7482951902770547  0.1252246669271076  0.2421797823084349
  0.7526420932036697  0.1250353891500239  0.7585250079440877
  0.7482957954369824  0.6247755136638713  0.2421803958088304
  0.7526423834347062  0.6249644588148698  0.7585251678779994
  0.2485681912215668  0.3749999568806677  0.2430651772608535
  0.2521814522090864  0.3750000698227916  0.7580180587431357
  0.2434085093818694  0.8750002977565944  0.2270762884215029
  0.2536864768132358  0.8749997320889363  0.7659700523839881
  0.7490819910561017  0.3750001897787686  0.2437220018059809
  0.7518166948612386  0.3749999892682765  0.7571470791929122
  0.7470146617423731  0.8750001570475504  0.2402998559814604
  0.7536226697158589  0.8749997459205677  0.7593403724968149
  0.0525809246985892  0.1259276764740883  0.1501622296848946
  0.0582201862419004  0.1245574820287896  0.6679353237290399
  0.0525814019394904  0.6240728774105165  0.1501621203113472
  0.0582201072177499  0.6254419110151456  0.6679353695728221
  0.5538708860764811  0.1256540376894992  0.1498669241637136
  0.5568932217260694  0.1232624495954354  0.6688359076659266
  0.5538718174788331  0.6243476370959831  0.1498674698801320
  0.5568924251331887  0.6267408365855210  0.6688378040740517
  0.4434622899786123  0.3749993285501691  0.3334881591594468
  0.4472127690176814  0.3749976190249130  0.8490079826612065
  0.4371392489919552  0.8749993146574148  0.3275976765077192
  0.4496830897374504  0.8749975515085395  0.8566592998741559
  0.9439536790969359  0.3750000867342514  0.3349704138494807
  0.9465844077803661  0.3750003643759483  0.8482098320189986
  0.9426925473778902  0.8750002949795754  0.3310249077394997
  0.9463809096649975  0.8750002940024655  0.8502195336642787
  0.4418355624120656  0.1236664948092066  0.3310216387657445
  0.4478288167092370  0.1265861529040313  0.8521187421197797
  0.4418355560851042  0.6263341721418535  0.3310214042335798
  0.4478305923612703  0.6234164852103148  0.8521183218172748
  0.9433648583539147  0.1237615001502485  0.3331852887888525
  0.9467911437079946  0.1255165680487402  0.8492793476570095
  0.9433655255371883  0.6262377664029708  0.3331858101044065
  0.9467916657305343  0.6244816234541211  0.8492793960988254
  0.0538444441526099  0.3750005704798524  0.1528026692778722
  0.0574906061800921  0.3750008433354058  0.6667530100260335
  0.0475045495897094  0.8750008549754457  0.1435928009729376
  0.0608071522615480  0.8750006852985444  0.6702678286799226
  0.5541737026184154  0.3750000109923292  0.1520066027529424
  0.5567734264264553  0.3749995731131189  0.6664962434390651
  0.5534734725566050  0.8749999897370515  0.1477888229367332
  0.5545491725338955  0.8749972687347064  0.6686301786010986
  0.1940549113561222  0.2488876842978225  0.3336053262877828
  0.1970861694402780  0.2500627869379152  0.8492805506006373
  0.1944176969949669  0.7538991557719872  0.3293189451100028
  0.1968831183766629  0.7488384535465608  0.8529509779289672
  0.6929328722801743  0.2495387653146061  0.3337854305095264
  0.6971200405806361  0.2503791788045654  0.8486626491898980
  0.6910279777211948  0.7505444132031353  0.3312932535550523
  0.6993676397743569  0.7495107540603315  0.8518758798159203
  0.3021835939008623  0.0027935346814569  0.1428981410753378
  0.3094324837119443  0.9978418795643295  0.6696730918181243
  0.3029405723870420  0.4992542584458668  0.1507136088961628
  0.3074302399008927  0.5003739778088434  0.6675213836907704
  0.8030261975907788  0.0007134269504128  0.1498715379318029
  0.8080473356900493  0.9996011071877975  0.6678688475027188
  0.8042406677024579  0.4995877532960340  0.1525694845754881
  0.8071773319849003  0.5004081094510254  0.6664503626412817
  0.3029409370023395  0.2507463191994121  0.1507136464091031
  0.3074305458136923  0.2496264497883528  0.6675214377785785
  0.3021841371149999  0.7472071607389280  0.1428981802199698
  0.3094367612770390  0.7521580696092033  0.6696748588866074
  0.8042401220238775  0.2504134776410412  0.1525688280910707
  0.8071760509851245  0.2495921231255669  0.6664503665297704
  0.8030256899505318  0.7492872569613189  0.1498718505665850
  0.8080463086266134  0.7503995931090111  0.6678684895842951
  0.1940550425855163  0.5011120577314131  0.3336052190465866
  0.1970848862593719  0.4999361489170062  0.8492809790125783
  0.1944167627243118  0.9961007246847925  0.3293188625031011
  0.1968819051186825  0.0011611041660598  0.8529498595227902
  0.6929333924526175  0.5004610607545448  0.3337855206245290
  0.6971207273665030  0.4996201289197140  0.8486633048205018
  0.6910282477609868  0.9994551943137220  0.3312933572257846
  0.6993716736546669  0.0004884205602318  0.8518775486394492
 
  0.00000000E+00  0.00000000E+00  0.00000000E+00
  0.00000000E+00  0.00000000E+00  0.00000000E+00
  0.00000000E+00  0.00000000E+00  0.00000000E+00
  0.00000000E+00  0.00000000E+00  0.00000000E+00
  0.00000000E+00  0.00000000E+00  0.00000000E+00
  0.00000000E+00  0.00000000E+00  0.00000000E+00
  0.00000000E+00  0.00000000E+00  0.00000000E+00
  0.00000000E+00  0.00000000E+00  0.00000000E+00
  0.00000000E+00  0.00000000E+00  0.00000000E+00
  0.00000000E+00  0.00000000E+00  0.00000000E+00
  0.00000000E+00  0.00000000E+00  0.00000000E+00
  0.00000000E+00  0.00000000E+00  0.00000000E+00
  0.00000000E+00  0.00000000E+00  0.00000000E+00
  0.00000000E+00  0.00000000E+00  0.00000000E+00
  0.00000000E+00  0.00000000E+00  0.00000000E+00
  0.00000000E+00  0.00000000E+00  0.00000000E+00
  0.00000000E+00  0.00000000E+00  0.00000000E+00
  0.00000000E+00  0.00000000E+00  0.00000000E+00
  0.00000000E+00  0.00000000E+00  0.00000000E+00
  0.00000000E+00  0.00000000E+00  0.00000000E+00
  0.00000000E+00  0.00000000E+00  0.00000000E+00
  0.00000000E+00  0.00000000E+00  0.00000000E+00
  0.00000000E+00  0.00000000E+00  0.00000000E+00
  0.00000000E+00  0.00000000E+00  0.00000000E+00
  0.00000000E+00  0.00000000E+00  0.00000000E+00
  0.00000000E+00  0.00000000E+00  0.00000000E+00
  0.00000000E+00  0.00000000E+00  0.00000000E+00
  0.00000000E+00  0.00000000E+00  0.00000000E+00
  0.00000000E+00  0.00000000E+00  0.00000000E+00
  0.00000000E+00  0.00000000E+00  0.00000000E+00
  0.00000000E+00  0.00000000E+00  0.00000000E+00
  0.00000000E+00  0.00000000E+00  0.00000000E+00
  0.00000000E+00  0.00000000E+00  0.00000000E+00
  0.00000000E+00  0.00000000E+00  0.00000000E+00
  0.00000000E+00  0.00000000E+00  0.00000000E+00
  0.00000000E+00  0.00000000E+00  0.00000000E+00
  0.00000000E+00  0.00000000E+00  0.00000000E+00
  0.00000000E+00  0.00000000E+00  0.00000000E+00
  0.00000000E+00  0.00000000E+00  0.00000000E+00
  0.00000000E+00  0.00000000E+00  0.00000000E+00
  0.00000000E+00  0.00000000E+00  0.00000000E+00
  0.00000000E+00  0.00000000E+00  0.00000000E+00
  0.00000000E+00  0.00000000E+00  0.00000000E+00
  0.00000000E+00  0.00000000E+00  0.00000000E+00
  0.00000000E+00  0.00000000E+00  0.00000000E+00
  0.00000000E+00  0.00000000E+00  0.00000000E+00
  0.00000000E+00  0.00000000E+00  0.00000000E+00
  0.00000000E+00  0.00000000E+00  0.00000000E+00
  0.00000000E+00  0.00000000E+00  0.00000000E+00
  0.00000000E+00  0.00000000E+00  0.00000000E+00
  0.00000000E+00  0.00000000E+00  0.00000000E+00
  0.00000000E+00  0.00000000E+00  0.00000000E+00
  0.00000000E+00  0.00000000E+00  0.00000000E+00
  0.00000000E+00  0.00000000E+00  0.00000000E+00
  0.00000000E+00  0.00000000E+00  0.00000000E+00
  0.00000000E+00  0.00000000E+00  0.00000000E+00
  0.00000000E+00  0.00000000E+00  0.00000000E+00
  0.00000000E+00  0.00000000E+00  0.00000000E+00
  0.00000000E+00  0.00000000E+00  0.00000000E+00
  0.00000000E+00  0.00000000E+00  0.00000000E+00
  0.00000000E+00  0.00000000E+00  0.00000000E+00
  0.00000000E+00  0.00000000E+00  0.00000000E+00
  0.00000000E+00  0.00000000E+00  0.00000000E+00
  0.00000000E+00  0.00000000E+00  0.00000000E+00
  0.00000000E+00  0.00000000E+00  0.00000000E+00
  0.00000000E+00  0.00000000E+00  0.00000000E+00
  0.00000000E+00  0.00000000E+00  0.00000000E+00
  0.00000000E+00  0.00000000E+00  0.00000000E+00
  0.00000000E+00  0.00000000E+00  0.00000000E+00
  0.00000000E+00  0.00000000E+00  0.00000000E+00
  0.00000000E+00  0.00000000E+00  0.00000000E+00
  0.00000000E+00  0.00000000E+00  0.00000000E+00
  0.00000000E+00  0.00000000E+00  0.00000000E+00
  0.00000000E+00  0.00000000E+00  0.00000000E+00
  0.00000000E+00  0.00000000E+00  0.00000000E+00
  0.00000000E+00  0.00000000E+00  0.00000000E+00
  0.00000000E+00  0.00000000E+00  0.00000000E+00
  0.00000000E+00  0.00000000E+00  0.00000000E+00
  0.00000000E+00  0.00000000E+00  0.00000000E+00
  0.00000000E+00  0.00000000E+00  0.00000000E+00
  0.00000000E+00  0.00000000E+00  0.00000000E+00
  0.00000000E+00  0.00000000E+00  0.00000000E+00
  0.00000000E+00  0.00000000E+00  0.00000000E+00
  0.00000000E+00  0.00000000E+00  0.00000000E+00
  0.00000000E+00  0.00000000E+00  0.00000000E+00
  0.00000000E+00  0.00000000E+00  0.00000000E+00
  0.00000000E+00  0.00000000E+00  0.00000000E+00
  0.00000000E+00  0.00000000E+00  0.00000000E+00
  0.00000000E+00  0.00000000E+00  0.00000000E+00
  0.00000000E+00  0.00000000E+00  0.00000000E+00
  0.00000000E+00  0.00000000E+00  0.00000000E+00
  0.00000000E+00  0.00000000E+00  0.00000000E+00
  0.00000000E+00  0.00000000E+00  0.00000000E+00
  0.00000000E+00  0.00000000E+00  0.00000000E+00
  0.00000000E+00  0.00000000E+00  0.00000000E+00
  0.00000000E+00  0.00000000E+00  0.00000000E+00
  0.00000000E+00  0.00000000E+00  0.00000000E+00
