La16 Mg8 S32
1.0
       11.6676664352         0.0000000000         0.0000000000
        0.0000000000        11.6676664352         0.0000000000
        0.0000000000         0.0000000000        11.6676664352
Mg   La   Mg    S
1   16    6   32
Direct
     0.500000000         0.500000000         0.500000000
     0.375000000         0.125000000         0.375000000
     0.875000000         0.875000000         0.125000000
     0.625000000         0.875000000         0.375000000
     0.125000000         0.125000000         0.125000000
     0.375000000         0.625000000         0.875000000
     0.875000000         0.375000000         0.625000000
     0.625000000         0.375000000         0.875000000
     0.125000000         0.625000000         0.625000000
     0.875000000         0.125000000         0.875000000
     0.375000000         0.875000000         0.625000000
     0.125000000         0.875000000         0.875000000
     0.625000000         0.125000000         0.625000000
     0.875000000         0.625000000         0.375000000
     0.375000000         0.375000000         0.125000000
     0.125000000         0.375000000         0.375000000
     0.625000000         0.625000000         0.125000000
     0.000000000         0.000000000         0.500000000
     0.250000000         0.750000000         0.250000000
     0.000000000         0.500000000         0.000000000
     0.500000000         0.000000000         0.000000000
     0.750000000         0.750000000         0.750000000
     0.750000000         0.250000000         0.250000000
     0.377034992         0.877035022         0.377034992
     0.877035022         0.122965001         0.122965001
     0.122965001         0.877035022         0.122965001
     0.622964978         0.122965001         0.377034992
     0.127035007         0.127035007         0.372965008
     0.127035007         0.372965008         0.127035007
     0.372965008         0.127035007         0.127035007
     0.372965008         0.372965008         0.372965008
     0.377034992         0.377034992         0.877035022
     0.877035022         0.622964978         0.622964978
     0.122965001         0.377034992         0.622964978
     0.622964978         0.622964978         0.877035022
     0.127035007         0.627035022         0.872964978
     0.127035007         0.872964978         0.627035022
     0.372965008         0.627035022         0.627035022
     0.372965008         0.872964978         0.872964978
     0.877035022         0.877035022         0.877035022
     0.377034992         0.122965001         0.622964978
     0.622964978         0.877035022         0.622964978
     0.122965001         0.122965001         0.877035022
     0.627035022         0.127035007         0.872964978
     0.627035022         0.372965008         0.627035022
     0.872964978         0.127035007         0.627035022
     0.872964978         0.372965008         0.872964978
     0.877035022         0.377034992         0.377034992
     0.377034992         0.622964978         0.122965001
     0.622964978         0.377034992         0.122965001
     0.122965001         0.622964978         0.377034992
     0.627035022         0.627035022         0.372965008
     0.627035022         0.872964978         0.127035007
     0.872964978         0.627035022         0.127035007
     0.872964978         0.872964978         0.372965008
