Ca1 V12 F42                             
   1.00000000000000     
     7.3826770000000002   -0.0055850000000000   -0.1114950000000000
    -3.6820110000000001    6.3757820000000001    0.0780870000000000
     0.2540660000000000   -0.0312260000000000   17.6046240000000012
   Ca   V    F 
     1    12    42
Direct
  0.2265204872821105  0.4617664664878791  0.3638209549953129
  0.2958468725184731  1.0013977164973284  0.3304570562869757
  0.7147040366862227  0.7135222575124324  0.9974320637798533
  1.0010073278521874  0.2853621002716535  0.6691689707140712
  0.3562614294907454  0.9957577374624313  0.8343988221386573
  0.6475919010115461  0.6684689075705265  0.5067023447364608
  0.9895646246168132  0.3382962529245433  0.1504269427960329
  0.6470087965865416  0.1663087651456996  0.5030603166920641
  0.4921915415844692  0.3396739109528553  0.1571903855130790
  0.8558847703897406  0.4968755964451622  0.8348660336682180
  0.3547119652481691  0.4945121645298673  0.8339381469337348
  0.1455431394462816  0.6746913947226232  0.5150081624566935
  0.4923881823897465  0.8394876126184033  0.1626232938261147
  0.5592885034757076  0.8086882079528800  0.0583323047153127
  0.2490114383869641  0.4153470396694830  0.7317334911318569
  0.1955325678770716  0.7575132524031654  0.4039106934310502
  0.4170984507057911  0.2451880886603018  0.2627892280245797
  0.8332783339571593  0.5817678022840632  0.9362194080187423
  0.7569381856767465  0.1935809791528116  0.6045504969045127
  0.8794003326629015  0.0625344540885698  0.7274258634390038
  0.1837516509110300  0.1469177883942087  0.3845708328638074
  0.9189662149553850  0.8057204346589939  0.0646132541416634
  0.1223635787483799  0.2070375055174396  0.6002285784095476
  0.0658981891043936  0.8468359407415248  0.2773917194287666
  0.8057764795093293  0.9288557266054509  0.9358708097635465
  0.1110797782336009  0.5592613806674115  0.6146962949455326
  0.4320654425289671  0.8655292238257906  0.2742657094517269
  0.4566004755066705  0.5619450964006375  0.9359742789719466
  0.8848048544994500  0.4235934471187006  0.7330442920719471
  0.5394231518055229  0.1351340644349383  0.3989030864496724
  0.5660179042426863  0.4474758942293634  0.0561491462643706
  0.3410463024388484  0.5735874145175021  0.4882283347180035
  0.2005088850836165  0.6311824124196664  0.1436574415258375
  0.4367046396229232  0.7848526126289075  0.8144038668098038
  0.6465408762117026  0.2074581218620266  0.8555868069100921
  0.5740219921745573  0.3804523379229084  0.5244426849792950
  0.7804032381758306  0.4183574821385050  0.1757227154107074
  0.6259190698768506  0.6113785124449361  0.4030988499893410
  0.9279779978952694  0.3134806893034799  0.0532099770409522
  0.3943332882139400  0.0679261669439684  0.7371956638240134
  0.3189556093231078  0.9230992957185783  0.9314983128499668
  0.5986540887083154  0.7054649760601603  0.6020289792147275
  0.0577315318755134  0.3666506036332595  0.2572530312985076
  0.9362426578245592  0.7582663649997368  0.5218299479743963
  0.7859452424457477  0.0505888473181284  0.1756853174044320
  0.2725835050328901  0.2034424466047917  0.8538979597159589
  0.0658415421281433  0.7868172213605656  0.8134409847247077
  0.7265454286200853  0.9568292739825137  0.4805189148747044
  0.2048860980500385  0.2609080749093967  0.1366515663185602
  0.6301220115867168  0.5453570831871936  0.8042032623522816
  0.9320652020610918  0.3961007336815722  0.4692905571740919
  0.4337715616852800  0.0552959328041719  0.1319033140829053
  0.3740295820237505  0.9500060302779182  0.5399024310430218
  0.5414403972046417  0.6165393595099493  0.1949711538478326
  0.0807136968564681  0.4460682111137456  0.8644305379976347
 
             NaN             NaN             NaN
             NaN             NaN             NaN
             NaN             NaN             NaN
             NaN             NaN             NaN
             NaN             NaN             NaN
             NaN             NaN             NaN
             NaN             NaN             NaN
             NaN             NaN             NaN
             NaN             NaN             NaN
             NaN             NaN             NaN
             NaN             NaN             NaN
             NaN             NaN             NaN
             NaN             NaN             NaN
             NaN             NaN             NaN
             NaN             NaN             NaN
             NaN             NaN             NaN
             NaN             NaN             NaN
             NaN             NaN             NaN
             NaN             NaN             NaN
             NaN             NaN             NaN
             NaN             NaN             NaN
             NaN             NaN             NaN
             NaN             NaN             NaN
             NaN             NaN             NaN
             NaN             NaN             NaN
             NaN             NaN             NaN
             NaN             NaN             NaN
             NaN             NaN             NaN
             NaN             NaN             NaN
             NaN             NaN             NaN
             NaN             NaN             NaN
             NaN             NaN             NaN
             NaN             NaN             NaN
             NaN             NaN             NaN
             NaN             NaN             NaN
             NaN             NaN             NaN
             NaN             NaN             NaN
             NaN             NaN             NaN
             NaN             NaN             NaN
             NaN             NaN             NaN
             NaN             NaN             NaN
             NaN             NaN             NaN
             NaN             NaN             NaN
             NaN             NaN             NaN
             NaN             NaN             NaN
             NaN             NaN             NaN
             NaN             NaN             NaN
             NaN             NaN             NaN
             NaN             NaN             NaN
             NaN             NaN             NaN
             NaN             NaN             NaN
             NaN             NaN             NaN
             NaN             NaN             NaN
             NaN             NaN             NaN
             NaN             NaN             NaN
