Ca1 V12 F42
1.0
7.382677 -0.005585 -0.111495
-3.682011 6.375782 0.078087
0.254066 -0.031226 17.604624
Ca V F
1 12 42
direct
1.218785 0.501514 0.337774 Ca
0.295524 -0.001122 0.333313 V
0.715337 0.715281 0.998042 V
-0.000012 0.285453 0.668279 V
0.352158 0.999024 0.833161 V
0.651649 0.653568 0.506290 V
0.993368 0.344870 0.159999 V
0.650439 0.150587 0.501766 V
0.495977 0.346519 0.161175 V
0.852224 0.499074 0.832942 V
0.352380 0.499071 0.833758 V
0.147128 0.651881 0.505676 V
0.496585 0.846474 0.164947 V
0.575593 0.820503 0.062805 F
0.248117 0.425275 0.730654 F
0.184702 0.735549 0.395979 F
0.436460 0.262021 0.270646 F
0.824949 0.578154 0.935099 F
0.752425 0.180220 0.604658 F
0.880299 0.068517 0.729532 F
0.208565 0.149107 0.391315 F
0.928616 0.806934 0.061417 F
0.121830 0.198013 0.603260 F
0.069510 0.868857 0.273476 F
0.810613 0.932998 0.936934 F
0.108971 0.547967 0.607856 F
0.427105 0.860738 0.273942 F
0.457069 0.569713 0.936364 F
0.884304 0.428971 0.730425 F
0.556471 0.120308 0.394526 F
0.567062 0.454967 0.059646 F
0.353198 0.563740 0.481234 F
0.206639 0.636724 0.144273 F
0.434985 0.790292 0.813863 F
0.643721 0.208743 0.853637 F
0.573064 0.361955 0.518746 F
0.790048 0.433361 0.184175 F
0.663253 0.615625 0.399371 F
0.918127 0.308162 0.064387 F
0.389523 0.069783 0.736357 F
0.316349 0.929211 0.930106 F
0.605624 0.683737 0.602457 F
0.065518 0.386377 0.264029 F
0.941354 0.739060 0.517570 F
0.786790 0.056691 0.186693 F
0.268552 0.206839 0.853020 F
0.061585 0.790619 0.812400 F
0.731910 0.942787 0.482661 F
0.201493 0.262673 0.145447 F
0.625136 0.546271 0.802876 F
0.926316 0.377623 0.469634 F
0.445327 0.071046 0.136952 F
0.373712 0.928186 0.531732 F
0.539890 0.616180 0.201338 F
0.078852 0.451381 0.863826 F
