Na2 Ca2 V4 P2 S4 O24
1.0
8.969297 0.319405 0.162890
4.236079 7.916560 0.184932
4.136550 2.590165 7.495542
Ca Na V P S O
2 2 4 2 4 24
direct
0.849373 0.242022 0.588202 Ca
0.007682 0.974901 0.035231 Ca
0.411850 0.106704 0.753409 Na
0.585425 0.841004 0.262249 Na
0.362953 0.368061 0.356540 V
0.648508 0.654555 0.644041 V
0.148123 0.148007 0.145076 V
0.849344 0.838137 0.854791 V
0.754989 0.041877 0.442501 P
0.457220 0.752260 0.040533 P
0.039160 0.437786 0.751425 S
0.964895 0.552777 0.245320 S
0.242519 0.976473 0.562336 S
0.546307 0.252557 0.955473 S
0.210208 0.442357 0.599363 O
0.792823 0.554431 0.408693 O
0.583659 0.214215 0.451890 O
0.398307 0.804606 0.556036 O
0.451016 0.581668 0.203329 O
0.569857 0.407824 0.782591 O
0.910667 0.084356 0.262854 O
0.084637 0.947535 0.736468 O
0.081094 0.253662 0.898468 O
0.916495 0.733263 0.099706 O
0.268402 0.914179 0.072770 O
0.731707 0.096777 0.921865 O
0.515944 0.281069 0.116387 O
0.487295 0.744362 0.859031 O
0.111901 0.541425 0.283588 O
0.899064 0.445290 0.699027 O
0.287712 0.117918 0.554754 O
0.724775 0.881715 0.453452 O
0.402775 0.200482 0.977061 O
0.602122 0.815797 0.016532 O
0.170006 0.049752 0.411819 O
0.809779 0.998369 0.605791 O
1.006973 0.400324 0.194589 O
-0.031221 0.582866 0.824834 O
