Na2 Ca2 V4 Si2 P4 O24
1.0
8.860590 0.125605 0.112529
4.293117 7.668161 0.069032
4.446076 2.522500 7.222278
Ca Na V Si P O
2 2 4 2 4 24
direct
0.499986 0.499991 0.499984 Ca
0.999998 0.999999 0.000006 Ca
0.101709 0.750054 0.399198 Na
0.898330 0.249918 0.600783 Na
0.361453 0.354572 0.345884 V
0.638538 0.645458 0.654138 V
0.154686 0.145693 0.138576 V
0.845307 0.854318 0.861433 V
0.455759 0.750220 0.043974 Si
0.544209 0.249754 0.956093 Si
0.032365 0.455502 0.753623 P
0.967671 0.544483 0.246378 P
0.746043 0.044706 0.466955 P
0.253939 0.955331 0.533032 P
0.223058 0.432960 0.586634 O
0.776949 0.567036 0.413322 O
0.575282 0.222293 0.445179 O
0.424673 0.777724 0.554813 O
0.432484 0.581894 0.243964 O
0.567499 0.418067 0.756053 O
0.915165 0.064274 0.277783 O
0.084834 0.935727 0.722224 O
0.050899 0.280093 0.927004 O
0.949070 0.719921 0.073019 O
0.257207 0.920367 0.064183 O
0.742801 0.079639 0.935799 O
0.496500 0.307631 0.129880 O
0.503482 0.692386 0.870137 O
0.121437 0.530375 0.293080 O
0.878586 0.469587 0.706953 O
0.277495 0.135593 0.491970 O
0.722534 0.864438 0.507994 O
0.369671 0.194081 0.002808 O
0.630353 0.805911 0.997194 O
0.209240 0.969282 0.377670 O
0.790746 0.030724 0.622334 O
0.008696 0.362289 0.226143 O
0.991299 0.637716 0.773849 O
