ADDGRID = True
ALGO = Normal
EDIFF = 1e-05
EDIFFG = -0.01
ENCUT = 520
IBRION = 2
ICHARG = 1
ISIF = 3
ISMEAR = 0
ISPIN = 2
ISYM = 0
LASPH = True
LORBIT = 11
LPLANE = True
LREAL = Auto
LWAVE = False
MAGMOM = 57*0.06
NCORE = 16
NELM = 100
NELMIN = 4
NSIM = 4
NSW = 150
PREC = Accurate
SIGMA = 0.05
