Na2 Ca2 V4 P4 S2 O24                    
   1.00000000000000     
     8.9608580000000000    0.2635680000000000    0.1188080000000000
     4.4128930000000004    7.7939920000000003    0.1530740000000000
     4.3406459999999996    2.6485759999999998    7.3341349999999998
   Ca   Na   V    P    S    O 
     2     2     4     4     2    24
Direct
  0.4475160275055880  0.2023210838207327  0.7356395911729954
  0.0100895595501635  0.9814577505183103  0.0116028983251696
  0.7246923169231678  0.4329583255951327  0.2027213122121735
  0.5944853733984281  0.8690617677543339  0.2406563823408768
  0.3509897233990807  0.3739117232216317  0.3378362039318336
  0.6439871097961886  0.6355340853413548  0.6333847514411796
  0.1467898625103897  0.1462236456543388  0.1514509119131973
  0.8565380200866001  0.8569506883377381  0.8495470015945642
  0.9611270964901842  0.5458418950064396  0.2464856823909112
  0.7486520265629200  0.0311846004221330  0.4474342133791784
  0.4634533686047778  0.7565635356772518  0.0221280270615419
  0.5546014924601080  0.2546986166848174  0.9627783395075521
  0.0365159641914688  0.4572875606050701  0.7423524844050496
  0.2426102785653755  0.9656594250592249  0.5454596536236332
  0.2203814249355906  0.4329033113030372  0.5906275497315964
  0.7709159079818760  0.5680291016336869  0.4020535339577607
  0.5755426746678167  0.2175001703628817  0.4314819763867550
  0.4078775943134443  0.7932026861036154  0.5509484372793644
  0.4207082715754945  0.6022252948224019  0.2083673863019545
  0.5576428220382933  0.4063152445609523  0.7706359934938387
  0.9119473300188008  0.0733906602585512  0.2672875525724794
  0.0926388733504025  0.9379212985108002  0.7289916743592202
  0.0701735811172882  0.2767833319914391  0.9034837300404780
  0.9363330573805306  0.7330733621152554  0.0803273013791739
  0.2913513242167571  0.9428772776370024  0.0205316427201076
  0.7386033865746384  0.0832334143727722  0.9464398345774215
  0.5287303480879748  0.3136132686863046  0.1090587867415242
  0.5075383044982391  0.7172730288819673  0.8535902774423185
  0.1147530695299861  0.5197695789563633  0.2962986664215501
  0.8928689295441985  0.4711736916255695  0.6973762682189352
  0.2841615300329684  0.1239098680689334  0.5074096875070347
  0.7186058775288553  0.8717275221132593  0.4591706811828261
  0.3988552328003459  0.1835727806337065  1.0232544757066757
  0.6252539897026825  0.7858584097831147  0.0126966653981541
  0.1804462721299203 -0.0036652951552294  0.4039641193844440
  0.7647597751550961  1.0030934272108534  0.6261352378942735
  1.0022085080197725  0.3880284287973215  0.1912144776982118
 -0.0068110045324790  0.6115915325089456  0.7903927904856939
 
             NaN             NaN             NaN
             NaN             NaN             NaN
             NaN             NaN             NaN
             NaN             NaN             NaN
             NaN             NaN             NaN
             NaN             NaN             NaN
             NaN             NaN             NaN
             NaN             NaN             NaN
             NaN             NaN             NaN
             NaN             NaN             NaN
             NaN             NaN             NaN
             NaN             NaN             NaN
             NaN             NaN             NaN
             NaN             NaN             NaN
             NaN             NaN             NaN
             NaN             NaN             NaN
             NaN             NaN             NaN
             NaN             NaN             NaN
             NaN             NaN             NaN
             NaN             NaN             NaN
             NaN             NaN             NaN
             NaN             NaN             NaN
             NaN             NaN             NaN
             NaN             NaN             NaN
             NaN             NaN             NaN
             NaN             NaN             NaN
             NaN             NaN             NaN
             NaN             NaN             NaN
             NaN             NaN             NaN
             NaN             NaN             NaN
             NaN             NaN             NaN
             NaN             NaN             NaN
             NaN             NaN             NaN
             NaN             NaN             NaN
             NaN             NaN             NaN
             NaN             NaN             NaN
             NaN             NaN             NaN
             NaN             NaN             NaN
