Na2 Ca2 V4 P4 S2 O24
1.0
8.960858 0.263568 0.118808
4.412893 7.793992 0.153074
4.340646 2.648576 7.334135
Ca Na V P S O
2 2 4 4 2 24
direct
0.450693 0.250675 0.658724 Ca
0.003668 0.983365 0.011768 Ca
0.698156 0.433860 0.229395 Na
0.601692 0.891502 0.244254 Na
0.353513 0.354980 0.344114 V
0.647746 0.646805 0.637063 V
0.146160 0.154089 0.141127 V
0.851227 0.852532 0.854408 V
0.956772 0.542383 0.248203 P
0.756292 0.031340 0.444763 P
0.463641 0.751518 0.034866 P
0.543911 0.253081 0.954956 P
0.046201 0.456865 0.739986 S
0.243326 0.963037 0.551133 S
0.228511 0.431631 0.588052 O
0.768160 0.566994 0.409213 O
0.583917 0.216851 0.430471 O
0.409745 0.789400 0.550821 O
0.444715 0.573954 0.197902 O
0.559215 0.429893 0.792673 O
0.917545 0.072002 0.263584 O
0.093165 0.926735 0.730490 O
0.070031 0.270330 0.897762 O
0.931139 0.734711 0.086845 O
0.276694 0.919468 0.057185 O
0.732745 0.087406 0.927903 O
0.505604 0.260322 0.138088 O
0.512211 0.743761 0.848448 O
0.117112 0.501412 0.297029 O
0.898495 0.487962 0.688905 O
0.286229 0.110091 0.537890 O
0.719554 0.878244 0.450642 O
0.389951 0.207702 -0.026831 O
0.614969 0.788045 0.034578 O
0.189376 1.016240 0.396137 O
0.783041 0.987441 0.621018 O
0.982099 0.393537 0.190188 O
0.009894 0.601533 0.798315 O
