Na2 Ca2 V4 P2 S4 O24                    
   1.00000000000000     
     8.9708330000000007    0.3500000000000000    0.1694730000000000
     4.2637390000000002    7.9026519999999998    0.1833940000000000
     4.1526680000000002    2.5921979999999998    7.4540300000000004
   Ca   Na   V    P    S    O 
     2     2     4     2     4    24
Direct
  0.6972192974339958  0.3439740681032433  0.4987311692664684
  0.0147283557615055  0.9865826758442126  0.0102681553152882
  0.4055807436882957  0.0882987822776286  0.7562862533505504
  0.5828671374807040  0.8772174327547542  0.2533886866968769
  0.3548192163746406  0.3659828630826830  0.3584536450586272
  0.6458164758355411  0.6517138041305661  0.6515528229483323
  0.1455784139934716  0.1481267823888507  0.1470804452480300
  0.8526368933933518  0.8483507628411232  0.8501391261257984
  0.7578490325143178  0.0325046569065342  0.4413889346670560
  0.4602051084412583  0.7468654660982097  0.0524626717109489
  0.0462655120337819  0.4472682262964953  0.7522564586279420
  0.9595864875035410  0.5547798985745630  0.2485211397535180
  0.2424205541243883  0.9689313568961779  0.5599347327626113
  0.5455179923059340  0.2507897838510446  0.9555833757926256
  0.2238148958679921  0.4350019777329193  0.6016500875991323
  0.7783838232277206  0.5862217356306916  0.4009772825568922
  0.5825317311958126  0.2110507108368203  0.4447385668143125
  0.4052296107340107  0.7967231913391598  0.5607777799757757
  0.4529242622744044  0.5779726717889910  0.2229684218828953
  0.5805337644985434  0.3986410717728042  0.7749531059762126
  0.9095667947096888  0.0779985616277449  0.2588477460139198
  0.0879076003406031  0.9357218773459115  0.7339887561412498
  0.0783511424476414  0.2602408259534776  0.9015277711391156
  0.9362895451569790  0.7269162416886837  0.0890709577403116
  0.2699962177756979  0.9118494397780829  0.0761096631043337
  0.7225524444258734  0.0862327531567535  0.9499958172857529
  0.4982493224909001  0.3021788451738891  0.1089977338012052
  0.4897279009731308  0.7294047315400431  0.8754175689502505
  0.1091291310545662  0.5255448330014258  0.2937064591934824
  0.9008899276531813  0.4742420715579398  0.6981319966500928
  0.2825257924051001  0.1147166701663301  0.5528488184118021
  0.7193059220509784  0.8772758923684293  0.4595150570213631
  0.4015765997064324  0.2029222828598066  0.9706673771293118
  0.6074786263525286  0.8090072347094940  0.0240581096502232
  0.1911684062074967  0.0272652603528240  0.4006727106906707
  0.8023403438073997  1.0090915743012863  0.6018845748870205
  0.9762208035353720  0.3961502510211876  0.2199724518605319
  0.9978399287001927  0.5872439590434761  0.8243411143028928
 
             NaN             NaN             NaN
             NaN             NaN             NaN
             NaN             NaN             NaN
             NaN             NaN             NaN
             NaN             NaN             NaN
             NaN             NaN             NaN
             NaN             NaN             NaN
             NaN             NaN             NaN
             NaN             NaN             NaN
             NaN             NaN             NaN
             NaN             NaN             NaN
             NaN             NaN             NaN
             NaN             NaN             NaN
             NaN             NaN             NaN
             NaN             NaN             NaN
             NaN             NaN             NaN
             NaN             NaN             NaN
             NaN             NaN             NaN
             NaN             NaN             NaN
             NaN             NaN             NaN
             NaN             NaN             NaN
             NaN             NaN             NaN
             NaN             NaN             NaN
             NaN             NaN             NaN
             NaN             NaN             NaN
             NaN             NaN             NaN
             NaN             NaN             NaN
             NaN             NaN             NaN
             NaN             NaN             NaN
             NaN             NaN             NaN
             NaN             NaN             NaN
             NaN             NaN             NaN
             NaN             NaN             NaN
             NaN             NaN             NaN
             NaN             NaN             NaN
             NaN             NaN             NaN
             NaN             NaN             NaN
             NaN             NaN             NaN
