Na2 Ca2 V4 P2 S4 O24
1.0
8.970833 0.350000 0.169473
4.263739 7.902652 0.183394
4.152668 2.592198 7.454030
Ca Na V P S O
2 2 4 2 4 24
direct
0.679295 0.369185 0.534926 Ca
0.005618 0.982864 0.026851 Ca
0.416920 0.092337 0.751630 Na
0.589404 0.873786 0.256138 Na
0.356199 0.361656 0.356835 V
0.650441 0.654479 0.641335 V
0.146424 0.149319 0.143950 V
0.847517 0.842836 0.858127 V
0.754175 0.040942 0.444008 P
0.458589 0.749479 0.047538 P
0.043409 0.445172 0.750701 S
0.958469 0.550301 0.247699 S
0.241520 0.968540 0.560601 S
0.542828 0.256001 0.948299 S
0.221570 0.435642 0.599624 O
0.779635 0.562226 0.404466 O
0.583306 0.220247 0.446200 O
0.401370 0.792986 0.556383 O
0.438224 0.583382 0.218264 O
0.571020 0.408935 0.773328 O
0.912878 0.079333 0.264909 O
0.087207 0.937858 0.736173 O
0.075859 0.260526 0.899375 O
0.923307 0.733344 0.099782 O
0.271087 0.915711 0.066025 O
0.725084 0.096088 0.932751 O
0.497541 0.295898 0.108398 O
0.502266 0.729619 0.868050 O
0.102087 0.525959 0.299265 O
0.902609 0.466983 0.693073 O
0.290953 0.107884 0.551722 O
0.715400 0.889468 0.448711 O
0.402468 0.203205 0.964020 O
0.602472 0.804854 0.036327 O
0.179688 0.035124 0.405701 O
0.797402 0.990585 0.614428 O
0.998000 0.404020 0.189954 O
-0.009505 0.588402 0.818708 O
