Ca8 Ti12 F42
1.0
7.307119 -0.052267 -0.135217
-3.657165 6.514631 0.065170
0.122755 0.018113 18.963781
Ca Ti F
8 12 42
direct
0.817742 -0.027994 -0.172539 Ca
0.859746 0.495400 0.341318 Ca
0.527049 0.351029 0.664893 Ca
0.199871 0.160739 0.994521 Ca
0.030248 0.839302 0.670443 Ca
0.821695 0.979156 0.333873 Ca
-0.015976 0.786781 0.164137 Ca
0.196534 0.178372 0.494697 Ca
0.333225 0.992831 0.329790 Ti
0.020686 0.331963 0.653805 Ti
0.679130 0.678023 0.993849 Ti
0.371293 0.056969 0.829354 Ti
0.996255 0.314466 0.179752 Ti
0.713657 0.651553 0.496722 Ti
0.521101 0.854731 0.159959 Ti
0.155975 0.655344 0.499448 Ti
0.360314 0.488446 0.825449 Ti
0.809743 0.490660 0.823255 Ti
0.711014 0.210487 0.497498 Ti
0.514186 0.315731 0.157105 Ti
0.710351 0.196359 0.609987 F
0.800315 0.575754 0.923089 F
0.452419 0.243203 0.266932 F
0.193941 0.725640 0.389177 F
0.556479 0.790648 0.058142 F
0.288290 0.445761 0.718160 F
0.854670 0.970981 0.945474 F
0.023134 0.825591 0.283444 F
0.187544 0.170242 0.615798 F
0.965922 0.830888 0.049624 F
0.911324 0.063865 0.714841 F
0.162001 0.103757 0.381668 F
0.538431 0.392566 0.048029 F
0.646467 0.157726 0.381274 F
0.868278 0.474085 0.713699 F
0.393837 0.500391 0.937279 F
0.156882 0.646417 0.612441 F
0.499368 0.883966 0.272991 F
0.819241 0.462440 0.211960 F
0.535408 0.347640 0.532751 F
0.687416 0.184979 0.841755 F
0.447035 0.803905 0.823869 F
0.390210 0.570971 0.484284 F
0.201149 0.618177 0.158649 F
0.002447 0.311762 0.290088 F
0.710379 0.667744 0.611697 F
0.345122 0.021332 0.933353 F
0.362176 0.038922 0.719722 F
0.702527 0.665178 0.384018 F
0.713948 0.175813 0.122448 F
0.189855 0.246493 0.120030 F
0.808962 0.988987 0.468823 F
0.048686 0.817389 0.803902 F
0.176487 0.179783 0.851980 F
0.023464 0.836749 0.529162 F
0.843681 0.989669 0.201709 F
0.067942 0.458417 0.840140 F
0.582204 0.612488 0.176524 F
0.399176 0.972718 0.494395 F
0.333426 -0.003416 0.149681 F
0.662999 0.642307 0.777603 F
1.024573 0.343379 0.534802 F
