Li6 Ge12 P18 O72
1.0
        8.3892831802         0.0000000000         0.0000000000
       -4.1946415901         7.2653323536         0.0000000000
        0.0000000000         0.0000000000        20.7344417572
   Li   Ge    P    O
    5   12   18   72
Direct
   0.6666666870000000    0.3333333430000000    0.3333333430000000 Li
     0.000000000         0.000000000         0.000000000
     0.000000000         0.000000000         0.500000000
     0.666666687         0.333333343         0.833333313
     0.333333343         0.666666687         0.666666687
     0.333333343         0.666666687         0.307737678
     0.666666687         0.333333343         0.192262337
     0.333333343         0.666666687         0.025595671
     0.000000000         0.000000000         0.141071007
     0.000000000         0.000000000         0.641071022
     0.333333343         0.666666687         0.525595665
     0.000000000         0.000000000         0.358929008
     0.666666687         0.333333343         0.474404335
     0.666666687         0.333333343         0.974404335
     0.000000000         0.000000000         0.858928978
     0.666666687         0.333333343         0.692262352
     0.333333343         0.666666687         0.807737648
     0.954821646         0.621488333         0.083333328
     0.666666687         0.045178331         0.083333328
     0.378511667         0.333333343         0.083333328
     0.711844981         0.711844981         0.250000000
     0.000000000         0.288154989         0.250000000
     0.288154989         0.000000000         0.250000000
     0.621488333         0.954821646         0.416666657
     0.333333343         0.378511667         0.416666657
     0.045178331         0.666666687         0.416666657
     0.378511667         0.045178331         0.583333313
     0.666666687         0.621488333         0.583333313
     0.954821646         0.333333343         0.583333313
     0.288154989         0.288154989         0.750000000
     0.000000000         0.711844981         0.750000000
     0.711844981         0.000000000         0.750000000
     0.045178331         0.378511667         0.916666687
     0.333333343         0.954821646         0.916666687
     0.621488333         0.666666687         0.916666687
     0.848069668         0.529754341         0.021505330
     0.681684673         0.151930332         0.021505330
     0.470245659         0.318315327         0.021505330
     0.863087654         0.514736354         0.145161331
     0.651648641         0.136912331         0.145161331
     0.485263675         0.348351330         0.145161331
     0.818597019         0.803578973         0.311827987
     0.984982014         0.181402996         0.311827987
     0.196420997         0.015018000         0.311827987
     0.803578973         0.818597019         0.188171998
     0.015018000         0.196420997         0.188171998
     0.181402996         0.984982014         0.188171998
     0.517939985         0.692071021         0.248353004
     0.174131006         0.482059985         0.248353004
     0.307929009         0.825869024         0.248353004
     0.692071021         0.517939985         0.251646996
     0.825869024         0.307929009         0.251646996
     0.482059985         0.174131006         0.251646996
     0.148726672         0.641262352         0.084980331
     0.492535681         0.851273358         0.084980331
     0.358737677         0.507464349         0.084980331
     0.974595666         0.815393329         0.081686333
     0.840797663         0.025404330         0.081686333
     0.184606671         0.159202337         0.081686333
     0.514736354         0.863087654         0.354838669
     0.348351330         0.485263675         0.354838669
     0.136912331         0.651648641         0.354838669
     0.529754341         0.848069668         0.478494674
     0.318315327         0.470245659         0.478494674
     0.151930332         0.681684673         0.478494674
     0.485263675         0.136912331         0.645161331
     0.651648641         0.514736354         0.645161331
     0.863087654         0.348351330         0.645161331
     0.470245659         0.151930332         0.521505356
     0.681684673         0.529754341         0.521505356
     0.848069668         0.318315327         0.521505356
     0.184606671         0.025404330         0.581686318
     0.840797663         0.815393329         0.581686318
     0.974595666         0.159202337         0.581686318
     0.358737677         0.851273358         0.584980309
     0.492535681         0.641262352         0.584980309
     0.148726672         0.507464349         0.584980309
     0.815393329         0.974595666         0.418313682
     0.159202337         0.184606671         0.418313682
     0.025404330         0.840797663         0.418313682
     0.641262352         0.148726672         0.415019661
     0.507464349         0.358737677         0.415019661
     0.851273358         0.492535681         0.415019661
     0.181402996         0.196420997         0.688171983
     0.015018000         0.818597019         0.688171983
     0.803578973         0.984982014         0.688171983
     0.196420997         0.181402996         0.811828017
     0.984982014         0.803578973         0.811828017
     0.818597019         0.015018000         0.811828017
     0.151930332         0.470245659         0.978494644
     0.318315327         0.848069668         0.978494644
     0.529754341         0.681684673         0.978494644
     0.136912331         0.485263675         0.854838669
     0.348351330         0.863087654         0.854838669
     0.514736354         0.651648641         0.854838669
     0.851273358         0.358737677         0.915019691
     0.507464349         0.148726672         0.915019691
     0.641262352         0.492535681         0.915019691
     0.025404330         0.184606671         0.918313682
     0.159202337         0.974595666         0.918313682
     0.815393329         0.840797663         0.918313682
     0.482059985         0.307929009         0.751646996
     0.825869024         0.517939985         0.751646996
     0.692071021         0.174131006         0.751646996
     0.307929009         0.482059985         0.748353004
     0.174131006         0.692071021         0.748353004
     0.517939985         0.825869024         0.748353004
