Ca8 Mn12 F42                            
   1.00000000000000     
     7.6627489999999998   -0.0882530000000000   -0.0176710000000000
    -3.9135380000000000    6.7140829999999996    0.0646420000000000
    -0.0259720000000000    0.1743890000000000   18.4515029999999989
   Ca   Mn   F 
     8    12    42
Direct
  0.4531611269401203  0.6333314648189078  0.6675494669137352
  0.1671959864250179  0.6452764777727937  0.9989538191865943
  0.3442183273248358  0.4946102440912094  0.3504648082613814
  0.8296305317169838 -0.0052520903559273  0.3330343444251347
  0.1690478547873760  0.1595765908286684  0.0030481403611386
  0.8068937434917725  0.9274777008165858  0.8437549416919908
  0.9858011603355130  0.7811011452541542  0.1740602338549936
  0.1848483361973293  0.1743210660261191  0.5194612863416033
  0.3405969727344853  0.0233103700889691  0.3252080858306152
  0.9687732465919896  0.3159465926450587  0.6735868885615844
  0.6566173963977405  0.6653454156073606  0.0159001896918191
  0.3190502665337959 -0.0063270474001571  0.8358267227056725
  0.0093358565781423  0.3182267112037175  0.1707086216997135
  0.7374335559766925  0.6254416966583100  0.4955027627012438
  0.5089759749903956  0.8219826674352838  0.1677671021434629
  0.1975726528511952  0.6834867273115466  0.4963502545397186
  0.3081242543775271  0.4966910872197245  0.8477639362626082
  0.8057674179846639  0.5009686213426225  0.8246774385772706
  0.6976078427858501  0.1768375842988145  0.4854649457338784
  0.4933536065716927  0.3065725384521157  0.1622401377589352
  0.8173501993331941  0.2026000708552388  0.5841172504109999
  0.7325164510652660  0.6141053251784373  0.9114864839118038
  0.4371620508895928  0.3314498886487072  0.2691175740643231
  0.2534862415871776  0.7490739410467802  0.3832999661877682
  0.4811074552648945  0.7999670571043291  0.0538947774052543
  0.1882581577103849  0.4871532878200817  0.7485587830171740
  0.8398375147473631  0.9629877371766185  0.9676499567581089
  0.0362389507401361  0.8873607180746393  0.2871051979812657
  0.2198913943985015  0.2990769185223631  0.6327377603949592
 -0.0280266932924229  0.7546362978847219  0.0511019224643624
  0.8280565584945768  0.0575895947054511  0.7347300599951604
  0.2528257488892259  0.1700964478207218  0.3953975590677059
  0.5094143279663533  0.3472331907778910  0.0485589670395532
  0.6233643174394736  0.1250837439173708  0.3744552678022876
  0.8146137293804904  0.4291505770132228  0.7236915807342171
  0.3497636974677597  0.4969889487172789  0.9602005306636615
  0.1776348602806829  0.6084375982183556  0.6058746322182912
  0.5211067153214529  0.7665211042852199  0.2779283704958537
  0.8014406213753270  0.4166004518252261  0.1792364806230230
  0.5311514630742017  0.3156808523730482  0.5153071445476086
  0.5834621892159469  0.2242495945019572  0.8546836727754513
  0.4584056667255102  0.8137506168635611  0.8582561112013357
  0.2951464300124554  0.4866660698962259  0.4742944531012720
  0.1903051728453545  0.6370756938006258  0.1595925450753352
  0.0533887089819346  0.3156258136096491  0.2839167946466236
  0.6821424493936595  0.7141068253845005  0.5873309650817852
  0.2574471631551588  0.9502050236148238  0.9409000219841045
  0.3725304824898291  0.0163115226093947  0.7401205552281895
  0.6752945823313782  0.6845066669814646  0.3952982289700092
  0.0366673537106622  0.3417197942791030  0.0577689627317326
  0.1742354705743524  0.1246518279915087  0.1306392743458238
  0.8970748821633949  0.0864845708819110  0.4523437120613338
  0.0288927048961423  0.8058827163291257  0.8143550458298114
  0.1599788102135686  0.1850121736172749  0.8647044731518106
  0.0500220198182863  0.8420462616831347  0.5121613674741964
  0.8167668722921572  0.0171008448937451  0.1929557609752834
  0.0336423976950448  0.4911247379772586  0.8900537551236533
  0.6396359707607567  0.6403924857136004  0.1429705118461960
  0.4683429660337978  0.9157489604466506  0.5137938302558657
  0.4072865094928206  0.0127621442997469  0.2067638731870256
  0.5855167493469223  0.6081372714266122  0.7795463881642726
  0.9061567283603050  0.4719080527381553  0.4675475618863289
 
             NaN             NaN             NaN
             NaN             NaN             NaN
             NaN             NaN             NaN
             NaN             NaN             NaN
             NaN             NaN             NaN
             NaN             NaN             NaN
             NaN             NaN             NaN
             NaN             NaN             NaN
             NaN             NaN             NaN
             NaN             NaN             NaN
             NaN             NaN             NaN
             NaN             NaN             NaN
             NaN             NaN             NaN
             NaN             NaN             NaN
             NaN             NaN             NaN
             NaN             NaN             NaN
             NaN             NaN             NaN
             NaN             NaN             NaN
             NaN             NaN             NaN
             NaN             NaN             NaN
             NaN             NaN             NaN
             NaN             NaN             NaN
             NaN             NaN             NaN
             NaN             NaN             NaN
             NaN             NaN             NaN
             NaN             NaN             NaN
             NaN             NaN             NaN
             NaN             NaN             NaN
             NaN             NaN             NaN
             NaN             NaN             NaN
             NaN             NaN             NaN
             NaN             NaN             NaN
             NaN             NaN             NaN
             NaN             NaN             NaN
             NaN             NaN             NaN
             NaN             NaN             NaN
             NaN             NaN             NaN
             NaN             NaN             NaN
             NaN             NaN             NaN
             NaN             NaN             NaN
             NaN             NaN             NaN
             NaN             NaN             NaN
             NaN             NaN             NaN
             NaN             NaN             NaN
             NaN             NaN             NaN
             NaN             NaN             NaN
             NaN             NaN             NaN
             NaN             NaN             NaN
             NaN             NaN             NaN
             NaN             NaN             NaN
             NaN             NaN             NaN
             NaN             NaN             NaN
             NaN             NaN             NaN
             NaN             NaN             NaN
             NaN             NaN             NaN
             NaN             NaN             NaN
             NaN             NaN             NaN
             NaN             NaN             NaN
             NaN             NaN             NaN
             NaN             NaN             NaN
             NaN             NaN             NaN
             NaN             NaN             NaN
