Ca8 Mn12 F42
1.0
7.662749 -0.088253 -0.017671
-3.913538 6.714083 0.064642
-0.025972 0.174389 18.451503
Ca Mn F
8 12 42
direct
0.503794 0.678602 0.662290 Ca
0.162539 0.647907 0.989529 Ca
0.341694 0.501343 0.348121 Ca
0.837483 0.004518 0.337541 Ca
0.171368 0.150134 0.005485 Ca
0.820696 0.968980 0.836959 Ca
0.996211 0.775162 0.176524 Ca
0.170100 0.157493 0.514706 Ca
0.340653 1.019708 0.323109 Mn
-0.005183 0.345356 0.669487 Mn
0.654181 0.650151 0.010980 Mn
0.331123 0.006738 0.833021 Mn
0.013618 0.314470 0.165436 Mn
0.695477 0.645928 0.504251 Mn
0.506487 0.815990 0.165174 Mn
0.169333 0.674303 0.492670 Mn
0.327458 0.504092 0.834952 Mn
0.829279 0.508927 0.836040 Mn
0.673221 0.179589 0.492673 Mn
0.497226 0.310264 0.166483 Mn
0.743048 0.221790 0.602554 F
0.821170 0.564786 0.946538 F
0.447300 0.323233 0.277515 F
0.240156 0.747470 0.382113 F
0.476989 0.776334 0.053519 F
0.261762 0.510870 0.729842 F
0.840944 0.937336 0.960002 F
0.033024 0.888745 0.286884 F
0.154929 0.232678 0.625292 F
1.038272 0.812825 0.058814 F
0.818910 0.070707 0.726692 F
0.189808 0.162141 0.392475 F
0.499326 0.343467 0.053016 F
0.613477 0.112332 0.376179 F
0.864494 0.458461 0.731834 F
0.376690 0.501585 0.949563 F
0.139092 0.589971 0.599259 F
0.525174 0.780066 0.276708 F
0.805667 0.414472 0.176116 F
0.518362 0.328473 0.504826 F
0.628451 0.220103 0.849208 F
0.465516 0.819664 0.847250 F
0.295020 0.503399 0.472039 F
0.197656 0.624548 0.165741 F
0.053146 0.315358 0.279920 F
0.632763 0.687215 0.597294 F
0.279768 0.966397 0.941721 F
0.365233 0.037801 0.731967 F
0.664128 0.696629 0.398645 F
0.046505 0.349097 0.050076 F
0.178423 0.161203 0.140902 F
0.843304 1.052555 0.477971 F
0.020139 0.809728 0.822217 F
0.172888 0.192029 0.853630 F
1.008262 0.818478 0.508905 F
0.800410 0.025158 0.179142 F
0.066737 0.483308 0.876912 F
0.650859 0.639919 0.149034 F
0.413194 0.933600 0.522781 F
0.390363 0.004184 0.201994 F
0.618015 0.586404 0.809459 F
0.902916 0.443757 0.466337 F
