Ca8 Ni12 F42                            
   1.00000000000000     
     7.2787030000000001   -0.0114490000000000    0.0040610000000000
    -3.6734239999999998    6.3713920000000002    0.0020820000000000
     0.0176400000000000    0.0129380000000000   18.2773719999999997
   Ca   Ni   F 
     8    12    42
Direct
  0.4127726060344220  0.8348950065571772  0.6701257763897271
  0.1471049281146790  0.6435638666446698  0.9855576616907841
  0.3521304895848389  0.5051190695299967  0.3231683368847957
  0.8378385162665378  0.0168023989815517  0.3473894889149131
  0.1799823556373933  0.1664146862718739  0.0034451846641385
  0.9814796010897650  0.7922626819099673  0.1745507303553506
  0.8135102694530253  0.9755545964591413  0.8333017326518785
  0.1979886895967846  0.1584605501706216  0.5121735164028994
  0.3323967028269310  0.0004781372219437  0.3332787585988100
  0.9714348782575163  0.3266987971624379  0.6659081191910913
  0.6677786167255448  0.6707279519993916  0.0014099669470361
  0.3362370044595137  0.0267891978152321  0.8327629554640712
  0.9939413910213991  0.3109780202630746  0.1620505419553024
  0.6703533129091762  0.6713334475755540  0.4982010397423267
  0.4949544663591409  0.8187379122397739  0.1643536381333836
  0.1650379418256977  0.6557933335303626  0.4921818141140167
  0.3244956475805244  0.5061875016604231  0.8298446969795851
  0.8310542650471429  0.5105916178328463  0.8274050417919329
  0.6777986445115158  0.1721015046728692  0.4975814955483954
  0.4914783629211508  0.3104503349148887  0.1623768890733605
  0.7214018908807449  0.1880952359921461  0.6028034462629935
  0.8171685382392392  0.5695565081494797  0.9369880420839960
  0.4375823586212014  0.2562446552191336  0.2707716009467395
  0.2344441780249496  0.7257342917848646  0.3846755365312936
  0.4824201162358989  0.7522401618495297  0.0586594576621043
  0.2461652779838364  0.4903321465275836  0.7254736231746511
  0.8324737931158613  0.9573487990053396  0.9552428149583264
  0.0419084961326900  0.8837652792034703  0.2883874975760966
  0.1082122988083442  0.1972271015208269  0.6181044450284088
  0.9758931161380827  0.7993037968603580  0.0531166215224606
  0.8016506545388279  0.0669656415637569  0.7229900613173929
  0.2017292131789210  0.1697830758261500  0.3879956882267455
  0.5200066350652820  0.3881836623170911  0.0535959356196925
  0.6027913359745859  0.1235133436158153  0.3891642588300103
  0.8792175922813487  0.4855369332209890  0.7247989829560476
  0.3900674409258111  0.5364372761782203  0.9421340264979480
  0.1249776621561250  0.5929602544282063  0.6002792383686074
  0.5000824229335226  0.8713506185785683  0.2760056452299904
  0.7961734183012207  0.4221115736193433  0.1709426001942305
  0.5676714230403573  0.3647045948381588  0.5024505947174989
  0.6441858603792630  0.2107266849580090  0.8491277512864919
  0.4367546129456706  0.8174026469346503  0.8142892868374446
  0.3574646817359940  0.5408611383522993  0.4843517204284651
  0.1880118120247116  0.6209800910858250  0.1760225512656387
  0.0237395690968649  0.2971255906388036  0.2726664636147526
  0.6322170748156122  0.7175538803385146  0.5975414589991254
  0.2991689544782790  0.9724584847566925  0.9432180375047599
  0.3639488380497364  0.0726347616739464  0.7291520915756229
  0.6593789356101027  0.6736293438443087  0.3824944096135792
  0.0216914573727754  0.3474082317621845  0.0504820370603744
  0.1867306994462034  0.1977135658151244  0.1418000254207067
  0.7956850320796781  0.9825915689535130  0.4778269143511236
  0.0294466311317842  0.8212785368047871  0.8187883339010522
  0.2009912378196826  0.2045203191948957  0.8574574382678783
  0.9792388023366876  0.7776512493084774  0.4922438223052907
  0.8030362295389586 -0.0004264943072784  0.1632125702219936
  0.0539060931293271  0.4607493743342407  0.8707052801113475
  0.5747072612488558  0.6053817219514410  0.1992737294544637
  0.3745775132383083  0.9540266344349325  0.5288307705089974
  0.3873603146370270  0.0097560086155128  0.1394456108488210
  0.6236159337350734  0.6033369635796846  0.8076182888104559
  0.9642705355466409  0.3683156200503742  0.4602733492490550
 
             NaN             NaN             NaN
             NaN             NaN             NaN
             NaN             NaN             NaN
             NaN             NaN             NaN
             NaN             NaN             NaN
             NaN             NaN             NaN
             NaN             NaN             NaN
             NaN             NaN             NaN
             NaN             NaN             NaN
             NaN             NaN             NaN
             NaN             NaN             NaN
             NaN             NaN             NaN
             NaN             NaN             NaN
             NaN             NaN             NaN
             NaN             NaN             NaN
             NaN             NaN             NaN
             NaN             NaN             NaN
             NaN             NaN             NaN
             NaN             NaN             NaN
             NaN             NaN             NaN
             NaN             NaN             NaN
             NaN             NaN             NaN
             NaN             NaN             NaN
             NaN             NaN             NaN
             NaN             NaN             NaN
             NaN             NaN             NaN
             NaN             NaN             NaN
             NaN             NaN             NaN
             NaN             NaN             NaN
             NaN             NaN             NaN
             NaN             NaN             NaN
             NaN             NaN             NaN
             NaN             NaN             NaN
             NaN             NaN             NaN
             NaN             NaN             NaN
             NaN             NaN             NaN
             NaN             NaN             NaN
             NaN             NaN             NaN
             NaN             NaN             NaN
             NaN             NaN             NaN
             NaN             NaN             NaN
             NaN             NaN             NaN
             NaN             NaN             NaN
             NaN             NaN             NaN
             NaN             NaN             NaN
             NaN             NaN             NaN
             NaN             NaN             NaN
             NaN             NaN             NaN
             NaN             NaN             NaN
             NaN             NaN             NaN
             NaN             NaN             NaN
             NaN             NaN             NaN
             NaN             NaN             NaN
             NaN             NaN             NaN
             NaN             NaN             NaN
             NaN             NaN             NaN
             NaN             NaN             NaN
             NaN             NaN             NaN
             NaN             NaN             NaN
             NaN             NaN             NaN
             NaN             NaN             NaN
             NaN             NaN             NaN
