Ca8 Ni12 F42
1.0
7.278703 -0.011449 0.004061
-3.673424 6.371392 0.002082
0.017640 0.012938 18.277372
Ca Ni F
8 12 42
direct
0.364186 0.850873 0.659168 Ca
0.154299 0.647461 0.979544 Ca
0.349200 0.509316 0.327997 Ca
0.842438 0.017856 0.345440 Ca
0.172814 0.164600 0.009897 Ca
0.981357 0.788738 0.174215 Ca
0.808173 0.981681 0.834558 Ca
0.206682 0.162841 0.513415 Ca
0.338893 0.007861 0.333290 Ni
0.990991 0.343854 0.667395 Ni
0.663909 0.660570 0.000891 Ni
0.324469 0.008332 0.831206 Ni
0.996460 0.314531 0.162473 Ni
0.682471 0.674977 0.492855 Ni
0.497176 0.819640 0.163005 Ni
0.176089 0.664666 0.494152 Ni
0.319753 0.499804 0.829606 Ni
0.818939 0.500527 0.827857 Ni
0.689847 0.181505 0.495466 Ni
0.494023 0.312204 0.163885 Ni
0.744998 0.198422 0.600160 F
0.810152 0.554293 0.937650 F
0.439626 0.264284 0.271843 F
0.239814 0.736036 0.386086 F
0.481386 0.750720 0.056128 F
0.256260 0.515063 0.727387 F
0.832444 0.951141 0.955458 F
0.049878 0.890938 0.287160 F
0.129377 0.210122 0.619698 F
0.973708 0.792537 0.052929 F
0.823861 0.065697 0.721716 F
0.205322 0.171426 0.389179 F
0.523763 0.384831 0.055941 F
0.612434 0.132144 0.387253 F
0.858581 0.473552 0.723906 F
0.373960 0.497910 0.944036 F
0.138337 0.605325 0.601079 F
0.503471 0.871743 0.275839 F
0.797664 0.420995 0.174665 F
0.574177 0.369141 0.501608 F
0.630478 0.202116 0.844053 F
0.427945 0.803094 0.848757 F
0.369744 0.551613 0.482343 F
0.191858 0.622470 0.177243 F
0.029231 0.300116 0.272982 F
0.665223 0.714481 0.593685 F
0.285251 0.984047 0.943020 F
0.349859 0.006525 0.727917 F
0.669075 0.674745 0.379893 F
0.022720 0.358031 0.051419 F
0.188883 0.200979 0.142176 F
0.804905 0.988606 0.475340 F
0.015988 0.806262 0.822600 F
0.197240 0.195805 0.836531 F
0.991206 0.785745 0.494317 F
0.805041 0.003431 0.161245 F
0.036736 0.432358 0.869417 F
0.584371 0.611437 0.196161 F
0.389607 0.963640 0.527076 F
0.387119 0.010194 0.140681 F
0.620631 0.607704 0.806216 F
0.976437 0.379407 0.459635 F
