Na2 Ca2 V4 Si4 P2 O24                   
   1.00000000000000     
     8.8701039999999995    0.1609670000000000    0.0564210000000000
     4.3145280000000001    7.6898210000000002    0.0534730000000000
     4.4250200000000000    2.5537239999999999    7.2613799999999999
   Ca   Na   V    Si   P    O 
     2     2     4     4     2    24
Direct
  0.5756711756620164  0.7691536264534362  0.2712135768569928
  0.0001367770808619 -0.0001144557037988  1.0022021844848745
  0.1261124918933082  0.7481653015745482  0.3997177736795976
  0.8650090317833530  0.2565752475278566  0.5962420687018882
  0.3723272886992925  0.3614796314820413  0.3576048498259338
  0.6447416512185364  0.6313255163014881  0.6640858857425345
  0.1518566847580725  0.1465709846550238  0.1350592826589866
  0.8560697252686625  0.8549213815094092  0.8400685896495623
  0.0339042878976704  0.4527076994758801  0.7547916177067864
  0.7499848360338386  0.0321518093079007  0.4678765027876319
  0.4564668881809218  0.7464295298233797  0.0331749402081113
  0.5372652662563993  0.2539514557223312  0.9651457495845858
  0.9773136252815728  0.5435633803642204  0.2452579196890882
  0.2512526974425137  0.9709128700644535  0.5373191469478140
  0.2161492430664505  0.4362544284667875  0.5675826815681199
  0.7889508715727211  0.5615764312987451  0.4151859453082733
  0.5672367805281637  0.2107149376705994  0.4387195749219566
  0.4319471691059575  0.8041041909187577  0.5553544148547193
  0.4480452782439861  0.5842865425819470  0.2370090489424227
  0.5664140051211377  0.4195219609482254  0.7668203292812795
  0.9313503380162483  0.0553338633657727  0.2774592530433131
  0.0834237456853962  0.9441277258225765  0.7221276709959289
  0.0625623477516659  0.2683919767715988  0.9334119251965859
  0.9214027287932997  0.7227322802276053  0.0840571720444644
  0.2612318160950149  0.9189243833489253  0.0633182529385124
  0.7279985376160758  0.0688856495975955  0.9579904317690658
  0.4816909588470020  0.3098431625302983  0.1426769952007199
  0.4878457094546441  0.6901523202189362  0.8695459075650553
  0.1307914167476052  0.5517913541487428  0.2700584473662186
  0.8567236152931973  0.4676007007522249  0.7278492382487064
  0.2573699421652250  0.1594164349424173  0.4923702815169896
  0.7359758728526921  0.8317368552521633  0.5219464291543554
  0.3660175482516939  0.1890955944947432  0.0159424919775653
  0.6310846809760837  0.8040502964247884 -0.0204456324590605
  0.2296385246595324  0.9650916060961570  0.3754739265854876
  0.7917827487238349  0.0231606611670039  0.6334276958278527
  0.0207907706163624  0.3609776059363175  0.2245911537495489
  0.9958740779302701  0.6472060655588373  0.7742003166555207
 
             NaN             NaN             NaN
             NaN             NaN             NaN
             NaN             NaN             NaN
             NaN             NaN             NaN
             NaN             NaN             NaN
             NaN             NaN             NaN
             NaN             NaN             NaN
             NaN             NaN             NaN
             NaN             NaN             NaN
             NaN             NaN             NaN
             NaN             NaN             NaN
             NaN             NaN             NaN
             NaN             NaN             NaN
             NaN             NaN             NaN
             NaN             NaN             NaN
             NaN             NaN             NaN
             NaN             NaN             NaN
             NaN             NaN             NaN
             NaN             NaN             NaN
             NaN             NaN             NaN
             NaN             NaN             NaN
             NaN             NaN             NaN
             NaN             NaN             NaN
             NaN             NaN             NaN
             NaN             NaN             NaN
             NaN             NaN             NaN
             NaN             NaN             NaN
             NaN             NaN             NaN
             NaN             NaN             NaN
             NaN             NaN             NaN
             NaN             NaN             NaN
             NaN             NaN             NaN
             NaN             NaN             NaN
             NaN             NaN             NaN
             NaN             NaN             NaN
             NaN             NaN             NaN
             NaN             NaN             NaN
             NaN             NaN             NaN
