Na2 Ca2 V4 Si4 P2 O24
1.0
8.870104 0.160967 0.056421
4.314528 7.689821 0.053473
4.425020 2.553724 7.261380
Ca Na V Si P O
2 2 4 4 2 24
direct
0.566180 0.732651 0.346278 Ca
0.014127 1.000237 -0.011875 Ca
0.135393 0.751832 0.394080 Na
0.847214 0.256255 0.589683 Na
0.370782 0.354251 0.358538 V
0.645984 0.639763 0.654884 V
0.150777 0.150681 0.131050 V
0.851819 0.849659 0.851872 V
0.036909 0.455324 0.751253 Si
0.749727 0.033725 0.461623 Si
0.465031 0.749002 0.037598 Si
0.536438 0.253819 0.963766 Si
0.970900 0.542179 0.246291 P
0.249401 0.967477 0.538535 P
0.224454 0.445470 0.569196 O
0.778909 0.562929 0.409763 O
0.570256 0.223758 0.438555 O
0.420508 0.788732 0.561369 O
0.438923 0.571248 0.224423 O
0.561806 0.427301 0.772948 O
0.933337 0.058463 0.276174 O
0.076271 0.947500 0.717514 O
0.059677 0.267152 0.928055 O
0.940773 0.727960 0.080929 O
0.265764 0.917457 0.066100 O
0.734282 0.076899 0.942453 O
0.486616 0.279373 0.154766 O
0.513854 0.712863 0.852434 O
0.126101 0.522519 0.291881 O
0.863138 0.486370 0.706139 O
0.271690 0.142374 0.510982 O
0.723730 0.852190 0.484437 O
0.365047 0.197466 0.002115 O
0.632934 0.796577 1.014544 O
0.222419 0.985443 0.370178 O
0.783015 0.004134 0.641268 O
0.009665 0.369966 0.210443 O
0.991090 0.642508 0.788493 O
