Li56 La24 Zr16 O96
1.0
  13.2360699999999998    0.0000000000000000    0.0000000000000008
   0.0000000000000021   13.2360699999999998    0.0000000000000008
   0.0000000000000000    0.0000000000000000   12.7017059999999997
Li La Zr O
55 24 16 96
direct
   0.1812110000000000    0.6812110000000000    0.5000000000000000 Li+
   0.5000000000000000    0.0000000000000000    0.7500000000000000 Li+
   0.5000000000000000    0.0000000000000000    0.2500000000000000 Li+
   0.5000000000000000    0.5000000000000000    0.5000000000000000 Li+
   0.0000000000000000    0.0000000000000000    0.5000000000000000 Li+
   0.6812110000000000    0.1812110000000000    0.0000000000000000 Li+
   0.3187890000000000    0.1812110000000000    0.5000000000000000 Li+
   0.1812110000000000    0.1812110000000000    0.2500000000000000 Li+
   0.8187890000000000    0.1812110000000000    0.7500000000000000 Li+
   0.3187890000000000    0.3187890000000000    0.7500000000000000 Li+
   0.6812110000000000    0.3187890000000000    0.2500000000000000 Li+
   0.8187890000000000    0.3187890000000000    0.5000000000000000 Li+
   0.6812110000000000    0.8187890000000000    0.5000000000000000 Li+
   0.3375344999999998    0.0805155000000000    0.3191434999999999 Li+
   0.6624655000000002    0.0805155000000000    0.8191434999999999 Li+
   0.0805155000000000    0.8375344999999998    0.5691434999999999 Li+
   0.4194845000000000    0.3375344999999998    0.5691434999999999 Li+
   0.6624655000000002    0.4194845000000000    0.4308565000000001 Li+
   0.8375344999999998    0.9194845000000000    0.4308565000000001 Li+
   0.4194845000000000    0.1624655000000002    0.6808565000000001 Li+
   0.5805155000000000    0.1624655000000002    0.1808565000000001 Li+
   0.8375344999999998    0.4194845000000000    0.3191434999999999 Li+
   0.1624655000000002    0.4194845000000000    0.8191434999999999 Li+
   0.5805155000000000    0.6624655000000002    0.5691434999999999 Li+
   0.9194845000000000    0.1624655000000002    0.5691434999999999 Li+
   0.1624655000000002    0.0805155000000000    0.4308565000000001 Li+
   0.3375344999999998    0.5805155000000000    0.4308565000000001 Li+
   0.9194845000000000    0.3375344999999998    0.6808565000000001 Li+
   0.0805155000000000    0.3375344999999998    0.1808565000000001 Li+
   0.0000000000000000    0.5000000000000000    0.2500000000000000 Li+
   0.0000000000000000    0.5000000000000000    0.7500000000000000 Li+
   0.0000000000000000    0.0000000000000000    0.0000000000000000 Li+
   0.5000000000000000    0.5000000000000000    0.0000000000000000 Li+
   0.8187890000000000    0.6812110000000000    0.0000000000000000 Li+
   0.6812110000000000    0.6812110000000000    0.7500000000000000 Li+
   0.3187890000000000    0.6812110000000000    0.2500000000000000 Li+
   0.8187890000000000    0.8187890000000000    0.2500000000000000 Li+
   0.1812110000000000    0.8187890000000000    0.7500000000000000 Li+
   0.3187890000000000    0.8187890000000000    0.0000000000000000 Li+
   0.1812110000000000    0.3187890000000000    0.0000000000000000 Li+
   0.8375344999999998    0.5805155000000000    0.8191434999999999 Li+
   0.1624655000000002    0.5805155000000000    0.3191435000000000 Li+
   0.5805155000000000    0.3375344999999998    0.0691435000000000 Li+
   0.9194845000000000    0.8375344999999998    0.0691435000000000 Li+
   0.1624655000000002    0.9194845000000000    0.9308565000000001 Li+
   0.3375344999999998    0.4194845000000000    0.9308565000000001 Li+
   0.9194845000000000    0.6624655000000002    0.1808565000000000 Li+
   0.3375344999999998    0.9194845000000000    0.8191434999999999 Li+
   0.6624655000000002    0.9194845000000000    0.3191435000000000 Li+
   0.0805155000000000    0.1624655000000002    0.0691435000000000 Li+
   0.4194845000000000    0.6624655000000002    0.0691435000000000 Li+
   0.6624655000000002    0.5805155000000000    0.9308565000000001 Li+
   0.8375344999999998    0.0805155000000000    0.9308565000000001 Li+
   0.4194845000000000    0.8375344999999998    0.1808565000000000 Li+
   0.5805155000000000    0.8375344999999998    0.6808565000000001 Li+
   0.5000000000000000    0.0000000000000000    0.0000000000000000 La3+
   0.5000000000000000    0.0000000000000000    0.5000000000000000 La3+
   0.0000000000000000    0.0000000000000000    0.2500000000000000 La3+
   0.5000000000000000    0.5000000000000000    0.2500000000000000 La3+
   0.7500000000000000    0.6273700000000000    0.3750000000000000 La3+
   0.7500000000000000    0.1273700000000000    0.3750000000000000 La3+
   0.6273700000000000    0.2500000000000000    0.6250000000000000 La3+
   0.8726300000000000    0.7500000000000000    0.6250000000000000 La3+
   0.7500000000000000    0.3726300000000000    0.8750000000000000 La3+
   0.7500000000000000    0.8726300000000000    0.8750000000000000 La3+
   0.6273700000000000    0.7500000000000000    0.1250000000000000 La3+
   0.8726300000000000    0.2500000000000000    0.1250000000000000 La3+
   0.0000000000000000    0.5000000000000000    0.5000000000000000 La3+
   0.0000000000000000    0.5000000000000000    0.0000000000000000 La3+
   0.5000000000000000    0.5000000000000000    0.7500000000000000 La3+
   0.0000000000000000    0.0000000000000000    0.7500000000000000 La3+
   0.2500000000000000    0.1273700000000000    0.8750000000000000 La3+
   0.2500000000000000    0.6273700000000000    0.8750000000000000 La3+
   0.1273700000000000    0.7500000000000000    0.1250000000000000 La3+
   0.3726300000000000    0.2500000000000000    0.1250000000000000 La3+
   0.2500000000000000    0.8726300000000000    0.3750000000000000 La3+
   0.2500000000000000    0.3726300000000000    0.3750000000000000 La3+
   0.1273700000000000    0.2500000000000000    0.6250000000000000 La3+
   0.3726300000000000    0.7500000000000000    0.6250000000000000 La3+
   0.7500000000000000    0.5000000000000000    0.6250000000000000 Zr4+
   0.7500000000000000    0.0000000000000000    0.6250000000000000 Zr4+
   0.5000000000000000    0.2500000000000000    0.8750000000000000 Zr4+
   0.5000000000000000    0.2500000000000000    0.3750000000000000 Zr4+
   0.7500000000000000    0.5000000000000000    0.1250000000000000 Zr4+
   0.2500000000000000    0.5000000000000000    0.6250000000000000 Zr4+
   0.5000000000000000    0.7500000000000000    0.3750000000000000 Zr4+
   0.0000000000000000    0.2500000000000000    0.3750000000000000 Zr4+
   0.2500000000000000    0.0000000000000000    0.1250000000000000 Zr4+
   0.2500000000000000    0.5000000000000000    0.1250000000000000 Zr4+
   0.0000000000000000    0.7500000000000000    0.3750000000000000 Zr4+
   0.0000000000000000    0.7500000000000000    0.8750000000000000 Zr4+
   0.2500000000000000    0.0000000000000000    0.6250000000000000 Zr4+
   0.7500000000000000    0.0000000000000000    0.1250000000000000 Zr4+
   0.0000000000000000    0.2500000000000000    0.8750000000000000 Zr4+
   0.5000000000000000    0.7500000000000000    0.8750000000000000 Zr4+
   0.8054829999999999    0.4653839999999999    0.4712960000000000 O2-
   0.6945170000000001    0.9653839999999998    0.4712960000000000 O2-
   0.4653839999999999    0.3054829999999999    0.7212960000000000 O2-
   0.5346160000000002    0.3054829999999999    0.2212960000000002 O2-
   0.1945170000000001    0.0346160000000001    0.2787040000000000 O2-
   0.8054829999999999    0.0346160000000001    0.7787040000000000 O2-
   0.5346160000000002    0.1945170000000001    0.0287040000000000 O2-
   0.4653839999999999    0.1945170000000001    0.5287040000000000 O2-
   0.8054829999999999    0.5346160000000002    0.9712960000000000 O2-
   0.6945170000000001    0.0346160000000001    0.9712960000000000 O2-
   0.9653839999999998    0.1945170000000001    0.7212960000000000 O2-
   0.0346160000000001    0.1945170000000001    0.2212960000000002 O2-
   0.6945170000000001    0.4653839999999999    0.2787040000000000 O2-
   0.3054829999999999    0.4653839999999999    0.7787040000000000 O2-
   0.0346160000000001    0.3054829999999999    0.0287040000000000 O2-
   0.9653839999999998    0.3054829999999999    0.5287040000000000 O2-
   0.1024430000000001    0.0549630000000000    0.5906669999999998 O2-
   0.3975569999999999    0.5549630000000000    0.5906669999999998 O2-
   0.5549630000000000    0.1024430000000001    0.3406669999999998 O2-
   0.4450370000000000    0.1024430000000001    0.8406669999999998 O2-
   0.8975569999999999    0.4450370000000000    0.1593330000000002 O2-
   0.1024430000000001    0.4450370000000000    0.6593330000000002 O2-
   0.4450370000000000    0.3975569999999999    0.4093330000000002 O2-
   0.0549630000000000    0.8975569999999999    0.4093330000000002 O2-
   0.6024430000000001    0.4450370000000000    0.5906669999999998 O2-
   0.8975569999999999    0.9450370000000000    0.5906669999999998 O2-
   0.0549630000000000    0.3975569999999999    0.3406669999999998 O2-
   0.4450370000000000    0.8975569999999999    0.3406669999999998 O2-
   0.8975569999999999    0.5549630000000000    0.6593330000000002 O2-
   0.6024430000000001    0.0549630000000000    0.6593330000000002 O2-
   0.9450370000000000    0.1024430000000001    0.4093330000000002 O2-
   0.5549630000000000    0.6024430000000001    0.4093330000000002 O2-
   0.7767729999999999    0.6508229999999999    0.1787640000000001 O2-
   0.7232270000000001    0.1508229999999999    0.1787640000000001 O2-
   0.6508229999999999    0.2767729999999999    0.4287640000000001 O2-
   0.3491770000000001    0.2767729999999999    0.9287640000000001 O2-
   0.7232270000000001    0.3491770000000001    0.0712359999999999 O2-
   0.2767729999999999    0.3491770000000001    0.5712359999999999 O2-
   0.8491770000000001    0.7232270000000001    0.8212359999999999 O2-
   0.6508229999999999    0.2232270000000001    0.8212359999999999 O2-
   0.7767729999999999    0.3491770000000001    0.6787640000000001 O2-
   0.7232270000000001    0.8491770000000001    0.6787640000000001 O2-
   0.1508229999999999    0.2232270000000001    0.4287640000000001 O2-
   0.3491770000000001    0.7232270000000001    0.4287640000000001 O2-
   0.7232270000000001    0.6508229999999999    0.5712359999999999 O2-
   0.7767729999999999    0.1508229999999999    0.5712359999999999 O2-
   0.8491770000000001    0.2767729999999999    0.3212359999999999 O2-
   0.6508229999999999    0.7767729999999999    0.3212359999999999 O2-
   0.3054829999999999    0.9653839999999998    0.9712960000000000 O2-
   0.1945170000000001    0.4653839999999998    0.9712960000000000 O2-
   0.9653839999999998    0.8054829999999999    0.2212960000000002 O2-
   0.0346160000000002    0.8054829999999999    0.7212960000000002 O2-
   0.6945170000000001    0.5346160000000002    0.7787040000000000 O2-
   0.3054829999999999    0.5346160000000002    0.2787039999999998 O2-
   0.0346160000000002    0.6945170000000001    0.5287040000000000 O2-
   0.9653839999999998    0.6945170000000001    0.0287039999999998 O2-
   0.3054829999999999    0.0346160000000002    0.4712960000000002 O2-
   0.1945170000000001    0.5346160000000002    0.4712960000000002 O2-
   0.4653839999999998    0.6945170000000001    0.2212960000000002 O2-
   0.5346160000000002    0.6945170000000001    0.7212960000000002 O2-
   0.1945170000000001    0.9653839999999998    0.7787040000000000 O2-
   0.8054829999999999    0.9653839999999998    0.2787039999999998 O2-
   0.5346160000000002    0.8054829999999999    0.5287040000000000 O2-
   0.4653839999999998    0.8054829999999999    0.0287039999999998 O2-
   0.6024430000000001    0.5549630000000000    0.0906669999999998 O2-
   0.8975569999999999    0.0549629999999999    0.0906669999999998 O2-
   0.0549629999999999    0.6024430000000001    0.8406669999999998 O2-
   0.9450370000000000    0.6024430000000001    0.3406669999999998 O2-
   0.3975569999999999    0.9450370000000000    0.6593330000000002 O2-
   0.6024430000000001    0.9450370000000000    0.1593330000000002 O2-
   0.9450370000000000    0.8975569999999999    0.9093330000000002 O2-
   0.5549630000000000    0.3975569999999999    0.9093330000000002 O2-
   0.1024430000000001    0.9450370000000000    0.0906669999999998 O2-
   0.3975569999999999    0.4450370000000001    0.0906669999999998 O2-
   0.5549630000000000    0.8975569999999999    0.8406669999999998 O2-
   0.9450370000000000    0.3975569999999999    0.8406669999999998 O2-
   0.3975569999999999    0.0549629999999999    0.1593330000000002 O2-
   0.1024430000000001    0.5549630000000000    0.1593330000000002 O2-
   0.4450370000000001    0.6024430000000001    0.9093330000000002 O2-
   0.0549629999999999    0.1024430000000001    0.9093330000000002 O2-
   0.2767729999999999    0.1508229999999999    0.6787640000000001 O2-
   0.2232270000000001    0.6508229999999999    0.6787640000000001 O2-
   0.1508229999999999    0.7767729999999999    0.9287640000000001 O2-
   0.8491770000000001    0.7767729999999999    0.4287640000000001 O2-
   0.2232270000000001    0.8491770000000001    0.5712359999999999 O2-
   0.7767729999999999    0.8491770000000001    0.0712359999999999 O2-
   0.3491770000000001    0.2232270000000001    0.3212359999999999 O2-
   0.1508229999999999    0.7232270000000001    0.3212359999999999 O2-
   0.2767729999999999    0.8491770000000001    0.1787640000000001 O2-
   0.2232270000000001    0.3491770000000001    0.1787640000000001 O2-
   0.6508229999999999    0.7232270000000001    0.9287640000000001 O2-
   0.8491770000000001    0.2232270000000001    0.9287640000000001 O2-
   0.2232270000000001    0.1508229999999999    0.0712359999999999 O2-
   0.2767729999999999    0.6508229999999999    0.0712359999999999 O2-
   0.3491770000000001    0.7767729999999999    0.8212359999999999 O2-
   0.1508229999999999    0.2767729999999999    0.8212359999999999 O2-
