Ca9 Ti12 F42
1.0
7.369308 -0.006284 -0.106468
-3.648836 6.369813 0.013111
0.197537 -0.083274 18.799362
Ca Ti F
9 12 42
direct
1.357254 0.506374 0.338804 Ca
0.514446 0.343552 0.670266 Ca
0.165592 0.167379 -0.000091 Ca
0.020600 0.829313 0.666235 Ca
0.841844 1.007071 0.326601 Ca
0.660690 0.159278 -0.003410 Ca
0.018066 0.807392 0.159640 Ca
0.822834 -0.003155 0.827509 Ca
0.157293 0.185163 0.501245 Ca
0.339101 0.996776 0.331732 Ti
0.010377 0.333103 0.661369 Ti
0.671354 0.667678 0.998887 Ti
0.355452 0.047246 0.829731 Ti
1.057376 0.346550 0.170193 Ti
0.707784 0.641875 0.498675 Ti
0.493063 0.778290 0.166192 Ti
0.135510 0.646909 0.493651 Ti
0.353327 0.486457 0.833635 Ti
0.796627 0.487832 0.833172 Ti
0.695384 0.207504 0.494742 Ti
0.494369 0.347022 0.170015 Ti
0.726612 0.215301 0.607627 F
0.801187 0.494169 0.947377 F
0.457788 0.282324 0.279467 F
0.212863 0.718879 0.385608 F
0.551518 0.848600 0.056308 F
0.283089 0.446635 0.722496 F
0.827898 -0.008581 0.950361 F
0.057989 0.888554 0.276395 F
0.175799 0.178089 0.619048 F
0.978279 0.834633 0.042049 F
0.888338 0.044229 0.712816 F
0.183061 0.147836 0.384581 F
0.509286 0.327965 0.052892 F
0.623812 0.115920 0.385350 F
0.852439 0.484709 0.717126 F
0.362070 0.496537 0.949486 F
0.137054 0.618820 0.608316 F
0.490307 0.829072 0.280866 F
0.818869 0.432190 0.184109 F
0.509629 0.330027 0.529269 F
0.664515 0.174859 0.865953 F
0.438556 0.805476 0.816767 F
0.377224 0.550900 0.474451 F
0.191029 0.640765 0.126304 F
1.048110 0.331479 0.281128 F
0.695528 0.656247 0.611820 F
0.337945 0.016625 0.941809 F
0.340668 0.021829 0.717752 F
0.694030 0.688332 0.385299 F
0.957570 0.274080 0.063152 F
0.185117 0.166136 0.134113 F
0.789383 0.971453 0.489225 F
0.019087 0.810911 0.803409 F
0.169516 0.172767 0.863879 F
0.019889 0.835591 0.531595 F
0.814552 1.008835 0.195690 F
0.039350 0.419977 0.829859 F
0.667954 0.646581 0.128987 F
0.399607 0.941432 0.510340 F
0.421400 0.023245 0.172569 F
0.663523 0.663712 0.868867 F
-0.010367 0.348153 0.446590 F
