Tm16 Mg8 S32
1.0
       11.0061740875         0.0000000000         0.0000000000
        0.0000000000        11.0061740875         0.0000000000
        0.0000000000         0.0000000000        11.0061740875
Mg   Tm   Mg    S
1   16    6   32
Direct
     0.250000000         0.750000000         0.750000000
     0.375000000         0.125000000         0.875000000
     0.875000000         0.875000000         0.625000000
     0.625000000         0.875000000         0.875000000
     0.125000000         0.125000000         0.625000000
     0.375000000         0.625000000         0.375000000
     0.875000000         0.375000000         0.125000000
     0.625000000         0.375000000         0.375000000
     0.125000000         0.625000000         0.125000000
     0.875000000         0.125000000         0.375000000
     0.375000000         0.875000000         0.125000000
     0.125000000         0.875000000         0.375000000
     0.625000000         0.125000000         0.125000000
     0.875000000         0.625000000         0.875000000
     0.375000000         0.375000000         0.625000000
     0.125000000         0.375000000         0.875000000
     0.625000000         0.625000000         0.625000000
     0.500000000         0.000000000         0.500000000
     0.750000000         0.250000000         0.750000000
     0.750000000         0.750000000         0.250000000
     0.000000000         0.000000000         0.000000000
     0.250000000         0.250000000         0.250000000
     0.000000000         0.500000000         0.500000000
     0.380458266         0.880458295         0.880458295
     0.880458295         0.119541720         0.619541705
     0.119541727         0.880458295         0.619541705
     0.619541705         0.119541720         0.880458295
     0.630458295         0.630458295         0.869541705
     0.630458295         0.869541705         0.630458295
     0.869541705         0.630458295         0.630458295
     0.869541705         0.869541705         0.869541705
     0.380458266         0.380458266         0.380458266
     0.880458295         0.619541705         0.119541720
     0.119541727         0.380458266         0.119541720
     0.619541705         0.619541705         0.380458266
     0.630458295         0.130458280         0.369541734
     0.630458295         0.369541734         0.130458280
     0.869541705         0.130458280         0.130458280
     0.869541705         0.369541734         0.369541734
     0.880458295         0.880458295         0.380458266
     0.380458266         0.119541720         0.119541720
     0.619541705         0.880458295         0.119541720
     0.119541720         0.119541720         0.380458266
     0.130458280         0.630458295         0.369541734
     0.130458280         0.869541705         0.130458280
     0.369541734         0.630458295         0.130458280
     0.369541734         0.869541705         0.369541734
     0.880458295         0.380458266         0.880458295
     0.380458266         0.619541705         0.619541705
     0.619541705         0.380458266         0.619541705
     0.119541720         0.619541705         0.880458295
     0.130458280         0.130458280         0.869541705
     0.130458280         0.369541734         0.630458295
     0.369541734         0.130458280         0.630458295
     0.369541734         0.369541734         0.869541705
