Ca8 Cr16 O32
1.0
        8.8241529465         0.0000000000         0.0000000000
        0.0000000000         8.8241529465         0.0000000000
        0.0000000000         0.0000000000         8.8241529465
   Ca   Cr    O
    7   16   32
Direct
   0.2500000000000000    0.7500000000000000    0.7500000000000000 Ca
     0.500000000         0.000000000         0.500000000
     0.750000000         0.250000000         0.750000000
     0.750000000         0.750000000         0.250000000
     0.000000000         0.000000000         0.000000000
     0.250000000         0.250000000         0.250000000
     0.000000000         0.500000000         0.500000000
     0.375000000         0.875000000         0.125000000
     0.375000000         0.125000000         0.875000000
     0.125000000         0.375000000         0.875000000
     0.125000000         0.125000000         0.625000000
     0.375000000         0.375000000         0.625000000
     0.375000000         0.625000000         0.375000000
     0.125000000         0.875000000         0.375000000
     0.125000000         0.625000000         0.125000000
     0.875000000         0.875000000         0.625000000
     0.875000000         0.125000000         0.375000000
     0.625000000         0.375000000         0.375000000
     0.625000000         0.125000000         0.125000000
     0.875000000         0.375000000         0.125000000
     0.875000000         0.625000000         0.875000000
     0.625000000         0.875000000         0.875000000
     0.625000000         0.625000000         0.625000000
     0.356414318         0.856414318         0.356414318
     0.893585682         0.106414333         0.606414318
     0.106414333         0.106414333         0.393585682
     0.106414333         0.893585682         0.606414318
     0.143585667         0.143585667         0.856414318
     0.143585667         0.356414318         0.643585682
     0.893585682         0.393585682         0.893585682
     0.356414318         0.143585667         0.643585682
     0.356414318         0.356414318         0.856414318
     0.893585682         0.606414318         0.106414333
     0.106414333         0.606414318         0.893585682
     0.106414333         0.393585682         0.106414333
     0.143585667         0.643585682         0.356414318
     0.143585667         0.856414318         0.143585667
     0.893585682         0.893585682         0.393585682
     0.356414318         0.643585682         0.143585667
     0.856414318         0.856414318         0.856414318
     0.393585682         0.106414333         0.106414333
     0.606414318         0.106414333         0.893585682
     0.606414318         0.893585682         0.106414333
     0.643585682         0.143585667         0.356414318
     0.643585682         0.356414318         0.143585667
     0.393585682         0.393585682         0.393585682
     0.856414318         0.143585667         0.143585667
     0.856414318         0.356414318         0.356414318
     0.393585682         0.606414318         0.606414318
     0.606414318         0.606414318         0.393585682
     0.606414318         0.393585682         0.606414318
     0.643585682         0.643585682         0.856414318
     0.643585682         0.856414318         0.643585682
     0.393585682         0.893585682         0.893585682
     0.856414318         0.643585682         0.643585682
