Mg8 Cr16 O32
1.0
        8.3601465225         0.0000000000         0.0000000000
        0.0000000000         8.3601465225         0.0000000000
        0.0000000000         0.0000000000         8.3601465225
   Mg   Cr    O
    7   16   32
Direct
   0.5000000000000000    0.5000000000000000    0.5000000000000000 Mg
     0.000000000         0.500000000         0.000000000
     0.000000000         0.000000000         0.500000000
     0.750000000         0.250000000         0.250000000
     0.250000000         0.750000000         0.250000000
     0.500000000         0.000000000         0.000000000
     0.250000000         0.250000000         0.750000000
     0.375000000         0.875000000         0.625000000
     0.875000000         0.125000000         0.875000000
     0.625000000         0.375000000         0.875000000
     0.625000000         0.125000000         0.625000000
     0.375000000         0.375000000         0.125000000
     0.875000000         0.625000000         0.375000000
     0.625000000         0.875000000         0.375000000
     0.625000000         0.625000000         0.125000000
     0.875000000         0.875000000         0.125000000
     0.375000000         0.125000000         0.375000000
     0.125000000         0.375000000         0.375000000
     0.125000000         0.125000000         0.125000000
     0.875000000         0.375000000         0.625000000
     0.375000000         0.625000000         0.875000000
     0.125000000         0.875000000         0.875000000
     0.125000000         0.625000000         0.625000000
     0.613567412         0.886432588         0.613567412
     0.636432588         0.136432603         0.863567412
     0.863567412         0.363567382         0.863567412
     0.863567412         0.136432603         0.636432588
     0.886432588         0.886432588         0.886432588
     0.886432588         0.113567390         0.113567390
     0.136432603         0.363567382         0.136432603
     0.113567390         0.113567390         0.886432588
     0.613567412         0.386432618         0.113567390
     0.636432588         0.636432588         0.363567382
     0.863567412         0.863567412         0.363567382
     0.863567412         0.636432588         0.136432603
     0.886432588         0.386432618         0.386432618
     0.886432588         0.613567412         0.613567412
     0.136432603         0.863567412         0.636432588
     0.113567390         0.613567412         0.386432618
     0.113567390         0.886432588         0.113567390
     0.136432603         0.136432603         0.363567382
     0.363567382         0.363567382         0.363567382
     0.363567382         0.136432603         0.136432603
     0.386432618         0.886432588         0.386432618
     0.386432618         0.113567390         0.613567412
     0.636432588         0.363567382         0.636432588
     0.613567412         0.113567390         0.386432618
     0.113567390         0.386432618         0.613567412
     0.136432603         0.636432588         0.863567412
     0.363567382         0.863567412         0.863567412
     0.363567382         0.636432588         0.636432588
     0.386432618         0.386432618         0.886432588
     0.386432618         0.613567412         0.113567390
     0.636432588         0.863567412         0.136432603
     0.613567412         0.613567412         0.886432588
