Ca16 Cr32 O64
1.0
  11.0417750965507100    0.0000000488642386    0.0000001507299510
   0.0000000328030102   11.8646814341493965    0.0000000615909354
   0.0000001448022510    0.0000000531659134   10.2906653561647161
Ca Cr O
15 32 64
direct
   0.5000000674513598    1.2500001373675074    0.2318900461658927 Ca
   0.5000001016582344    0.4999999495103197    0.4276054996198796 Ca
   0.5000001016582344    0.4999999495103197    0.9276054996198796 Ca
   0.5000001016582345    0.9999999495103196    0.9276054996198795 Ca
   0.0000000590285054    0.2499999269396984    0.0724010627659191 Ca
   0.0000000590285054    0.2499999269396984    0.5724010627659192 Ca
   0.0000000590285054    0.7499999269396984    0.0724010627659191 Ca
   0.0000000590285054    0.7499999269396983    0.5724010627659191 Ca
   0.0000001120799285    0.0000000331904561    0.2681083210868757 Ca
   0.0000001120799285    0.0000000331904561    0.7681083210868757 Ca
   0.0000001120799285    0.5000000331904561    0.2681083210868757 Ca
   0.0000001120799285    0.5000000331904561    0.7681083210868757 Ca
   0.5000000674513598    0.2500001373675073    0.7318900461658927 Ca
   0.5000000674513598    0.7500001373675074    0.2318900461658927 Ca
   0.5000000674513598    0.7500001373675073    0.7318900461658926 Ca
   0.2593507141696054    0.4999999341731509    0.2473963459702807 Cr
   0.2593507141696054    0.4999999341731509    0.7473963459702806 Cr
   0.2593507141696054    0.9999999341731509    0.2473963459702807 Cr
   0.2593507141696054    0.9999999341731508    0.7473963459702806 Cr
   0.7593885503448556    0.2499999842377980    0.2526045755817118 Cr
   0.7593885503448556    0.2499999842377980    0.7526045755817118 Cr
   0.7593885503448558    0.7499999842377979    0.2526045755817118 Cr
   0.7593885503448556    0.7499999842377978    0.7526045755817118 Cr
   0.7406491653542657    0.4999999990368799    0.2473964899067933 Cr
   0.7406491653542656    0.4999999990368799    0.7473964899067932 Cr
   0.7406491653542658    0.9999999990368800    0.2473964899067932 Cr
   0.7406491653542657    0.9999999990368799    0.7473964899067932 Cr
   0.2406112961049938    0.2500000169096258    0.2526045793581995 Cr
   0.2406112961049938    0.2500000169096258    0.7526045793581996 Cr
   0.2406112961049938    0.7500000169096258    0.2526045793581995 Cr
   0.2406112961049938    0.7500000169096257    0.7526045793581996 Cr
   0.2499794057287141    0.3750004651279312    0.4999986935565702 Cr
   0.2499794057287141    0.3750004651279312    0.9999986935565701 Cr
   0.2499794057287141    0.8750004651279312    0.4999986935565702 Cr
   0.2499794057287142    0.8750004651279313    0.9999986935565702 Cr
   0.2499793405990740    0.1249995431834763    0.4999989043356642 Cr
   0.2499793405990740    0.1249995431834763    0.9999989043356642 Cr
   0.2499793405990741    0.6249995431834764    0.4999989043356641 Cr
   0.2499793405990741    0.6249995431834763    0.9999989043356641 Cr
   0.7500206695162412    0.3750004023071060    0.4999986509857331 Cr
   0.7500206695162412    0.3750004023071059    0.9999986509857330 Cr
   0.7500206695162415    0.8750004023071060    0.4999986509857330 Cr
   0.7500206695162414    0.8750004023071060    0.9999986509857330 Cr
   0.7500205583263743    0.1249995319034936    0.4999986403167468 Cr
   0.7500205583263742    0.1249995319034936    0.9999986403167468 Cr
   0.7500205583263743    0.6249995319034936    0.4999986403167468 Cr
   0.7500205583263743    0.6249995319034934    0.9999986403167468 Cr
   0.1537538772726189    0.2500000798839614    0.4207794646530612 O
   0.1537538772726189    0.2500000798839614    0.9207794646530610 O
   0.1537538772726189    0.7500000798839614    0.4207794646530612 O
   0.1537538772726189    0.7500000798839614    0.9207794646530612 O
   0.6537859557247284    0.9999999827785691    0.0792182918676175 O
   0.6537859557247283    0.9999999827785691    0.5792182918676174 O
   0.6537859557247284    0.4999999827785690    0.0792182918676175 O
   0.6537859557247284    0.4999999827785690    0.5792182918676174 O
   0.8462461550198380    0.2500000585205475    0.4207794629692856 O
   0.8462461550198379    0.2500000585205475    0.9207794629692856 O
   0.8462461550198380    0.7500000585205474    0.4207794629692856 O
   0.8462461550198380    0.7500000585205474    0.9207794629692855 O
   0.3462139850571753    0.4999999178465476    0.0792182108455231 O
   0.3462139850571752    0.4999999178465475    0.5792182108455232 O
   0.3462139850571753    0.9999999178465475    0.0792182108455231 O
   0.3462139850571753    0.9999999178465475    0.5792182108455231 O
   0.3496446227053859    0.3734134315679518    0.3325212341136075 O
   0.3496446227053858    0.3734134315679517    0.8325212341136073 O
   0.3496446227053858    0.8734134315679517    0.3325212341136075 O
   0.3496446227053858    0.8734134315679517    0.8325212341136073 O
   0.3496446889189573    0.1265865271934607    0.3325212155977519 O
   0.3496446889189573    0.1265865271934607    0.8325212155977518 O
   0.3496446889189573    0.6265865271934608    0.3325212155977518 O
   0.3496446889189573    0.6265865271934608    0.8325212155977518 O
   0.8496756400561043    0.3765866519223087    0.1674790110484677 O
   0.8496756400561044    0.3765866519223086    0.6674790110484676 O
   0.8496756400561045    0.8765866519223086    0.1674790110484677 O
   0.8496756400561044    0.8765866519223086    0.6674790110484675 O
   0.6503553408608913    0.1265865286078628    0.3325212327249496 O
   0.6503553408608913    0.1265865286078628    0.8325212327249496 O
   0.6503553408608913    0.6265865286078627    0.3325212327249496 O
   0.6503553408608913    0.6265865286078628    0.8325212327249496 O
   0.1503243632747255    0.1234133011897928    0.1674789918008177 O
   0.1503243632747255    0.1234133011897928    0.6674789918008176 O
   0.1503243632747255    0.6234133011897928    0.1674789918008177 O
   0.1503243632747255    0.6234133011897927    0.6674789918008176 O
   0.6503553546222918    0.3734134906131900    0.3325212000461307 O
   0.6503553546222917    0.3734134906131899    0.8325212000461307 O
   0.6503553546222918    0.8734134906131898    0.3325212000461307 O
   0.6503553546222917    0.8734134906131898    0.8325212000461307 O
   0.8496756283314074    0.1234133290211935    0.1674790244276778 O
   0.8496756283314073    0.1234133290211935    0.6674790244276777 O
   0.8496756283314075    0.6234133290211935    0.1674790244276778 O
   0.8496756283314075    0.6234133290211935    0.6674790244276777 O
   0.1503243611196461    0.3765866792361574    0.1674789889400670 O
   0.1503243611196461    0.3765866792361573    0.6674789889400670 O
   0.1503243611196461    0.8765866792361573    0.1674789889400670 O
   0.1503243611196461    0.8765866792361572    0.6674789889400669 O
   0.1615344669369852    0.9999999327157862    0.4106934333328851 O
   0.1615344669369852    0.9999999327157862    0.9106934333328851 O
   0.1615344669369852    0.4999999327157861    0.4106934333328851 O
   0.1615344669369852    0.4999999327157861    0.9106934333328851 O
   0.6615662305312893    0.2500000281007027    0.0893076088255524 O
   0.6615662305312893    0.2500000281007027    0.5893076088255524 O
   0.6615662305312893    0.7500000281007027    0.0893076088255524 O
   0.6615662305312893    0.7500000281007027    0.5893076088255524 O
   0.8384655432280920    0.0000000472037882    0.4106933397949049 O
   0.8384655432280920    0.0000000472037882    0.9106933397949047 O
   0.8384655432280920    0.5000000472037882    0.4106933397949048 O
   0.8384655432280919    0.5000000472037882    0.9106933397949049 O
   0.3384337459777261    0.2500000897107392    0.0893074793614404 O
   0.3384337459777261    0.2500000897107393    0.5893074793614403 O
   0.3384337459777260    0.7500000897107393    0.0893074793614404 O
   0.3384337459777261    0.7500000897107392    0.5893074793614403 O
