Ca1 Mn12 F42                            
   1.00000000000000     
     7.3721610000000002   -0.0026130000000000   -0.0452990000000000
    -3.6876810000000000    6.3283180000000003    0.0372900000000000
     0.1212920000000000    0.0352580000000000   17.4706280000000014
   Ca   Mn   F 
     1    12    42
Direct
  0.7020135281655813  0.5024929917206642  0.3059625942500412
  0.2717201034511412  0.9825947725572882  0.3310703527774620
  0.7127514469597861  0.6997277221407495  0.9969995164972190
  0.0123461789025296  0.3056850984699496  0.6733532212140937
  0.3671087132164879  0.0107883092356893  0.8330971753990228
  0.6599281521600912  0.6797467901595149  0.5148555049453941
  0.9678174719067371  0.3183201027207413  0.1590282901987773
  0.6537963551668904  0.1751950725614602  0.5078228514434098
  0.4583948720708414  0.3053712721668301  0.1445956725825276
  0.8678578566730527  0.5106806755524637  0.8337310443794211
  0.3675300449435844  0.5108912461963336  0.8321696243622645
  0.1574265402965634  0.6679698457111014  0.5122073482663442
  0.4718173458580472  0.8141837892969537  0.1644298056434666
  0.5657098071314931  0.7815334576910342  0.0611104795389379
  0.2721003018754355  0.4471882549501177  0.7303297468405587
  0.1914463524443563  0.7696891063740512  0.4102529371185570
  0.3849432450463673  0.2098935551701567  0.2505547852054492
  0.8330880180255587  0.5695776049056228  0.9354216506435835
  0.7735091649507748  0.2076227214346712  0.6155590943717799
  0.9032199243545054  0.0960206367620792  0.7375206026789825
  0.1734026111443507  0.1233071703175261  0.3801301953042597
  0.9163109366948653  0.7831963415687175  0.0627994911116842
  0.1192560523142627  0.1994260354398646  0.6116120750924522
  0.0164600185368146  0.8055657731292540  0.2844391028800626
  0.8259284588868113  0.9270906589363497  0.9413669030754370
  0.1345681857633055  0.5671100120903816  0.6136125683744313
  0.3955297268968936  0.8535315153741814  0.2729627690650388
  0.4601072444175273  0.5740990080165789  0.9333088527271698
  0.9031982867215514  0.4555058895950865  0.7319974491404238
  0.5431907970663177  0.1672102960445130  0.3782548810391725
  0.5575392854505526  0.4214411864320469  0.0469969679652996
  0.3687784724124172  0.5951783590394774  0.4917951969776192
  0.1879825182462003  0.6092483243687909  0.1409426555299402
  0.4431950191373364  0.7972124533348351  0.8140609992830210
  0.6584590590350182  0.2235571243275529  0.8503728101818991
  0.5745131078794214  0.3815631174937628  0.5255599351556463
  0.7497489376675831  0.3988043359032667  0.1838090515495582
  0.6966043074241207  0.6531887078136788  0.4108015159583281
  0.8848732633225769  0.2856294186954124  0.0631695262906389
  0.3965595462512145  0.0734789618317825  0.7343160599857697
  0.3376985722455930  0.9483362058689524  0.9319423732104996
  0.6260370757303462  0.7085700410046668  0.6117111758903276
  0.0326825460985941  0.3596414587823637  0.2591757610823855
  0.9477341225813674  0.7448315630037017  0.5315597668450154
  0.7571790132136698  0.0282886067573999  0.1846398540820113
  0.2906648532056611  0.2243606104598007  0.8510316165083772
  0.0754159652115389  0.7988244797805059  0.8167473375728533
  0.7330893812241049  0.9682090975151253  0.4895485781032704
  0.1774463128109597  0.2448851957851858  0.1313380655379786
  0.6339007991738225  0.5682364942299334  0.8026034315619249
  0.9210586714650260  0.3913804483412741  0.4724194654040942
  0.4193263471855726  0.0220987613370489  0.1252273115719447
  0.3860284704195129  0.9591847376918666  0.5373356853839668
  0.5323048762958785  0.5983617124337616  0.2022483675686979
  0.1013377005983241  0.4533205960319888  0.8628709192828176
 
             NaN             NaN             NaN
             NaN             NaN             NaN
             NaN             NaN             NaN
             NaN             NaN             NaN
             NaN             NaN             NaN
             NaN             NaN             NaN
             NaN             NaN             NaN
             NaN             NaN             NaN
             NaN             NaN             NaN
             NaN             NaN             NaN
             NaN             NaN             NaN
             NaN             NaN             NaN
             NaN             NaN             NaN
             NaN             NaN             NaN
             NaN             NaN             NaN
             NaN             NaN             NaN
             NaN             NaN             NaN
             NaN             NaN             NaN
             NaN             NaN             NaN
             NaN             NaN             NaN
             NaN             NaN             NaN
             NaN             NaN             NaN
             NaN             NaN             NaN
             NaN             NaN             NaN
             NaN             NaN             NaN
             NaN             NaN             NaN
             NaN             NaN             NaN
             NaN             NaN             NaN
             NaN             NaN             NaN
             NaN             NaN             NaN
             NaN             NaN             NaN
             NaN             NaN             NaN
             NaN             NaN             NaN
             NaN             NaN             NaN
             NaN             NaN             NaN
             NaN             NaN             NaN
             NaN             NaN             NaN
             NaN             NaN             NaN
             NaN             NaN             NaN
             NaN             NaN             NaN
             NaN             NaN             NaN
             NaN             NaN             NaN
             NaN             NaN             NaN
             NaN             NaN             NaN
             NaN             NaN             NaN
             NaN             NaN             NaN
             NaN             NaN             NaN
             NaN             NaN             NaN
             NaN             NaN             NaN
             NaN             NaN             NaN
             NaN             NaN             NaN
             NaN             NaN             NaN
             NaN             NaN             NaN
             NaN             NaN             NaN
             NaN             NaN             NaN
