Ca1 Mn12 F42
1.0
7.372161 -0.002613 -0.045299
-3.687681 6.328318 0.037290
0.121292 0.035258 17.470628
Ca Mn F
1 12 42
direct
0.669754 0.496262 0.332144 Ca
0.295482 0.998752 0.333023 Mn
0.710312 0.707782 0.995576 Mn
0.002871 0.293277 0.671543 Mn
0.354203 0.001920 0.833090 Mn
0.646302 0.651918 0.506369 Mn
0.994832 0.344566 0.160678 Mn
0.645473 0.150685 0.504493 Mn
0.496867 0.348734 0.158307 Mn
0.855025 0.500518 0.833099 Mn
0.356140 0.503291 0.833423 Mn
0.146409 0.648482 0.508113 Mn
0.494813 0.846697 0.162496 Mn
0.574872 0.810215 0.058353 F
0.257465 0.439950 0.731528 F
0.175363 0.743009 0.403243 F
0.433896 0.253024 0.263086 F
0.820875 0.566081 0.935108 F
0.766438 0.189268 0.608160 F
0.892136 0.079508 0.734017 F
0.197098 0.132733 0.388793 F
0.923874 0.806564 0.057402 F
0.119270 0.194215 0.610560 F
0.057444 0.851822 0.278724 F
0.813172 0.923228 0.933896 F
0.120984 0.554001 0.610288 F
0.419775 0.867971 0.274485 F
0.450684 0.565594 0.935532 F
0.884834 0.434795 0.730951 F
0.553361 0.135187 0.390490 F
0.568213 0.445222 0.056167 F
0.354491 0.567452 0.482109 F
0.207384 0.636309 0.143757 F
0.433738 0.789959 0.814988 F
0.645126 0.215175 0.852402 F
0.567256 0.359771 0.523474 F
0.787942 0.430983 0.186373 F
0.678912 0.613746 0.402936 F
0.922711 0.311305 0.064457 F
0.388985 0.067808 0.734594 F
0.319375 0.936126 0.931589 F
0.609005 0.686547 0.602575 F
0.059480 0.382415 0.264673 F
0.933790 0.724946 0.523743 F
0.782298 0.057646 0.184409 F
0.277074 0.215608 0.851213 F
0.063831 0.787123 0.813940 F
0.721346 0.939587 0.482422 F
0.206779 0.270005 0.143477 F
0.623010 0.557936 0.803164 F
0.914781 0.372498 0.465201 F
0.444310 0.066717 0.132543 F
0.375417 0.932359 0.533714 F
0.545890 0.625259 0.198584 F
0.087750 0.447135 0.863526 F
