Mg16 Fe32 O64
1.0
  11.8972864152000000    0.0000000000000000    0.0000000000000000
   0.0000000000000000   11.8972864152000000    0.0000000000000000
   0.0000000000000000    0.0000000000000000    8.4927711486999993
Mg Fe O
15 32 64
direct
   0.5000000000000000    0.7500000000000000    0.2500000000000000 Mg
   0.2500000000000000    0.2500000000000000    0.5000000000000000 Mg
   0.2500000000000000    0.7500000000000000    0.5000000000000000 Mg
   0.7500000000000000    0.2500000000000000    0.5000000000000000 Mg
   0.0000000000000000    0.2500000000000000    0.2500000000000000 Mg
   0.0000000000000000    0.7500000000000000    0.2500000000000000 Mg
   0.5000000000000000    0.2500000000000000    0.2500000000000000 Mg
   0.2500000000000000    0.0000000000000000    0.7500000000000000 Mg
   0.2500000000000000    0.5000000000000000    0.7500000000000000 Mg
   0.7500000000000000    0.0000000000000000    0.7500000000000000 Mg
   0.7500000000000000    0.5000000000000000    0.7500000000000000 Mg
   0.0000000000000000    0.0000000000000000    0.0000000000000000 Mg
   0.0000000000000000    0.5000000000000000    0.0000000000000000 Mg
   0.5000000000000000    0.0000000000000000    0.0000000000000000 Mg
   0.5000000000000000    0.5000000000000000    0.0000000000000000 Mg
   0.0000000000000000    0.1250000000000000    0.6250000000000000 Fe
   0.0000000000000000    0.6250000000000000    0.6250000000000000 Fe
   0.5000000000000000    0.1250000000000000    0.6250000000000000 Fe
   0.5000000000000000    0.6250000000000000    0.6250000000000000 Fe
   0.0000000000000000    0.3750000000000000    0.6250000000000000 Fe
   0.0000000000000000    0.8750000000000000    0.6250000000000000 Fe
   0.5000000000000000    0.3750000000000000    0.6250000000000000 Fe
   0.5000000000000000    0.8750000000000000    0.6250000000000000 Fe
   0.1250000000000000    0.0000000000000000    0.3750000000000000 Fe
   0.1250000000000000    0.5000000000000000    0.3750000000000000 Fe
   0.6250000000000000    0.0000000000000000    0.3750000000000000 Fe
   0.6250000000000000    0.5000000000000000    0.3750000000000000 Fe
   0.1250000000000000    0.2500000000000000    0.8750000000000000 Fe
   0.1250000000000000    0.7500000000000000    0.8750000000000000 Fe
   0.6250000000000000    0.2500000000000000    0.8750000000000000 Fe
   0.6250000000000000    0.7500000000000000    0.8750000000000000 Fe
   0.2500000000000000    0.3750000000000000    0.1250000000000000 Fe
   0.2500000000000000    0.8750000000000000    0.1250000000000000 Fe
   0.7500000000000000    0.3750000000000000    0.1250000000000000 Fe
   0.7500000000000000    0.8750000000000000    0.1250000000000000 Fe
   0.2500000000000000    0.1250000000000000    0.1250000000000000 Fe
   0.2500000000000000    0.6250000000000000    0.1250000000000000 Fe
   0.7500000000000000    0.1250000000000000    0.1250000000000000 Fe
   0.7500000000000000    0.6250000000000000    0.1250000000000000 Fe
   0.3750000000000000    0.2500000000000000    0.8750000000000000 Fe
   0.3750000000000000    0.7500000000000000    0.8750000000000000 Fe
   0.8750000000000000    0.2500000000000000    0.8750000000000000 Fe
   0.8750000000000000    0.7500000000000000    0.8750000000000000 Fe
   0.3750000000000000    0.0000000000000000    0.3750000000000000 Fe
   0.3750000000000000    0.5000000000000000    0.3750000000000000 Fe
   0.8750000000000000    0.0000000000000000    0.3750000000000000 Fe
   0.8750000000000000    0.5000000000000000    0.3750000000000000 Fe
   0.1147350820000000    0.0000000000000000    0.6144533750000000 O
   0.1147350820000000    0.5000000000000000    0.6144533750000000 O
   0.6147350820000000    0.0000000000000000    0.6144533750000000 O
   0.6147350820000000    0.5000000000000000    0.6144533750000000 O
   0.1147350820000000    0.2500000000000000    0.6355466250000001 O
   0.1147350820000000    0.7500000000000000    0.6355466250000001 O
   0.6147350820000000    0.2500000000000000    0.6355466250000001 O
   0.6147350820000000    0.7500000000000000    0.6355466250000001 O
   0.0000000000000000    0.1352649180000000    0.8644533750000000 O
   0.0000000000000000    0.6352649180000001    0.8644533750000000 O
   0.5000000000000000    0.1352649180000000    0.8644533750000000 O
   0.5000000000000000    0.6352649180000001    0.8644533750000000 O
   0.0000000000000000    0.3647350965000000    0.8644533750000000 O
   0.0000000000000000    0.8647350965000001    0.8644533750000000 O
   0.5000000000000000    0.3647350965000000    0.8644533750000000 O
   0.5000000000000000    0.8647350965000001    0.8644533750000000 O
   0.0000000000000000    0.1147350820000000    0.3855466250000000 O
   0.0000000000000000    0.6147350820000000    0.3855466250000000 O
   0.5000000000000000    0.1147350820000000    0.3855466250000000 O
   0.5000000000000000    0.6147350820000000    0.3855466250000000 O
   0.0000000000000000    0.3852649035000000    0.3855466250000000 O
   0.0000000000000000    0.8852649035000000    0.3855466250000000 O
   0.5000000000000000    0.3852649035000000    0.3855466250000000 O
   0.5000000000000000    0.8852649035000000    0.3855466250000000 O
   0.3852649035000000    0.2500000000000000    0.6355466250000001 O
   0.3852649035000000    0.7500000000000000    0.6355466250000001 O
   0.8852649035000000    0.2500000000000000    0.6355466250000001 O
   0.8852649035000000    0.7500000000000000    0.6355466250000001 O
   0.3852649035000000    0.0000000000000000    0.6144533750000000 O
   0.3852649035000000    0.5000000000000000    0.6144533750000000 O
   0.8852649035000000    0.0000000000000000    0.6144533750000000 O
   0.8852649035000000    0.5000000000000000    0.6144533750000000 O
   0.3647350965000000    0.2500000000000000    0.1144533680000000 O
   0.3647350965000000    0.7500000000000000    0.1144533680000000 O
   0.8647350965000001    0.2500000000000000    0.1144533680000000 O
   0.8647350965000001    0.7500000000000000    0.1144533680000000 O
   0.3647350965000000    0.0000000000000000    0.1355466250000000 O
   0.3647350965000000    0.5000000000000000    0.1355466250000000 O
   0.8647350965000001    0.0000000000000000    0.1355466250000000 O
   0.8647350965000001    0.5000000000000000    0.1355466250000000 O
   0.2500000000000000    0.3852649035000000    0.3644533750000000 O
   0.2500000000000000    0.8852649035000000    0.3644533750000000 O
   0.7500000000000000    0.3852649035000000    0.3644533750000000 O
   0.7500000000000000    0.8852649035000000    0.3644533750000000 O
   0.2500000000000000    0.1147350820000000    0.3644533750000000 O
   0.2500000000000000    0.6147350820000000    0.3644533750000000 O
   0.7500000000000000    0.1147350820000000    0.3644533750000000 O
   0.7500000000000000    0.6147350820000000    0.3644533750000000 O
   0.2500000000000000    0.3647350965000000    0.8855466250000000 O
   0.2500000000000000    0.8647350965000001    0.8855466250000000 O
   0.7500000000000000    0.3647350965000000    0.8855466250000000 O
   0.7500000000000000    0.8647350965000001    0.8855466250000000 O
   0.2500000000000000    0.1352649180000000    0.8855466250000000 O
   0.2500000000000000    0.6352649180000001    0.8855466250000000 O
   0.7500000000000000    0.1352649180000000    0.8855466250000000 O
   0.7500000000000000    0.6352649180000001    0.8855466250000000 O
   0.1352649180000000    0.0000000000000000    0.1355466250000000 O
   0.1352649180000000    0.5000000000000000    0.1355466250000000 O
   0.6352649180000001    0.0000000000000000    0.1355466250000000 O
   0.6352649180000001    0.5000000000000000    0.1355466250000000 O
   0.1352649180000000    0.2500000000000000    0.1144533680000000 O
   0.1352649180000000    0.7500000000000000    0.1144533680000000 O
   0.6352649180000001    0.2500000000000000    0.1144533680000000 O
   0.6352649180000001    0.7500000000000000    0.1144533680000000 O
