Ca8 Mn12 F42
1.0
7.624155 -0.041754 0.103184
-3.852234 6.646186 0.014306
0.272876 0.203003 18.628396
Ca Mn F
8 12 42
direct
0.501045 0.869641 0.680249 Ca
0.112784 0.618862 0.984027 Ca
0.345661 0.494587 0.344220 Ca
0.522501 0.375433 0.675714 Ca
0.848950 0.015844 0.324388 Ca
0.195599 0.166139 0.000670 Ca
0.990447 0.775360 0.178127 Ca
0.114619 0.117922 0.512654 Ca
0.334647 0.980612 0.346266 Mn
0.037579 0.370109 0.656177 Mn
0.685417 0.686030 0.002408 Mn
0.349990 0.015881 0.841233 Mn
0.008132 0.308339 0.160528 Mn
0.644931 0.664117 0.500188 Mn
0.505778 0.814769 0.174259 Mn
0.152790 0.658270 0.499380 Mn
0.352407 0.518610 0.837870 Mn
0.846824 0.511206 0.825983 Mn
0.649311 0.166087 0.495222 Mn
0.487631 0.307802 0.171268 Mn
0.548554 0.135535 0.600270 F
0.801165 0.558840 0.938165 F
0.429270 0.255706 0.288124 F
0.179195 0.669216 0.386039 F
0.580379 0.801842 0.073407 F
0.286475 0.488589 0.726166 F
0.878595 0.953878 0.965060 F
0.061789 0.885389 0.289682 F
0.230633 0.262163 0.613246 F
0.975678 0.757720 0.060598 F
0.832244 0.080955 0.677438 F
0.121732 0.173990 0.396008 F
0.517269 0.410035 0.057345 F
0.653817 0.123998 0.383155 F
0.853828 0.457970 0.712601 F
0.397138 0.581821 0.950986 F
0.221881 0.677127 0.608394 F
0.468834 0.828691 0.284108 F
0.800379 0.414413 0.174754 F
0.585794 0.384786 0.485156 F
0.639456 0.227178 0.846283 F
0.444871 0.813493 0.809251 F
0.335570 0.525726 0.476396 F
0.194179 0.629274 0.158771 F
0.080486 0.331371 0.269536 F
0.600247 0.662076 0.612534 F
0.298369 0.949245 0.953838 F
0.383364 0.074499 0.732251 F
0.666281 0.712737 0.383637 F
0.042314 0.340955 0.047723 F
0.176563 0.152175 0.134480 F
0.753403 0.967876 0.502245 F
0.064847 0.798426 0.824753 F
0.275485 0.234138 0.875844 F
0.950842 0.764493 0.515791 F
0.819609 -0.002220 0.199745 F
0.067380 0.468636 0.871717 F
0.582621 0.599699 0.201936 F
0.323803 0.988066 0.468501 F
0.425643 0.022241 0.158319 F
0.614644 0.548816 0.790468 F
0.952423 0.351197 0.533090 F
