Ca4 V4 P6 O24                           
   1.00000000000000     
     2.5760519999999998    7.3497890000000003    4.3990380000000000
    -0.0097030000000000    0.0435880000000000    8.8727529999999994
     7.7321260000000001    0.0553140000000000    4.3528929999999999
   Ca   V    P    O 
     4     4     6    24
Direct
  0.2816220877027402  0.7709969217754989  0.5669489092704658
  0.9616143177702982  0.0018316661424458  0.0182470964910589
  0.4030931191595838  0.7417207997334604  0.0978770342082936
  0.1228030080431516  0.3754773935850507  0.7466197724222383
  0.6614792377339431  0.6211766156252266  0.6407916049881021
  0.1500366634614380  0.1417962990906513  0.1538422829023347
  0.8403482087976963  0.8646752324580701  0.8515602611632238
  0.3514074784431829  0.3484344448299997  0.3487868462978230
  0.2460540223328596  0.5476463269026277  0.9567476127825040
  0.0332884566392530  0.7516623089427387  0.4459186451131146
  0.9582598995476594  0.2478840894782485  0.5516157791841769
  0.4630459523291786  0.0324809700062960  0.7477395963657631
  0.5420639866818775  0.9529520893636593  0.2470494992717576
  0.7576218681085732  0.4485951515094189  0.0311130543833173
  0.5535502061922839  0.8058820046382028  0.4349591443365021
  0.2662642044602367  0.0663175671944048  0.9093842806588306
  0.4212847126514624  0.5554564921689309  0.7833605030826232
  0.9224858024937193  0.2711574615723314  0.0707257207643046
  0.7804892538332551  0.4120293469061995  0.5500564495243855
  0.0788996267146969  0.9008306639206098  0.2549004044855410
  0.9295617305069173  0.0882698076042972  0.7395992722200740
  0.5766684714574485  0.4352399993847815  0.1883309438110533
  0.7293370005540473  0.9116439543800344  0.0963979142324916
  0.2254128765261693  0.5891089996858500  0.4424633398015690
  0.0973157034861112  0.7383661254597488  0.8980213648914033
  0.4307424251572227  0.1996676816016740  0.5793089896712679
  0.1945996751546928  0.3909155233470558  0.9856595456111946
  0.8829179837310963  0.7016238551980535  0.4708811746160630
  0.0304850026612581  0.1709336585954364  0.3980699179838511
  0.5015498051709826  0.8399196095177199  0.7521434350051274
  0.3897050512545858  0.9310900171976765  0.2244436740885335
  0.7736917242834108  0.4546019521648663  0.8450571036542571
  0.2647868407180324  0.5407579052883027  0.1240202039362915
 -0.0059977993579597  0.8031514486751804  0.6082356811668888
  0.1108716970458431  0.2994202161245633  0.5368878104380524
  0.6030336666186519  1.0233608057952699  0.8050375105820229
  0.4826585159998975  0.1457401921487500  0.2455420723510716
  0.7707752181336535  0.6283223196161493  0.0015054833480021
 
             NaN             NaN             NaN
             NaN             NaN             NaN
             NaN             NaN             NaN
             NaN             NaN             NaN
             NaN             NaN             NaN
             NaN             NaN             NaN
             NaN             NaN             NaN
             NaN             NaN             NaN
             NaN             NaN             NaN
             NaN             NaN             NaN
             NaN             NaN             NaN
             NaN             NaN             NaN
             NaN             NaN             NaN
             NaN             NaN             NaN
             NaN             NaN             NaN
             NaN             NaN             NaN
             NaN             NaN             NaN
             NaN             NaN             NaN
             NaN             NaN             NaN
             NaN             NaN             NaN
             NaN             NaN             NaN
             NaN             NaN             NaN
             NaN             NaN             NaN
             NaN             NaN             NaN
             NaN             NaN             NaN
             NaN             NaN             NaN
             NaN             NaN             NaN
             NaN             NaN             NaN
             NaN             NaN             NaN
             NaN             NaN             NaN
             NaN             NaN             NaN
             NaN             NaN             NaN
             NaN             NaN             NaN
             NaN             NaN             NaN
             NaN             NaN             NaN
             NaN             NaN             NaN
             NaN             NaN             NaN
             NaN             NaN             NaN
