Ca4 V4 P6 O24
1.0
2.576052 7.349789 4.399038
-0.009703 0.043588 8.872753
7.732126 0.055314 4.352893
Ca V P O
4 4 6 24
direct
0.354976 0.727449 0.559413 Ca
0.959873 0.003662 0.024125 Ca
0.401159 0.744004 0.108904 Ca
0.134602 0.400331 0.744339 Ca
0.646768 0.634589 0.632214 V
0.144503 0.148806 0.151609 V
0.844147 0.858637 0.855794 V
0.351534 0.347809 0.351694 V
0.246289 0.553808 0.950423 P
0.034663 0.752783 0.450434 P
0.961780 0.249317 0.555079 P
0.453320 0.037279 0.743004 P
0.536232 0.947294 0.249255 P
0.748256 0.455618 0.033107 P
0.558422 0.766778 0.412105 O
0.262500 0.065927 0.909107 O
0.404383 0.572596 0.762996 O
0.922184 0.281035 0.049146 O
0.780843 0.409222 0.557390 O
0.070096 0.911467 0.264513 O
0.936551 0.084088 0.738403 O
0.581347 0.429302 0.210084 O
0.717173 0.938531 0.085279 O
0.224733 0.589968 0.424103 O
0.083983 0.740580 0.926575 O
0.427122 0.224012 0.587619 O
0.192847 0.395411 0.984355 O
0.875535 0.711546 0.479042 O
0.035116 0.178425 0.396992 O
0.472370 0.872921 0.709642 O
0.384266 0.958954 0.200826 O
0.722284 0.484447 0.861106 O
0.294458 0.528720 0.107794 O
0.012974 0.779255 0.621445 O
0.110161 0.300576 0.547190 O
0.605893 0.992480 0.802994 O
0.476515 0.111584 0.304468 O
0.770194 0.627166 0.012132 O
