Zn12 Ni36 O72
1.0
  11.3830508245153723   -0.0362894369384770   -0.0961962812806596
  -4.2921730349459111    7.4316042356488099    0.0053437101989442
  -0.1194872556666196   -0.0586327802692413   14.3501916455588585
Zn Ni O
1 36 72
direct
   0.7480770387857252    0.6653164127151884    0.0008438988186770 Zn
   0.1691711803505868    0.1130778165918602    0.8234818267030172 Ni
   0.1691711803505868    0.4464111499251935    0.8234818267030172 Ni
   0.1691711803505868    0.7797444832585270    0.8234818267030172 Ni
   0.6691711803505868    0.1130778165918602    0.8234818267030173 Ni
   0.6691711803505868    0.4464111499251935    0.8234818267030173 Ni
   0.6691711803505868    0.7797444832585269    0.8234818267030172 Ni
   0.4194893583428952    0.1132708766187754    0.8271133052274992 Ni
   0.4194893583428952    0.4466042099521088    0.8271133052274992 Ni
   0.4194893583428952    0.7799375432854422    0.8271133052274990 Ni
   0.9194893583428951    0.1132708766187754    0.8271133052274992 Ni
   0.9194893583428950    0.4466042099521088    0.8271133052274992 Ni
   0.9194893583428951    0.7799375432854420    0.8271133052274992 Ni
   0.0796669015234372    0.2195677514031377    0.1741022313044312 Ni
   0.0796669015234372    0.5529010847364710    0.1741022313044312 Ni
   0.0796669015234373    0.8862344180698044    0.1741022313044312 Ni
   0.5796669015234371    0.2195677514031377    0.1741022313044312 Ni
   0.5796669015234371    0.5529010847364710    0.1741022313044312 Ni
   0.5796669015234373    0.8862344180698043    0.1741022313044312 Ni
   0.3315530052900616    0.2207350636168557    0.1758925826013602 Ni
   0.3315530052900616    0.5540683969501891    0.1758925826013602 Ni
   0.3315530052900617    0.8874017302835225    0.1758925826013602 Ni
   0.8315530052900615    0.2207350636168557    0.1758925826013602 Ni
   0.8315530052900615    0.5540683969501889    0.1758925826013602 Ni
   0.8315530052900616    0.8874017302835224    0.1758925826013602 Ni
   0.0000213630207261    0.0000212001521682    0.5000194720530331 Ni
   0.0000213630207261    0.3333545334855015    0.5000194720530331 Ni
   0.0000213630207261    0.6666878668188347    0.5000194720530331 Ni
   0.5000213630207260    0.0000212001521682    0.5000194720530331 Ni
   0.5000213630207260    0.3333545334855015    0.5000194720530331 Ni
   0.5000213630207261    0.6666878668188347    0.5000194720530331 Ni
   0.2500143310086071    0.0000136056724278    0.5000962611428896 Ni
   0.2500143310086071    0.3333469390057611    0.5000962611428896 Ni
   0.2500143310086072    0.6666802723390945    0.5000962611428896 Ni
   0.7500143310086070    0.0000136056724278    0.5000962611428896 Ni
   0.7500143310086069    0.3333469390057611    0.5000962611428897 Ni
   0.7500143310086070    0.6666802723390944    0.5000962611428896 Ni
   0.0947684415074821    0.2299568252473100    0.8946133571746162 O
   0.0947684415074822    0.5632901585806434    0.8946133571746162 O
   0.0947684415074822    0.8966234919139767    0.8946133571746162 O
   0.5947684415074821    0.2299568252473100    0.8946133571746163 O
   0.5947684415074821    0.5632901585806434    0.8946133571746163 O
   0.5947684415074822    0.8966234919139767    0.8946133571746162 O
   0.3283198126133260    0.2191575962729835    0.9031511202777812 O
   0.3283198126133260    0.5524909296063170    0.9031511202777812 O
   0.3283198126133261    0.8858242629396502    0.9031511202777812 O
   0.8283198126133260    0.2191575962729835    0.9031511202777813 O
   0.8283198126133259    0.5524909296063168    0.9031511202777812 O
   0.8283198126133259    0.8858242629396502    0.9031511202777812 O
   0.2514325629801177    0.0014085992258043    0.7597104120296155 O
   0.2514325629801177    0.3347419325591377    0.7597104120296154 O
   0.2514325629801178    0.6680752658924710    0.7597104120296154 O
   0.7514325629801177    0.0014085992258043    0.7597104120296155 O
   0.7514325629801176    0.3347419325591376    0.7597104120296155 O
   0.7514325629801177    0.6680752658924709    0.7597104120296155 O
   0.4998103548250662    0.0002167568282677    0.7620725033586541 O
   0.4998103548250662    0.3335500901616011    0.7620725033586540 O
   0.4998103548250663    0.6668834234949345    0.7620725033586540 O
   0.9998103548250663    0.0002167568282677    0.7620725033586541 O
   0.9998103548250662    0.3335500901616011    0.7620725033586541 O
   0.9998103548250662    0.6668834234949345    0.7620725033586541 O
   0.4983466266169612    0.3320817269218821    0.2393281732288682 O
   0.4983466266169613    0.6654150602552155    0.2393281732288682 O
   0.4983466266169613    0.9987483935885488    0.2393281732288682 O
   0.9983466266169612    0.3320817269218821    0.2393281732288682 O
   0.9983466266169612    0.6654150602552154    0.2393281732288682 O
   0.9983466266169613    0.9987483935885487    0.2393281732288682 O
   0.2498212990408145    0.3327295771956174    0.2395562889758691 O
   0.2498212990408145    0.6660629105289507    0.2395562889758691 O
   0.2498212990408147    0.9993962438622841    0.2395562889758691 O
   0.7498212990408145    0.3327295771956173    0.2395562889758691 O
   0.7498212990408144    0.6660629105289506    0.2395562889758691 O
   0.7498212990408145    0.9993962438622841    0.2395562889758691 O
   0.1736221673619848    0.1152861290015368    0.0949924595985281 O
   0.1736221673619848    0.4486194623348702    0.0949924595985281 O
   0.1736221673619849    0.7819527956682035    0.0949924595985281 O
   0.6736221673619847    0.1152861290015369    0.0949924595985281 O
   0.6736221673619847    0.4486194623348702    0.0949924595985281 O
   0.6736221673619848    0.7819527956682034    0.0949924595985281 O
   0.4058223249955195    0.1037582458065443    0.1047020819105944 O
   0.4058223249955195    0.4370915791398777    0.1047020819105944 O
   0.4058223249955196    0.7704249124732110    0.1047020819105944 O
   0.9058223249955193    0.1037582458065443    0.1047020819105944 O
   0.9058223249955195    0.4370915791398777    0.1047020819105944 O
   0.9058223249955194    0.7704249124732109    0.1047020819105944 O
   0.1685610886554069    0.1122058115814424    0.5650494858810580 O
   0.1685610886554070    0.4455391449147758    0.5650494858810580 O
   0.1685610886554071    0.7788724782481092    0.5650494858810579 O
   0.6685610886554070    0.1122058115814424    0.5650494858810580 O
   0.6685610886554069    0.4455391449147758    0.5650494858810580 O
   0.6685610886554071    0.7788724782481091    0.5650494858810580 O
   0.4186807342182480    0.1122886532487909    0.5650060464830369 O
   0.4186807342182481    0.4456219865821242    0.5650060464830369 O
   0.4186807342182481    0.7789553199154575    0.5650060464830369 O
   0.9186807342182480    0.1122886532487909    0.5650060464830370 O
   0.9186807342182479    0.4456219865821242    0.5650060464830369 O
   0.9186807342182480    0.7789553199154575    0.5650060464830369 O
   0.0814649272504096    0.2211582412329433    0.4351026175232794 O
   0.0814649272504096    0.5544915745662767    0.4351026175232794 O
   0.0814649272504096    0.8878249078996101    0.4351026175232794 O
   0.5814649272504095    0.2211582412329433    0.4351026175232794 O
   0.5814649272504095    0.5544915745662766    0.4351026175232794 O
   0.5814649272504095    0.8878249078996100    0.4351026175232794 O
   0.3313564811154433    0.2210824415074575    0.4351426965920948 O
   0.3313564811154434    0.5544157748407910    0.4351426965920948 O
   0.3313564811154434    0.8877491081741242    0.4351426965920948 O
   0.8313564811154432    0.2210824415074575    0.4351426965920948 O
   0.8313564811154434    0.5544157748407909    0.4351426965920948 O
   0.8313564811154432    0.8877491081741241    0.4351426965920948 O
