Li8 Ni96 O192
1.0
  12.3130139631420477   -0.0461150150809016   -0.0172112912597764
  -6.1964437662203151   10.6426057558423111    0.0371088137250896
  -0.0423512629208011    0.0809794489773006   23.9187883105546888
Li Ni O
7 96 192
direct
   0.5826238549252082    0.4154700158240424    0.8331989295116248 Li
   0.0826238549252082    0.4154700158240424    0.8331989295116248 Li
   0.0826238549252082    0.9154700158240422    0.8331989295116248 Li
   0.5826238549252083    0.9154700158240423    0.8331989295116248 Li
   0.8333332467702057    0.4166625477401165    0.8335648806704882 Li
   0.8333332467702057    0.9166625477401166    0.8335648806704882 Li
   0.3333332467702056    0.9166625477401165    0.8335648806704882 Li
   0.0833377674794688    0.1666566431653673    0.0830839561600813 Ni
   0.0833377674794687    0.6666566431653673    0.0830839561600813 Ni
   0.5833377674794689    0.1666566431653673    0.0830839561600813 Ni
   0.5833377674794687    0.6666566431653673    0.0830839561600813 Ni
   0.0833695434072934    0.1666636635336136    0.5837795041621681 Ni
   0.0833695434072933    0.6666636635336137    0.5837795041621681 Ni
   0.5833695434072934    0.1666636635336136    0.5837795041621681 Ni
   0.5833695434072933    0.6666636635336136    0.5837795041621681 Ni
   0.0834129110670130    0.4167175557933848    0.0829300697160455 Ni
   0.0834129110670130    0.9167175557933848    0.0829300697160455 Ni
   0.5834129110670131    0.4167175557933848    0.0829300697160455 Ni
   0.5834129110670130    0.9167175557933847    0.0829300697160455 Ni
   0.0833381895825863    0.4166953805199822    0.5836175457191000 Ni
   0.0833381895825863    0.9166953805199822    0.5836175457191001 Ni
   0.5833381895825863    0.4166953805199822    0.5836175457191000 Ni
   0.5833381895825862    0.9166953805199821    0.5836175457191001 Ni
   0.3332882933701860    0.1666052062383379    0.0829018794687844 Ni
   0.3332882933701860    0.6666052062383380    0.0829018794687844 Ni
   0.8332882933701861    0.1666052062383379    0.0829018794687844 Ni
   0.8332882933701861    0.6666052062383380    0.0829018794687844 Ni
   0.3332796401566595    0.1666795575306862    0.5838426151604664 Ni
   0.3332796401566594    0.6666795575306862    0.5838426151604664 Ni
   0.8332796401566595    0.1666795575306862    0.5838426151604664 Ni
   0.8332796401566595    0.6666795575306862    0.5838426151604664 Ni
   0.3332656573366758    0.4166960536246449    0.0829157672484357 Ni
   0.3332656573366757    0.9166960536246449    0.0829157672484357 Ni
   0.8332656573366758    0.4166960536246448    0.0829157672484357 Ni
   0.8332656573366758    0.9166960536246448    0.0829157672484357 Ni
   0.3333015969501230    0.4166024517358299    0.5837966537138735 Ni
   0.3333015969501230    0.9166024517358300    0.5837966537138735 Ni
   0.8333015969501230    0.4166024517358298    0.5837966537138733 Ni
   0.8333015969501231    0.9166024517358300    0.5837966537138735 Ni
   0.9999494226963695    0.9999818660450280    0.2498880461040488 Ni
   0.9999494226963695    0.4999818660450280    0.2498880461040488 Ni
   0.4999494226963695    0.9999818660450280    0.2498880461040488 Ni
   0.4999494226963696    0.4999818660450280    0.2498880461040488 Ni
   0.9993889021453440    0.0006972069410337    0.7487304353174800 Ni
   0.9993889021453440    0.5006972069410337    0.7487304353174800 Ni
   0.4993889021453441    0.0006972069410337    0.7487304353174800 Ni
   0.4993889021453440    0.5006972069410337    0.7487304353174800 Ni
   0.0000644922553607    0.2500306847030201    0.2498624361859145 Ni
   0.0000644922553606    0.7500306847030203    0.2498624361859145 Ni
   0.5000644922553606    0.2500306847030202    0.2498624361859145 Ni
   0.5000644922553606    0.7500306847030201    0.2498624361859145 Ni
   0.9993341423999178    0.2486969325056080    0.7489259624895033 Ni
   0.9993341423999178    0.7486969325056081    0.7489259624895034 Ni
   0.4993341423999179    0.2486969325056080    0.7489259624895033 Ni
   0.4993341423999177    0.7486969325056080    0.7489259624895033 Ni
   0.2499434488725601    0.0002681630953433    0.2498287426673904 Ni
   0.2499434488725600    0.5002681630953433    0.2498287426673904 Ni
   0.7499434488725601    0.0002681630953434    0.2498287426673904 Ni
   0.7499434488725600    0.5002681630953433    0.2498287426673905 Ni
   0.2514276765561831    0.0007770063032414    0.7487133750294219 Ni
   0.2514276765561831    0.5007770063032414    0.7487133750294219 Ni
   0.7514276765561833    0.0007770063032414    0.7487133750294219 Ni
   0.7514276765561831    0.5007770063032414    0.7487133750294219 Ni
   0.2499918580364155    0.2500151904190708    0.2497964274181336 Ni
   0.2499918580364155    0.7500151904190707    0.2497964274181336 Ni
   0.7499918580364155    0.2500151904190708    0.2497964274181336 Ni
   0.7499918580364154    0.7500151904190707    0.2497964274181337 Ni
   0.2500026757860651    0.2499854087136137    0.7490000301477803 Ni
   0.2500026757860651    0.7499854087136136    0.7490000301477803 Ni
   0.7500026757860652    0.2499854087136137    0.7490000301477803 Ni
   0.7500026757860649    0.7499854087136135    0.7490000301477803 Ni
   0.1666924248480468    0.0833062625283598    0.4168845000214069 Ni
   0.1666924248480467    0.5833062625283598    0.4168845000214069 Ni
   0.6666924248480468    0.0833062625283598    0.4168845000214069 Ni
   0.6666924248480468    0.5833062625283598    0.4168845000214069 Ni
   0.1678650128737506    0.0857701093654902    0.9179923167813975 Ni
   0.1678650128737505    0.5857701093654900    0.9179923167813975 Ni
   0.6678650128737506    0.0857701093654901    0.9179923167813975 Ni
   0.6678650128737507    0.5857701093654901    0.9179923167813975 Ni
   0.1666747140862588    0.3333714316784476    0.4168035722075263 Ni
   0.1666747140862587    0.8333714316784475    0.4168035722075264 Ni
   0.6666747140862588    0.3333714316784476    0.4168035722075263 Ni
   0.6666747140862588    0.8333714316784474    0.4168035722075263 Ni
   0.1675320051007440    0.3324381676295384    0.9177932435763442 Ni
   0.1675320051007440    0.8324381676295383    0.9177932435763443 Ni
   0.6675320051007441    0.3324381676295384    0.9177932435763442 Ni
   0.6675320051007441    0.8324381676295384    0.9177932435763443 Ni
   0.4166461457127447    0.0833469075160896    0.4169099376771994 Ni
   0.4166461457127446    0.5833469075160895    0.4169099376771994 Ni
   0.9166461457127446    0.0833469075160896    0.4169099376771993 Ni
   0.9166461457127445    0.5833469075160895    0.4169099376771994 Ni
   0.4166944920122980    0.0833238681897755    0.9177732898152104 Ni
   0.4166944920122979    0.5833238681897754    0.9177732898152104 Ni
   0.9166944920122980    0.0833238681897755    0.9177732898152104 Ni
   0.9166944920122980    0.5833238681897754    0.9177732898152104 Ni
   0.4167213042717350    0.3333733481413788    0.4168006612053229 Ni
   0.4167213042717350    0.8333733481413789    0.4168006612053229 Ni
   0.9167213042717350    0.3333733481413789    0.4168006612053229 Ni
   0.9167213042717350    0.8333733481413788    0.4168006612053229 Ni
   0.4149740226385479    0.3324791512797981    0.9177872343334181 Ni
   0.4149740226385478    0.8324791512797981    0.9177872343334181 Ni
   0.9149740226385479    0.3324791512797981    0.9177872343334181 Ni
   0.9149740226385479    0.8324791512797981    0.9177872343334181 Ni
   0.1670074672808208    0.0833212357356122    0.0489185667228037 O
   0.1670074672808208    0.5833212357356122    0.0489185667228037 O
   0.6670074672808208    0.0833212357356122    0.0489185667228037 O
   0.6670074672808208    0.5833212357356121    0.0489185667228037 O
   0.1668680077366124    0.0836755152188835    0.5498351142508340 O
   0.1668680077366123    0.5836755152188834    0.5498351142508340 O
   0.6668680077366124    0.0836755152188834    0.5498351142508340 O
   0.6668680077366125    0.5836755152188835    0.5498351142508340 O
   0.1668068444308792    0.3335508911729252    0.0490829365389729 O
   0.1668068444308791    0.8335508911729251    0.0490829365389729 O
   0.6668068444308792    0.3335508911729251    0.0490829365389729 O
   0.6668068444308791    0.8335508911729250    0.0490829365389729 O
   0.1667388437810572    0.3331404955116422    0.5499512070015180 O
   0.1667388437810572    0.8331404955116420    0.5499512070015180 O
   0.6667388437810573    0.3331404955116422    0.5499512070015180 O
   0.6667388437810573    0.8331404955116422    0.5499512070015180 O
   0.4163565868807919    0.0832946433901497    0.0491301066149169 O
   0.4163565868807918    0.5832946433901497    0.0491301066149169 O
   0.9163565868807918    0.0832946433901497    0.0491301066149169 O
   0.9163565868807917    0.5832946433901497    0.0491301066149169 O
   0.4167028965092512    0.0834446600067265    0.5500891572483504 O
   0.4167028965092512    0.5834446600067265    0.5500891572483505 O
   0.9167028965092512    0.0834446600067265    0.5500891572483504 O
   0.9167028965092511    0.5834446600067265    0.5500891572483505 O
   0.4165492756248160    0.3331211860014453    0.0489774426522790 O
   0.4165492756248160    0.8331211860014452    0.0489774426522790 O
   0.9165492756248161    0.3331211860014454    0.0489774426522790 O
   0.9165492756248160    0.8331211860014452    0.0489774426522790 O
   0.4164256453978699    0.3331492747444273    0.5499372291351156 O
   0.4164256453978699    0.8331492747444273    0.5499372291351157 O
   0.9164256453978699    0.3331492747444273    0.5499372291351156 O
   0.9164256453978699    0.8331492747444273    0.5499372291351157 O
   0.9999617484592920    0.9998684504184935    0.1179868586135575 O
   0.9999617484592919    0.4998684504184935    0.1179868586135575 O
   0.4999617484592919    0.9998684504184935    0.1179868586135575 O
   0.4999617484592919    0.4998684504184934    0.1179868586135575 O
   0.9999708420380892    0.0003772451784638    0.6169433121460175 O
   0.9999708420380892    0.5003772451784638    0.6169433121460175 O
   0.4999708420380892    0.0003772451784639    0.6169433121460175 O
   0.4999708420380892    0.5003772451784638    0.6169433121460175 O
   0.9997635410903278    0.2500824872799244    0.1180661717798649 O
   0.9997635410903278    0.7500824872799244    0.1180661717798649 O
   0.4997635410903279    0.2500824872799244    0.1180661717798649 O
   0.4997635410903278    0.7500824872799244    0.1180661717798649 O
   0.9997906400440651    0.2495297086063920    0.6169570340312779 O
   0.9997906400440651    0.7495297086063920    0.6169570340312780 O
   0.4997906400440652    0.2495297086063920    0.6169570340312779 O
   0.4997906400440651    0.7495297086063919    0.6169570340312779 O
   0.2500090758783337    0.0001086617610461    0.1182279821510735 O
   0.2500090758783337    0.5001086617610462    0.1182279821510735 O
   0.7500090758783338    0.0001086617610462    0.1182279821510735 O
   0.7500090758783338    0.5001086617610462    0.1182279821510735 O
   0.2503511349111741    0.0003055480677232    0.6169637176024406 O
   0.2503511349111741    0.5003055480677232    0.6169637176024406 O
   0.7503511349111741    0.0003055480677232    0.6169637176024406 O
   0.7503511349111741    0.5003055480677232    0.6169637176024406 O
   0.2502400383749460    0.2500429703943031    0.1182005667277991 O
   0.2502400383749460    0.7500429703943032    0.1182005667277991 O
   0.7502400383749461    0.2500429703943032    0.1182005667277991 O
   0.7502400383749459    0.7500429703943031    0.1182005667277991 O
   0.2499448305028011    0.2498134535733806    0.6170255937193586 O
   0.2499448305028011    0.7498134535733806    0.6170255937193586 O
   0.7499448305028011    0.2498134535733806    0.6170255937193586 O
   0.7499448305028011    0.7498134535733806    0.6170255937193586 O
   0.0837138291657868    0.1660241271979265    0.2151402732068982 O
   0.0837138291657868    0.6660241271979266    0.2151402732068982 O
   0.5837138291657870    0.1660241271979265    0.2151402732068982 O
   0.5837138291657867    0.6660241271979265    0.2151402732068982 O
   0.0838105186917162    0.1664504055163979    0.7159814374671440 O
   0.0838105186917162    0.6664504055163979    0.7159814374671440 O
   0.5838105186917163    0.1664504055163979    0.7159814374671440 O
   0.5838105186917162    0.6664504055163979    0.7159814374671440 O
   0.0879272137875930    0.4205764337443954    0.2155091623977975 O
   0.0879272137875930    0.9205764337443955    0.2155091623977975 O
   0.5879272137875929    0.4205764337443954    0.2155091623977975 O
   0.5879272137875929    0.9205764337443954    0.2155091623977975 O
   0.0838162870652714    0.4174821529716092    0.7159896594357263 O
   0.0838162870652714    0.9174821529716093    0.7159896594357263 O
   0.5838162870652714    0.4174821529716092    0.7159896594357263 O
   0.5838162870652714    0.9174821529716093    0.7159896594357263 O
   0.3307398345476783    0.1618164667826312    0.2152149698859910 O
   0.3307398345476783    0.6618164667826312    0.2152149698859910 O
   0.8307398345476783    0.1618164667826312    0.2152149698859910 O
   0.8307398345476783    0.6618164667826312    0.2152149698859910 O
   0.3325235577439276    0.1663138481229470    0.7160126104383020 O
   0.3325235577439276    0.6663138481229470    0.7160126104383020 O
   0.8325235577439276    0.1663138481229470    0.7160126104383020 O
   0.8325235577439275    0.6663138481229469    0.7160126104383020 O
   0.3317428072041248    0.4188968162724926    0.2154847035827993 O
   0.3317428072041249    0.9188968162724928    0.2154847035827993 O
   0.8317428072041249    0.4188968162724926    0.2154847035827993 O
   0.8317428072041249    0.9188968162724926    0.2154847035827993 O
   0.3331497317696299    0.4164435388553633    0.7161942478500233 O
   0.3331497317696298    0.9164435388553633    0.7161942478500233 O
   0.8331497317696299    0.4164435388553633    0.7161942478500233 O
   0.8331497317696298    0.9164435388553632    0.7161942478500233 O
   0.1682973795658328    0.0810586689330746    0.2848112713999997 O
   0.1682973795658327    0.5810586689330746    0.2848112713999996 O
   0.6682973795658328    0.0810586689330746    0.2848112713999996 O
   0.6682973795658329    0.5810586689330746    0.2848112713999997 O
   0.1647632670061568    0.0793024588757480    0.7830200994676357 O
   0.1647632670061568    0.5793024588757480    0.7830200994676357 O
   0.6647632670061568    0.0793024588757480    0.7830200994676357 O
   0.6647632670061570    0.5793024588757480    0.7830200994676357 O
   0.1693478302161533    0.3380650310106673    0.2849616500444171 O
   0.1693478302161533    0.8380650310106674    0.2849616500444171 O
   0.6693478302161533    0.3380650310106673    0.2849616500444171 O
   0.6693478302161533    0.8380650310106673    0.2849616500444171 O
   0.1653272863044294    0.3358390032699906    0.7831613381000895 O
   0.1653272863044295    0.8358390032699907    0.7831613381000896 O
   0.6653272863044295    0.3358390032699906    0.7831613381000895 O
   0.6653272863044295    0.8358390032699905    0.7831613381000895 O
   0.4121231987739211    0.0793601932952276    0.2847220674693725 O
   0.4121231987739211    0.5793601932952276    0.2847220674693725 O
   0.9121231987739210    0.0793601932952276    0.2847220674693725 O
   0.9121231987739211    0.5793601932952276    0.2847220674693726 O
   0.4161958520619976    0.0826871872636644    0.7809583444233386 O
   0.4161958520619976    0.5826871872636645    0.7809583444233386 O
   0.9161958520619977    0.0826871872636644    0.7809583444233386 O
   0.9161958520619976    0.5826871872636644    0.7809583444233386 O
   0.4162114415690277    0.3340064516895218    0.2852214966684041 O
   0.4162114415690277    0.8340064516895218    0.2852214966684040 O
   0.9162114415690278    0.3340064516895218    0.2852214966684040 O
   0.9162114415690276    0.8340064516895217    0.2852214966684041 O
   0.4204461222437421    0.3355932588652250    0.7831509342692454 O
   0.4204461222437421    0.8355932588652251    0.7831509342692454 O
   0.9204461222437421    0.3355932588652251    0.7831509342692454 O
   0.9204461222437420    0.8355932588652250    0.7831509342692454 O
   0.9999142285614632    0.9996217788152194    0.3819439660751233 O
   0.9999142285614632    0.4996217788152194    0.3819439660751233 O
   0.4999142285614633    0.9996217788152194    0.3819439660751232 O
   0.4999142285614632    0.4996217788152194    0.3819439660751233 O
   0.0019066440415471    0.9982338803763173    0.8836259165619019 O
   0.0019066440415471    0.4982338803763174    0.8836259165619019 O
   0.5019066440415472    0.9982338803763173    0.8836259165619019 O
   0.5019066440415471    0.4982338803763174    0.8836259165619019 O
   0.0004939582992213    0.2504899417891412    0.3819508652447248 O
   0.0004939582992211    0.7504899417891411    0.3819508652447249 O
   0.5004939582992212    0.2504899417891412    0.3819508652447248 O
   0.5004939582992213    0.7504899417891412    0.3819508652447249 O
   0.0017364787838525    0.2536856934140558    0.8836495617355471 O
   0.0017364787838524    0.7536856934140558    0.8836495617355471 O
   0.5017364787838525    0.2536856934140558    0.8836495617355471 O
   0.5017364787838524    0.7536856934140559    0.8836495617355471 O
   0.2494726435513627    0.9994138896824201    0.3818973369603381 O
   0.2494726435513627    0.4994138896824201    0.3818973369603381 O
   0.7494726435513627    0.9994138896824201    0.3818973369603381 O
   0.7494726435513627    0.4994138896824201    0.3818973369603381 O
   0.2463985052687239    0.9983744571300637    0.8834284281940377 O
   0.2463985052687239    0.4983744571300636    0.8834284281940377 O
   0.7463985052687240    0.9983744571300637    0.8834284281940377 O
   0.7463985052687239    0.4983744571300636    0.8834284281940377 O
   0.2498449531844882    0.2502829749519865    0.3820310628221474 O
   0.2498449531844882    0.7502829749519866    0.3820310628221474 O
   0.7498449531844883    0.2502829749519865    0.3820310628221474 O
   0.7498449531844882    0.7502829749519865    0.3820310628221474 O
   0.2501781508226766    0.2500998635220089    0.8857393334179658 O
   0.2501781508226766    0.7500998635220089    0.8857393334179660 O
   0.7501781508226767    0.2500998635220089    0.8857393334179658 O
   0.7501781508226767    0.7500998635220090    0.8857393334179658 O
   0.0838737511631251    0.1672716215559863    0.4505663508543695 O
   0.0838737511631250    0.6672716215559863    0.4505663508543696 O
   0.5838737511631251    0.1672716215559863    0.4505663508543695 O
   0.5838737511631251    0.6672716215559863    0.4505663508543696 O
   0.0828540954157492    0.1661590938919346    0.9506486876467587 O
   0.0828540954157492    0.6661590938919346    0.9506486876467588 O
   0.5828540954157493    0.1661590938919346    0.9506486876467587 O
   0.5828540954157493    0.6661590938919346    0.9506486876467587 O
   0.0835442114657618    0.4164321075357766    0.4505701633470421 O
   0.0835442114657617    0.9164321075357766    0.4505701633470421 O
   0.5835442114657617    0.4164321075357766    0.4505701633470421 O
   0.5835442114657616    0.9164321075357765    0.4505701633470421 O
   0.0832312549788995    0.4166017350799160    0.9496870648089476 O
   0.0832312549788994    0.9166017350799160    0.9496870648089476 O
   0.5832312549788995    0.4166017350799160    0.9496870648089476 O
   0.5832312549788995    0.9166017350799159    0.9496870648089476 O
   0.3333081296619842    0.1669782777270221    0.4506177484404325 O
   0.3333081296619841    0.6669782777270221    0.4506177484404326 O
   0.8333081296619841    0.1669782777270220    0.4506177484404325 O
   0.8333081296619842    0.6669782777270220    0.4506177484404326 O
   0.3333574927833307    0.1662929862868258    0.9505033731890126 O
   0.3333574927833307    0.6662929862868258    0.9505033731890126 O
   0.8333574927833307    0.1662929862868257    0.9505033731890126 O
   0.8333574927833307    0.6662929862868257    0.9505033731890126 O
   0.3327785104056065    0.4161606303282092    0.4505915903000461 O
   0.3327785104056065    0.9161606303282092    0.4505915903000461 O
   0.8327785104056065    0.4161606303282092    0.4505915903000461 O
   0.8327785104056066    0.9161606303282093    0.4505915903000461 O
   0.3336965537198671    0.4171770318306368    0.9504974888535014 O
   0.3336965537198671    0.9171770318306368    0.9504974888535014 O
   0.8336965537198672    0.4171770318306368    0.9504974888535014 O
   0.8336965537198672    0.9171770318306367    0.9504974888535014 O
