Ca1 Mn4 S6 O24                          
   1.00000000000000     
     7.9371210000000003    0.0142150000000000    4.9507630000000002
     2.7780450000000001    7.1319759999999999    4.8012050000000004
     0.5251970000000000    0.0724570000000000    9.0524679999999993
   Ca   Mn   S    O 
     1     4     6    24
Direct
  0.2668270798550117  0.7875632025341365  0.5758607060393418
  0.6599567783177621  0.6386329189497787  0.6462321045933411
  0.1392334346820541  0.1588804777653332  0.1382593941154684
  0.8142197414139123  0.8573715047644647  0.8450122046060937
  0.3600207590083273  0.3509729621762463  0.3566680798430412
  0.9700341464735474  0.2358021078002520  0.5279048181610919
  0.4299456846313710  0.0389330616333540  0.7579075518425037
  0.5541114009296281  0.9623291600604760  0.2361578258738828
  0.7446440091978831  0.4684510740072507  0.0482329236195708
  0.2643776328987797  0.5145894090684263  0.9576120094407845
  0.0345180886509208  0.7585292968103828  0.4511363733785511
  0.4296438359853311  0.5572104427668897  0.7720667567537790
  0.9351417133124953  0.3370614474318095  0.0178051119553689
  0.7966529829546150  0.3672223882344764  0.6132987307150249
  0.0175036555700538  0.9598370379249218  0.3323587528901034
  0.5960078382291661  0.7739314287033564  0.3891210740085315
  0.2901682863165383  0.0184318753547552  0.9642057096862132
  0.6994802636122348  0.9649058261204532  0.0386007925884106
  0.2264772251810147  0.6346331114803729  0.3809583515135675
  0.1001975532502091  0.6751875369510438  0.9228187891718378
  0.3616061230427875  0.2297878200129706  0.6297233258190755
  0.9689081128605606  0.0325697797012305  0.6540259996614832
  0.6097142937657994  0.3976167526534044  0.2421373978066828
  0.9853349682324999  0.2769866868460087  0.3349294931670094
  0.4480459272112602  0.8912822814852716  0.7152751056555801
  0.3706555849439749  0.9898644601692513  0.2558531248506785
  0.6945026381034141  0.5144181159932532  0.8971941819687588
  0.2708451682990989  0.3385426203019410  0.9688713110412961
  0.8979012233794438  0.7145382520295428  0.4638464790896065
  0.1351130622068199  0.2367664049216265  0.5114532090167356
  0.6115598472299691  0.0101155788913848  0.7385335600436503
  0.5447243157131618  0.1102211234684418  0.2671138478064430
  0.7292808856517884  0.6515332440041377  0.0394245570555862
  0.2788168396879199  0.4888680093732187  0.1222271091986354
 -0.0006690459792578  0.7262835019796223  0.6536207285855072
 
             NaN             NaN             NaN
             NaN             NaN             NaN
             NaN             NaN             NaN
             NaN             NaN             NaN
             NaN             NaN             NaN
             NaN             NaN             NaN
             NaN             NaN             NaN
             NaN             NaN             NaN
             NaN             NaN             NaN
             NaN             NaN             NaN
             NaN             NaN             NaN
             NaN             NaN             NaN
             NaN             NaN             NaN
             NaN             NaN             NaN
             NaN             NaN             NaN
             NaN             NaN             NaN
             NaN             NaN             NaN
             NaN             NaN             NaN
             NaN             NaN             NaN
             NaN             NaN             NaN
             NaN             NaN             NaN
             NaN             NaN             NaN
             NaN             NaN             NaN
             NaN             NaN             NaN
             NaN             NaN             NaN
             NaN             NaN             NaN
             NaN             NaN             NaN
             NaN             NaN             NaN
             NaN             NaN             NaN
             NaN             NaN             NaN
             NaN             NaN             NaN
             NaN             NaN             NaN
             NaN             NaN             NaN
             NaN             NaN             NaN
             NaN             NaN             NaN
