Ca1 Mn4 S6 O24
1.0
7.937121 0.014215 4.950763
2.778045 7.131976 4.801205
0.525197 0.072457 9.052468
Ca Mn S O
1 4 6 24
direct
0.317933 0.776251 0.589706 Ca
0.659098 0.641622 0.646248 Mn
0.145129 0.153509 0.141118 Mn
0.821433 0.850542 0.844815 Mn
0.359355 0.352431 0.348619 Mn
0.960667 0.241492 0.529164 S
0.434076 0.043714 0.752978 S
0.547530 0.959372 0.239006 S
0.745740 0.462540 0.048164 S
0.257497 0.521602 0.954238 S
0.039862 0.755861 0.454248 S
0.414382 0.574565 0.766159 O
0.931848 0.324614 0.022450 O
0.790066 0.381883 0.602048 O
0.028661 0.954339 0.322527 O
0.603275 0.774928 0.386639 O
0.299026 0.019946 0.958875 O
0.686619 0.966676 0.039566 O
0.223546 0.622523 0.381614 O
0.086546 0.678041 0.941076 O
0.364746 0.234486 0.624195 O
0.952142 0.045915 0.664441 O
0.605571 0.398269 0.244013 O
0.982955 0.275652 0.336545 O
0.446508 0.898182 0.710236 O
0.363856 0.978472 0.269594 O
0.691421 0.508470 0.900445 O
0.263378 0.347655 0.962433 O
0.890717 0.721185 0.477232 O
0.124394 0.240844 0.516817 O
0.617508 0.011596 0.728346 O
0.533156 0.113081 0.267188 O
0.737212 0.641946 0.036229 O
0.282973 0.486399 0.116061 O
0.013777 0.730506 0.647601 O
