Mg V32 O80                              
   1.00000000000000     
    23.0318386851781938   -0.0000132115294202   -0.0000048567074794
    -0.0000045180187254    7.1477081414626022    0.0027211719071451
     0.0000000491956190    0.0040406152753269    9.6139760705581860
   Na   V    O 
     1    32    80
Direct
  0.3749986854118654  0.1248587155341989  0.5722190940548060
  0.1989609518545215  0.1249999717337792  0.1908254468433012
  0.1998252914300797  0.1251856199196827  0.6983785666412682
  0.1990516861530393  0.6250152422285944  0.1960815322232082
  0.2002290604922495  0.6251563589651769  0.6974028337808544
  0.6994056890424579  0.1250479408721213  0.1949056714515763
  0.6991896146230548  0.1250314760312775  0.6944614806144010
  0.6992581377841856  0.6250488571418003  0.1959380531780603
  0.6992035534771991  0.6250332993284033  0.6939640530564979
  0.3012730190198529  0.3722241407159791  0.2963893622754942
  0.2999773630937515  0.3763928186438443  0.8136787843759884
  0.3012791673061555  0.8772779404054388  0.2964477052186255
  0.2999783260871288  0.8738196478624745  0.8136792562536161
  0.8007134695447167  0.3749922744090102  0.3055075851522637
  0.8005863106291704  0.3750134352904183  0.8050628782639579
  0.8007168418879551  0.8749682021182159  0.3054833024504890
  0.8005900233097012  0.8749546884803069  0.8050368585723314
  0.0505952561602377  0.1250476307194514  0.1949009505843416
  0.0508081126202593  0.1250357773036541  0.6944474217407438
  0.0507434039690061  0.6250512770276118  0.1959310731937603
  0.0507961715192379  0.6250331233996106  0.6939534300798137
  0.5510383485983319  0.1250019568728395  0.1908197186134659
  0.5501731514906065  0.1251830068214865  0.6983834627979165
  0.5509492542967177  0.6250135247661225  0.1960821636471447
  0.5497720384159803  0.6251541258996074  0.6974074381017349
  0.4487265418193965  0.3722225209143002  0.2963901613713509
  0.4500217291123988  0.3763938367602498  0.8136797302695626
  0.4487208802828497  0.8772757738273184  0.2964487975810103
  0.4500206073646494  0.8738159810022073  0.8136788818195977
  0.9492859785694149  0.3749917271882515  0.3054956543335380
  0.9494133086313363  0.3750135365392256  0.8050598480083923
  0.9492820654099172  0.8749655989134628  0.3054733053941042
  0.9494092161461742  0.8749527692573290  0.8050312578093127
  0.1954935126491988  0.1250550227817687  0.0255079608318590
  0.1987756616460298  0.1253327675459856  0.5330083957165188
  0.1963910137074006  0.6252300428315273  0.0307243839329076
  0.2000811194235617  0.6250866019687169  0.5319164816463742
  0.6973972555050406  0.1252072984894078  0.0295518153074771
  0.6967951965917047  0.1252034205261494  0.5291318866250808
  0.6964198047581968  0.6252108189002666  0.0306707376600749
  0.6972952025645300  0.6252271334550695  0.5286109010519648
  0.3078885646147133  0.3546045397654028  0.4622504190977914
  0.3018100696080043  0.3767043576146556  0.9790956104812878
  0.3078841357678532  0.8944949953372422  0.4623068015079544
  0.3018445812609962  0.8730212109120447  0.9790984857230798
  0.8030418565641982  0.3750626581333207  0.4708560858889834
  0.8026612788482491  0.3749589643554829  0.9704081273089031
  0.8030441848171788  0.8745255370653094  0.4708293924086527
  0.8026888514796726  0.8747323584505575  0.9703783089240707
  0.0526078582343823  0.1251941096613701  0.0295452732174607
  0.0532007320436853  0.1252120770036479  0.5291180222578228
  0.0535831198956121  0.6252234479677061  0.0306610403519121
  0.0527066601998389  0.6252231801264635  0.5285981267175487
  0.5545042538723023  0.1250600801375718  0.0255030236889741
  0.5512256154058826  0.1253339895132905  0.5330130778345502
  0.5536097823724440  0.6252282852414159  0.0307261748709451
  0.5499209700271246  0.6250812265065600  0.5319215103978715
  0.4421118773545769  0.3546026427908632  0.4622520184326099
  0.4481887304285261  0.3767084539488826  0.9790955863422748
  0.4421167521501355  0.8944979918058732  0.4623082387674680
  0.4481539738312823  0.8730160335105759  0.9790979239636318
  0.9469613388942415  0.3750742929847823  0.4708456431207535
  0.9473403862196255  0.3749581920894077  0.9704071837743384
  0.9469574663760506  0.8745216038456050  0.4708206468524573
  0.9473137111586266  0.8747254647699675  0.9703742109475648
  0.2856010857392536  0.1248635240014308  0.2395914992152078
  0.2859651874506504  0.1251476659650377  0.7556189526331357
  0.2841893002098153  0.6248432787561391  0.2567239990679445
  0.2859168060037185  0.6251519224209781  0.7585903277567693
  0.7842708926817409  0.1250047847205728  0.2547139163986559
  0.7840298698109706  0.1250266271159275  0.7540253237508328
  0.7841936751745808  0.6249957076087206  0.2543626433310764
  0.7840535391689119  0.6250163129892994  0.7540202028802435
  0.2158824421266526  0.3734628064700458  0.2445064997985122
  0.2163881588271494  0.3752044938079830  0.7505261775141826
  0.2158775005189276  0.8763933455869313  0.2446253336854378
  0.2163934658220927  0.8750481036511961  0.7504167109703123
  0.7155863696625507  0.3749673027115477  0.2463335765234858
  0.7153630633771362  0.3751932568807206  0.7453710372587790
  0.7155922150097371  0.8750420553447747  0.2463214667669258
  0.7153683896342049  0.8748652257040346  0.7453723162649539
  0.4644000619302529  0.1248633803619074  0.2395907289814834
  0.4640333694856758  0.1251468674920075  0.7556189614430000
  0.4658119147892447  0.6248431828388333  0.2567265260721979
  0.4640824760890895  0.6251509029095883  0.7585874261306985
  0.9657294182895672  0.1250039484278983  0.2547020997362568
  0.9659689371592526  0.1250264461135814  0.7540203707509558
  0.9658059159969045  0.6249972707991096  0.2543440318523067
  0.9659464187109754  0.6250145885560422  0.7540133584171420
  0.0344123430527345  0.3749717541048112  0.2463140305880034
  0.0346360259568749  0.3751954274674124  0.7453620610032065
  0.0344086555200392  0.8750440847391624  0.2463178708332411
  0.0346298414686907  0.8748641084192118  0.7453533949822720
  0.5341189335523263  0.3734613200254356  0.2445119228700873
  0.5336108939574032  0.3752071261832168  0.7505336241946644
  0.5341230028064728  0.8763937197504341  0.2446206714065808
  0.5336053176693104  0.8750445971063725  0.7504200987754117
  0.1251622625347367  0.1249876804170669  0.2482604662517397
  0.1253027474980903  0.1250734665777322  0.7491244702399581
  0.1251950209560507  0.6250009025105862  0.2516896261817650
  0.1256104019389313  0.6251125865730996  0.7469339061258580
  0.6248369697383666  0.1249783572127604  0.2482520531822907
  0.6246929064215307  0.1250730858569565  0.7491371967273097
  0.6248047949927227  0.6250007750753899  0.2516946169015287
  0.6243895785431651  0.6251122889308626  0.7469426515806685
  0.3750003569394083  0.3777573632412661  0.2382110557982967
  0.3749995950446576  0.3689603832488941  0.7577668143027780
  0.3750003708723968  0.8719033988075066  0.2383206459032320
  0.3749992586661710  0.8812763985984755  0.7577546779686144
  0.8749998638701221  0.3750419131741767  0.2509078271600015
  0.8750003476931695  0.3749357636199356  0.7513700871023682
  0.8750002100015104  0.8748117448723468  0.2508518328419369
  0.8750010528117398  0.8750271553222095  0.7512956544740819
 
  0.00000000E+00  0.00000000E+00  0.00000000E+00
  0.00000000E+00  0.00000000E+00  0.00000000E+00
  0.00000000E+00  0.00000000E+00  0.00000000E+00
  0.00000000E+00  0.00000000E+00  0.00000000E+00
  0.00000000E+00  0.00000000E+00  0.00000000E+00
  0.00000000E+00  0.00000000E+00  0.00000000E+00
  0.00000000E+00  0.00000000E+00  0.00000000E+00
  0.00000000E+00  0.00000000E+00  0.00000000E+00
  0.00000000E+00  0.00000000E+00  0.00000000E+00
  0.00000000E+00  0.00000000E+00  0.00000000E+00
  0.00000000E+00  0.00000000E+00  0.00000000E+00
  0.00000000E+00  0.00000000E+00  0.00000000E+00
  0.00000000E+00  0.00000000E+00  0.00000000E+00
  0.00000000E+00  0.00000000E+00  0.00000000E+00
  0.00000000E+00  0.00000000E+00  0.00000000E+00
  0.00000000E+00  0.00000000E+00  0.00000000E+00
  0.00000000E+00  0.00000000E+00  0.00000000E+00
  0.00000000E+00  0.00000000E+00  0.00000000E+00
  0.00000000E+00  0.00000000E+00  0.00000000E+00
  0.00000000E+00  0.00000000E+00  0.00000000E+00
  0.00000000E+00  0.00000000E+00  0.00000000E+00
  0.00000000E+00  0.00000000E+00  0.00000000E+00
  0.00000000E+00  0.00000000E+00  0.00000000E+00
  0.00000000E+00  0.00000000E+00  0.00000000E+00
  0.00000000E+00  0.00000000E+00  0.00000000E+00
  0.00000000E+00  0.00000000E+00  0.00000000E+00
  0.00000000E+00  0.00000000E+00  0.00000000E+00
  0.00000000E+00  0.00000000E+00  0.00000000E+00
  0.00000000E+00  0.00000000E+00  0.00000000E+00
  0.00000000E+00  0.00000000E+00  0.00000000E+00
  0.00000000E+00  0.00000000E+00  0.00000000E+00
  0.00000000E+00  0.00000000E+00  0.00000000E+00
  0.00000000E+00  0.00000000E+00  0.00000000E+00
  0.00000000E+00  0.00000000E+00  0.00000000E+00
  0.00000000E+00  0.00000000E+00  0.00000000E+00
  0.00000000E+00  0.00000000E+00  0.00000000E+00
  0.00000000E+00  0.00000000E+00  0.00000000E+00
  0.00000000E+00  0.00000000E+00  0.00000000E+00
  0.00000000E+00  0.00000000E+00  0.00000000E+00
  0.00000000E+00  0.00000000E+00  0.00000000E+00
  0.00000000E+00  0.00000000E+00  0.00000000E+00
  0.00000000E+00  0.00000000E+00  0.00000000E+00
  0.00000000E+00  0.00000000E+00  0.00000000E+00
  0.00000000E+00  0.00000000E+00  0.00000000E+00
  0.00000000E+00  0.00000000E+00  0.00000000E+00
  0.00000000E+00  0.00000000E+00  0.00000000E+00
  0.00000000E+00  0.00000000E+00  0.00000000E+00
  0.00000000E+00  0.00000000E+00  0.00000000E+00
  0.00000000E+00  0.00000000E+00  0.00000000E+00
  0.00000000E+00  0.00000000E+00  0.00000000E+00
  0.00000000E+00  0.00000000E+00  0.00000000E+00
  0.00000000E+00  0.00000000E+00  0.00000000E+00
  0.00000000E+00  0.00000000E+00  0.00000000E+00
  0.00000000E+00  0.00000000E+00  0.00000000E+00
  0.00000000E+00  0.00000000E+00  0.00000000E+00
  0.00000000E+00  0.00000000E+00  0.00000000E+00
  0.00000000E+00  0.00000000E+00  0.00000000E+00
  0.00000000E+00  0.00000000E+00  0.00000000E+00
  0.00000000E+00  0.00000000E+00  0.00000000E+00
  0.00000000E+00  0.00000000E+00  0.00000000E+00
  0.00000000E+00  0.00000000E+00  0.00000000E+00
  0.00000000E+00  0.00000000E+00  0.00000000E+00
  0.00000000E+00  0.00000000E+00  0.00000000E+00
  0.00000000E+00  0.00000000E+00  0.00000000E+00
  0.00000000E+00  0.00000000E+00  0.00000000E+00
  0.00000000E+00  0.00000000E+00  0.00000000E+00
  0.00000000E+00  0.00000000E+00  0.00000000E+00
  0.00000000E+00  0.00000000E+00  0.00000000E+00
  0.00000000E+00  0.00000000E+00  0.00000000E+00
  0.00000000E+00  0.00000000E+00  0.00000000E+00
  0.00000000E+00  0.00000000E+00  0.00000000E+00
  0.00000000E+00  0.00000000E+00  0.00000000E+00
  0.00000000E+00  0.00000000E+00  0.00000000E+00
  0.00000000E+00  0.00000000E+00  0.00000000E+00
  0.00000000E+00  0.00000000E+00  0.00000000E+00
  0.00000000E+00  0.00000000E+00  0.00000000E+00
  0.00000000E+00  0.00000000E+00  0.00000000E+00
  0.00000000E+00  0.00000000E+00  0.00000000E+00
  0.00000000E+00  0.00000000E+00  0.00000000E+00
  0.00000000E+00  0.00000000E+00  0.00000000E+00
  0.00000000E+00  0.00000000E+00  0.00000000E+00
  0.00000000E+00  0.00000000E+00  0.00000000E+00
  0.00000000E+00  0.00000000E+00  0.00000000E+00
  0.00000000E+00  0.00000000E+00  0.00000000E+00
  0.00000000E+00  0.00000000E+00  0.00000000E+00
  0.00000000E+00  0.00000000E+00  0.00000000E+00
  0.00000000E+00  0.00000000E+00  0.00000000E+00
  0.00000000E+00  0.00000000E+00  0.00000000E+00
  0.00000000E+00  0.00000000E+00  0.00000000E+00
  0.00000000E+00  0.00000000E+00  0.00000000E+00
  0.00000000E+00  0.00000000E+00  0.00000000E+00
  0.00000000E+00  0.00000000E+00  0.00000000E+00
  0.00000000E+00  0.00000000E+00  0.00000000E+00
  0.00000000E+00  0.00000000E+00  0.00000000E+00
  0.00000000E+00  0.00000000E+00  0.00000000E+00
  0.00000000E+00  0.00000000E+00  0.00000000E+00
  0.00000000E+00  0.00000000E+00  0.00000000E+00
  0.00000000E+00  0.00000000E+00  0.00000000E+00
  0.00000000E+00  0.00000000E+00  0.00000000E+00
  0.00000000E+00  0.00000000E+00  0.00000000E+00
  0.00000000E+00  0.00000000E+00  0.00000000E+00
  0.00000000E+00  0.00000000E+00  0.00000000E+00
  0.00000000E+00  0.00000000E+00  0.00000000E+00
  0.00000000E+00  0.00000000E+00  0.00000000E+00
  0.00000000E+00  0.00000000E+00  0.00000000E+00
  0.00000000E+00  0.00000000E+00  0.00000000E+00
  0.00000000E+00  0.00000000E+00  0.00000000E+00
  0.00000000E+00  0.00000000E+00  0.00000000E+00
  0.00000000E+00  0.00000000E+00  0.00000000E+00
  0.00000000E+00  0.00000000E+00  0.00000000E+00
  0.00000000E+00  0.00000000E+00  0.00000000E+00
  0.00000000E+00  0.00000000E+00  0.00000000E+00
  0.00000000E+00  0.00000000E+00  0.00000000E+00
