Ca1 Ti12 F42
1.0
7.512968 -0.012828 0.000882
-3.757149 6.504444 0.001698
-0.120891 -0.012611 17.685088
Ca Ti F
1 12 42
direct
0.363783 0.501175 0.336037 Ca
0.278992 -0.004959 0.331415 Ti
0.734691 0.733273 0.997783 Ti
-0.000721 0.270920 0.668450 Ti
0.358446 0.999619 0.833793 Ti
0.643987 0.656871 0.507008 Ti
0.990726 0.339398 0.160331 Ti
0.644433 0.153867 0.501191 Ti
0.499404 0.344421 0.158494 Ti
0.858353 0.499011 0.832421 Ti
0.358853 0.500173 0.834806 Ti
0.139567 0.655130 0.507008 Ti
0.493123 0.841586 0.166736 Ti
0.582619 0.818179 0.064528 F
0.247377 0.416307 0.730797 F
0.153545 0.759644 0.401991 F
0.436452 0.258056 0.268211 F
0.831173 0.582736 0.936195 F
0.753312 0.184450 0.604987 F
0.879938 0.058690 0.731233 F
0.214041 0.173082 0.385975 F
0.940333 0.818556 0.064204 F
0.111305 0.182490 0.600484 F
0.076605 0.883365 0.263199 F
0.824562 0.944455 0.934976 F
0.115675 0.541578 0.605883 F
0.413635 0.840172 0.277693 F
0.467266 0.577649 0.936904 F
0.889685 0.425620 0.730104 F
0.538216 0.107606 0.395454 F
0.577241 0.461849 0.060401 F
0.346318 0.579240 0.467598 F
0.211585 0.631959 0.143205 F
0.432648 0.782768 0.812015 F
0.650916 0.216411 0.855251 F
0.565854 0.361011 0.518891 F
0.786006 0.425905 0.183699 F
0.661882 0.618747 0.399440 F
0.913350 0.295806 0.063253 F
0.395368 0.076415 0.735128 F
0.322555 0.922854 0.932530 F
0.560613 0.672591 0.599713 F
0.082820 0.387283 0.265062 F
0.926822 0.727099 0.528914 F
0.777582 0.052242 0.190252 F
0.282642 0.215087 0.855624 F
0.065762 0.784998 0.812427 F
0.727476 0.948350 0.483111 F
0.211321 0.267732 0.143830 F
0.631885 0.548634 0.803419 F
0.919810 0.382400 0.469898 F
0.446777 0.067891 0.138726 F
0.371096 0.927163 0.530838 F
0.534450 0.608877 0.207105 F
0.083846 0.450571 0.863444 F
