Mg15 Mo24 O64
1.0
11.631381 -0.004451 -0.012719
-5.819550 10.106026 0.006546
-0.010957 0.000185 10.034820
Mg Mo O
15 24 64
direct
0.339682 0.669414 0.444034 Mg
0.168729 0.335355 0.943311 Mg
0.169227 0.832936 0.944510 Mg
0.667408 0.333722 0.942070 Mg
0.667598 0.833880 0.937291 Mg
0.333005 0.164933 0.442569 Mg
0.830021 0.160730 0.442180 Mg
0.832972 0.667693 0.443415 Mg
0.167095 0.335037 0.507876 Mg
0.168301 0.832847 0.506941 Mg
0.665432 0.332448 0.507418 Mg
0.332803 0.165179 0.008301 Mg
0.333506 0.666633 0.008731 Mg
0.832211 0.168053 0.008216 Mg
0.832624 0.665354 0.009609 Mg
0.072907 0.427196 0.248232 Mo
0.072621 0.926928 0.245823 Mo
0.571962 0.426218 0.245001 Mo
0.575271 0.928365 0.243693 Mo
0.072276 0.145694 0.245788 Mo
0.073343 0.646052 0.248135 Mo
0.572812 0.145753 0.245452 Mo
0.581418 0.655700 0.250821 Mo
0.352061 0.423884 0.246132 Mo
0.354387 0.926648 0.245822 Mo
0.853672 0.426967 0.247911 Mo
0.853622 0.929681 0.243379 Mo
0.426680 0.073044 0.747403 Mo
0.427727 0.572656 0.746902 Mo
0.929244 0.079386 0.748317 Mo
0.926431 0.571843 0.746066 Mo
0.426777 0.353356 0.747545 Mo
0.427960 0.854907 0.746683 Mo
0.926318 0.354840 0.745540 Mo
0.929408 0.849847 0.748642 Mo
0.146786 0.073204 0.746963 Mo
0.146521 0.573323 0.746718 Mo
0.644184 0.071787 0.746293 Mo
0.644141 0.572068 0.746822 Mo
0.998182 0.999993 0.387207 O
0.999958 0.499829 0.389759 O
0.501891 0.999646 0.386897 O
0.499941 0.508197 0.387214 O
0.992048 0.995720 0.887826 O
0.998958 0.499212 0.887789 O
0.499742 0.000544 0.889158 O
0.499560 0.498407 0.889660 O
0.168062 0.333830 0.140643 O
0.166073 0.832658 0.141130 O
0.665126 0.334372 0.140297 O
0.666352 0.832720 0.134801 O
0.330681 0.165412 0.640705 O
0.333402 0.666640 0.640701 O
0.835074 0.166377 0.639793 O
0.834977 0.669005 0.640330 O
0.245528 0.257858 0.363763 O
0.245024 0.755947 0.363740 O
0.743441 0.255956 0.363655 O
0.747775 0.750977 0.344583 O
0.244245 0.487674 0.363891 O
0.243292 0.986554 0.364354 O
0.742346 0.487575 0.363657 O
0.747386 0.993014 0.345036 O
0.012180 0.255506 0.363622 O
0.012542 0.756331 0.363858 O
0.512195 0.258024 0.363240 O
0.505545 0.751967 0.341561 O
0.253632 0.241204 0.864204 O
0.254334 0.741455 0.863492 O
0.759186 0.246569 0.862550 O
0.757388 0.741922 0.864554 O
0.253732 0.011732 0.864272 O
0.254645 0.512642 0.864444 O
0.757584 0.015447 0.864353 O
0.759399 0.513022 0.863529 O
0.486446 0.242987 0.865294 O
0.486199 0.742554 0.864821 O
0.989048 0.244197 0.863402 O
0.989321 0.744811 0.863830 O
0.084270 0.416215 0.630226 O
0.085105 0.916141 0.630563 O
0.582351 0.414838 0.629888 O
0.581385 0.918472 0.631449 O
0.085085 0.168724 0.630234 O
0.084017 0.668152 0.630023 O
0.582147 0.167575 0.629777 O
0.581070 0.662475 0.631520 O
0.331467 0.414841 0.630821 O
0.331761 0.916813 0.630620 O
0.832839 0.417010 0.627637 O
0.835405 0.917836 0.646422 O
0.414377 0.083842 0.130656 O
0.413020 0.577054 0.132900 O
0.920679 0.086348 0.123926 O
0.916163 0.583673 0.131092 O
0.414023 0.328944 0.130903 O
0.414680 0.835097 0.125644 O
0.916024 0.333073 0.130672 O
0.919507 0.834561 0.126460 O
0.168721 0.084056 0.130552 O
0.167264 0.583477 0.131077 O
0.665291 0.086544 0.124884 O
0.665090 0.578859 0.128440 O
