Zn1 Cr16 O32                            
   1.00000000000000     
     8.2339031686063393   -0.0003585877266367    0.0006109765134745
     0.0001128225230492    8.2337909478046623    0.0000314263941487
    -0.0002328227922131   -0.0001041393952287    8.2340241864037864
   Zn   Cr   O 
     1    16    32
Direct
   0.2500064969293213    0.7500054687076541   -0.2500009188168016 Zn
  0.3727184479854342  0.8846194629197278  0.1272890963458511
  0.3727134735736859  0.1153739808398695  0.8727131192010366
  0.1153343975633211  0.3726956709089495  0.8727038180358540
  0.1240478962312647  0.1240431021226174  0.6240405994136889
  0.3727141024952558  0.3727006619008700  0.6153592771078537
  0.3726955551385867  0.6273021796801497  0.3846589259757008
  0.1240483503357350  0.8759581283792289  0.3759534168667555
  0.1153398431170539  0.6273000689692452  0.1273004726830151
  0.8759558056173020  0.8759588829637160  0.6240441471460356
  0.8759542605379613  0.1240444637678896  0.3759531817109337
  0.6272933447751767  0.3726974124602732  0.3846484667459032
  0.6272859299172803  0.1153813823347595  0.1272867219337515
  0.8846490059239538  0.3727012229111651  0.1272958918434846
  0.8846615263077666  0.6273032339731177  0.8726997401566486
  0.6272870670691391  0.8846225857006131  0.8727180521847268
  0.6273029436832753  0.6273033944731971  0.6153353315103217
  0.3585704114251239  0.8569120806777052  0.3569091185015744
  0.8907456474246785  0.1092586096706083  0.6092558367442393
  0.1092579231835385  0.1092622762766408  0.3907436939682919
  0.1092525508167437  0.8907409746027000  0.6092541663553839
  0.1430857747631215  0.1430903927924788  0.8585754631897544
  0.1430912442025519  0.3585771845071996  0.6430939266688162
  0.8885647007452505  0.3910910218918117  0.8910997112591904
  0.3585739976667864  0.1430886592725248  0.6430873199122854
  0.3611906553241239  0.3611959498420321  0.8611910346923388
  0.8885670427422659  0.6089085052768490  0.1089002146976055
  0.1114342180448527  0.6089054811986291  0.8911008984787397
  0.1114316246321340  0.3910963054481729  0.1088959484152463
  0.1430862810333116  0.6414193443008029  0.3569121025563202
  0.1430919553868532  0.8569067576638889  0.1414317086061500
  0.8907443907653768  0.8907382243702353  0.3907476298742228
  0.3611920686564489  0.6388013478263429  0.1388085010863730
  0.8569091966058656  0.8569099495242694  0.8585697100611540
  0.3911000785811065  0.1114400616503549  0.1088978611476548
  0.6089005317788464  0.1114403666076221  0.8911008513327016
  0.6088949922160626  0.8885611793391314  0.1088938613772551
  0.6414242898807349  0.1430909130567599  0.3569153607004966
  0.6388088911019975  0.3611991086623308  0.1388093611804055
  0.3911033005483343  0.3910949714268739  0.3885702321480913
  0.8569125412943610  0.1430931417002885  0.1414268049645750
  0.8569093901938123  0.3585803045169580  0.3569078528084187
  0.3911019859913065  0.6089056717785936  0.6114340280589302
  0.6089038603242819  0.6089075134253702  0.3885664409384806
  0.6088999170937056  0.3910976031865163  0.6114307663392839
  0.6388081855565337  0.6388003391867445  0.8611890805511678
  0.6414305164027189  0.8569090747141447  0.6430888801409964
  0.3910995926198436  0.8885571948801301  0.8911024411223375
  0.8569117363988858  0.6414213453443028  0.6430867904726888
 
  0.00000000E+00  0.00000000E+00  0.00000000E+00
  0.00000000E+00  0.00000000E+00  0.00000000E+00
  0.00000000E+00  0.00000000E+00  0.00000000E+00
  0.00000000E+00  0.00000000E+00  0.00000000E+00
  0.00000000E+00  0.00000000E+00  0.00000000E+00
  0.00000000E+00  0.00000000E+00  0.00000000E+00
  0.00000000E+00  0.00000000E+00  0.00000000E+00
  0.00000000E+00  0.00000000E+00  0.00000000E+00
  0.00000000E+00  0.00000000E+00  0.00000000E+00
  0.00000000E+00  0.00000000E+00  0.00000000E+00
  0.00000000E+00  0.00000000E+00  0.00000000E+00
  0.00000000E+00  0.00000000E+00  0.00000000E+00
  0.00000000E+00  0.00000000E+00  0.00000000E+00
  0.00000000E+00  0.00000000E+00  0.00000000E+00
  0.00000000E+00  0.00000000E+00  0.00000000E+00
  0.00000000E+00  0.00000000E+00  0.00000000E+00
  0.00000000E+00  0.00000000E+00  0.00000000E+00
  0.00000000E+00  0.00000000E+00  0.00000000E+00
  0.00000000E+00  0.00000000E+00  0.00000000E+00
  0.00000000E+00  0.00000000E+00  0.00000000E+00
  0.00000000E+00  0.00000000E+00  0.00000000E+00
  0.00000000E+00  0.00000000E+00  0.00000000E+00
  0.00000000E+00  0.00000000E+00  0.00000000E+00
  0.00000000E+00  0.00000000E+00  0.00000000E+00
  0.00000000E+00  0.00000000E+00  0.00000000E+00
  0.00000000E+00  0.00000000E+00  0.00000000E+00
  0.00000000E+00  0.00000000E+00  0.00000000E+00
  0.00000000E+00  0.00000000E+00  0.00000000E+00
  0.00000000E+00  0.00000000E+00  0.00000000E+00
  0.00000000E+00  0.00000000E+00  0.00000000E+00
  0.00000000E+00  0.00000000E+00  0.00000000E+00
  0.00000000E+00  0.00000000E+00  0.00000000E+00
  0.00000000E+00  0.00000000E+00  0.00000000E+00
  0.00000000E+00  0.00000000E+00  0.00000000E+00
  0.00000000E+00  0.00000000E+00  0.00000000E+00
  0.00000000E+00  0.00000000E+00  0.00000000E+00
  0.00000000E+00  0.00000000E+00  0.00000000E+00
  0.00000000E+00  0.00000000E+00  0.00000000E+00
  0.00000000E+00  0.00000000E+00  0.00000000E+00
  0.00000000E+00  0.00000000E+00  0.00000000E+00
  0.00000000E+00  0.00000000E+00  0.00000000E+00
  0.00000000E+00  0.00000000E+00  0.00000000E+00
  0.00000000E+00  0.00000000E+00  0.00000000E+00
  0.00000000E+00  0.00000000E+00  0.00000000E+00
  0.00000000E+00  0.00000000E+00  0.00000000E+00
  0.00000000E+00  0.00000000E+00  0.00000000E+00
  0.00000000E+00  0.00000000E+00  0.00000000E+00
  0.00000000E+00  0.00000000E+00  0.00000000E+00
  0.00000000E+00  0.00000000E+00  0.00000000E+00
