Ca1 V12 F42                             
   1.00000000000000     
     7.3763670000000001   -0.0072840000000000   -0.0990790000000000
    -3.6800489999999999    6.3939490000000001    0.0841570000000000
     0.2824970000000000    0.0022700000000000   17.5509950000000003
   Ca   V    F 
     1    12    42
Direct
  0.8390322564361491  0.4732291455055201  0.3277695097262733
  0.2849018291896501  0.9899787732758013  0.3316197034750548
  0.7230489375200672  0.7212859592338734  0.9973869088311234
  0.9965502447806331  0.2750762936051954  0.6699712928087791
  0.3565610035630827  0.0003882492595848  0.8334351550070699
  0.6328624912034589  0.6339127050742351  0.5052761857163913
  0.0119311879026619  0.3539029389563346  0.1614240380107138
  0.6353196286059383  0.1329859324447265  0.5039882511279608
  0.5050788344307700  0.3537243608159706  0.1625106743547864
  0.8562261429847265  0.5005254994480600  0.8325257550789807
  0.3558835873667009  0.4999906087599822  0.8340584371019374
  0.1376497758683031  0.6363281679770562  0.5038857212261219
  0.5124321449864208  0.8561571248037155  0.1663721941060690
  0.5832835331576304  0.8273612816034441  0.0626529553851919
  0.2469921483357278  0.4217780502173427  0.7311640505160640
  0.1565588894578977  0.7259067252130482  0.3948650556289448
  0.4524175138732560  0.2562915603096980  0.2709667095709707
  0.8305093180828959  0.5807891962592300  0.9349237481354966
  0.7489605460457609  0.1630824864780967  0.6052399927829082
  0.8783039133298037  0.0669741177522074  0.7351594649346712
  0.1650601951200031  0.1019139733793944  0.3862919601016959
  0.9382742306201244  0.8171118525626411  0.0598637627035746
  0.1164517862206355  0.1802322685230191  0.6070130294090322
  0.0558934179799807  0.8245568705989840  0.2705056568907324
  0.8114477471198693  0.9336014685867691  0.9340844777474093
  0.1010422314547957  0.5280082157609584  0.6055537703628814
  0.4457433455941761  0.8912008797434916  0.2714864167768890
  0.4609267534107026  0.5698889625102148  0.9369870364523908
  0.8858369493213925  0.4280607706980427  0.7298459767985833
  0.5495437968454576  0.1268949968191766  0.3946039660330092
  0.5798019730099737  0.4628942199795800  0.0608818369150489
  0.3439470248309220  0.5526595053913564  0.4818254498068511
  0.2236722239371770  0.6449751853543784  0.1490300162901493
  0.4367691146386037  0.7895132815371880  0.8142504912294838
  0.6474212231057005  0.2118947613431753  0.8534604017419947
  0.5564453419558443  0.3436362105611164  0.5226926692459449
  0.7978575992252575  0.4377824000718400  0.1915288527738857
  0.6763194430515018  0.5915430285505211  0.4008317068736321
  0.9298904345449130  0.3307654825596428  0.0659665486068290
  0.3946214937896994  0.0720041198479729  0.7358117788241227
  0.3204227418433234  0.9301412069661391  0.9311541978643355
  0.5978899625912913  0.6738604436551926  0.6019654178177248
  0.0574771331260289  0.3875286253321832  0.2686562612060941
  0.9253576000383797  0.7150754078630159  0.5202181105585686
  0.8030747520802445  0.0643441389820650  0.1849320164577744
  0.2747023514154387  0.2095898162240246  0.8532820768618342
  0.0663280459708589  0.7909063286200420  0.8126665842968006
  0.7111938653406771  0.9223682601526085  0.4793908730364411
  0.2138162095958091  0.2680860254367917  0.1481310681935159
  0.6301307081677382  0.5499372623744613  0.8027495228556830
  0.9075713810042761  0.3648299271081648  0.4629842504945238
  0.4605363731614969  0.0801304797086530  0.1356386420616031
  0.3590683348022635  0.9108099225332336  0.5329516786640872
  0.5608110818566457  0.6285166729870266  0.1976718822882272
  0.0811672637372967  0.4509622230853892  0.8639707048245852
 
             NaN             NaN             NaN
             NaN             NaN             NaN
             NaN             NaN             NaN
             NaN             NaN             NaN
             NaN             NaN             NaN
             NaN             NaN             NaN
             NaN             NaN             NaN
             NaN             NaN             NaN
             NaN             NaN             NaN
             NaN             NaN             NaN
             NaN             NaN             NaN
             NaN             NaN             NaN
             NaN             NaN             NaN
             NaN             NaN             NaN
             NaN             NaN             NaN
             NaN             NaN             NaN
             NaN             NaN             NaN
             NaN             NaN             NaN
             NaN             NaN             NaN
             NaN             NaN             NaN
             NaN             NaN             NaN
             NaN             NaN             NaN
             NaN             NaN             NaN
             NaN             NaN             NaN
             NaN             NaN             NaN
             NaN             NaN             NaN
             NaN             NaN             NaN
             NaN             NaN             NaN
             NaN             NaN             NaN
             NaN             NaN             NaN
             NaN             NaN             NaN
             NaN             NaN             NaN
             NaN             NaN             NaN
             NaN             NaN             NaN
             NaN             NaN             NaN
             NaN             NaN             NaN
             NaN             NaN             NaN
             NaN             NaN             NaN
             NaN             NaN             NaN
             NaN             NaN             NaN
             NaN             NaN             NaN
             NaN             NaN             NaN
             NaN             NaN             NaN
             NaN             NaN             NaN
             NaN             NaN             NaN
             NaN             NaN             NaN
             NaN             NaN             NaN
             NaN             NaN             NaN
             NaN             NaN             NaN
             NaN             NaN             NaN
             NaN             NaN             NaN
             NaN             NaN             NaN
             NaN             NaN             NaN
             NaN             NaN             NaN
             NaN             NaN             NaN
