Ca1 V12 F42                             
   1.00000000000000     
     7.3763670000000001   -0.0072840000000000   -0.0990790000000000
    -3.6800489999999999    6.3939490000000001    0.0841570000000000
     0.2824970000000000    0.0022700000000000   17.5509950000000003
   Ca   V    F 
     1    12    42
Direct
  0.8378342447581065  0.4731524163776211  0.3276716855741726
  0.2839797030039634 -0.0102194603223571  0.3316846014863438
  0.7258733396529854  0.7262252156563277  0.9964053580897023
 -0.0050884192825486  0.2719897871434442  0.6702942387026283
  0.3578643524976420  0.0001330951622270  0.8334118042096454
  0.6285666338159701  0.6291975505304419  0.5057747019779919
  1.0145629518853618  0.3573337076782561  0.1612889968412592
  0.6327840557543531  0.1294575979810478  0.5042882231566453
  0.5099915987660156  0.3581678189579312  0.1624943083576599
  0.8572216174604377  0.5003203689475327  0.8325705853399304
  0.3566182324138295  0.4994816305682699  0.8339340140316698
  0.1344552167195461  0.6332841336914387  0.5039970255185094
  0.5145537606050125  0.8593809103306536  0.1661604724355130
  0.5878930912356038  0.8302806005442761  0.0637181755097350
  0.2459566945710004  0.4189295619034789  0.7312955327272013
  0.1539082959951662  0.7257888701683397  0.3953365331273259
  0.4524879771659315  0.2597428740754962  0.2705967994808394
  0.8333585652542549  0.5842952526871648  0.9346297888243916
  0.7469067867740835  0.1599027253528044  0.6056039843479566
  0.8763635823310983  0.0648306065714497  0.7358330445528615
  0.1641132143091760  0.1031374247253920  0.3855478066670978
  0.9398771717145816  0.8191285882796796  0.0590717762968250
  0.1135000450356250  0.1750832192198719  0.6076173831608800
  0.0570224723143745  0.8234676365080023  0.2702263728405866
  0.8124753295359449  0.9367854493238296  0.9324930884734306
  0.0990854177430161  0.5239622065763119  0.6055217707412264
  0.4491325624402276  0.8957197731288855  0.2702877336332095
  0.4633228845799958  0.5724422438160640  0.9369732069589195
  0.8858512492139921  0.4268342525083955  0.7300969137918407
  0.5476433194552318  0.1240972061488169  0.3946095363136785
  0.5805988628197598  0.4637084305422975  0.0610113169459070
  0.3402297090599125  0.5490204407835311  0.4816033402471898
  0.2264884957184381  0.6506919373927749  0.1482751506571713
  0.4373654031236586  0.7889525623972810  0.8137139064375442
  0.6486746272916659  0.2120917249118077  0.8539940869666933
  0.5523481469836898  0.3389903924340696  0.5229279253572793
  0.8023361135173208  0.4412576289871019  0.1926516045113738
  0.6732824461014554  0.5879810271680984  0.4013529274590068
  0.9282407705455263  0.3384143765708125  0.0668694879101981
  0.3972753349845096  0.0735632810226109  0.7359557974518597
  0.3220422375488219  0.9286335981809356  0.9310219692382892
  0.5919809660828820  0.6675580354410403  0.6024436962201076
  0.0608314697921127  0.3922534809535858  0.2679628236589560
  0.9211366247974353  0.7103177299591363  0.5210710558786679
  0.8058704579450645  0.0662783904613867  0.1848679844836051
  0.2763504362996272  0.2093294944803417  0.8537422032644219
  0.0679806456825178  0.7906964369945141  0.8122679912857271
  0.7079101772203420  0.9180069096364061  0.4800963717391125
  0.2139601442047831  0.2720099979760258  0.1459682929808465
  0.6306799786346287  0.5493027356092789  0.8026873246516291
  0.9046944268005429  0.3617484723161078  0.4630215836241922
  0.4590175965598460  0.0861754368281322  0.1346290010004836
  0.3562562846178151  0.9075553793078469  0.5332758306538865
  0.5650058056794819  0.6285803842428433  0.1990693165317446
  0.0823628100936997  0.4507877223050366  0.8641577100594059
 
             NaN             NaN             NaN
             NaN             NaN             NaN
             NaN             NaN             NaN
             NaN             NaN             NaN
             NaN             NaN             NaN
             NaN             NaN             NaN
             NaN             NaN             NaN
             NaN             NaN             NaN
             NaN             NaN             NaN
             NaN             NaN             NaN
             NaN             NaN             NaN
             NaN             NaN             NaN
             NaN             NaN             NaN
             NaN             NaN             NaN
             NaN             NaN             NaN
             NaN             NaN             NaN
             NaN             NaN             NaN
             NaN             NaN             NaN
             NaN             NaN             NaN
             NaN             NaN             NaN
             NaN             NaN             NaN
             NaN             NaN             NaN
             NaN             NaN             NaN
             NaN             NaN             NaN
             NaN             NaN             NaN
             NaN             NaN             NaN
             NaN             NaN             NaN
             NaN             NaN             NaN
             NaN             NaN             NaN
             NaN             NaN             NaN
             NaN             NaN             NaN
             NaN             NaN             NaN
             NaN             NaN             NaN
             NaN             NaN             NaN
             NaN             NaN             NaN
             NaN             NaN             NaN
             NaN             NaN             NaN
             NaN             NaN             NaN
             NaN             NaN             NaN
             NaN             NaN             NaN
             NaN             NaN             NaN
             NaN             NaN             NaN
             NaN             NaN             NaN
             NaN             NaN             NaN
             NaN             NaN             NaN
             NaN             NaN             NaN
             NaN             NaN             NaN
             NaN             NaN             NaN
             NaN             NaN             NaN
             NaN             NaN             NaN
             NaN             NaN             NaN
             NaN             NaN             NaN
             NaN             NaN             NaN
             NaN             NaN             NaN
             NaN             NaN             NaN
