Ca9 Mn12 F42                            
   1.00000000000000     
     7.6216080000000002   -0.0980100000000000   -0.0131710000000000
    -3.9010530000000001    6.6672050000000000    0.0528400000000000
    -0.0147460000000000    0.1454230000000000   18.5665019999999998
   Ca   Mn   F 
     9    12    42
Direct
  0.3486395136525243  0.4959444034840143  0.3353528719686162
  0.5163813892330091  0.8577867767594943  0.6825553918643749
  0.1450218659899340  0.6284871929950915  0.9997445296352339
  0.5380262685681100  0.3576951374999410  0.6625024119636523
  0.8424450195581246  0.0085446932908695  0.3254083059939167
  0.1833556500587108  0.1426972976000003  0.0051379899539509
  0.8736709031024265  0.0730630498818527  0.8382980561746898
  1.0251875525216714  0.8067335046184421  0.1762539305473862
  0.1520715471570105  0.1448911607585171  0.5080508193506803
  0.3427616390785427  0.9816407921524180  0.3459095860271125
  0.0366769786616348  0.3749726436842445  0.6541983718319004
  0.6847402848474178  0.6674953926997623  0.0007284427529357
  0.3463326985398025  0.0224525119910107  0.8391957260585360
  0.9932178307343992  0.3025017851584904  0.1570413935656309
  0.6586822976245402  0.6727464349516584  0.5026019525343242
  0.4991079283369802  0.8093626877256165  0.1693129494112053
  0.1706646820926495  0.6681508516142921  0.4970707081878263
  0.3628550335064627  0.5231897323360249  0.8357723515452103
  0.8517254809692983  0.5256031171731401  0.8240060421588612
  0.6666211165214879  0.1742901226169715  0.4959180199333668
  0.4883595963781425  0.3081412392921806  0.1725383948444162
  0.6063187231554845  0.1219312470573505  0.6075864208699219
  0.8448300128280702  0.5641253435084611  0.9406461613871110
  0.4336849988663404  0.2480470077345744  0.2892487515617547
  0.1925934183301216  0.6720134898567257  0.3844862331952970
  0.5656299653717393  0.7971134009265975  0.0650637309571199
  0.2784674390862363  0.5249440352974192  0.7275027883235896
  0.8640757490440337  0.9543495965636708  0.9489771608019633
  0.0558521281741277  0.8798958919115559  0.2912975429205155
  0.2102092537019691  0.2442837260821264  0.6213274677534294
  0.9942251692102526  0.8035023492145595  0.0564861865425564
  0.8580343631520929  0.1003736270978891  0.7176421808761949
  0.1347112180952593  0.1826537633966055  0.3905892098117845
  0.5060531938552100  0.3781300787887383  0.0545756903106791
  0.6732693932692602  0.1432422404283374  0.3839985358036704
  0.8636082354016035  0.4701455519404221  0.7076063345625823
  0.3922707184114927  0.5692919599993445  0.9483268109177796
  0.2455204347036496  0.6936392027038458  0.6050328791042588
  0.4818587040554211  0.8452767571347064  0.2851817191249658
  0.8052088681522799  0.4404397009679679  0.1719326990264636
  0.5610313261789310  0.3683686076063372  0.5258634278924775
  0.6626055136559982  0.2105852304831322  0.8520234392473000
  0.5297091070288641  0.8347513193441299  0.8143921638491376
  0.3405411861812647  0.5170040468289947  0.4769313817141874
  0.1837500412146978  0.6223705794139600  0.1324507859019664
  0.0565141844332983  0.3281207256452766  0.2655126403188463
  0.6218077865089586  0.6738890825318533  0.6186767287792732
  0.2956219037159249  0.9405242583759476  0.9488785668681600
  0.3941851308880344  0.0587501546267540  0.7306447136886385
  0.6657276528309573  0.7011000837922301  0.3846907448665610
  0.0176354698828080  0.3097397221691938  0.0421923941238351
  0.1714926312109995  0.1628942020278857  0.1362819906574258
  0.7930676981636511  0.9879235884279044  0.4974217850121215
  0.0186020727847059  0.8403710167030237  0.8184011745468056
  0.2338561574710233  0.2145017864019003  0.8749528068999120
  0.9720799166118042  0.7762266761119373  0.5118213408954645
  0.8152877949414268 -0.0242243806205295  0.1958422672959666
  0.0608781014671898  0.4399951321769466  0.8598045621058164
  0.4977975664132596  0.5605575904635248  0.2131830475427678
  0.3447882364475440  0.0011457933774871  0.4664756547618046
  0.3872076584285905  1.0031431903078050  0.1633850377498337
  0.5802726331184640  0.4899987519000941  0.7821665205205508
  0.9670307591193468  0.3673900907330372  0.5369862201949610
 
             NaN             NaN             NaN
             NaN             NaN             NaN
             NaN             NaN             NaN
             NaN             NaN             NaN
             NaN             NaN             NaN
             NaN             NaN             NaN
             NaN             NaN             NaN
             NaN             NaN             NaN
             NaN             NaN             NaN
             NaN             NaN             NaN
             NaN             NaN             NaN
             NaN             NaN             NaN
             NaN             NaN             NaN
             NaN             NaN             NaN
             NaN             NaN             NaN
             NaN             NaN             NaN
             NaN             NaN             NaN
             NaN             NaN             NaN
             NaN             NaN             NaN
             NaN             NaN             NaN
             NaN             NaN             NaN
             NaN             NaN             NaN
             NaN             NaN             NaN
             NaN             NaN             NaN
             NaN             NaN             NaN
             NaN             NaN             NaN
             NaN             NaN             NaN
             NaN             NaN             NaN
             NaN             NaN             NaN
             NaN             NaN             NaN
             NaN             NaN             NaN
             NaN             NaN             NaN
             NaN             NaN             NaN
             NaN             NaN             NaN
             NaN             NaN             NaN
             NaN             NaN             NaN
             NaN             NaN             NaN
             NaN             NaN             NaN
             NaN             NaN             NaN
             NaN             NaN             NaN
             NaN             NaN             NaN
             NaN             NaN             NaN
             NaN             NaN             NaN
             NaN             NaN             NaN
             NaN             NaN             NaN
             NaN             NaN             NaN
             NaN             NaN             NaN
             NaN             NaN             NaN
             NaN             NaN             NaN
             NaN             NaN             NaN
             NaN             NaN             NaN
             NaN             NaN             NaN
             NaN             NaN             NaN
             NaN             NaN             NaN
             NaN             NaN             NaN
             NaN             NaN             NaN
             NaN             NaN             NaN
             NaN             NaN             NaN
             NaN             NaN             NaN
             NaN             NaN             NaN
             NaN             NaN             NaN
             NaN             NaN             NaN
             NaN             NaN             NaN
