Ca9 Mn12 F42
1.0
7.621608 -0.098010 -0.013171
-3.901053 6.667205 0.052840
-0.014746 0.145423 18.566502
Ca Mn F
9 12 42
direct
0.403315 0.495548 0.342670 Ca
0.513664 0.858065 0.682750 Ca
0.147263 0.630269 0.998805 Ca
0.530372 0.354715 0.663465 Ca
0.838779 0.006650 0.324755 Ca
0.181601 0.141836 0.004712 Ca
0.866672 0.071870 0.839393 Ca
0.991656 0.780741 0.176704 Ca
0.146493 0.144058 0.508813 Ca
0.340544 0.980492 0.339371 Mn
0.029106 0.376923 0.653674 Mn
0.677432 0.668016 0.002999 Mn
0.338176 0.021205 0.838318 Mn
-0.002868 0.302520 0.155891 Mn
0.657080 0.673607 0.505323 Mn
0.492160 0.804602 0.169335 Mn
0.167676 0.674809 0.496492 Mn
0.354993 0.521028 0.835037 Mn
0.843207 0.524210 0.825643 Mn
0.659246 0.172762 0.495948 Mn
0.482376 0.302150 0.174043 Mn
0.604511 0.125675 0.608482 F
0.837036 0.564547 0.941439 F
0.440343 0.266749 0.292216 F
0.176475 0.676760 0.383821 F
0.536194 0.794378 0.061079 F
0.269893 0.526703 0.727572 F
0.857464 0.953825 0.950491 F
0.048255 0.880259 0.289110 F
0.203813 0.248146 0.621197 F
0.988208 0.801191 0.056827 F
0.854658 0.102873 0.718443 F
0.115507 0.176071 0.393309 F
0.502551 0.374853 0.055139 F
0.671202 0.141859 0.382382 F
0.856839 0.470490 0.707999 F
0.390914 0.563220 0.946961 F
0.244987 0.695687 0.604097 F
0.479666 0.820470 0.286404 F
0.797659 0.412930 0.174545 F
0.549552 0.364923 0.525585 F
0.655228 0.208547 0.851680 F
0.525988 0.832923 0.813918 F
0.339123 0.525753 0.476742 F
0.177673 0.624469 0.133705 F
0.073425 0.337845 0.263928 F
0.617900 0.670829 0.620502 F
0.291729 0.940942 0.947993 F
0.385264 0.053620 0.729917 F
0.678136 0.702897 0.389037 F
0.024681 0.313565 0.040764 F
0.170932 0.156948 0.136988 F
0.782662 0.987037 0.502180 F
0.010700 0.838078 0.818453 F
0.223582 0.210923 0.873500 F
0.972480 0.784333 0.515933 F
0.804832 0.002310 0.193035 F
0.056200 0.443620 0.862450 F
0.601812 0.607730 0.193594 F
0.342712 0.004774 0.462538 F
0.373098 0.992691 0.180981 F
0.570020 0.483299 0.782139 F
0.959995 0.372659 0.534693 F
