Na2 Ca2 V4 Si2 P4 O24                   
   1.00000000000000     
     8.8605901004639502    0.1256054858089524    0.1125287578149557
     4.2931168453805046    7.6681613654864620    0.0690317428262778
     4.4460759288954375    2.5225000136525519    7.2222782565393047
   Ca   Na   V    Si   P    O 
     2     2     4     2     4    24
Direct
   0.7360746505912268    0.4095872663402514    0.1245196198841250 Ca
  0.9999982784085191  0.9999986105063954  0.0000063479247530
  0.1017092994712314  0.7500538932416774  0.3991976264928638
  0.8983296017286762  0.2499183573774104  0.6007827926723053
  0.3614534999263270  0.3545723171414394  0.3458836035811998
  0.6385376281474251  0.6454584408383184  0.6541382821495745
  0.1546861616685291  0.1456931639095771  0.1385762519049933
  0.8453068993366841  0.8543177765533230  0.8614325699459613
  0.4557585721858928  0.7502195748620650  0.0439741193187331
  0.5442087848650488  0.2497539119603758  0.9560928774667872
  0.0323653100935886  0.4555024144998825  0.7536227489125977
  0.9676708701987167  0.5444832966358391  0.2463779103056183
  0.7460432382834483  0.0447057010889154  0.4669554728183698
  0.2539390992932766  0.9553308284446942  0.5330323685715257
  0.2230583906395367  0.4329596717367536  0.5866342573880345
  0.7769490054239014  0.5670362822080932  0.4133223324082707
  0.5752815851790771  0.2222927794012577  0.4451787663536280
  0.4246728438449452  0.7777237673173758  0.5548128325493238
  0.4324837398118291  0.5818935697924914  0.2439638098876102
  0.5674994990815563  0.4180668199380548  0.7560528455731799
  0.9151645326106248  0.0642740779153428  0.2777833758545540
  0.0848344204170317  0.9357265267920738  0.7222240346009201
  0.0508992277642974  0.2800929928425049  0.9270035454653751
  0.9490699073631887  0.7199214063516450  0.0730191306207786
  0.2572065753677180  0.9203666332858376  0.0641828242836411
  0.7428007330108244  0.0796393585141644  0.9357986902057078
  0.4965004029627238  0.3076313346264214  0.1298802465047686
  0.5034818047933811  0.6923856148576206  0.8701374316130028
  0.1214370711703054  0.5303747392273621  0.2930801127282692
  0.8785858447658583  0.4695865335403937  0.7069531681071481
  0.2774950800098495  0.1355925594892042  0.4919695418844583
  0.7225341148170656  0.8644377662412808  0.5079935267570761
  0.3696710585585450  0.1940810728318212  0.0028078643852609
  0.6303528138665868  0.8059107534626264  0.9971939174173272
  0.2092401865703408  0.9692817030085834  0.3776699290775412
  0.7907455263490490  0.0307237661544946  0.6223340999645686
  0.0086957452247134  0.3622889140478094  0.2261425617572641
  0.9912990553788958  0.6377156061846421  0.7738492788238318
 
  0.00000000E+00  0.00000000E+00  0.00000000E+00
  0.00000000E+00  0.00000000E+00  0.00000000E+00
  0.00000000E+00  0.00000000E+00  0.00000000E+00
  0.00000000E+00  0.00000000E+00  0.00000000E+00
  0.00000000E+00  0.00000000E+00  0.00000000E+00
  0.00000000E+00  0.00000000E+00  0.00000000E+00
  0.00000000E+00  0.00000000E+00  0.00000000E+00
  0.00000000E+00  0.00000000E+00  0.00000000E+00
  0.00000000E+00  0.00000000E+00  0.00000000E+00
  0.00000000E+00  0.00000000E+00  0.00000000E+00
  0.00000000E+00  0.00000000E+00  0.00000000E+00
  0.00000000E+00  0.00000000E+00  0.00000000E+00
  0.00000000E+00  0.00000000E+00  0.00000000E+00
  0.00000000E+00  0.00000000E+00  0.00000000E+00
  0.00000000E+00  0.00000000E+00  0.00000000E+00
  0.00000000E+00  0.00000000E+00  0.00000000E+00
  0.00000000E+00  0.00000000E+00  0.00000000E+00
  0.00000000E+00  0.00000000E+00  0.00000000E+00
  0.00000000E+00  0.00000000E+00  0.00000000E+00
  0.00000000E+00  0.00000000E+00  0.00000000E+00
  0.00000000E+00  0.00000000E+00  0.00000000E+00
  0.00000000E+00  0.00000000E+00  0.00000000E+00
  0.00000000E+00  0.00000000E+00  0.00000000E+00
  0.00000000E+00  0.00000000E+00  0.00000000E+00
  0.00000000E+00  0.00000000E+00  0.00000000E+00
  0.00000000E+00  0.00000000E+00  0.00000000E+00
  0.00000000E+00  0.00000000E+00  0.00000000E+00
  0.00000000E+00  0.00000000E+00  0.00000000E+00
  0.00000000E+00  0.00000000E+00  0.00000000E+00
  0.00000000E+00  0.00000000E+00  0.00000000E+00
  0.00000000E+00  0.00000000E+00  0.00000000E+00
  0.00000000E+00  0.00000000E+00  0.00000000E+00
  0.00000000E+00  0.00000000E+00  0.00000000E+00
  0.00000000E+00  0.00000000E+00  0.00000000E+00
  0.00000000E+00  0.00000000E+00  0.00000000E+00
  0.00000000E+00  0.00000000E+00  0.00000000E+00
  0.00000000E+00  0.00000000E+00  0.00000000E+00
  0.00000000E+00  0.00000000E+00  0.00000000E+00
