Na2 Ca2 V4 P2 S4 O24                    
   1.00000000000000     
     8.9700650000000000    0.3347020000000000    0.1661820000000000
     4.2499089999999997    7.9096060000000001    0.1841630000000000
     4.1446090000000000    2.5911819999999999    7.4747859999999999
   Ca   Na   V    P    S    O 
     2     2     4     2     4    24
Direct
  0.7798196582620177  0.2721608727315443  0.5422259252053506
  0.0135845604114315  0.9837430171347892  0.0159124055001104
  0.4039738169734906  0.0988912155653362  0.7558441248879507
  0.5870786345777151  0.8649256979956055  0.2538603519894497
  0.3645154151117902  0.3645981575847476  0.3596790463678252
  0.6402578985125204  0.6599611054694167  0.6452592432156876
  0.1441276946254756  0.1502027876639382  0.1459905793639499
  0.8535444139314323  0.8386440733913264  0.8548333268648407
  0.7566048265951545  0.0322844170338250  0.4404008260145615
  0.4571262145587622  0.7521365278432721  0.0446861036561673
  0.0429920268459265  0.4463729209188088  0.7526654604565357
  0.9609064250399719  0.5518948637807297  0.2503091668951079
  0.2361678458827131  0.9777853182356117  0.5613502949183472
  0.5455508772224844  0.2534736701212359  0.9536165851658911
  0.2161685799930108  0.4399492886724978  0.5993632391656396
  0.7854410434961032  0.5681623520222524  0.4102507627955141
  0.5939882079484120  0.2165132224853356  0.4589753063754130
  0.3957886061108538  0.8072993207136625  0.5487409635273274
  0.4509372614286629  0.5798389251377369  0.2068409527750049
  0.5674421236646702  0.4106184174622975  0.7800732368272781
  0.9091002535560304  0.0779428109444728  0.2590220283908425
  0.0865007675059543  0.9396339580223040  0.7389484193729925
  0.0789313391891554  0.2576304552750526  0.8983931368338886
  0.9252517811204022  0.7304597460870808  0.0990094330706362
  0.2677657749984631  0.9149439979059525  0.0766705066223373
  0.7282662640791304  0.0973747844047401  0.9197280610965126
  0.5158263112753894  0.2826936675630163  0.1144946392076431
  0.4832542648757285  0.7474755253149907  0.8623552510905428
  0.1145840667195042  0.5240913738855825  0.2889157118605208
  0.8932256444714961  0.4753071468308445  0.7025849429169575
  0.2838850936401378  0.1175396501484932  0.5550268090859611
  0.7036260878393188  0.8927529729808519  0.4451021155634511
  0.3990985704006068  0.2043500103918957  0.9761787782884569
  0.6048204997019418  0.8121156880539411  0.0199366874162266
  0.1611644356725651  0.0531074467352265  0.4124932544297220
  0.8196685638536756  0.9723154908292042  0.6021710595397997
 -0.0177359487747135  0.3982295022275777  0.2115306691738958
  0.9969312504812405  0.5812536492200830  0.8299255227909839
 
             NaN             NaN             NaN
             NaN             NaN             NaN
             NaN             NaN             NaN
             NaN             NaN             NaN
             NaN             NaN             NaN
             NaN             NaN             NaN
             NaN             NaN             NaN
             NaN             NaN             NaN
             NaN             NaN             NaN
             NaN             NaN             NaN
             NaN             NaN             NaN
             NaN             NaN             NaN
             NaN             NaN             NaN
             NaN             NaN             NaN
             NaN             NaN             NaN
             NaN             NaN             NaN
             NaN             NaN             NaN
             NaN             NaN             NaN
             NaN             NaN             NaN
             NaN             NaN             NaN
             NaN             NaN             NaN
             NaN             NaN             NaN
             NaN             NaN             NaN
             NaN             NaN             NaN
             NaN             NaN             NaN
             NaN             NaN             NaN
             NaN             NaN             NaN
             NaN             NaN             NaN
             NaN             NaN             NaN
             NaN             NaN             NaN
             NaN             NaN             NaN
             NaN             NaN             NaN
             NaN             NaN             NaN
             NaN             NaN             NaN
             NaN             NaN             NaN
             NaN             NaN             NaN
             NaN             NaN             NaN
             NaN             NaN             NaN
