Na2 Ca2 V4 P2 S4 O24
1.0
8.970065 0.334702 0.166182
4.249909 7.909606 0.184163
4.144609 2.591182 7.474786
Ca Na V P S O
2 2 4 2 4 24
direct
0.764334 0.305604 0.561564 Ca
0.006650 0.978883 0.031041 Ca
0.414385 0.099521 0.752520 Na
0.587415 0.857395 0.259193 Na
0.359576 0.364858 0.356687 V
0.649475 0.654517 0.642688 V
0.147273 0.148663 0.144513 V
0.848430 0.840486 0.856459 V
0.754582 0.041410 0.443254 P
0.457905 0.750870 0.044035 P
0.041284 0.441479 0.751063 S
0.961682 0.551539 0.246509 S
0.242020 0.972507 0.561468 S
0.544567 0.254279 0.951886 S
0.215889 0.439000 0.599493 O
0.786229 0.558328 0.406579 O
0.583483 0.217231 0.449045 O
0.399839 0.798796 0.556210 O
0.444620 0.582525 0.210797 O
0.570438 0.408379 0.777959 O
0.911772 0.081845 0.263881 O
0.085922 0.942697 0.736321 O
0.078476 0.257094 0.898921 O
0.919901 0.733304 0.099744 O
0.269744 0.914945 0.069397 O
0.728396 0.096433 0.927308 O
0.506743 0.288484 0.112392 O
0.494780 0.736991 0.863541 O
0.106994 0.533692 0.291427 O
0.900837 0.456136 0.696050 O
0.289333 0.112901 0.553238 O
0.720087 0.885592 0.451081 O
0.402621 0.201843 0.970540 O
0.602297 0.810326 0.026429 O
0.174847 0.042438 0.408760 O
0.803590 0.994477 0.610110 O
1.002486 0.402172 0.192272 O
-0.020363 0.585634 0.821771 O
