Ca8 Cr12 F42
1.0
7.394766 0.028558 -0.502893
-3.551458 6.916905 0.285757
0.933008 0.409896 18.212718
Ca Cr F
8 12 42
direct
0.831428 0.012520 0.346025 Ca
0.534617 0.857137 0.677352 Ca
0.591043 0.099979 0.006919 Ca
0.017381 0.817630 0.661094 Ca
0.113471 0.616145 0.990263 Ca
0.881136 0.728731 0.181143 Ca
0.845574 0.895616 0.846889 Ca
0.260935 0.248622 0.501410 Ca
0.316752 0.997074 0.330417 Cr
0.007840 0.311550 0.662040 Cr
0.637600 0.641637 0.004591 Cr
0.343903 0.985236 0.827124 Cr
0.951281 0.290744 0.159053 Cr
0.707347 0.698463 0.500905 Cr
0.446307 0.805583 0.170145 Cr
0.217464 0.712298 0.500315 Cr
0.316773 0.469269 0.832787 Cr
0.816782 0.463471 0.824331 Cr
0.707156 0.195120 0.501633 Cr
0.450976 0.299322 0.158063 Cr
0.740362 0.150509 0.612119 F
0.878958 0.663368 0.920674 F
0.401185 0.217362 0.261366 F
0.225152 0.764135 0.395165 F
0.403434 0.746456 0.059977 F
0.251039 0.461326 0.725547 F
0.731544 0.914172 0.961272 F
0.996785 0.887874 0.278830 F
0.129728 0.156567 0.615622 F
0.900273 0.712186 0.058988 F
0.852206 0.966690 0.725325 F
0.169920 0.111856 0.393768 F
0.531280 0.373818 0.046361 F
0.647998 0.164633 0.396192 F
0.887764 0.474852 0.691550 F
0.386682 0.544517 0.938475 F
0.244748 0.707728 0.610667 F
0.493459 0.900726 0.274977 F
0.747125 0.390873 0.175259 F
0.627041 0.410533 0.512336 F
0.642720 0.235272 0.886578 F
0.518538 0.855976 0.809417 F
0.402847 0.589252 0.493424 F
0.153410 0.667679 0.179409 F
0.959199 0.250195 0.262399 F
0.688166 0.718345 0.609826 F
0.314508 0.913889 0.935302 F
0.341381 0.998673 0.717282 F
0.724351 0.705821 0.397578 F
0.912275 0.323762 0.048025 F
0.167607 0.220919 0.134479 F
0.784527 0.982375 0.486085 F
0.007305 0.736931 0.787162 F
0.177687 0.122628 0.841317 F
0.003659 0.792095 0.525497 F
0.740134 0.942838 0.150676 F
0.046191 0.426451 0.867644 F
0.515677 0.570664 0.182729 F
0.411733 0.039489 0.518508 F
0.428479 0.050790 0.120585 F
0.602119 0.547503 0.803453 F
0.003979 0.362032 0.498404 F
