Ca9 Ti12 F42                            
   1.00000000000000     
     7.3767440000000004    0.0042630000000000   -0.0601090000000000
    -3.6437409999999999    6.3390370000000003    0.0329390000000000
     0.3175720000000000    0.0373820000000000   18.6715720000000012
   Ca   Ti   F 
     9    12    42
Direct
  0.8499676105220504  0.4916462206182443  0.3341977821092728
  0.5212306452719223  0.3655579477799677  0.6707155509547160
  0.1672169230519051  0.1772170782580282  0.0072336585516489
  0.0343038681628623  0.8390626280385466  0.6649878781221847
  0.8388320719401487  0.9817619259841351  0.3375651243810565
  0.6428076130377552  0.1487133536338003  0.0059072792187547
  0.0326954573190574  0.8196855207584943  0.1594076444878001
  0.8274998022597538  0.0038795081909274  0.8280697274473343
  0.2182884331730349  0.1977359125868177  0.4884684071337009
  0.3519257981707407  0.9938090191049578  0.3086804930387001
  0.0274330697352610  0.3419066085265602  0.6625086485332572
  0.6690613552509014  0.6672959589714180  0.9922849120173020
  0.3610379719107886  0.0551096225209759  0.8311678288070161
  0.9420894902775924  0.2856508443162076  0.1695092192677524
  0.7220110023328241  0.6467515920352269  0.4985748934918036
  0.5039022411363284  0.8538553809623940  0.1715529368353305
  0.1555051867198867  0.6607548608587583  0.4907228292445528
  0.3608250326585135  0.4903958638439982  0.8326513771356303
  0.7897704823874804  0.4845783653002671  0.8329209184479025
  0.7136570294284269  0.2137929740511501  0.4906603273148451
  0.4981072752591861  0.2741008343776610  0.1728389183637222
  0.7780151630454301  0.2134455458295676  0.5984424218156426
  0.8000537316020460  0.4910286550127893  0.9468202642386230
  0.5007839910094670  0.3065374228462554  0.2829632666778215
  0.1924107973833469  0.7251318730584894  0.3798241846850900
  0.5669718442673494  0.8195829131234089  0.0612522323983472
  0.2901137672507085  0.4582982606709896  0.7223167801387373
  0.8303049235169229  1.0004786815208955  0.9526059664436713
  0.0234063346301088  0.8275338191481629  0.2794210485461993
  0.1831689478574922  0.1954840387631023  0.6118586835766264
  0.9485728228309185  0.8261141949259727  0.0469238426240826
  0.9085269975772132  0.0517203139654170  0.7134552842175931
  0.1846812085548512  0.0992560792891775  0.3756475551316168
  0.5305815632009186  0.3761737766954722  0.0547340185659280
  0.6418963033658528  0.1422314301408592  0.3773507632705936
  0.8560798669847960  0.4805102828264609  0.7134788442076863
  0.3569612163940924  0.4974087744706935  0.9488275132047056
  0.1484659033251438  0.6248657794152179  0.6057828671715075
  0.5059802401644135  0.8312835318634224  0.2822649915972215
  0.8131707954631521  0.4734351372563003  0.1979925695187097
  0.5429314770851373  0.3395950037058391  0.5419325490401035
  0.6630934861696737  0.1727823350278403  0.8666230491377187
  0.4421348627960340  0.8087273637892366  0.8164742261697533
  0.3998818082269526  0.5715940488285929  0.4914470019833678
  0.1865498228221585  0.6081678176074490  0.1597085761487364
  0.9811651651161867  0.3016652112295022  0.2803898830818506
  0.7136272831820201  0.6797906076364971  0.6130961643923023
  0.3342404967780805  0.0284196677738505  0.9446702255417206
  0.3513539292735064  0.0365598733536054  0.7169884436258529
  0.7031452521860001  0.6597055059822091  0.3860356378577099
  0.9596575966304000  0.2927931781534908  0.0586950338303907
  0.1857984479016843  0.1970089884846374  0.1424708502701875
  0.7994374062232066  0.9693842913769709  0.4700435629342081
  0.0252749855775862  0.8070941696337155  0.8044026013235416
  0.1701177729873420  0.1760555234572456  0.8599046386918050
  0.0337828096499052  0.8472785908211429  0.5284981531317032
  0.8206575699202456  0.9710199030155646  0.1935852298310675
  0.0353669259743195  0.4179839256097596  0.8260589731496990
  0.5384061479239476  0.5818195616869347  0.1783992123818139
  0.4087944825248339  0.9735838199655839  0.4986406822091458
  0.3715569515237061  0.0000942417010659  0.1049065012681314
  0.6688298036938430  0.6727776712614181  0.8733398824815161
  0.0175183009239838  0.3498330364879155  0.4528951474634978
 
             NaN             NaN             NaN
             NaN             NaN             NaN
             NaN             NaN             NaN
             NaN             NaN             NaN
             NaN             NaN             NaN
             NaN             NaN             NaN
             NaN             NaN             NaN
             NaN             NaN             NaN
             NaN             NaN             NaN
             NaN             NaN             NaN
             NaN             NaN             NaN
             NaN             NaN             NaN
             NaN             NaN             NaN
             NaN             NaN             NaN
             NaN             NaN             NaN
             NaN             NaN             NaN
             NaN             NaN             NaN
             NaN             NaN             NaN
             NaN             NaN             NaN
             NaN             NaN             NaN
             NaN             NaN             NaN
             NaN             NaN             NaN
             NaN             NaN             NaN
             NaN             NaN             NaN
             NaN             NaN             NaN
             NaN             NaN             NaN
             NaN             NaN             NaN
             NaN             NaN             NaN
             NaN             NaN             NaN
             NaN             NaN             NaN
             NaN             NaN             NaN
             NaN             NaN             NaN
             NaN             NaN             NaN
             NaN             NaN             NaN
             NaN             NaN             NaN
             NaN             NaN             NaN
             NaN             NaN             NaN
             NaN             NaN             NaN
             NaN             NaN             NaN
             NaN             NaN             NaN
             NaN             NaN             NaN
             NaN             NaN             NaN
             NaN             NaN             NaN
             NaN             NaN             NaN
             NaN             NaN             NaN
             NaN             NaN             NaN
             NaN             NaN             NaN
             NaN             NaN             NaN
             NaN             NaN             NaN
             NaN             NaN             NaN
             NaN             NaN             NaN
             NaN             NaN             NaN
             NaN             NaN             NaN
             NaN             NaN             NaN
             NaN             NaN             NaN
             NaN             NaN             NaN
             NaN             NaN             NaN
             NaN             NaN             NaN
             NaN             NaN             NaN
             NaN             NaN             NaN
             NaN             NaN             NaN
             NaN             NaN             NaN
             NaN             NaN             NaN
