Ca9 Ti12 F42
1.0
7.376744 0.004263 -0.060109
-3.643741 6.339037 0.032939
0.317572 0.037382 18.671572
Ca Ti F
9 12 42
direct
0.921208 0.494079 0.336866 Ca
0.520675 0.349440 0.667338 Ca
0.167348 0.175503 0.005169 Ca
0.026763 0.837585 0.665888 Ca
0.835575 0.983537 0.331513 Ca
0.643560 0.149003 0.003417 Ca
0.036696 0.823935 0.158763 Ca
0.827250 0.006059 0.827344 Ca
0.202561 0.184691 0.489861 Ca
0.347361 0.995800 0.311353 Ti
0.020447 0.338255 0.654485 Ti
0.669612 0.667861 0.992078 Ti
0.357436 0.051526 0.830288 Ti
0.954607 0.293833 0.167002 Ti
0.715943 0.650535 0.496036 Ti
0.503477 0.845276 0.169529 Ti
0.156319 0.655268 0.493006 Ti
0.353117 0.487919 0.830946 Ti
0.795995 0.487000 0.831301 Ti
0.711258 0.209359 0.495169 Ti
0.500696 0.285169 0.170989 Ti
0.717118 0.201346 0.608982 F
0.802419 0.495202 0.945070 F
0.509420 0.305129 0.280577 F
0.194299 0.726484 0.382428 F
0.565400 0.823057 0.060505 F
0.288066 0.450095 0.719694 F
0.827940 -0.003642 0.950898 F
0.026735 0.831908 0.278732 F
0.186521 0.178536 0.613700 F
0.952357 0.828688 0.045898 F
0.898068 0.053463 0.711965 F
0.183756 0.117514 0.374076 F
0.529552 0.371443 0.053730 F
0.645207 0.143350 0.379424 F
0.858213 0.484611 0.714340 F
0.357464 0.497431 0.947658 F
0.159921 0.646851 0.608823 F
0.501199 0.833393 0.281121 F
0.816732 0.472170 0.190164 F
0.534179 0.344125 0.532295 F
0.659496 0.173772 0.867403 F
0.438484 0.807414 0.816471 F
0.392365 0.568611 0.480382 F
0.192527 0.619621 0.153203 F
0.990095 0.307460 0.277623 F
0.705145 0.672327 0.610702 F
0.332317 0.021244 0.944434 F
0.343130 0.029784 0.718962 F
0.705762 0.665478 0.384733 F
0.959425 0.293580 0.057040 F
0.185618 0.195447 0.140884 F
0.812756 0.986271 0.469388 F
0.018548 0.810469 0.803421 F
0.171037 0.174434 0.863050 F
0.024197 0.836608 0.527297 F
0.819283 0.975078 0.194554 F
0.034735 0.413605 0.827040 F
0.550884 0.589046 0.172608 F
0.401138 0.969245 0.495029 F
0.380491 0.007209 0.111007 F
0.662830 0.665513 0.868176 F
0.019942 0.343109 0.519583 F
