Mg12 Mn24 O48
1.0
   9.0295708178999998    0.0000000000000000    0.0000000000000000
   0.0000000000000000    9.6198539733999997    0.0000000000000000
   0.0000000000000000    0.0000000000000000    9.9176168441999994
Mg Mn O
11 24 48
direct
   0.7756253380000000    0.2500000000000000    0.8532680270000000 Mg
   0.1089586713333333    0.7500000000000001    0.6467319729999998 Mg
   0.4422920046666667    0.7500000000000001    0.6467319729999998 Mg
   0.7756253380000000    0.7500000000000001    0.6467319729999998 Mg
   0.1089586713333333    0.2500000000000000    0.8532680270000000 Mg
   0.2243746716666667    0.7500000000000001    0.1467320020000000 Mg
   0.5577080050000000    0.7500000000000001    0.1467320020000000 Mg
   0.8910413383333333    0.7500000000000001    0.1467320020000000 Mg
   0.2243746716666667    0.2500000000000000    0.3532679980000000 Mg
   0.5577080050000000    0.2500000000000000    0.3532679980000000 Mg
   0.8910413383333333    0.2500000000000000    0.3532679980000000 Mg
   0.2657773296666667    0.5708460210000000    0.8846219780000000 Mn
   0.5991106630000000    0.5708460210000000    0.8846219780000000 Mn
   0.9324439963333333    0.5708460210000000    0.8846219780000000 Mn
   0.2657773296666667    0.0708459990000000    0.6153780219999999 Mn
   0.5991106630000000    0.0708459990000000    0.6153780219999999 Mn
   0.9324439963333333    0.0708459990000000    0.6153780219999999 Mn
   0.0675559986666667    0.0708459990000000    0.1153780000000000 Mn
   0.4008893320000000    0.0708459990000000    0.1153780000000000 Mn
   0.7342226653333332    0.0708459990000000    0.1153780000000000 Mn
   0.2657773296666667    0.4291540090000001    0.6153780219999999 Mn
   0.5991106630000000    0.4291540090000001    0.6153780219999999 Mn
   0.9324439963333333    0.4291540090000001    0.6153780219999999 Mn
   0.0675559986666667    0.4291540090000001    0.1153780000000000 Mn
   0.4008893320000000    0.4291540090000001    0.1153780000000000 Mn
   0.7342226653333332    0.4291540090000001    0.1153780000000000 Mn
   0.2657773296666667    0.9291539790000000    0.8846219780000000 Mn
   0.5991106630000000    0.9291539790000000    0.8846219780000000 Mn
   0.9324439963333333    0.9291539790000000    0.8846219780000000 Mn
   0.0675559986666667    0.9291539790000000    0.3846220080000000 Mn
   0.4008893320000000    0.9291539790000000    0.3846220080000000 Mn
   0.7342226653333332    0.9291539790000000    0.3846220080000000 Mn
   0.0675559986666667    0.5708460210000000    0.3846220080000000 Mn
   0.4008893320000000    0.5708460210000000    0.3846220080000000 Mn
   0.7342226653333332    0.5708460210000000    0.3846220080000000 Mn
   0.0676323323333333    0.8850669860000000    0.0329010000000000 O
   0.4009656656666666    0.8850669860000000    0.0329010000000000 O
   0.7342989990000000    0.8850669860000000    0.0329010000000000 O
   0.2657009960000000    0.1149329990000000    0.9670990109999998 O
   0.5990343293333332    0.1149329990000000    0.9670990109999998 O
   0.9323676626666667    0.1149329990000000    0.9670990109999998 O
   0.1252180040000000    0.0000000000000000    0.7500000000000000 O
   0.4585513373333334    0.0000000000000000    0.7500000000000000 O
   0.7918846706666667    0.0000000000000000    0.7500000000000000 O
   0.2657009960000000    0.8850669860000000    0.5329009890000000 O
   0.5990343293333332    0.8850669860000000    0.5329009890000000 O
   0.9323676626666667    0.8850669860000000    0.5329009890000000 O
   0.2657009960000000    0.6149330140000000    0.5329009890000000 O
   0.5990343293333332    0.6149330140000000    0.5329009890000000 O
   0.9323676626666667    0.6149330140000000    0.5329009890000000 O
   0.2741199930000000    0.2500000000000000    0.7065399889999999 O
   0.6074533263333333    0.2500000000000000    0.7065399889999999 O
   0.9407866596666665    0.2500000000000000    0.7065399889999999 O
   0.0676323323333333    0.1149329990000000    0.4670990110000000 O
   0.4009656656666666    0.1149329990000000    0.4670990110000000 O
   0.7342989990000000    0.1149329990000000    0.4670990110000000 O
   0.0592133353333333    0.2500000000000000    0.2065400030000000 O
   0.3925466686666667    0.2500000000000000    0.2065400030000000 O
   0.7258800019999999    0.2500000000000000    0.2065400030000000 O
   0.1252180040000000    0.5000000000000000    0.7500000000000000 O
   0.4585513373333334    0.5000000000000000    0.7500000000000000 O
   0.7918846706666667    0.5000000000000000    0.7500000000000000 O
   0.2081153393333333    0.0000000000000000    0.2500000000000000 O
   0.5414486726666666    0.0000000000000000    0.2500000000000000 O
   0.8747820059999999    0.0000000000000000    0.2500000000000000 O
   0.0676323323333333    0.6149330140000000    0.0329010000000000 O
   0.4009656656666666    0.6149330140000000    0.0329010000000000 O
   0.7342989990000000    0.6149330140000000    0.0329010000000000 O
   0.0592133353333333    0.7500000000000001    0.2934600110000000 O
   0.3925466686666667    0.7500000000000001    0.2934600110000000 O
   0.7258800019999999    0.7500000000000001    0.2934600110000000 O
   0.2741199930000000    0.7500000000000001    0.7934600110000000 O
   0.6074533263333333    0.7500000000000001    0.7934600110000000 O
   0.9407866596666665    0.7500000000000001    0.7934600110000000 O
   0.2081153393333333    0.5000000000000000    0.2500000000000000 O
   0.5414486726666666    0.5000000000000000    0.2500000000000000 O
   0.8747820059999999    0.5000000000000000    0.2500000000000000 O
   0.0676323323333333    0.3850669860000000    0.4670990110000000 O
   0.4009656656666666    0.3850669860000000    0.4670990110000000 O
   0.7342989990000000    0.3850669860000000    0.4670990110000000 O
   0.2657009960000000    0.3850669860000000    0.9670990109999998 O
   0.5990343293333332    0.3850669860000000    0.9670990109999998 O
   0.9323676626666667    0.3850669860000000    0.9670990109999998 O
