Ca1 Ni12 F42                            
   1.00000000000000     
     7.0440810000000003   -0.0046080000000000    0.0188740000000000
    -3.5227189999999999    6.0650779999999997   -0.0034470000000000
    -0.0724950000000000    0.0486390000000000   16.9292060000000006
   Ca   Ni   F 
     1    12    42
Direct
  0.8461572564123927  0.9695945104838973  0.3285903324584125
  0.3183723721212560  0.9894006863657715  0.3327652535282372
  0.6850080840327193  0.6773678490236514  0.9966431148042760
  0.9880721053946658  0.3054762363531882  0.6697659789016167
  0.3339394089167280  0.9913079235806503  0.8336025972911889
  0.6513668648587578  0.6574451751507738  0.5019358779373836
  1.0025161926011925  0.3241773785521526  0.1653451820381096
  0.6496685527430036  0.1591972673119041  0.5051848509753636
  0.5057333663300221  0.3291933917193113  0.1628915803487268
  0.8349199318535679  0.4921026559380028  0.8339798228768338
  0.3341956400422114  0.4904569211913051  0.8329364684333723
  0.1509658437501030  0.6539307727227002  0.5040993667677875
  0.4977023132143245  0.8230344320837609  0.1618237211456265
  0.5440161032033681  0.7916087837175466  0.0528828494013929
  0.2517032146972921  0.4455325601097020  0.7261599424283749
  0.1903773401589051  0.7344013606393224  0.3977333367338209
  0.4454110379495456  0.2441221521449367  0.2680957122780190
  0.8201646907661467  0.5508010002767328  0.9405511971525143
  0.7314014463051984  0.1778757691382433  0.6132947945456063
  0.8800822959835307  0.0777619162844232  0.7329504042184887
  0.1817899634280134  0.1022713057610838  0.3895735217973219
  0.9108424382086480  0.7968994630967801  0.0601032596891563
  0.1026798447311068  0.1960992474110375  0.6058078325964456
  0.0767228881966937  0.8604832027537670  0.2713236371767210
  0.7943720448372202  0.9046519888110324  0.9332432244234076
  0.1082392764349426  0.5717120005384584  0.6107138039743862
  0.4680867641829994  0.8712996182327809  0.2771855618484512
  0.4197195352821382  0.5314144430204224  0.9386012253439490
  0.8560013751611976  0.4363789294364526  0.7283600082651860
  0.5739739937547059  0.1293326193992692  0.3923352826158099
  0.5580222219426202  0.4128406169268536  0.0564408199062750
  0.3569716220397458  0.5628431075389326  0.4838606509783730
  0.1945718334127020  0.6208841218227269  0.1518392460034829
  0.4308897143683271  0.7863829659709044  0.8147128443106758
  0.6341313094809760  0.2004134759584439  0.8568335578655026
  0.5568550222142086  0.3663549331088789  0.5244393856640935
  0.7967880522153502  0.4081306553833799  0.1883776279967811
  0.6873976880970103  0.6330811374746317  0.3952595656933600
  0.9394050106188968  0.3015440806523557  0.0640699061578366
  0.3731824585998127  0.0618491630590382  0.7329840112807312
  0.2948153248915931  0.9211236720338908  0.9341236058101416
  0.6235632294223489  0.7012570693352370  0.6023581275560564
  0.0529414331152971  0.3256040985509790  0.2721232746200549
  0.9463102113972558  0.7512996699332366  0.5185541915468628
  0.8034602499703023  0.0246879761883728  0.1842383205757645
  0.2355400725692331  0.1946918694180372  0.8513695309170126
  0.0337218611595602  0.7837980428422616  0.8111185137886303
  0.7420629952884213  0.9507198692134882  0.4752358556886365
  0.2090863280952818  0.2410460689131405  0.1432043160231018
  0.6089461772129340  0.5495620439641741  0.8003270588827005
  0.9361377953020592  0.3775009400300361  0.4701118567682468
  0.4385137145507176  0.0498566940917312  0.1304611107141808
  0.3623793252909722  0.9331926165907576  0.5362021725371499
  0.5695532794165128  0.6073374190155439  0.1982002896644228
  0.0602742275579749  0.4327898437830107  0.8663394201966454
 
             NaN             NaN             NaN
             NaN             NaN             NaN
             NaN             NaN             NaN
             NaN             NaN             NaN
             NaN             NaN             NaN
             NaN             NaN             NaN
             NaN             NaN             NaN
             NaN             NaN             NaN
             NaN             NaN             NaN
             NaN             NaN             NaN
             NaN             NaN             NaN
             NaN             NaN             NaN
             NaN             NaN             NaN
             NaN             NaN             NaN
             NaN             NaN             NaN
             NaN             NaN             NaN
             NaN             NaN             NaN
             NaN             NaN             NaN
             NaN             NaN             NaN
             NaN             NaN             NaN
             NaN             NaN             NaN
             NaN             NaN             NaN
             NaN             NaN             NaN
             NaN             NaN             NaN
             NaN             NaN             NaN
             NaN             NaN             NaN
             NaN             NaN             NaN
             NaN             NaN             NaN
             NaN             NaN             NaN
             NaN             NaN             NaN
             NaN             NaN             NaN
             NaN             NaN             NaN
             NaN             NaN             NaN
             NaN             NaN             NaN
             NaN             NaN             NaN
             NaN             NaN             NaN
             NaN             NaN             NaN
             NaN             NaN             NaN
             NaN             NaN             NaN
             NaN             NaN             NaN
             NaN             NaN             NaN
             NaN             NaN             NaN
             NaN             NaN             NaN
             NaN             NaN             NaN
             NaN             NaN             NaN
             NaN             NaN             NaN
             NaN             NaN             NaN
             NaN             NaN             NaN
             NaN             NaN             NaN
             NaN             NaN             NaN
             NaN             NaN             NaN
             NaN             NaN             NaN
             NaN             NaN             NaN
             NaN             NaN             NaN
             NaN             NaN             NaN
