Ca1 Ni12 F42
1.0
7.044081 -0.004608 0.018874
-3.522719 6.065078 -0.003447
-0.072495 0.048639 16.929206
Ca Ni F
1 12 42
direct
0.606878 0.499438 0.332952 Ca
0.308430 -0.000887 0.333145 Ni
0.697947 0.698202 0.996748 Ni
-0.000123 0.301634 0.670313 Ni
0.347301 -0.000070 0.833535 Ni
0.656252 0.659457 0.506606 Ni
0.995984 0.339609 0.159627 Ni
0.654592 0.156833 0.504759 Ni
0.494251 0.341215 0.158705 Ni
0.848056 0.499810 0.834452 Ni
0.347956 0.499931 0.832643 Ni
0.153325 0.658253 0.508136 Ni
0.496179 0.842671 0.161044 Ni
0.563704 0.821862 0.053542 F
0.263151 0.434386 0.727205 F
0.188373 0.742564 0.397757 F
0.444846 0.256348 0.268274 F
0.828819 0.566669 0.940909 F
0.745000 0.177771 0.611992 F
0.888938 0.069600 0.731822 F
0.200500 0.132595 0.391748 F
0.916728 0.805047 0.063390 F
0.116259 0.195419 0.605256 F
0.066331 0.866049 0.274668 F
0.820760 0.929268 0.934990 F
0.123263 0.569722 0.614185 F
0.430960 0.861413 0.273698 F
0.435260 0.566264 0.936977 F
0.868197 0.431004 0.729095 F
0.570247 0.137745 0.392399 F
0.549688 0.429358 0.052858 F
0.361951 0.564974 0.482990 F
0.200597 0.632320 0.136488 F
0.435250 0.792401 0.808422 F
0.641837 0.203426 0.859245 F
0.570502 0.368296 0.529901 F
0.795250 0.433551 0.183002 F
0.686875 0.613888 0.401801 F
0.916769 0.296149 0.060072 F
0.391736 0.084530 0.734116 F
0.302758 0.915510 0.932918 F
0.619624 0.702910 0.606015 F
0.071983 0.385014 0.264557 F
0.949242 0.756510 0.525947 F
0.788991 0.051496 0.187539 F
0.259716 0.207649 0.857594 F
0.052820 0.795965 0.808863 F
0.737407 0.946840 0.478569 F
0.192670 0.243126 0.140721 F
0.626374 0.562651 0.800747 F
0.930667 0.378214 0.467605 F
0.431114 0.059529 0.127918 F
0.375588 0.945037 0.538275 F
0.550907 0.617634 0.198255 F
0.070493 0.437049 0.866306 F
