Ca1 Mn4 S6 O24                          
   1.00000000000000     
     7.8708749999999998    0.0483340000000000    4.9826560000000004
     2.7871649999999999    7.0635529999999997    4.8488189999999998
     0.5468330000000000    0.1008640000000000    9.0778689999999997
   Ca   Mn   S    O 
     1     4     6    24
Direct
  0.3692490228202778  0.6416570679667079  0.5110740297155735
  0.6519061718201553  0.6431958544670745  0.6538432028218460
  0.1427411227883246  0.1576941748481621  0.1452624969245234
  0.8293582343572824  0.8580173590134944  0.8421117753800631
  0.3548986250519489  0.3464697874302793  0.3546268360136457
  0.9659119249342573  0.2343880468385126  0.5363859984104430
  0.4372159068258423  0.0559076895438288  0.7557858117024121
  0.5534417875472593  0.9490704241356237  0.2428788662669097
  0.7407210876571292  0.4749802797261337  0.0500156018999166
  0.2518720819697799  0.5225632352411352  0.9612178891293640
  0.0275341795648362  0.7673117804308001  0.4449566858932782
  0.4114706190499037  0.5775326789678288  0.7700300353194267
  0.9350081547456504  0.3494985360624285  0.0220341676077908
  0.7832011017865271  0.3660533164912894  0.6186215485980302
  0.0035289162562703  0.9711886470587863  0.3231283838057468
  0.6153891941513682  0.7541758193778123  0.3841202462595225
  0.2912892513203324  0.0282922470590225  0.9627522086150935
  0.6973685577991580  0.9682639752663373  0.0403222867433444
  0.2259691401595695  0.6449645440761569  0.3663785316471721
  0.0756138684260354  0.6606036369684024  0.9395311928640855
  0.3625380959853909  0.2516187718689759  0.6273549214472706
  0.9746422832675893  0.0290040674520057  0.6602780797580402
  0.6032693078334265  0.4070867330186312  0.2497865264315825
  0.9878901087982702  0.2745615008460378  0.3399516387002636
  0.4672969816584563  0.9070450756390230  0.7074352723524093
  0.3729734965288209  0.9578490136393256  0.2704340968906408
  0.6932887950155350  0.5027940005531615  0.9058133100369854
  0.2847950488464292  0.3290982186002460  0.9778548497134232
  0.8963429839905602  0.7136608641058952  0.4606773272581151
  0.1225822882654804  0.2510133974086484  0.5202983710683343
  0.6133529128187016  0.0384514213178629  0.7396016430032545
  0.5292489569296046  0.0990659379536821  0.2826322561613642
  0.7126327863050519  0.6695006932009595  0.0302358983845401
  0.2689879886724402  0.5077931048854071  0.1187191618275863
  0.0022831727822972  0.7292048900174122  0.6437033413759289
 
             NaN             NaN             NaN
             NaN             NaN             NaN
             NaN             NaN             NaN
             NaN             NaN             NaN
             NaN             NaN             NaN
             NaN             NaN             NaN
             NaN             NaN             NaN
             NaN             NaN             NaN
             NaN             NaN             NaN
             NaN             NaN             NaN
             NaN             NaN             NaN
             NaN             NaN             NaN
             NaN             NaN             NaN
             NaN             NaN             NaN
             NaN             NaN             NaN
             NaN             NaN             NaN
             NaN             NaN             NaN
             NaN             NaN             NaN
             NaN             NaN             NaN
             NaN             NaN             NaN
             NaN             NaN             NaN
             NaN             NaN             NaN
             NaN             NaN             NaN
             NaN             NaN             NaN
             NaN             NaN             NaN
             NaN             NaN             NaN
             NaN             NaN             NaN
             NaN             NaN             NaN
             NaN             NaN             NaN
             NaN             NaN             NaN
             NaN             NaN             NaN
             NaN             NaN             NaN
             NaN             NaN             NaN
             NaN             NaN             NaN
             NaN             NaN             NaN
