Ca1 Mn4 S6 O24
1.0
7.870875 0.048334 4.982656
2.787165 7.063553 4.848819
0.546833 0.100864 9.077869
Ca Mn S O
1 4 6 24
direct
0.408291 0.635186 0.544630 Ca
0.653589 0.645452 0.646443 Mn
0.150880 0.149697 0.144340 Mn
0.829592 0.849926 0.846052 Mn
0.353438 0.349010 0.347962 Mn
0.956742 0.241508 0.533136 S
0.440338 0.049631 0.751504 S
0.547761 0.949397 0.241995 S
0.746998 0.463186 0.045065 S
0.251911 0.526546 0.953403 S
0.041112 0.754502 0.455965 S
0.398520 0.591352 0.756942 O
0.938346 0.332186 0.018770 O
0.772225 0.376869 0.606462 O
0.025144 0.956412 0.323826 O
0.617294 0.757812 0.379195 O
0.303139 0.020118 0.959053 O
0.687099 0.970517 0.037637 O
0.232193 0.622626 0.383249 O
0.068192 0.667051 0.960288 O
0.363469 0.244004 0.623730 O
0.962796 0.041073 0.666951 O
0.608941 0.392609 0.245539 O
0.984467 0.273560 0.338346 O
0.463451 0.901964 0.705751 O
0.366927 0.961740 0.271990 O
0.694776 0.498348 0.901402 O
0.274156 0.341310 0.964379 O
0.898399 0.712998 0.475235 O
0.107019 0.265192 0.518848 O
0.620556 0.032354 0.724091 O
0.524825 0.100472 0.280645 O
0.723130 0.651436 0.031802 O
0.289789 0.496218 0.104340 O
0.010721 0.727220 0.651278 O
