Mn16 P16 O64
1.0
   9.6209628781949110   -0.0000296287010890   -0.0000042377163958
  -0.0000404698439228   13.2468086943528718    0.0000070449924618
  -0.0000023800470585    0.0000024031248875    8.5689838249948842
K Mn P O
1 16 16 64
direct
   0.7647885967811565    0.3749998043438060    0.8394292383253431 K
   0.2500004260570101    0.4999997655798040    0.5000003379886835 Mn
   0.2500004260570101    0.9999997655798042    0.5000003379886835 Mn
   0.7500004260570101    0.4999997655798040    0.5000003379886835 Mn
   0.7500004260570102    0.9999997655798042    0.5000003379886835 Mn
   0.0000000793902882    0.4999999783269208    0.9999998887073824 Mn
   0.0000000793902882    0.9999999783269208    0.9999998887073824 Mn
   0.5000000793902881    0.4999999783269208    0.9999998887073823 Mn
   0.5000000793902881    0.9999999783269208    0.9999998887073823 Mn
   0.2499995568839986    0.2499996763694345    0.4999998547666242 Mn
   0.2499995568839985    0.7499996763694347    0.4999998547666242 Mn
   0.7499995568839987    0.2499996763694345    0.4999998547666242 Mn
   0.7499995568839986    0.7499996763694345    0.4999998547666242 Mn
   0.4999999187233904    0.2500000627934610    0.9999999404661783 Mn
   0.4999999187233905    0.7500000627934611    0.9999999404661783 Mn
   0.9999999187233904    0.2500000627934610    0.9999999404661783 Mn
   0.9999999187233903    0.7500000627934611    0.9999999404661783 Mn
   0.0206832148501725    0.3749993627258852    0.6785208309619969 P
   0.0206832148501725    0.8749993627258852    0.6785208309619969 P
   0.5206832148501724    0.3749993627258851    0.6785208309619969 P
   0.5206832148501725    0.8749993627258853    0.6785208309619970 P
   0.2706836052032839    0.1249992550276780    0.8214794862440301 P
   0.2706836052032839    0.6249992550276781    0.8214794862440301 P
   0.7706836052032839    0.1249992550276780    0.8214794862440301 P
   0.7706836052032839    0.6249992550276781    0.8214794862440302 P
   0.4793168714085541    0.1250006838727723    0.3214790648635069 P
   0.4793168714085541    0.6250006838727725    0.3214790648635069 P
   0.9793168714085542    0.1250006838727723    0.3214790648635069 P
   0.9793168714085542    0.6250006838727725    0.3214790648635069 P
   0.2293163575689080    0.3750008048768379    0.1785205373336830 P
   0.2293163575689079    0.8750008048768380    0.1785205373336830 P
   0.7293163575689080    0.3750008048768379    0.1785205373336830 P
   0.7293163575689080    0.8750008048768380    0.1785205373336830 P
   0.0345090866408148    0.3749994055097247    0.8644569879037469 O
   0.0345090866408148    0.8749994055097247    0.8644569879037469 O
   0.5345090866408149    0.3749994055097247    0.8644569879037469 O
   0.5345090866408149    0.8749994055097249    0.8644569879037469 O
   0.2845090625955271    0.1249993445654101    0.6355432625495742 O
   0.2845090625955271    0.6249993445654102    0.6355432625495742 O
   0.7845090625955271    0.1249993445654101    0.6355432625495742 O
   0.7845090625955271    0.6249993445654102    0.6355432625495742 O
   0.4654909126783729    0.1250005566216457    0.1355429034789803 O
   0.4654909126783729    0.6250005566216459    0.1355429034789803 O
   0.9654909126783728    0.1250005566216457    0.1355429034789803 O
   0.9654909126783728    0.6250005566216459    0.1355429034789803 O
   0.2154909727686826    0.3750006167623650    0.3644567660796463 O
   0.2154909727686826    0.8750006167623651    0.3644567660796462 O
   0.7154909727686826    0.3750006167623650    0.3644567660796463 O
   0.7154909727686825    0.8750006167623651    0.3644567660796462 O
   0.3810357579457975    0.3750009162237642    0.1236227188237584 O
   0.3810357579457975    0.8750009162237642    0.1236227188237584 O
   0.8810357579457976    0.3750009162237641    0.1236227188237584 O
   0.8810357579457975    0.8750009162237642    0.1236227188237584 O
   0.1310364326621382    0.1250009643056374    0.3763768938305228 O
   0.1310364326621383    0.6250009643056375    0.3763768938305228 O
   0.6310364326621383    0.1250009643056374    0.3763768938305228 O
   0.6310364326621384    0.6250009643056375    0.3763768938305228 O
   0.1189642348726129    0.1249992236261102    0.8763773642732111 O
   0.1189642348726129    0.6249992236261103    0.8763773642732111 O
   0.6189642348726130    0.1249992236261102    0.8763773642732111 O
   0.6189642348726129    0.6249992236261104    0.8763773642732112 O
   0.3689636231587619    0.3749990788395241    0.6236231131176757 O
   0.3689636231587619    0.8749990788395242    0.6236231131176757 O
   0.8689636231587620    0.3749990788395241    0.6236231131176757 O
   0.8689636231587619    0.8749990788395242    0.6236231131176758 O
   0.4043397765533594    0.0281881568714408    0.3755873808004894 O
   0.4043397765533594    0.5281881568714409    0.3755873808004894 O
   0.9043397765533594    0.0281881568714408    0.3755873808004895 O
   0.9043397765533593    0.5281881568714409    0.3755873808004894 O
   0.1543394071948285    0.4718131602023856    0.1244129906486793 O
   0.1543394071948285    0.9718131602023856    0.1244129906486793 O
   0.6543394071948284    0.4718131602023856    0.1244129906486793 O
   0.6543394071948285    0.9718131602023857    0.1244129906486793 O
   0.0956600696386038    0.2781871253244874    0.6244125080229093 O
   0.0956600696386038    0.7781871253244875    0.6244125080229093 O
   0.5956600696386037    0.2781871253244874    0.6244125080229093 O
   0.5956600696386039    0.7781871253244874    0.6244125080229093 O
   0.3456606717140401    0.2218121402758731    0.8755871146206606 O
   0.3456606717140401    0.7218121402758731    0.8755871146206606 O
   0.8456606717140399    0.2218121402758731    0.8755871146206606 O
   0.8456606717140401    0.7218121402758731    0.8755871146206606 O
   0.0956604328427225    0.4718119634700390    0.6244128590324149 O
   0.0956604328427225    0.9718119634700391    0.6244128590324148 O
   0.5956604328427225    0.4718119634700390    0.6244128590324148 O
   0.5956604328427225    0.9718119634700391    0.6244128590324149 O
   0.3456606375924886    0.0281869405773938    0.8755868939306829 O
   0.3456606375924886    0.5281869405773939    0.8755868939306829 O
   0.8456606375924886    0.0281869405773938    0.8755868939306829 O
   0.8456606375924888    0.5281869405773939    0.8755868939306830 O
   0.4043394957624832    0.2218126525746071    0.3755875702854782 O
   0.4043394957624832    0.7218126525746071    0.3755875702854782 O
   0.9043394957624831    0.2218126525746071    0.3755875702854782 O
   0.9043394957624832    0.7218126525746072    0.3755875702854782 O
   0.1543392582453861    0.2781879266456723    0.1244128329379684 O
   0.1543392582453861    0.7781879266456723    0.1244128329379684 O
   0.6543392582453862    0.2781879266456723    0.1244128329379684 O
   0.6543392582453862    0.7781879266456723    0.1244128329379684 O
