Li16 Fe16 P16 O64
1.0
   9.3098344801999993    0.0000000000000000    0.0000000000000000
   0.0000000000000000   11.9415102005999998    0.0000000000000000
   0.0000000000000000    0.0000000000000000   10.2361965178999998
Li Fe P O
15 16 16 64
direct
   0.7500000000000000    0.7500000000000000    0.5000000000000000 Li
   0.0000000000000000    0.0000000000000000    0.0000000000000000 Li
   0.0000000000000000    0.5000000000000000    0.0000000000000000 Li
   0.5000000000000000    0.0000000000000000    0.0000000000000000 Li
   0.5000000000000000    0.5000000000000000    0.0000000000000000 Li
   0.0000000000000000    0.2500000000000000    0.0000000000000000 Li
   0.0000000000000000    0.7500000000000000    0.0000000000000000 Li
   0.5000000000000000    0.2500000000000000    0.0000000000000000 Li
   0.5000000000000000    0.7500000000000000    0.0000000000000000 Li
   0.2500000000000000    0.2500000000000000    0.5000000000000000 Li
   0.2500000000000000    0.7500000000000000    0.5000000000000000 Li
   0.7500000000000000    0.2500000000000000    0.5000000000000000 Li
   0.2500000000000000    0.0000000000000000    0.5000000000000000 Li
   0.2500000000000000    0.5000000000000000    0.5000000000000000 Li
   0.7500000000000000    0.0000000000000000    0.5000000000000000 Li
   0.2649328710000000    0.1250000000000000    0.7811512949999999 Fe
   0.2649328710000000    0.6250000000000000    0.7811512949999999 Fe
   0.7649328710000000    0.1250000000000000    0.7811512949999999 Fe
   0.7649328710000000    0.6250000000000000    0.7811512949999999 Fe
   0.0149328655000000    0.3750000000000000    0.7188487050000000 Fe
   0.0149328655000000    0.8750000000000000    0.7188487050000000 Fe
   0.5149328654999999    0.3750000000000000    0.7188487050000000 Fe
   0.5149328654999999    0.8750000000000000    0.7188487050000000 Fe
   0.4850671290000000    0.1250000000000000    0.2811512649999999 Fe
   0.4850671290000000    0.6250000000000000    0.2811512649999999 Fe
   0.9850671289999999    0.1250000000000000    0.2811512649999999 Fe
   0.9850671289999999    0.6250000000000000    0.2811512649999999 Fe
   0.2350671290000000    0.3750000000000000    0.2188487350000000 Fe
   0.2350671290000000    0.8750000000000000    0.2188487350000000 Fe
   0.7350671289999999    0.3750000000000000    0.2188487350000000 Fe
   0.7350671289999999    0.8750000000000000    0.2188487350000000 Fe
   0.2093112915000000    0.1250000000000000    0.0938663040000000 P
   0.2093112915000000    0.6250000000000000    0.0938663040000000 P
   0.7093112914999999    0.1250000000000000    0.0938663040000000 P
   0.7093112914999999    0.6250000000000000    0.0938663040000000 P
   0.4593112765000000    0.3750000000000000    0.4061337110000000 P
   0.4593112765000000    0.8750000000000000    0.4061337110000000 P
   0.9593112764999999    0.3750000000000000    0.4061337110000000 P
   0.9593112764999999    0.8750000000000000    0.4061337110000000 P
   0.0406887160000000    0.1250000000000000    0.5938662890000000 P
   0.0406887160000000    0.6250000000000000    0.5938662890000000 P
   0.5406887160000000    0.1250000000000000    0.5938662890000000 P
   0.5406887160000000    0.6250000000000000    0.5938662890000000 P
   0.2906887235000000    0.3750000000000000    0.9061337110000000 P
   0.2906887235000000    0.8750000000000000    0.9061337110000000 P
   0.7906887235000000    0.3750000000000000    0.9061337110000000 P
   0.7906887235000000    0.8750000000000000    0.9061337110000000 P
   0.3723932804999999    0.1250000000000000    0.0942306670000000 O
   0.3723932804999999    0.6250000000000000    0.0942306670000000 O
   0.8723932805000000    0.1250000000000000    0.0942306670000000 O
   0.8723932805000000    0.6250000000000000    0.0942306670000000 O
   0.3568676710000000    0.2727790175000000    0.8341545460000001 O
   0.3568676710000000    0.7727790174999999    0.8341545460000001 O
   0.8568676709999999    0.2727790175000000    0.8341545460000001 O
   0.8568676709999999    0.7727790174999999    0.8341545460000001 O
   0.3568676710000000    0.4772209824999999    0.8341545460000001 O
   0.3568676710000000    0.9772209824999999    0.8341545460000001 O
   0.8568676709999999    0.4772209824999999    0.8341545460000001 O
   0.8568676709999999    0.9772209824999999    0.8341545460000001 O
   0.1276067195000000    0.3750000000000000    0.9057693479999999 O
   0.1276067195000000    0.8750000000000000    0.9057693479999999 O
   0.6276067195000000    0.3750000000000000    0.9057693479999999 O
   0.6276067195000000    0.8750000000000000    0.9057693479999999 O
   0.3549322190000000    0.3750000000000000    0.0443085620000000 O
   0.3549322190000000    0.8750000000000000    0.0443085620000000 O
   0.8549322189999999    0.3750000000000000    0.0443085620000000 O
   0.8549322189999999    0.8750000000000000    0.0443085620000000 O
   0.1223932805000000    0.3750000000000000    0.4057693180000000 O
   0.1223932805000000    0.8750000000000000    0.4057693180000000 O
   0.6223932805000000    0.3750000000000000    0.4057693180000000 O
   0.6223932805000000    0.8750000000000000    0.4057693180000000 O
   0.1431323290000000    0.0227790160000000    0.1658454840000000 O
   0.1431323290000000    0.5227790160000000    0.1658454840000000 O
   0.6431323289999999    0.0227790160000000    0.1658454840000000 O
   0.6431323289999999    0.5227790160000000    0.1658454840000000 O
   0.1068676710000000    0.2272209825000000    0.6658454539999999 O
   0.1068676710000000    0.7272209825000000    0.6658454539999999 O
   0.6068676709999999    0.2272209825000000    0.6658454539999999 O
   0.6068676709999999    0.7272209825000000    0.6658454539999999 O
   0.3931323290000000    0.2727790175000000    0.3341545160000000 O
   0.3931323290000000    0.7727790174999999    0.3341545160000000 O
   0.8931323289999999    0.2727790175000000    0.3341545160000000 O
   0.8931323289999999    0.7727790174999999    0.3341545160000000 O
   0.3931323290000000    0.4772209824999999    0.3341545160000000 O
   0.3931323290000000    0.9772209824999999    0.3341545160000000 O
   0.8931323289999999    0.4772209824999999    0.3341545160000000 O
   0.8931323289999999    0.9772209824999999    0.3341545160000000 O
   0.1450677810000000    0.1250000000000000    0.9556914570000000 O
   0.1450677810000000    0.6250000000000000    0.9556914570000000 O
   0.6450677810000000    0.1250000000000000    0.9556914570000000 O
   0.6450677810000000    0.6250000000000000    0.9556914570000000 O
   0.1049322260000000    0.1250000000000000    0.4556914269999999 O
   0.1049322260000000    0.6250000000000000    0.4556914269999999 O
   0.6049322260000000    0.1250000000000000    0.4556914269999999 O
   0.6049322260000000    0.6250000000000000    0.4556914269999999 O
   0.3950677810000000    0.3750000000000000    0.5443085430000000 O
   0.3950677810000000    0.8750000000000000    0.5443085430000000 O
   0.8950677810000000    0.3750000000000000    0.5443085430000000 O
   0.8950677810000000    0.8750000000000000    0.5443085430000000 O
   0.3776067195000000    0.1250000000000000    0.5942306519999999 O
   0.3776067195000000    0.6250000000000000    0.5942306519999999 O
   0.8776067195000000    0.1250000000000000    0.5942306519999999 O
   0.8776067195000000    0.6250000000000000    0.5942306519999999 O
   0.1068676710000000    0.0227790160000000    0.6658454539999999 O
   0.1068676710000000    0.5227790160000000    0.6658454539999999 O
   0.6068676709999999    0.0227790160000000    0.6658454539999999 O
   0.6068676709999999    0.5227790160000000    0.6658454539999999 O
   0.1431323290000000    0.2272209825000000    0.1658454840000000 O
   0.1431323290000000    0.7272209825000000    0.1658454840000000 O
   0.6431323289999999    0.2272209825000000    0.1658454840000000 O
   0.6431323289999999    0.7272209825000000    0.1658454840000000 O
