Mg V32 O80                              
   1.00000000000000     
    22.9718425812306890   -0.0001331740708136    0.0001614030832196
    -0.0000419175547285    7.1602114955037512   -0.0004946595213710
     0.0000718089612549   -0.0002907533834490    9.8003700401404981
   Sr   V    O 
     1    32    80
Direct
  0.3749958079324673  0.1247609993560877  0.5725649484655018
  0.1983554493056420  0.1248980893540794  0.1862159795509327
  0.1998456677517581  0.1250539365247292  0.7046989544864912
  0.1984679029884030  0.6248647423674970  0.1897891217285146
  0.2004344711285163  0.6251138340348377  0.7068248948704843
  0.7000510540017695  0.1248142248731006  0.1940587943258915
  0.6995867084471975  0.1252800543614650  0.6939942865991288
  0.6999208720368769  0.6247853677660451  0.1947137372489016
  0.6993573051965382  0.6252749388222582  0.6941303036279891
  0.3006534200408684  0.3730608181481212  0.2874325378860331
  0.2992709539196343  0.3765289979123206  0.8230444951357275
  0.3006671514475642  0.8765431733085246  0.2873238628317056
  0.2992221459197624  0.8736452325332412  0.8233827732509754
  0.8004974063448785  0.3747841507075895  0.3058316566186260
  0.8005464536108667  0.3753593622595484  0.8029746313495347
  0.8004925015147824  0.8747727213958625  0.3058259380053939
  0.8005411111644853  0.8751686455211573  0.8029733294135756
  0.0499267274202111  0.1247940320509935  0.1940547910208714
  0.0504303351535238  0.1253080015410055  0.6941349129223423
  0.0500496467078350  0.6247815780660667  0.1947497487499148
  0.0506507908339065  0.6253068642775894  0.6942264351645966
  0.5516361592975882  0.1249652610723139  0.1862113022260455
  0.5501711054941539  0.1250806140685259  0.7046192053149195
  0.5515092502403184  0.6249171498751681  0.1897617070411758
  0.5495830708030375  0.6251223947624944  0.7067851705572471
  0.4493347884919233  0.3731110997565951  0.2874237979739240
  0.4507473863201863  0.3765016096771700  0.8229996354271816
  0.4493307213262402  0.8766159805921436  0.2873098193157003
  0.4507932843617488  0.8736281513292669  0.8233520221609956
  0.9494966308344465  0.3747589680830669  0.3058469313416509
  0.9494754695286542  0.3753854127860347  0.8030726180997461
  0.9494911152809116  0.8747797694559877  0.3058434381565315
  0.9494797381862707  0.8751822987828474  0.8030920375741362
  0.1940543293052232  0.1249436206652204  0.0240837322786435
  0.2002856142489221  0.1249288835332205  0.5424185664157143
  0.1948419282685369  0.6247638039932208  0.0275569797167299
  0.2020216159049942  0.6250673383485258  0.5446579027161091
  0.6983454495031872  0.1247679405782834  0.0319270387122831
  0.6962879539498084  0.1251803790459061  0.5319564035328649
  0.6976965052558097  0.6247427473317620  0.0326235136176787
  0.6960966760563334  0.6250941057533130  0.5321007254142502
  0.3074227691878633  0.3575470608871134  0.4518196996548595
  0.3015682096191810  0.3713296186568529  0.9852789352924353
  0.3074727897801171  0.8920112371567253  0.4517112544339033
  0.3013273952564032  0.8787140213685357  0.9856476633063078
  0.8025042398840363  0.3749998430082283  0.4680135330858392
  0.8029406055789327  0.3755601297640637  0.9650726505261052
  0.8025079424243106  0.8748031701101479  0.4680093217352592
  0.8029208960729740  0.8749401570551418  0.9650714910246737
  0.0516241061860689  0.1247518709021192  0.0319190571928255
  0.0537294295734285  0.1251811021656739  0.5320930229580336
  0.0522888879704122  0.6247540141659188  0.0326600912027747
  0.0538957546238556  0.6251817961739513  0.5321948531618546
  0.5559569938409090  0.1250122437580115  0.0240832638163378
  0.5497201468443281  0.1249731846300029  0.5423468367357404
  0.5551344873868959  0.6248249857526119  0.0275303705131606
  0.5479964203006444  0.6250282445614805  0.5446226704350701
  0.4425630264875021  0.3575944423261416  0.4518115573298911
  0.4484314197497603  0.3713294754177990  0.9852326665101425
  0.4425281745946779  0.8921097342269798  0.4516963346140491
  0.4486850014530023  0.8786797340649126  0.9856143379496896
  0.9474852965383750  0.3749405673271844  0.4680258394429661
  0.9470536246324452  0.3756362012333381  0.9651711396540312
  0.9474767231574006  0.8748359184436899  0.4680230698980814
  0.9470682884444803  0.8749272723644931  0.9651927364146721
  0.2855094366156619  0.1248902399798596  0.2338329518861709
  0.2881330147811799  0.1250011011722121  0.7567873008286981
  0.2843627345460850  0.6247925683439496  0.2465621762580525
  0.2861012802533742  0.6251498061593164  0.7711840479359268
  0.7844102302901070  0.1247961290768063  0.2552169575946201
  0.7841320940149299  0.1252584154192611  0.7526461672294781
  0.7843047819484951  0.6247635336714188  0.2551184296103222
  0.7840627811098865  0.6252498078072268  0.7524762558558008
  0.2154340962516594  0.3738001204704314  0.2383564248565105
  0.2166198714598610  0.3737261174660130  0.7587313453053022
  0.2154579224010856  0.8759219884668921  0.2382468652437990
  0.2165889644494788  0.8764939240714346  0.7588044817729609
  0.7155523478710252  0.3748078421536097  0.2452321928545898
  0.7152470208746234  0.3753913983858285  0.7440599426380179
  0.7155674368213550  0.8748263513085303  0.2452201558027737
  0.7152400146534669  0.8752004496312425  0.7440284675362774
  0.4644723060328644  0.1249462984723129  0.2337936557603581
  0.4618832887325195  0.1249954264423526  0.7567685155618959
  0.4656169358910174  0.6248531042111601  0.2465556167333818
  0.4639114886256827  0.6251284282790982  0.7711436578484576
  0.9655832094291004  0.1247793184163751  0.2552099656785312
  0.9659038389371449  0.1252586436308663  0.7527929823885394
  0.9656919400760741  0.6247657800308533  0.2551693705870405
  0.9659680930327595  0.6252841300533120  0.7525744413521609
  0.0344325378470528  0.3747782617685218  0.2452593151733146
  0.0347779244261217  0.3753848071943630  0.7441879310397961
  0.0344178412433915  0.8748365194676703  0.2452513733621649
  0.0347925107084210  0.8752286585285108  0.7442035574808084
  0.5345439161062030  0.3738791034232597  0.2383389255386204
  0.5333889391099569  0.3737005694366893  0.7586766388028390
  0.5345221466287214  0.8759832201501802  0.2382298458285646
  0.5334165886088239  0.8765244518620036  0.7587165453577999
  0.1251077231658186  0.1247989456874659  0.2456555346740472
  0.1250933420108961  0.1255039686799252  0.7504312906853856
  0.1251895249211305  0.6249447740710766  0.2480486930708810
  0.1254461666792676  0.6253804241198183  0.7504692580487968
  0.6248728569137635  0.1248540611950122  0.2457151446865811
  0.6249329476178936  0.1254524321774678  0.7503011295909680
  0.6247818872657271  0.6249977669237502  0.2480213370913104
  0.6245648076116257  0.6253777239641765  0.7504298103783478
  0.3749881841264076  0.3765947882267042  0.2332346838975316
  0.3749958745724741  0.3728198046005696  0.7648567767497466
  0.3749886403935051  0.8730843156005517  0.2330793294177960
  0.3749987625659198  0.8772904979696693  0.7656292941612500
  0.8750028168035563  0.3748819774640051  0.2523706299749306
  0.8750255618549170  0.3751331519392608  0.7492586343549261
  0.8749965547678443  0.8744520783229828  0.2523207896253525
  0.8750215098374285  0.8749334539116392  0.7493200841532820
 
  0.00000000E+00  0.00000000E+00  0.00000000E+00
  0.00000000E+00  0.00000000E+00  0.00000000E+00
  0.00000000E+00  0.00000000E+00  0.00000000E+00
  0.00000000E+00  0.00000000E+00  0.00000000E+00
  0.00000000E+00  0.00000000E+00  0.00000000E+00
  0.00000000E+00  0.00000000E+00  0.00000000E+00
  0.00000000E+00  0.00000000E+00  0.00000000E+00
  0.00000000E+00  0.00000000E+00  0.00000000E+00
  0.00000000E+00  0.00000000E+00  0.00000000E+00
  0.00000000E+00  0.00000000E+00  0.00000000E+00
  0.00000000E+00  0.00000000E+00  0.00000000E+00
  0.00000000E+00  0.00000000E+00  0.00000000E+00
  0.00000000E+00  0.00000000E+00  0.00000000E+00
  0.00000000E+00  0.00000000E+00  0.00000000E+00
  0.00000000E+00  0.00000000E+00  0.00000000E+00
  0.00000000E+00  0.00000000E+00  0.00000000E+00
  0.00000000E+00  0.00000000E+00  0.00000000E+00
  0.00000000E+00  0.00000000E+00  0.00000000E+00
  0.00000000E+00  0.00000000E+00  0.00000000E+00
  0.00000000E+00  0.00000000E+00  0.00000000E+00
  0.00000000E+00  0.00000000E+00  0.00000000E+00
  0.00000000E+00  0.00000000E+00  0.00000000E+00
  0.00000000E+00  0.00000000E+00  0.00000000E+00
  0.00000000E+00  0.00000000E+00  0.00000000E+00
  0.00000000E+00  0.00000000E+00  0.00000000E+00
  0.00000000E+00  0.00000000E+00  0.00000000E+00
  0.00000000E+00  0.00000000E+00  0.00000000E+00
  0.00000000E+00  0.00000000E+00  0.00000000E+00
  0.00000000E+00  0.00000000E+00  0.00000000E+00
  0.00000000E+00  0.00000000E+00  0.00000000E+00
  0.00000000E+00  0.00000000E+00  0.00000000E+00
  0.00000000E+00  0.00000000E+00  0.00000000E+00
  0.00000000E+00  0.00000000E+00  0.00000000E+00
  0.00000000E+00  0.00000000E+00  0.00000000E+00
  0.00000000E+00  0.00000000E+00  0.00000000E+00
  0.00000000E+00  0.00000000E+00  0.00000000E+00
  0.00000000E+00  0.00000000E+00  0.00000000E+00
  0.00000000E+00  0.00000000E+00  0.00000000E+00
  0.00000000E+00  0.00000000E+00  0.00000000E+00
  0.00000000E+00  0.00000000E+00  0.00000000E+00
  0.00000000E+00  0.00000000E+00  0.00000000E+00
  0.00000000E+00  0.00000000E+00  0.00000000E+00
  0.00000000E+00  0.00000000E+00  0.00000000E+00
  0.00000000E+00  0.00000000E+00  0.00000000E+00
  0.00000000E+00  0.00000000E+00  0.00000000E+00
  0.00000000E+00  0.00000000E+00  0.00000000E+00
  0.00000000E+00  0.00000000E+00  0.00000000E+00
  0.00000000E+00  0.00000000E+00  0.00000000E+00
  0.00000000E+00  0.00000000E+00  0.00000000E+00
  0.00000000E+00  0.00000000E+00  0.00000000E+00
  0.00000000E+00  0.00000000E+00  0.00000000E+00
  0.00000000E+00  0.00000000E+00  0.00000000E+00
  0.00000000E+00  0.00000000E+00  0.00000000E+00
  0.00000000E+00  0.00000000E+00  0.00000000E+00
  0.00000000E+00  0.00000000E+00  0.00000000E+00
  0.00000000E+00  0.00000000E+00  0.00000000E+00
  0.00000000E+00  0.00000000E+00  0.00000000E+00
  0.00000000E+00  0.00000000E+00  0.00000000E+00
  0.00000000E+00  0.00000000E+00  0.00000000E+00
  0.00000000E+00  0.00000000E+00  0.00000000E+00
  0.00000000E+00  0.00000000E+00  0.00000000E+00
  0.00000000E+00  0.00000000E+00  0.00000000E+00
  0.00000000E+00  0.00000000E+00  0.00000000E+00
  0.00000000E+00  0.00000000E+00  0.00000000E+00
  0.00000000E+00  0.00000000E+00  0.00000000E+00
  0.00000000E+00  0.00000000E+00  0.00000000E+00
  0.00000000E+00  0.00000000E+00  0.00000000E+00
  0.00000000E+00  0.00000000E+00  0.00000000E+00
  0.00000000E+00  0.00000000E+00  0.00000000E+00
  0.00000000E+00  0.00000000E+00  0.00000000E+00
  0.00000000E+00  0.00000000E+00  0.00000000E+00
  0.00000000E+00  0.00000000E+00  0.00000000E+00
  0.00000000E+00  0.00000000E+00  0.00000000E+00
  0.00000000E+00  0.00000000E+00  0.00000000E+00
  0.00000000E+00  0.00000000E+00  0.00000000E+00
  0.00000000E+00  0.00000000E+00  0.00000000E+00
  0.00000000E+00  0.00000000E+00  0.00000000E+00
  0.00000000E+00  0.00000000E+00  0.00000000E+00
  0.00000000E+00  0.00000000E+00  0.00000000E+00
  0.00000000E+00  0.00000000E+00  0.00000000E+00
  0.00000000E+00  0.00000000E+00  0.00000000E+00
  0.00000000E+00  0.00000000E+00  0.00000000E+00
  0.00000000E+00  0.00000000E+00  0.00000000E+00
  0.00000000E+00  0.00000000E+00  0.00000000E+00
  0.00000000E+00  0.00000000E+00  0.00000000E+00
  0.00000000E+00  0.00000000E+00  0.00000000E+00
  0.00000000E+00  0.00000000E+00  0.00000000E+00
  0.00000000E+00  0.00000000E+00  0.00000000E+00
  0.00000000E+00  0.00000000E+00  0.00000000E+00
  0.00000000E+00  0.00000000E+00  0.00000000E+00
  0.00000000E+00  0.00000000E+00  0.00000000E+00
  0.00000000E+00  0.00000000E+00  0.00000000E+00
  0.00000000E+00  0.00000000E+00  0.00000000E+00
  0.00000000E+00  0.00000000E+00  0.00000000E+00
  0.00000000E+00  0.00000000E+00  0.00000000E+00
  0.00000000E+00  0.00000000E+00  0.00000000E+00
  0.00000000E+00  0.00000000E+00  0.00000000E+00
  0.00000000E+00  0.00000000E+00  0.00000000E+00
  0.00000000E+00  0.00000000E+00  0.00000000E+00
  0.00000000E+00  0.00000000E+00  0.00000000E+00
  0.00000000E+00  0.00000000E+00  0.00000000E+00
  0.00000000E+00  0.00000000E+00  0.00000000E+00
  0.00000000E+00  0.00000000E+00  0.00000000E+00
  0.00000000E+00  0.00000000E+00  0.00000000E+00
  0.00000000E+00  0.00000000E+00  0.00000000E+00
  0.00000000E+00  0.00000000E+00  0.00000000E+00
  0.00000000E+00  0.00000000E+00  0.00000000E+00
  0.00000000E+00  0.00000000E+00  0.00000000E+00
  0.00000000E+00  0.00000000E+00  0.00000000E+00
  0.00000000E+00  0.00000000E+00  0.00000000E+00
  0.00000000E+00  0.00000000E+00  0.00000000E+00
  0.00000000E+00  0.00000000E+00  0.00000000E+00
  0.00000000E+00  0.00000000E+00  0.00000000E+00
