Ca1 Ni16 F48                            
   1.00000000000000     
    10.4530840000000005   -0.0000870000000000   -0.0274730000000000
    -0.0001750000000000    7.2693269999999997   -0.0058760000000000
    -0.0256250000000000    0.0133310000000000   10.0662649999999996
   Ca   Ni   F 
     1    16    48
Direct
  0.4954602198178510  0.9195678812423106  0.4908251290512176
  0.9993481856571851  0.5003713761034658  0.2483033172800818
  1.0006073995153462  0.5001366237426133  0.7514448260561349
  0.4996042891071139  0.5030793191705705  0.2452402489070900
  0.5001742228978748  0.4944155672076514  0.7543932572597490
  0.2428535316930635  0.9974878288045393 -0.0025341572625300
  0.2284067487299017  0.0103449356796087  0.4950258598215159
  0.7570261211008437  0.0027138155001992  1.0027835350799390
  0.7710014105003048  1.0015114708859358  0.5058105455974046
  0.9964594714080259  0.0008320548398434  0.2429188216776654
  1.0038114122836992  0.9996211582002583  0.7568522561039305
  0.4952007125438216  0.0146446304218811  0.2236820839033081
  0.5045446914802720 -0.0039884673056820  0.7745810369369012
  0.2480939023963329  0.4975377237077203 -0.0007994737958612
  0.2486646786286009  0.5024745309506091  0.4991973205451746
  0.7518269835829451  0.5028089383813239  1.0006489669889975
  0.7513319909977629  0.4989304702743407  0.5003017484233789
  0.4930749321766608  0.2618344161478088  0.1743550229135430
  0.4965675995874070  0.2378523558739312  0.6987894701937271
  0.9842231360670916  0.2469616955156241  0.1885892685120293
  0.9890703014031571  0.2442014195175167  0.6977733961184258
  0.2336214141984387  0.2516335732069962  0.0570417192117040
  0.2363428138435851  0.2581708434781383  0.5554888980378748
  0.7433102039046992  0.2566844189562808  0.0603387229948873
  0.7395754139432889  0.2533011144241011  0.5557191764205573
  0.0111753635414178  0.7563376436218480  0.3023668492592524
  0.0158639950629223  0.7533870529909706  0.8111921603069676
  0.5037181482639779  0.7614102732262102  0.2994398445384169
  0.5066341941055374  0.7442027118199558  0.8215456374503783
  0.2662635400607085  0.7537811826345761  0.4466114030431015
  0.2569497165675032  0.7434636844672845  0.9399027202636060
  0.7587886931828183  0.7469916335281309  0.4464173298340469
  0.7661956699732879  0.7489967337849353  0.9429593701178648
  0.3448138885378357  0.5569324899067761  0.1488647592555706
  0.3508301938919796  0.5556488673378894  0.6491717206856672
  0.8471796925631332  0.5598797318677592  0.1513071694689428
  0.8484347720567429  0.5543155451885102  0.6519202947358890
  0.0909247959523261  0.9409430340939839  0.0904640510556968
  0.0925584483502181  0.9371183381693470  0.6028818831839069
  0.6051917010973907  0.9399987422483878  0.0895134679070297
  0.6350759226895840  0.9285392164930425  0.6412273531471037
  0.1402263367315958  0.0621058727143910  0.3350205400584006
  0.1542962359919491  0.0608743079711180  0.8427339147237919
  0.6411406164794202  0.0547851801270406  0.3584111450913650
  0.6566231725964797  0.0686244470654240  0.8617393817635701
  0.3993869656655492  0.4514145177052773  0.4034672409736103
  0.3964973424993331  0.4370256198959329  0.9062919637310090
  0.8994163940638418  0.4465108830752599  0.4045500150117269
  0.9002868774106069  0.4457434719423048  0.9068339801467544
  0.1516118160987785  0.4475610053033826  0.3478978057050568
  0.1528655362071423  0.4404545905270705  0.8484653878389585
  0.6502950451629552  0.4470517090502124  0.3495981902972468
  0.6551206415539458  0.4438955060304379  0.8507949188364168
  0.3712211195366099  0.0829492997506302  0.3670277104780296
  0.3949485439074800  0.0612904297871269  0.9111475175387614
  0.9082872854843438  0.0643663598680850  0.3966473070884995
  0.9088647277641488  0.0588920707134004  0.9094142785399010
  0.3427284224957203  0.9343229036950742  0.1400294492904344
  0.3544074360677769  0.9491234927449020  0.6490231948038786
  0.8457002854960370  0.9393639955104109  0.1576083711415094
  0.8614508921313654  0.9386796789158920  0.6630414401032264
  0.0997353544522050  0.5545794715241836  0.0929419837002406
  0.1005917570144079  0.5555931381434421  0.5954021081317995
  0.6036687110150811  0.5636830597745821  0.0938335666839110
  0.5997637120992042  0.5554114254250258  0.5955448058067239
 
             NaN             NaN             NaN
             NaN             NaN             NaN
             NaN             NaN             NaN
             NaN             NaN             NaN
             NaN             NaN             NaN
             NaN             NaN             NaN
             NaN             NaN             NaN
             NaN             NaN             NaN
             NaN             NaN             NaN
             NaN             NaN             NaN
             NaN             NaN             NaN
             NaN             NaN             NaN
             NaN             NaN             NaN
             NaN             NaN             NaN
             NaN             NaN             NaN
             NaN             NaN             NaN
             NaN             NaN             NaN
             NaN             NaN             NaN
             NaN             NaN             NaN
             NaN             NaN             NaN
             NaN             NaN             NaN
             NaN             NaN             NaN
             NaN             NaN             NaN
             NaN             NaN             NaN
             NaN             NaN             NaN
             NaN             NaN             NaN
             NaN             NaN             NaN
             NaN             NaN             NaN
             NaN             NaN             NaN
             NaN             NaN             NaN
             NaN             NaN             NaN
             NaN             NaN             NaN
             NaN             NaN             NaN
             NaN             NaN             NaN
             NaN             NaN             NaN
             NaN             NaN             NaN
             NaN             NaN             NaN
             NaN             NaN             NaN
             NaN             NaN             NaN
             NaN             NaN             NaN
             NaN             NaN             NaN
             NaN             NaN             NaN
             NaN             NaN             NaN
             NaN             NaN             NaN
             NaN             NaN             NaN
             NaN             NaN             NaN
             NaN             NaN             NaN
             NaN             NaN             NaN
             NaN             NaN             NaN
             NaN             NaN             NaN
             NaN             NaN             NaN
             NaN             NaN             NaN
             NaN             NaN             NaN
             NaN             NaN             NaN
             NaN             NaN             NaN
             NaN             NaN             NaN
             NaN             NaN             NaN
             NaN             NaN             NaN
             NaN             NaN             NaN
             NaN             NaN             NaN
             NaN             NaN             NaN
             NaN             NaN             NaN
             NaN             NaN             NaN
             NaN             NaN             NaN
             NaN             NaN             NaN
