Ca1 Ni16 F48
1.0
10.453084 -0.000087 -0.027473
-0.000175 7.269327 -0.005876
-0.025625 0.013331 10.066265
Ca Ni F
1 16 48
direct
0.493220 -0.062440 0.502009 Ca
-0.000175 0.499909 0.246920 Ni
-0.000213 0.500079 0.752723 Ni
0.501352 0.497715 0.238864 Ni
0.499191 0.499030 0.762077 Ni
0.246667 0.999603 1.000647 Ni
0.240323 1.002907 0.500297 Ni
0.753427 0.000522 0.999664 Ni
0.758624 0.999932 0.499005 Ni
-0.000085 0.000323 0.247025 Ni
-0.000237 0.999677 0.752603 Ni
0.501249 1.001346 0.239671 Ni
0.499344 1.001585 0.761113 Ni
0.246813 0.500178 1.000779 Ni
0.241317 0.497396 0.500248 Ni
0.753247 0.499762 0.999584 Ni
0.757550 0.499981 0.499179 Ni
0.484135 0.248550 0.189773 F
0.483457 0.249420 0.706632 F
0.986570 0.248109 0.191857 F
0.987701 0.247812 0.697957 F
0.233698 0.252180 0.055645 F
0.241745 0.251032 0.556197 F
0.741227 0.252225 0.055930 F
0.745571 0.251126 0.553629 F
0.012320 0.752111 0.302209 F
0.012681 0.751969 0.807546 F
0.517237 0.750391 0.292362 F
0.515508 0.751517 0.808323 F
0.255379 0.749239 0.446747 F
0.259856 0.747544 0.944828 F
0.754045 0.748651 0.445132 F
0.765263 0.748077 0.944313 F
0.344014 0.555410 0.151591 F
0.351129 0.558237 0.650895 F
0.846782 0.555999 0.153292 F
0.849964 0.556407 0.654482 F
0.095111 0.944225 0.094412 F
0.092509 0.945163 0.598736 F
0.600314 0.946839 0.089568 F
0.600584 0.960633 0.600420 F
0.149395 0.057067 0.341547 F
0.151794 0.054200 0.844427 F
0.649356 0.057286 0.346587 F
0.654437 0.057326 0.848505 F
0.400490 0.462151 0.402093 F
0.398992 0.444723 0.912734 F
0.905303 0.447174 0.401951 F
0.903636 0.444792 0.907168 F
0.149634 0.442810 0.344052 F
0.153423 0.445250 0.846642 F
0.650141 0.442001 0.348418 F
0.656350 0.443127 0.849120 F
0.401148 0.037700 0.401439 F
0.399658 0.054433 0.910794 F
0.907135 0.054601 0.400933 F
0.904952 0.055357 0.905599 F
0.346272 0.944206 0.152322 F
0.351699 0.942300 0.652065 F
0.848210 0.944609 0.155251 F
0.850455 0.943796 0.657372 F
0.096355 0.555851 0.092764 F
0.094125 0.553000 0.597689 F
0.600983 0.553956 0.087904 F
0.601077 0.539413 0.599779 F
