Mg8 Mo48 Se64
1.0
  13.0289283282820882    0.0000000000000000    0.0841383175993658
   0.0835967229025973   13.0286601372294424    0.0841383175993658
   0.0000000000000000    0.0000000000000000   13.0291999999999977
Mg Mo Se
1 48 64
direct
   0.5000000000000000    0.5000000000000000    0.4999999999999999 Mg2+
   0.2201150000000000    0.3871600000000000    0.2911299999999999 Mo2+
   0.2201150000000000    0.3871600000000000    0.7911299999999999 Mo2+
   0.2201150000000000    0.8871600000000001    0.2911299999999999 Mo2+
   0.2201150000000000    0.8871600000000001    0.7911300000000000 Mo2+
   0.7201150000000001    0.3871600000000000    0.2911299999999999 Mo2+
   0.7201150000000001    0.3871600000000000    0.7911300000000000 Mo2+
   0.7201149999999999    0.8871600000000001    0.2911299999999999 Mo2+
   0.7201149999999999    0.8871600000000001    0.7911299999999999 Mo2+
   0.2911299999999999    0.2201150000000000    0.3871600000000000 Mo2+
   0.2911299999999999    0.2201150000000000    0.8871599999999999 Mo2+
   0.2911300000000000    0.7201149999999999    0.3871600000000000 Mo2+
   0.2911300000000000    0.7201149999999999    0.8871600000000001 Mo2+
   0.7911300000000000    0.2201150000000000    0.3871600000000000 Mo2+
   0.7911300000000000    0.2201150000000000    0.8871600000000001 Mo2+
   0.7911299999999999    0.7201149999999999    0.3871600000000000 Mo2+
   0.7911299999999999    0.7201149999999999    0.8871599999999999 Mo2+
   0.3871600000000000    0.2911300000000000    0.2201150000000000 Mo2+
   0.3871600000000000    0.2911300000000000    0.7201150000000001 Mo2+
   0.3871599999999999    0.7911300000000000    0.2201150000000000 Mo2+
   0.3871599999999999    0.7911300000000000    0.7201149999999999 Mo2+
   0.8871599999999999    0.2911300000000000    0.2201150000000000 Mo2+
   0.8871599999999999    0.2911300000000000    0.7201149999999999 Mo2+
   0.8871599999999998    0.7911300000000000    0.2201150000000000 Mo2+
   0.8871599999999998    0.7911300000000000    0.7201149999999999 Mo2+
   0.2798849999999999    0.1128400000000000    0.2088700000000000 Mo2+
   0.2798849999999999    0.1128400000000000    0.7088700000000000 Mo2+
   0.2798850000000000    0.6128400000000001    0.2088700000000000 Mo2+
   0.2798850000000000    0.6128400000000001    0.7088699999999999 Mo2+
   0.7798849999999999    0.1128400000000000    0.2088700000000000 Mo2+
   0.7798849999999999    0.1128400000000000    0.7088699999999999 Mo2+
   0.7798849999999999    0.6128400000000001    0.2088700000000000 Mo2+
   0.7798849999999999    0.6128400000000001    0.7088700000000000 Mo2+
   0.2088700000000000    0.2798850000000000    0.1128400000000000 Mo2+
   0.2088700000000000    0.2798850000000000    0.6128400000000001 Mo2+
   0.2088700000000000    0.7798849999999999    0.1128400000000000 Mo2+
   0.2088700000000000    0.7798849999999999    0.6128399999999999 Mo2+
   0.7088700000000000    0.2798850000000000    0.1128400000000000 Mo2+
   0.7088700000000000    0.2798850000000000    0.6128399999999999 Mo2+
   0.7088700000000000    0.7798849999999999    0.1128400000000000 Mo2+
   0.7088700000000000    0.7798849999999999    0.6128399999999999 Mo2+
   0.1128400000000000    0.2088700000000000    0.2798850000000000 Mo2+
   0.1128400000000000    0.2088700000000000    0.7798849999999999 Mo2+
   0.1128400000000000    0.7088700000000001    0.2798849999999999 Mo2+
   0.1128400000000000    0.7088700000000001    0.7798849999999999 Mo2+
   0.6128400000000001    0.2088700000000000    0.2798849999999999 Mo2+
   0.6128400000000001    0.2088700000000000    0.7798849999999999 Mo2+
   0.6128399999999998    0.7088700000000001    0.2798849999999999 Mo2+
   0.6128399999999998    0.7088700000000001    0.7798849999999999 Mo2+
   0.1277500000000000    0.3108500000000000    0.4365499999999999 Se2-
   0.1277500000000000    0.3108500000000000    0.9365499999999999 Se2-
   0.1277499999999999    0.8108500000000000    0.4365500000000000 Se2-
   0.1277499999999999    0.8108500000000000    0.9365500000000000 Se2-
   0.6277499999999999    0.3108500000000000    0.4365500000000000 Se2-
   0.6277499999999999    0.3108500000000000    0.9365500000000000 Se2-
   0.6277500000000000    0.8108500000000000    0.4365499999999999 Se2-
   0.6277500000000000    0.8108500000000000    0.9365499999999999 Se2-
   0.4365500000000000    0.1277500000000000    0.3108499999999999 Se2-
   0.4365500000000000    0.1277500000000000    0.8108500000000000 Se2-
   0.4365500000000000    0.6277499999999999    0.3108500000000000 Se2-
   0.4365500000000000    0.6277499999999999    0.8108499999999998 Se2-
   0.9365500000000001    0.1277500000000000    0.3108500000000000 Se2-
   0.9365500000000001    0.1277500000000000    0.8108499999999998 Se2-
   0.9365500000000000    0.6277499999999999    0.3108499999999999 Se2-
   0.9365500000000000    0.6277499999999999    0.8108500000000000 Se2-
   0.3108500000000000    0.4365500000000000    0.1277500000000000 Se2-
   0.3108500000000000    0.4365500000000000    0.6277499999999999 Se2-
   0.3108499999999999    0.9365500000000001    0.1277500000000000 Se2-
   0.3108499999999999    0.9365500000000001    0.6277500000000000 Se2-
   0.8108499999999998    0.4365500000000000    0.1277500000000000 Se2-
   0.8108499999999998    0.4365500000000000    0.6277500000000000 Se2-
   0.8108500000000000    0.9365500000000001    0.1277500000000000 Se2-
   0.8108500000000000    0.9365500000000001    0.6277499999999999 Se2-
   0.3722500000000000    0.1891500000000000    0.0634500000000000 Se2-
   0.3722500000000000    0.1891500000000000    0.5634500000000000 Se2-
   0.3722500000000000    0.6891500000000000    0.0634500000000000 Se2-
   0.3722500000000000    0.6891500000000000    0.5634500000000000 Se2-
   0.8722500000000001    0.1891500000000000    0.0634500000000000 Se2-
   0.8722500000000001    0.1891500000000000    0.5634500000000000 Se2-
   0.8722500000000000    0.6891500000000000    0.0634500000000000 Se2-
   0.8722500000000000    0.6891500000000000    0.5634500000000000 Se2-
   0.0634500000000000    0.3722500000000000    0.1891500000000000 Se2-
   0.0634500000000000    0.3722500000000000    0.6891499999999999 Se2-
   0.0634500000000000    0.8722500000000000    0.1891500000000000 Se2-
   0.0634500000000000    0.8722500000000000    0.6891500000000000 Se2-
   0.5634500000000000    0.3722500000000000    0.1891500000000000 Se2-
   0.5634500000000000    0.3722500000000000    0.6891500000000000 Se2-
   0.5634500000000000    0.8722500000000000    0.1891500000000000 Se2-
   0.5634500000000000    0.8722500000000000    0.6891500000000000 Se2-
   0.1891500000000000    0.0634500000000000    0.3722500000000000 Se2-
   0.1891500000000000    0.0634500000000000    0.8722500000000001 Se2-
   0.1891500000000000    0.5634500000000000    0.3722500000000000 Se2-
   0.1891500000000000    0.5634500000000000    0.8722500000000000 Se2-
   0.6891500000000000    0.0634500000000000    0.3722500000000000 Se2-
   0.6891500000000000    0.0634500000000000    0.8722500000000000 Se2-
   0.6891499999999998    0.5634500000000000    0.3722500000000000 Se2-
   0.6891499999999998    0.5634500000000000    0.8722500000000000 Se2-
   0.3804500000000000    0.3804500000000000    0.3804500000000000 Se2-
   0.3804500000000000    0.3804500000000000    0.8804500000000000 Se2-
   0.3804500000000000    0.8804500000000000    0.3804500000000000 Se2-
   0.3804500000000000    0.8804500000000000    0.8804500000000001 Se2-
   0.8804500000000000    0.3804500000000000    0.3804500000000000 Se2-
   0.8804500000000000    0.3804500000000000    0.8804500000000001 Se2-
   0.8804500000000001    0.8804500000000000    0.3804500000000000 Se2-
   0.8804500000000001    0.8804500000000000    0.8804500000000000 Se2-
   0.1195500000000000    0.1195500000000000    0.1195500000000000 Se2-
   0.1195500000000000    0.1195500000000000    0.6195500000000000 Se2-
   0.1195500000000000    0.6195500000000000    0.1195500000000000 Se2-
   0.1195500000000000    0.6195500000000000    0.6195499999999999 Se2-
   0.6195499999999999    0.1195500000000000    0.1195500000000000 Se2-
   0.6195499999999999    0.1195500000000000    0.6195499999999999 Se2-
   0.6195500000000000    0.6195500000000000    0.1195500000000000 Se2-
   0.6195500000000000    0.6195500000000000    0.6195499999999999 Se2-
