Mg8 In16 Se32
1.0
  11.4587900000000005    0.0000000000000000    0.0000000000000007
   0.0000000000000018   11.4587900000000005    0.0000000000000007
   0.0000000000000000    0.0000000000000000   11.4587900000000005
Mg In Se
7 16 32
direct
   0.2500000000000000    0.7500000000000000    0.7500000000000000 Mg2+
   0.5000000000000000    0.0000000000000000    0.5000000000000000 Mg2+
   0.2500000000000000    0.2500000000000000    0.2500000000000000 Mg2+
   0.0000000000000000    0.0000000000000000    0.0000000000000000 Mg2+
   0.7500000000000000    0.2500000000000000    0.7500000000000000 Mg2+
   0.0000000000000000    0.5000000000000000    0.5000000000000000 Mg2+
   0.7500000000000000    0.7500000000000000    0.2500000000000000 Mg2+
   0.3750000000000000    0.8750000000000000    0.1250000000000000 In3+
   0.3750000000000000    0.6250000000000000    0.3750000000000000 In3+
   0.1250000000000000    0.8750000000000000    0.3750000000000000 In3+
   0.1250000000000000    0.6250000000000000    0.1250000000000000 In3+
   0.3750000000000000    0.3750000000000000    0.6250000000000000 In3+
   0.3750000000000000    0.1250000000000000    0.8750000000000000 In3+
   0.1250000000000000    0.3750000000000000    0.8750000000000000 In3+
   0.1250000000000000    0.1250000000000000    0.6250000000000000 In3+
   0.8750000000000000    0.8750000000000000    0.6250000000000000 In3+
   0.8750000000000000    0.6250000000000000    0.8750000000000000 In3+
   0.6250000000000000    0.8750000000000000    0.8750000000000000 In3+
   0.6250000000000000    0.6250000000000000    0.6250000000000000 In3+
   0.8750000000000000    0.3750000000000000    0.1250000000000000 In3+
   0.8750000000000000    0.1250000000000000    0.3750000000000000 In3+
   0.6250000000000000    0.3750000000000000    0.3750000000000000 In3+
   0.6250000000000000    0.1250000000000000    0.1250000000000000 In3+
   0.3821889999999999    0.3821889999999999    0.3821889999999999 Se2-
   0.3821889999999999    0.1178110000000001    0.1178110000000001 Se2-
   0.1178110000000001    0.3821889999999999    0.1178110000000001 Se2-
   0.1178110000000001    0.1178110000000001    0.3821889999999999 Se2-
   0.1321889999999999    0.8678110000000001    0.1321889999999999 Se2-
   0.6321889999999999    0.1321889999999999    0.3678110000000001 Se2-
   0.8678110000000001    0.1321889999999999    0.1321889999999999 Se2-
   0.3678110000000001    0.8678110000000001    0.3678110000000001 Se2-
   0.3821889999999999    0.8821889999999999    0.8821889999999999 Se2-
   0.3821889999999999    0.6178110000000001    0.6178110000000001 Se2-
   0.1178110000000001    0.8821889999999999    0.6178110000000001 Se2-
   0.1178110000000001    0.6178110000000001    0.8821889999999999 Se2-
   0.1321889999999999    0.3678110000000001    0.6321889999999999 Se2-
   0.6321889999999999    0.6321889999999999    0.8678110000000001 Se2-
   0.8678110000000001    0.6321889999999999    0.6321889999999999 Se2-
   0.3678110000000001    0.3678110000000001    0.8678110000000001 Se2-
   0.8821889999999999    0.3821889999999999    0.8821889999999999 Se2-
   0.8821889999999999    0.1178110000000001    0.6178110000000001 Se2-
   0.6178110000000001    0.3821889999999999    0.6178110000000001 Se2-
   0.6178110000000001    0.1178110000000001    0.8821889999999999 Se2-
   0.6321889999999999    0.8678110000000001    0.6321889999999999 Se2-
   0.1321889999999999    0.1321889999999999    0.8678110000000001 Se2-
   0.3678110000000001    0.1321889999999999    0.6321889999999999 Se2-
   0.8678110000000001    0.8678110000000001    0.8678110000000001 Se2-
   0.8821889999999999    0.8821889999999999    0.3821889999999999 Se2-
   0.8821889999999999    0.6178110000000001    0.1178110000000001 Se2-
   0.6178110000000001    0.8821889999999999    0.1178110000000001 Se2-
   0.6178110000000001    0.6178110000000001    0.3821889999999999 Se2-
   0.6321889999999999    0.3678110000000001    0.1321889999999999 Se2-
   0.1321889999999999    0.6321889999999999    0.3678110000000001 Se2-
   0.3678110000000001    0.6321889999999999    0.1321889999999999 Se2-
   0.8678110000000001    0.3678110000000001    0.3678110000000001 Se2-
