Li32 Ti32 S64
1.0
  11.3069999457737147   -0.0000004742880966   -0.0000000801228050
  -0.0000004651674716   11.3070692944136013    0.0000006834286338
  -0.0000001592090766    0.0000014346500960   21.5105469440414367
Li Ti S
31 32 64
direct
   0.5000000004539782    0.5000000038130397    0.4999998000488977 Li
   0.4999999951018056    0.2499999926585538    0.1250059168977609 Li
   0.4999999951018056    0.7499999926585538    0.1250059168977609 Li
   0.4999999951018055    0.7499999926585538    0.6250059168977609 Li
   0.9999999951018056    0.2499999926585538    0.1250059168977609 Li
   0.9999999951018057    0.2499999926585538    0.6250059168977609 Li
   0.9999999951018057    0.7499999926585538    0.1250059168977609 Li
   0.9999999951018056    0.7499999926585537    0.6250059168977609 Li
   0.5000000004539782    0.0000000038130397    0.9999998000488977 Li
   0.5000000004539782    0.0000000038130397    0.4999998000488977 Li
   0.5000000004539782    0.5000000038130397    0.9999998000488977 Li
   0.0000000004539782    0.0000000038130397    0.9999998000488977 Li
   0.0000000004539782    0.0000000038130397    0.4999998000488977 Li
   0.0000000004539782    0.5000000038130398    0.9999998000488977 Li
   0.0000000004539782    0.5000000038130398    0.4999998000488977 Li
   0.2500000013273833    0.4999999955748970    0.3749947704900449 Li
   0.2500000013273833    0.4999999955748970    0.8749947704900450 Li
   0.2500000013273834    0.9999999955748969    0.3749947704900450 Li
   0.2500000013273834    0.9999999955748969    0.8749947704900449 Li
   0.7500000013273834    0.4999999955748970    0.3749947704900449 Li
   0.7500000013273833    0.4999999955748970    0.8749947704900449 Li
   0.7500000013273834    0.9999999955748967    0.3749947704900449 Li
   0.7500000013273834    0.9999999955748967    0.8749947704900448 Li
   0.2500000009379086    0.2500000071955127    0.2500002598676665 Li
   0.2500000009379086    0.2500000071955127    0.7500002598676665 Li
   0.2500000009379086    0.7500000071955126    0.2500002598676665 Li
   0.2500000009379086    0.7500000071955127    0.7500002598676665 Li
   0.7500000009379086    0.2500000071955127    0.2500002598676665 Li
   0.7500000009379084    0.2500000071955127    0.7500002598676664 Li
   0.7500000009379085    0.7500000071955125    0.2500002598676665 Li
   0.7500000009379088    0.7500000071955126    0.7500002598676665 Li
   0.0000000103248709    0.4999999976901464    0.2499997620501115 Ti
   0.0000000103248710    0.4999999976901465    0.7499997620501114 Ti
   0.0000000103248710    0.9999999976901466    0.2499997620501115 Ti
   0.0000000103248709    0.9999999976901464    0.7499997620501115 Ti
   0.5000000103248710    0.4999999976901465    0.2499997620501115 Ti
   0.5000000103248710    0.4999999976901465    0.7499997620501115 Ti
   0.5000000103248710    0.9999999976901464    0.2499997620501115 Ti
   0.5000000103248710    0.9999999976901464    0.7499997620501114 Ti
   0.0000000221420362    0.2500000059308539    0.3750017962809417 Ti
   0.0000000221420361    0.2500000059308539    0.8750017962809417 Ti
   0.0000000221420361    0.7500000059308538    0.3750017962809417 Ti
   0.0000000221420361    0.7500000059308539    0.8750017962809417 Ti
   0.5000000221420361    0.2500000059308539    0.3750017962809417 Ti
   0.5000000221420361    0.2500000059308539    0.8750017962809415 Ti
   0.5000000221420362    0.7500000059308538    0.3750017962809417 Ti
   0.5000000221420362    0.7500000059308539    0.8750017962809417 Ti
   0.2500000141021684    0.0000000120259293    0.1249980568713022 Ti
   0.2500000141021684    0.0000000120259293    0.6249980568713023 Ti
   0.2500000141021684    0.5000000120259293    0.1249980568713022 Ti
   0.2500000141021685    0.5000000120259293    0.6249980568713022 Ti
   0.7500000141021684    0.0000000120259293    0.1249980568713022 Ti
   0.7500000141021683    0.0000000120259293    0.6249980568713022 Ti
   0.7500000141021684    0.5000000120259293    0.1249980568713022 Ti
   0.7500000141021684    0.5000000120259293    0.6249980568713023 Ti
   0.2500000075373957    0.2500000064985842    0.9999999644282485 Ti
   0.2500000075373957    0.2500000064985842    0.4999999644282485 Ti
   0.2500000075373957    0.7500000064985841    0.9999999644282485 Ti
   0.2500000075373957    0.7500000064985840    0.4999999644282485 Ti
   0.7500000075373956    0.2500000064985842    0.9999999644282485 Ti
   0.7500000075373955    0.2500000064985842    0.4999999644282485 Ti
   0.7500000075373956    0.7500000064985841    0.9999999644282485 Ti
   0.7500000075373956    0.7500000064985841    0.4999999644282485 Ti
   0.1250056205155289    0.3843741484404571    0.1875003802195261 S
   0.1250056205155289    0.3843741484404572    0.6875003802195261 S
   0.1250056205155289    0.8843741484404570    0.1875003802195261 S
   0.1250056205155289    0.8843741484404571    0.6875003802195261 S
   0.6250056205155289    0.3843741484404571    0.1875003802195261 S
   0.6250056205155290    0.3843741484404572    0.6875003802195260 S
   0.6250056205155290    0.8843741484404571    0.1875003802195261 S
   0.6250056205155290    0.8843741484404571    0.6875003802195261 S
   0.1250095360276618    0.3656198795175626    0.4375019594219760 S
   0.1250095360276617    0.3656198795175627    0.9375019594219761 S
   0.1250095360276617    0.8656198795175627    0.4375019594219761 S
   0.1250095360276617    0.8656198795175626    0.9375019594219760 S
   0.6250095360276617    0.3656198795175626    0.4375019594219760 S
   0.6250095360276617    0.3656198795175627    0.9375019594219760 S
   0.6250095360276618    0.8656198795175625    0.4375019594219760 S
   0.6250095360276617    0.8656198795175626    0.9375019594219759 S
   0.1343826574722892    0.1250075453512589    0.0624982258074777 S
   0.1343826574722892    0.1250075453512589    0.5624982258074777 S
   0.1343826574722892    0.6250075453512588    0.0624982258074777 S
   0.1343826574722892    0.6250075453512588    0.5624982258074777 S
   0.6343826574722892    0.1250075453512589    0.0624982258074777 S
   0.6343826574722893    0.1250075453512589    0.5624982258074777 S
   0.6343826574722893    0.6250075453512589    0.0624982258074777 S
   0.6343826574722893    0.6250075453512589    0.5624982258074777 S
   0.1156292337128843    0.1250033839437380    0.3124992739425434 S
   0.1156292337128843    0.1250033839437380    0.8124992739425434 S
   0.1156292337128843    0.6250033839437380    0.3124992739425435 S
   0.1156292337128843    0.6250033839437378    0.8124992739425435 S
   0.6156292337128842    0.1250033839437380    0.3124992739425434 S
   0.6156292337128844    0.1250033839437380    0.8124992739425435 S
   0.6156292337128844    0.6250033839437380    0.3124992739425434 S
   0.6156292337128844    0.6250033839437379    0.8124992739425434 S
   0.3656173417000235    0.3749924376571185    0.0624982216744101 S
   0.3656173417000236    0.3749924376571185    0.5624982216744101 S
   0.3656173417000236    0.8749924376571184    0.0624982216744101 S
   0.3656173417000236    0.8749924376571183    0.5624982216744101 S
   0.8656173417000236    0.3749924376571185    0.0624982216744101 S
   0.8656173417000235    0.3749924376571185    0.5624982216744101 S
   0.8656173417000235    0.8749924376571184    0.0624982216744101 S
   0.8656173417000238    0.8749924376571184    0.5624982216744101 S
   0.3843707566388725    0.3749966151319002    0.3124992709203614 S
   0.3843707566388725    0.3749966151319002    0.8124992709203614 S
   0.3843707566388725    0.8749966151319002    0.3124992709203614 S
   0.3843707566388724    0.8749966151319003    0.8124992709203613 S
   0.8843707566388724    0.3749966151319002    0.3124992709203614 S
   0.8843707566388724    0.3749966151319002    0.8124992709203613 S
   0.8843707566388724    0.8749966151319001    0.3124992709203613 S
   0.8843707566388724    0.8749966151319001    0.8124992709203614 S
   0.3749943588611687    0.1156258410851335    0.1875003863609344 S
   0.3749943588611688    0.1156258410851335    0.6875003863609344 S
   0.3749943588611688    0.6156258410851334    0.1875003863609344 S
   0.3749943588611687    0.6156258410851334    0.6875003863609345 S
   0.8749943588611688    0.1156258410851335    0.1875003863609344 S
   0.8749943588611687    0.1156258410851335    0.6875003863609344 S
   0.8749943588611687    0.6156258410851334    0.1875003863609344 S
   0.8749943588611688    0.6156258410851334    0.6875003863609344 S
   0.3749904431440347    0.1343801274853132    0.4375019547177934 S
   0.3749904431440347    0.1343801274853132    0.9375019547177932 S
   0.3749904431440347    0.6343801274853131    0.4375019547177934 S
   0.3749904431440346    0.6343801274853130    0.9375019547177933 S
   0.8749904431440346    0.1343801274853131    0.4375019547177933 S
   0.8749904431440346    0.1343801274853132    0.9375019547177933 S
   0.8749904431440347    0.6343801274853131    0.4375019547177933 S
   0.8749904431440346    0.6343801274853131    0.9375019547177934 S
