Ca1 Ti12 F42                            
   1.00000000000000     
     7.5129960000000002   -0.0085690000000000    0.0134520000000000
    -3.7534689999999999    6.5019340000000003   -0.0040740000000000
    -0.0914130000000000   -0.0111450000000000   17.6852839999999993
   Ca   Ti   F 
     1    12    42
Direct
  0.4490083527107576  0.4977727912343328  0.3264273790158451
  0.2703502395637610  0.9812713717059847  0.3313302015114719
  0.7399901993706001  0.7366779081361293  0.9952579303738851
  0.9984698872176465  0.2672473485706984  0.6692603072670332
  0.3642452767728641  1.0044508482772507  0.8312072085999229
  0.6620516115553721  0.6727589144360764  0.5190914802875594
  0.9775465173251232  0.3243132563627744  0.1635288208034198
  0.6518452657411964  0.1658897497916754  0.5006263324135731
  0.4830995714276964  0.3224034928371726  0.1462766398534746
  0.8646977379905073  0.5042495569715912  0.8305790090306033
  0.3651259056200484  0.5048451683051942  0.8321969229518815
  0.1570560818655785  0.6621407589951149  0.5130457231442294
  0.4772905967720363  0.8268743214648744  0.1615653193033082
  0.5746383614750578  0.8052818049633185  0.0610045349176380
  0.2493203024298182  0.4135631868091691  0.7291595070670763
  0.1770840408740657  0.7649619394447909  0.4092787285278113
  0.4074675923447069  0.2148897937908481  0.2547289007495382
  0.8413355478807559  0.5913724090740813  0.9338351840115641
  0.7612396578620496  0.1979503213076310  0.6061763364397480
  0.8804242072135759  0.0587808907679383  0.7332350524587445
  0.2501237826327776  0.1965816378393116  0.3830166483838933
  0.9369282038195620  0.8160868369065553  0.0650139670259234
  0.1049751823316779  0.1734538843490786  0.6012075889552386
  0.0249476815266284  0.8450443374592085  0.2857992861384693
  0.8345819792487942  0.9541503582413453  0.9352746581503336
  0.1347709394859893  0.5475837670977804  0.6106405448518181
  0.4003685100819383  0.8401852372103318  0.2716694185411337
  0.4757717701518688  0.5861158615207092  0.9333315140051800
  0.8931451405372383  0.4278868586709189  0.7285592377201593
  0.5481972886962782  0.1216962775242159  0.3938990216527183
  0.5798042901525663  0.4536952566922955  0.0519657109835910
  0.3703753871141959  0.5903018474497284  0.4827375313687923
  0.1955418620730281  0.6191809691490724  0.1415777714931526
  0.4370578680567263  0.7863688821959103  0.8083239278190283
  0.6562431109331555  0.2216209631078463  0.8532667794537521
  0.5762220931970584  0.3720056257948328  0.5251399911802171
  0.7625674322185864  0.4027407356251803  0.1863378113521819
  0.6979065086786228  0.6409439791217167  0.4105443820880427
  0.8918247118830155  0.2869619122120727  0.0668056568358288
  0.4001810005979125  0.0833011418647558  0.7327586010239396
  0.3257219171633073  0.9262060372895126  0.9298131145648882
  0.6074729356112002  0.7036754788698601  0.6146620527447557
  0.1001584486149913  0.3775833146872477  0.2622765509802776
  0.9494132905926265  0.7396361725094751  0.5376004465061881
  0.7610585508459027  0.0341870467265293  0.1897629544474094
  0.2885496196845697  0.2206867946489673  0.8540295049686848
  0.0712181361519861  0.7894252517232915  0.8095163680393688
  0.7385392666419843  0.9627168444611995  0.4891138573336664
  0.1984939257452869  0.2553103206567671  0.1340111353974220
  0.6383137829068104  0.5531259330907774  0.8009897374864154
  0.9310461978797727  0.3965771065326157  0.4747576303998067
  0.4330798247702891  0.0480860539081745  0.1250694550656505
  0.3820026605618912  0.9399629899215126  0.5343889774216495
  0.5277693762202029  0.5923896305771778  0.1999915577753330
  0.0899452643585576  0.4558269979290049  0.8610989640558856
 
             NaN             NaN             NaN
             NaN             NaN             NaN
             NaN             NaN             NaN
             NaN             NaN             NaN
             NaN             NaN             NaN
             NaN             NaN             NaN
             NaN             NaN             NaN
             NaN             NaN             NaN
             NaN             NaN             NaN
             NaN             NaN             NaN
             NaN             NaN             NaN
             NaN             NaN             NaN
             NaN             NaN             NaN
             NaN             NaN             NaN
             NaN             NaN             NaN
             NaN             NaN             NaN
             NaN             NaN             NaN
             NaN             NaN             NaN
             NaN             NaN             NaN
             NaN             NaN             NaN
             NaN             NaN             NaN
             NaN             NaN             NaN
             NaN             NaN             NaN
             NaN             NaN             NaN
             NaN             NaN             NaN
             NaN             NaN             NaN
             NaN             NaN             NaN
             NaN             NaN             NaN
             NaN             NaN             NaN
             NaN             NaN             NaN
             NaN             NaN             NaN
             NaN             NaN             NaN
             NaN             NaN             NaN
             NaN             NaN             NaN
             NaN             NaN             NaN
             NaN             NaN             NaN
             NaN             NaN             NaN
             NaN             NaN             NaN
             NaN             NaN             NaN
             NaN             NaN             NaN
             NaN             NaN             NaN
             NaN             NaN             NaN
             NaN             NaN             NaN
             NaN             NaN             NaN
             NaN             NaN             NaN
             NaN             NaN             NaN
             NaN             NaN             NaN
             NaN             NaN             NaN
             NaN             NaN             NaN
             NaN             NaN             NaN
             NaN             NaN             NaN
             NaN             NaN             NaN
             NaN             NaN             NaN
             NaN             NaN             NaN
             NaN             NaN             NaN
