Ca1 Ti12 F42
1.0
7.512996 -0.008569 0.013452
-3.753469 6.501934 -0.004074
-0.091413 -0.011145 17.685284
Ca Ti F
1 12 42
direct
0.488462 0.500639 0.334739 Ca
0.280407 -0.002325 0.332354 Ti
0.733172 0.732205 0.997753 Ti
-0.000295 0.269322 0.668529 Ti
0.358189 0.998878 0.833613 Ti
0.645753 0.657755 0.506883 Ti
0.990154 0.340656 0.160157 Ti
0.646138 0.154879 0.500905 Ti
0.496025 0.344891 0.158817 Ti
0.858085 0.498319 0.832330 Ti
0.358567 0.499452 0.834755 Ti
0.143314 0.655154 0.507341 Ti
0.492820 0.843050 0.166364 Ti
0.579479 0.817714 0.063740 F
0.247309 0.415672 0.730740 F
0.159607 0.755464 0.401138 F
0.426341 0.254097 0.267400 F
0.830796 0.582325 0.936126 F
0.755906 0.183330 0.604271 F
0.879856 0.057016 0.731207 F
0.209202 0.159563 0.390216 F
0.937980 0.819004 0.064365 F
0.113810 0.181956 0.600824 F
0.067730 0.869523 0.267621 F
0.823199 0.943134 0.934722 F
0.115283 0.540209 0.605983 F
0.418030 0.853497 0.276020 F
0.466191 0.576268 0.936850 F
0.889401 0.423974 0.730032 F
0.547082 0.120495 0.393818 F
0.576888 0.461396 0.060505 F
0.349837 0.578104 0.471448 F
0.210263 0.633943 0.144347 F
0.432684 0.782020 0.811807 F
0.650306 0.215652 0.855178 F
0.569215 0.362653 0.520054 F
0.781673 0.425059 0.187491 F
0.670283 0.617170 0.400043 F
0.907345 0.303793 0.064163 F
0.396041 0.075847 0.734943 F
0.321234 0.921847 0.932322 F
0.574772 0.680534 0.600673 F
0.072944 0.385877 0.265610 F
0.930907 0.728291 0.527498 F
0.778206 0.052474 0.188564 F
0.281821 0.214183 0.855455 F
0.065872 0.784086 0.812111 F
0.726886 0.948075 0.481364 F
0.208753 0.269348 0.142397 F
0.631702 0.547779 0.803463 F
0.921158 0.384549 0.467318 F
0.446406 0.069526 0.137945 F
0.372898 0.928320 0.530122 F
0.535680 0.611467 0.204537 F
0.083407 0.449966 0.863472 F
