Ca1 V16 F48                             
   1.00000000000000     
    15.6514679999999995    0.0000300000000000   -0.0001090000000000
     0.0000470000000000    7.8234909999999998   -0.0000330000000000
    -0.0000740000000000   -0.0001820000000000    7.8218699999999997
   Ca   V    F 
     1    16    48
Direct
  0.6242788496880068  0.5000548262032881  0.5000051054401301
  0.1250201925740175  0.2498474362316764  0.2498339923586598
  0.6249955349515028  0.2393643499372395  0.2393840739463343
  0.1250091713603242  0.2498467970582266  0.7501490247655763
  0.6250089604459426  0.2393712994238632  0.7606279716464899
  0.1250140784001673  0.7501616960164578  0.2498337031352449
  0.6250069548184116  0.7605952235067535  0.2394310514641503
  0.1250228616270185  0.7501611344824950  0.7501475971243645
  0.6249908184667867  0.7606284724465431  0.7606294256530411
  0.3738023671436095  0.2498824377437812  0.2498756248631417
  0.8762231083134084  0.2498887749029122  0.2498821602994813
  0.3738053805348094  0.2498643115002106  0.7501335669160497
  0.8762183773646904  0.2498713473192381  0.7501285010146576
  0.3738060423506677  0.7501408550303468  0.2498558197492834
  0.8762205076281198  0.7501361038099801  0.2498616234894974
  0.3738022831743534  0.7501223323413193  0.7501167929633275
  0.8762191881352850  0.7501161028307526  0.7501113373457461
  0.0004597372603093  0.2473194687007912  0.2473008186301279
  0.5006189600538425  0.2599109100569790  0.2599370669123649
  0.0004726636078170  0.2473090995592547  0.7526918727661311
  0.5006412362795891  0.2598853617133686  0.7401018850593220
  0.0004774914640020  0.7526947878073078  0.2472952722465606
  0.5006472732939269  0.7401125532179598  0.2598844621761417
  0.0004682726061629  0.7526912983881705  0.7526839339541284
  0.5006322993085206  0.7400816577407053  0.7400998854177857
  0.2496521158839788  0.2472794011771451  0.2472576831682355
  0.7493160674215612  0.2597147491426332  0.2597401565764360
  0.2496432039869711  0.2472739349120903  0.7527342595561094
  0.7492878370401284  0.2597000553218076  0.7403025328597410
  0.2496384413482715  0.7527332028499001  0.2472574680962211
  0.7492859326777239  0.7403211606768022  0.2596804787102071
  0.2496409723163185  0.7527253150528067  0.7527213387610342
  0.7492984518084317  0.7402589604845435  0.7402868546274747
  0.1250824017286266  0.2503918661906767  1.0000042947837546
  0.6248869225141551  0.2437989569918324 -0.0000187080816403
  0.1250953729777705  0.2503662387281266  0.4999814244242083
  0.6250204563536028  0.2246789275138749  0.5000628131754555
  0.1250753938058794  0.7496168848990488 -0.0000017975635062
  0.6248922540514916  0.7562098891893412  0.0000503070999414
  0.1250863001224998  0.7496423612583158  0.4999846809566980
  0.6250242856538318  0.7751389166998655  0.4999495899064053
  0.3782733218196735  0.2496836949412572  0.0000105414785283
  0.8717691741849655  0.2496863359763574  0.0000247173518870
  0.3736142505317268  0.2507871191596064  0.4999995192671064
  0.8763560547388718  0.2507829494625150  0.4999851660692582
  0.3782604717086512  0.7503207466739916 -0.0000004317096495
  0.8717777658318985  0.7503187207298162  1.0000068594965921
  0.3736129015120584  0.7492188381077025  0.4999764409220629
  0.8763588744274560  0.7492240600326885  0.4999711714669763
  0.1250758579526091  0.9999921721113514  0.2503678078989824
  0.6248921867404326  0.9999510484602100  0.2440752524694938
  0.1250837387597945 -0.0000136134959158  0.7496144120464463
  0.6248928570161720  0.0000191847685599  0.7559232110450140
  0.1250873002819610  0.5000159150211965  0.2503654395558589
  0.6250277695595146  0.5000975772826898  0.2247453028392701
  0.1250933288002186  0.5000188192348261  0.7496168272052752
  0.6250138010209568  0.4999797735774750  0.7753633145277887
  0.3782589061959078  0.9999966571113851  0.2497929756338554
  0.8717829166490770 -0.0000010264694924  0.2497920722245481
  0.3782609145603346  0.9999852374949506  0.7501952415392739
  0.8717745435053980  0.9999813795023543  0.7501981988071985
  0.3736209069171156  0.5000215494697959  0.2506611429683403
  0.8763511139791197  0.5000186872597592  0.2506628159796037
  0.3736237636139062  0.4999989794877684  0.7493270236238344
  0.8763498296676068  0.5000047363704814  0.7493280275983039
 
             NaN             NaN             NaN
             NaN             NaN             NaN
             NaN             NaN             NaN
             NaN             NaN             NaN
             NaN             NaN             NaN
             NaN             NaN             NaN
             NaN             NaN             NaN
             NaN             NaN             NaN
             NaN             NaN             NaN
             NaN             NaN             NaN
             NaN             NaN             NaN
             NaN             NaN             NaN
             NaN             NaN             NaN
             NaN             NaN             NaN
             NaN             NaN             NaN
             NaN             NaN             NaN
             NaN             NaN             NaN
             NaN             NaN             NaN
             NaN             NaN             NaN
             NaN             NaN             NaN
             NaN             NaN             NaN
             NaN             NaN             NaN
             NaN             NaN             NaN
             NaN             NaN             NaN
             NaN             NaN             NaN
             NaN             NaN             NaN
             NaN             NaN             NaN
             NaN             NaN             NaN
             NaN             NaN             NaN
             NaN             NaN             NaN
             NaN             NaN             NaN
             NaN             NaN             NaN
             NaN             NaN             NaN
             NaN             NaN             NaN
             NaN             NaN             NaN
             NaN             NaN             NaN
             NaN             NaN             NaN
             NaN             NaN             NaN
             NaN             NaN             NaN
             NaN             NaN             NaN
             NaN             NaN             NaN
             NaN             NaN             NaN
             NaN             NaN             NaN
             NaN             NaN             NaN
             NaN             NaN             NaN
             NaN             NaN             NaN
             NaN             NaN             NaN
             NaN             NaN             NaN
             NaN             NaN             NaN
             NaN             NaN             NaN
             NaN             NaN             NaN
             NaN             NaN             NaN
             NaN             NaN             NaN
             NaN             NaN             NaN
             NaN             NaN             NaN
             NaN             NaN             NaN
             NaN             NaN             NaN
             NaN             NaN             NaN
             NaN             NaN             NaN
             NaN             NaN             NaN
             NaN             NaN             NaN
             NaN             NaN             NaN
             NaN             NaN             NaN
             NaN             NaN             NaN
             NaN             NaN             NaN
