Ca1 V16 F48
1.0
15.651468 0.000030 -0.000109
0.000047 7.823491 -0.000033
-0.000074 -0.000182 7.821870
Ca V F
1 16 48
direct
0.624999 0.499998 0.500003 Ca
0.124999 0.250061 0.250033 V
0.624999 0.246704 0.246764 V
0.125001 0.250061 0.749966 V
0.625001 0.246706 0.753233 V
0.125000 0.749938 0.250034 V
0.625001 0.753293 0.246765 V
0.124999 0.749939 0.749967 V
0.624998 0.753294 0.753236 V
0.373083 0.248383 0.248401 V
0.876920 0.248384 0.248399 V
0.373081 0.248384 0.751597 V
0.876918 0.248385 0.751599 V
0.373080 0.751616 0.248400 V
0.876918 0.751613 0.248399 V
0.373083 0.751616 0.751600 V
0.876920 0.751614 0.751603 V
0.000615 0.250356 0.250387 F
0.499381 0.257895 0.257856 F
0.000619 0.250355 0.749615 F
0.499382 0.257890 0.742150 F
0.000618 0.749645 0.250380 F
0.499384 0.742112 0.257851 F
0.000615 0.749645 0.749617 F
0.499381 0.742107 0.742145 F
0.249386 0.250368 0.250392 F
0.750616 0.257903 0.257859 F
0.249386 0.250368 0.749607 F
0.750614 0.257902 0.742138 F
0.249384 0.749633 0.250395 F
0.750614 0.742098 0.257866 F
0.249387 0.749633 0.749606 F
0.750617 0.742098 0.742137 F
0.124999 0.250018 0.999997 F
0.624988 0.252661 0.000001 F
0.125000 0.250015 0.500003 F
0.625001 0.264940 0.500002 F
0.125001 0.749981 0.000005 F
0.624991 0.747340 0.000000 F
0.124997 0.749985 0.499995 F
0.625005 0.735057 0.499995 F
0.375120 0.251351 0.000003 F
0.874892 0.251337 0.000003 F
0.378220 0.257477 0.499999 F
0.871778 0.257478 0.499999 F
0.375118 0.748649 1.000000 F
0.874891 0.748664 0.999999 F
0.378218 0.742529 0.500002 F
0.871780 0.742522 0.500003 F
0.124999 0.999996 0.250011 F
0.624988 0.999994 0.252883 F
0.125000 0.000004 0.749990 F
0.624988 0.000002 0.747118 F
0.124998 0.500004 0.250017 F
0.625001 0.500007 0.264659 F
0.124997 0.499996 0.749982 F
0.625000 0.499998 0.735344 F
0.375126 -0.000001 0.251452 F
0.874887 0.000001 0.251428 F
0.375127 0.999999 0.748547 F
0.874885 0.999997 0.748567 F
0.378172 0.499998 0.257337 F
0.871832 0.500000 0.257340 F
0.378174 0.500001 0.742662 F
0.871828 0.500002 0.742656 F
