Ca1 Mn12 F42                            
   1.00000000000000     
     7.3274889999999999   -0.0087270000000000   -0.0437050000000000
    -3.6688510000000001    6.4309960000000004   -0.1015450000000000
     0.1200910000000000   -0.3427200000000000   17.4389479999999999
   Ca   Mn   F 
     1    12    42
Direct
  0.8264071982516712  0.9608691733766662  0.8219496337401131
  0.2978121864881642  1.0054691300266358  0.3322079526911548
  0.6807444181486262  0.6600142618066283  0.0066281600562561
  0.0216630414084161  0.3385286656617486  0.6554176241780094
  0.3384385304740550  0.9784357795995270  0.8325146409840124
  0.6583433337356644  0.6782617513899294  0.4963295592956710
  0.9912809358597821  0.3369068201455882  0.1693230457066670
  0.6568808552216681  0.1777840543933559  0.4942474387422630
  0.4910531164867041  0.3361357730173157  0.1706741044283353
  0.8413080351111074  0.4762011465872411  0.8330162150981409
  0.3408585952812034  0.4788030439173136  0.8349635985349868
  0.1584298224927355  0.6790698370681898  0.4963844534223893
  0.4896351073297056  0.8368744054348571  0.1692402727384404
  0.5378048430921851  0.7811623624001832  0.0675655839624545
  0.2533586121639042  0.4567475465093885  0.7296992798727814
  0.1958553469797623  0.7671823188831887  0.3892644540435469
  0.4289942377535884  0.2472914447135502  0.2753449675370074
  0.7947578743706722  0.5295889515203046  0.9362223817185138
  0.7586294996850498  0.2204032883583052  0.5953715401485516
  0.9067778613798151  0.0959319315594020  0.7094078549268640
  0.1946981694315509  0.1166959450228062  0.3947923868512484
  0.9037857024311273  0.7778311601749580  0.0654504870384655
  0.1444477336414650  0.2498279232286078  0.5915900307336089
  0.0842771132684225  0.8896917264796914  0.2692981541216871
  0.7836612779133264  0.8833859088361262  0.9431660754943711
  0.1229975493725665  0.5900031464871780  0.6030506259040884
  0.4431024001604840  0.8893544407063799  0.2722697539557032
  0.4279116978843959  0.5153623048117891  0.9420665932389377
  0.8820809592178469  0.4382521665977475  0.7253331380797396
  0.5607183193974115  0.1338381198703994  0.3917487253452513
  0.5540737252076900  0.4190690065552375  0.0659717548023867
  0.3640611734140045  0.6002953504807041  0.4810428153900916
  0.2032992372865406  0.6290753208148143  0.1556936820072149
  0.4420968793798070  0.7793483792239090  0.8323874506038369
  0.6427724928265363  0.1749790241098284  0.8410711968293999
  0.5828509044234529  0.3877451542486848  0.5120192098363501
  0.7739888865866409  0.4121040660928343  0.1888781210775080
  0.6803000696452495  0.6404128394238896  0.3970479036870260
  0.9324454774719840  0.3081359999801228  0.0695490873260477
  0.3615015552538086 -0.0147468437131041  0.7312315356863780
  0.3163800945413595  0.9689708615017855  0.9335768516578078
  0.6370491354851079  0.7150996398285134  0.5965102689301984
  0.0518263454488929  0.3670028448798917  0.2685586190419336
  0.9534398634827473  0.7586752892018148  0.5123784002327560
  0.7768866343976127  0.0453805065453225  0.1821271186100457
  0.2362336117701883  0.1776534133511623  0.8322583120588889
  0.0356073498654687  0.7798462959748172  0.8216644264484807
  0.7320289973414339  0.9674566929280388  0.4794687934747516
  0.2086019864430014  0.2612567649544579  0.1507962601972298
  0.6321421440985455  0.5675539617381063  0.8036688356286111
  0.9238445487663172  0.3862849955836605  0.4656895601191323
  0.4302996655897409  0.0413007555127155  0.1390228553697689
  0.3916153042488751  0.9729336931075895  0.5249999890966978
  0.5492826501209150  0.6317993390833273  0.1995308041827092
  0.0485355224316474  0.3928452093784733  0.8618907595559555
 
             NaN             NaN             NaN
             NaN             NaN             NaN
             NaN             NaN             NaN
             NaN             NaN             NaN
             NaN             NaN             NaN
             NaN             NaN             NaN
             NaN             NaN             NaN
             NaN             NaN             NaN
             NaN             NaN             NaN
             NaN             NaN             NaN
             NaN             NaN             NaN
             NaN             NaN             NaN
             NaN             NaN             NaN
             NaN             NaN             NaN
             NaN             NaN             NaN
             NaN             NaN             NaN
             NaN             NaN             NaN
             NaN             NaN             NaN
             NaN             NaN             NaN
             NaN             NaN             NaN
             NaN             NaN             NaN
             NaN             NaN             NaN
             NaN             NaN             NaN
             NaN             NaN             NaN
             NaN             NaN             NaN
             NaN             NaN             NaN
             NaN             NaN             NaN
             NaN             NaN             NaN
             NaN             NaN             NaN
             NaN             NaN             NaN
             NaN             NaN             NaN
             NaN             NaN             NaN
             NaN             NaN             NaN
             NaN             NaN             NaN
             NaN             NaN             NaN
             NaN             NaN             NaN
             NaN             NaN             NaN
             NaN             NaN             NaN
             NaN             NaN             NaN
             NaN             NaN             NaN
             NaN             NaN             NaN
             NaN             NaN             NaN
             NaN             NaN             NaN
             NaN             NaN             NaN
             NaN             NaN             NaN
             NaN             NaN             NaN
             NaN             NaN             NaN
             NaN             NaN             NaN
             NaN             NaN             NaN
             NaN             NaN             NaN
             NaN             NaN             NaN
             NaN             NaN             NaN
             NaN             NaN             NaN
             NaN             NaN             NaN
             NaN             NaN             NaN
