Ca1 Mn12 F42
1.0
7.327489 -0.008727 -0.043705
-3.668851 6.430996 -0.101545
0.120091 -0.342720 17.438948
Ca Mn F
1 12 42
direct
0.818259 -0.019099 0.812968 Ca
0.290431 0.999621 0.333147 Mn
0.690484 0.670749 0.009517 Mn
0.020137 0.328209 0.658098 Mn
0.361164 -0.001359 0.833989 Mn
0.652320 0.663611 0.496544 Mn
0.986408 0.333651 0.169545 Mn
0.650894 0.163994 0.495803 Mn
0.486914 0.334476 0.170243 Mn
0.861449 0.497536 0.834889 Mn
0.362997 0.500096 0.833586 Mn
0.152351 0.663616 0.496390 Mn
0.484829 0.834052 0.170173 Mn
0.542172 0.786832 0.068609 F
0.262599 0.451117 0.729322 F
0.185330 0.759880 0.392527 F
0.426100 0.241369 0.273926 F
0.808933 0.548337 0.939150 F
0.754873 0.210731 0.597738 F
0.897653 0.092567 0.715430 F
0.192532 0.115609 0.396104 F
0.903825 0.774660 0.073116 F
0.131431 0.225040 0.594910 F
0.075487 0.884560 0.270615 F
0.806250 0.901844 0.950655 F
0.130098 0.577849 0.603482 F
0.430945 0.877892 0.272864 F
0.446747 0.546665 0.940945 F
0.900430 0.450549 0.726901 F
0.553770 0.120317 0.393097 F
0.548646 0.421632 0.064836 F
0.359851 0.586576 0.478456 F
0.200114 0.625759 0.153407 F
0.465565 0.799810 0.822019 F
0.664232 0.197521 0.844811 F
0.574744 0.373312 0.512673 F
0.770475 0.411994 0.187985 F
0.680818 0.627773 0.397749 F
0.923765 0.298255 0.069960 F
0.377869 0.029260 0.732757 F
0.344006 0.965960 0.934177 F
0.623865 0.699257 0.596734 F
0.050499 0.369898 0.268573 F
0.944622 0.740514 0.515806 F
0.770661 0.042613 0.185753 F
0.259592 0.199256 0.843557 F
0.058454 0.798890 0.823439 F
0.726947 0.953258 0.480954 F
0.203013 0.255847 0.150926 F
0.650471 0.576794 0.804926 F
0.921224 0.375819 0.467189 F
0.428279 0.044447 0.140079 F
0.384106 0.952831 0.528227 F
0.541810 0.621903 0.199314 F
0.072840 0.421620 0.863023 F
