Ca1 Fe4 S6 O24                          
   1.00000000000000     
     7.6587090000000000    0.1910240000000000    4.6226510000000003
     2.6998210000000000    7.1698130000000004    4.6265289999999997
     0.2674480000000000    0.1948620000000000    8.9416770000000003
   Ca   Fe   S    O 
     1     4     6    24
Direct
  0.4388211279343608  0.5606753961110442  0.4998712563582544
  0.6455458292158980  0.6488229707094746  0.6567830998988526
  0.1425921016693437  0.1495505313099130  0.1458445924856946
  0.8481138381360296  0.8553362456392577  0.8466350005367929
  0.3454954943029236  0.3476018968947585  0.3530798945147708
  0.9532572972345292  0.2529584502736455  0.5350684024612775
  0.4553872356534256  0.0518526923718809  0.7465376193696613
  0.5366063525181843  0.9544726798873810  0.2516393036819480
  0.7379237353038661  0.4659987151268936  0.0507566474120935
  0.2465104171557471  0.5377116253878214  0.9565679428570206
  0.0351588463758858  0.7548818612176476  0.4527048291560689
  0.3914494708149547  0.6030787370907760  0.7639698237369004
  0.9268117111734000  0.3167571583191062  0.0363052079917097
  0.7607142593904896  0.3915496049318392  0.6018078772300441
  0.0100021405149704  0.9499989325026803  0.3142522690362171
  0.6004657691863642  0.7614739522524374  0.3957789443476116
  0.3095320774818688  0.0332808392814314  0.9395421282249217
  0.6823287956490063  0.9671558362432933  0.0615618507868589
  0.2302758705109156  0.6220448329722856  0.3753908685978118
  0.0585146087174522  0.6867880474545842  0.9632932319963459
  0.3872620827095119  0.2485456009248139  0.6091866807586186
  0.9689583814237537  0.0575618342456394  0.6744760091522011
  0.5944829132992595  0.4089965137009344  0.2457372537321518
  0.9796518985066385  0.2686110717453687  0.3483582096507760
  0.4869133356073689  0.9070721649980555  0.6892726087359264
  0.3557793173317734  0.9645061034807583  0.2668376277584272
  0.6799631228444056  0.4953955196387412  0.9070059921498270
  0.2586143835977239  0.3592566844151079  0.9683987762565636
  0.8911715816721397  0.6942482289986387  0.4896176447539560
  0.1011902063540688  0.2993151182528209  0.5145075265532242
  0.6352239962933197  0.0318778244803184  0.7387203860098381
  0.5052933378957931  0.1036036125327371  0.3020142477716092
  0.7349259686831147  0.6469050348384826  0.0240503493298050
  0.2958432560760755  0.5054350107489469  0.1065363482407662
  0.0320594623872950  0.7346610567869192  0.6322873995044205
 
             NaN             NaN             NaN
             NaN             NaN             NaN
             NaN             NaN             NaN
             NaN             NaN             NaN
             NaN             NaN             NaN
             NaN             NaN             NaN
             NaN             NaN             NaN
             NaN             NaN             NaN
             NaN             NaN             NaN
             NaN             NaN             NaN
             NaN             NaN             NaN
             NaN             NaN             NaN
             NaN             NaN             NaN
             NaN             NaN             NaN
             NaN             NaN             NaN
             NaN             NaN             NaN
             NaN             NaN             NaN
             NaN             NaN             NaN
             NaN             NaN             NaN
             NaN             NaN             NaN
             NaN             NaN             NaN
             NaN             NaN             NaN
             NaN             NaN             NaN
             NaN             NaN             NaN
             NaN             NaN             NaN
             NaN             NaN             NaN
             NaN             NaN             NaN
             NaN             NaN             NaN
             NaN             NaN             NaN
             NaN             NaN             NaN
             NaN             NaN             NaN
             NaN             NaN             NaN
             NaN             NaN             NaN
             NaN             NaN             NaN
             NaN             NaN             NaN
