Ca1 Fe4 S6 O24                          
   1.00000000000000     
     7.6587090000000000    0.1910240000000000    4.6226510000000003
     2.6998210000000000    7.1698130000000004    4.6265289999999997
     0.2674480000000000    0.1948620000000000    8.9416770000000003
   Ca   Fe   S    O 
     1     4     6    24
Direct
  0.4388211279343631  0.5606753961110477  0.4998712563582575
  0.6455458292158965  0.6488229707094725  0.6567830998988550
  0.1425921016693436  0.1495505313099138  0.1458445924856927
  0.8481138381360289  0.8553362456392589  0.8466350005367955
  0.3454954943029229  0.3476018968947558  0.3530798945147701
  0.9532572972345318  0.2529584502736470  0.5350684024612742
  0.4553872356534274  0.0518526923718825  0.7465376193696591
  0.5366063525181851  0.9544726798873781  0.2516393036819513
  0.7379237353038636  0.4659987151268944  0.0507566474120934
  0.2465104171557486  0.5377116253878242  0.9565679428570241
  0.0351588463758856  0.7548818612176459  0.4527048291560701
  0.3914494708149575  0.6030787370907749  0.7639698237369024
  0.9268117111734000  0.3167571583191053  0.0363052079917110
  0.7607142593904919  0.3915496049318400  0.6018078772300451
  0.0100021405149677  0.9499989325026789  0.3142522690362161
  0.6004657691863635  0.7614739522524374  0.3957789443476126
  0.3095320774818682  0.0332808392814322  0.9395421282249230
  0.6823287956490092  0.9671558362432927  0.0615618507868622
  0.2302758705109160  0.6220448329722851  0.3753908685978135
  0.0585146087174503  0.6867880474545853  0.9632932319963446
  0.3872620827095085  0.2485456009248125  0.6091866807586216
  0.9689583814237547  0.0575618342456427  0.6744760091522042
  0.5944829132992588  0.4089965137009369  0.2457372537321526
  0.9796518985066388  0.2686110717453652  0.3483582096507741
  0.4869133356073712  0.9070721649980590  0.6892726087359234
  0.3557793173317764  0.9645061034807574  0.2668376277584259
  0.6799631228444067  0.4953955196387381  0.9070059921498286
  0.2586143835977206  0.3592566844151101  0.9683987762565603
  0.8911715816721395  0.6942482289986397  0.4896176447539538
  0.1011902063540706  0.2993151182528204  0.5145075265532245
  0.6352239962933200  0.0318778244803154  0.7387203860098362
  0.5052933378957917  0.1036036125327381  0.3020142477716124
  0.7349259686831141  0.6469050348384862  0.0240503493298047
  0.2958432560760755  0.5054350107489478  0.1065363482407687
  0.0320594623872918  0.7346610567869194  0.6322873995044218
 
             NaN             NaN             NaN
             NaN             NaN             NaN
             NaN             NaN             NaN
             NaN             NaN             NaN
             NaN             NaN             NaN
             NaN             NaN             NaN
             NaN             NaN             NaN
             NaN             NaN             NaN
             NaN             NaN             NaN
             NaN             NaN             NaN
             NaN             NaN             NaN
             NaN             NaN             NaN
             NaN             NaN             NaN
             NaN             NaN             NaN
             NaN             NaN             NaN
             NaN             NaN             NaN
             NaN             NaN             NaN
             NaN             NaN             NaN
             NaN             NaN             NaN
             NaN             NaN             NaN
             NaN             NaN             NaN
             NaN             NaN             NaN
             NaN             NaN             NaN
             NaN             NaN             NaN
             NaN             NaN             NaN
             NaN             NaN             NaN
             NaN             NaN             NaN
             NaN             NaN             NaN
             NaN             NaN             NaN
             NaN             NaN             NaN
             NaN             NaN             NaN
             NaN             NaN             NaN
             NaN             NaN             NaN
             NaN             NaN             NaN
             NaN             NaN             NaN
