V32 P32 O160
1.0
12.412020 0.000000 -0.000000
0.000000 15.819636 0.000250
-0.000000 0.000239 14.499599
Na V P O
1 32 32 160
direct
   0.7500000000000000    0.2500000000000000    0.2500000000000000 Na
0.125000 0.160892 0.111798 V
0.125000 0.160892 0.611798 V
0.125000 0.660892 0.111798 V
0.125000 0.660892 0.611798 V
0.625000 0.160892 0.111798 V
0.625000 0.160892 0.611798 V
0.625000 0.660892 0.111798 V
0.625000 0.660892 0.611798 V
0.125000 0.410896 0.138201 V
0.125000 0.410896 0.638201 V
0.125000 0.910896 0.138201 V
0.125000 0.910896 0.638201 V
0.625000 0.410896 0.138201 V
0.625000 0.410896 0.638201 V
0.625000 0.910896 0.138201 V
0.625000 0.910896 0.638201 V
0.375000 0.089103 0.361801 V
0.375000 0.089103 0.861801 V
0.375000 0.589103 0.361801 V
0.375000 0.589103 0.861801 V
0.875000 0.089103 0.361801 V
0.875000 0.089103 0.861801 V
0.875000 0.589103 0.361801 V
0.875000 0.589103 0.861801 V
0.375000 0.339107 0.388202 V
0.375000 0.339107 0.888202 V
0.375000 0.839107 0.388202 V
0.375000 0.839107 0.888202 V
0.875000 0.339107 0.388202 V
0.875000 0.339107 0.888202 V
0.875000 0.839107 0.388202 V
0.875000 0.839107 0.888202 V
0.125000 0.060913 0.304093 P
0.125000 0.060913 0.804093 P
0.125000 0.560913 0.304093 P
0.125000 0.560913 0.804093 P
0.625000 0.060913 0.304093 P
0.625000 0.060913 0.804093 P
0.625000 0.560913 0.304093 P
0.625000 0.560913 0.804093 P
0.375000 0.189086 0.054091 P
0.375000 0.189086 0.554091 P
0.375000 0.689086 0.054091 P
0.375000 0.689086 0.554091 P
0.875000 0.189086 0.054091 P
0.875000 0.189086 0.554091 P
0.875000 0.689086 0.054091 P
0.875000 0.689086 0.554091 P
0.125000 0.310915 0.445911 P
0.125000 0.310915 0.945911 P
0.125000 0.810915 0.445911 P
0.125000 0.810915 0.945911 P
0.625000 0.310915 0.445911 P
0.625000 0.310915 0.945911 P
0.625000 0.810915 0.445911 P
0.625000 0.810915 0.945911 P
0.375000 0.439089 0.195909 P
0.375000 0.439089 0.695909 P
0.375000 0.939089 0.195909 P
0.375000 0.939089 0.695909 P
0.875000 0.439089 0.195909 P
0.875000 0.439089 0.695909 P
0.875000 0.939089 0.195909 P
0.875000 0.939089 0.695909 P
0.375000 0.022612 0.249867 O
0.375000 0.022612 0.749867 O
0.375000 0.522612 0.249867 O
0.375000 0.522612 0.749867 O
0.875000 0.022612 0.249867 O
0.875000 0.022612 0.749867 O
0.875000 0.522612 0.249867 O
0.875000 0.522612 0.749867 O
0.125000 0.227391 0.499871 O
0.125000 0.227391 0.999871 O
0.125000 0.727391 0.499871 O
0.125000 0.727391 0.999871 O
0.625000 0.227391 0.499871 O
0.625000 0.227391 0.999871 O
0.625000 0.727391 0.499871 O
0.625000 0.727391 0.999871 O
0.375000 0.272610 0.000130 O
0.375000 0.272610 0.500130 O
0.375000 0.772610 0.000130 O
0.375000 0.772610 0.500130 O
0.875000 0.272610 0.000130 O
0.875000 0.272610 0.500130 O
0.875000 0.772610 0.000130 O
0.875000 0.772610 0.500130 O
0.125000 0.477394 0.250128 O
0.125000 0.477394 0.750128 O
0.125000 0.977394 0.250128 O
0.125000 0.977394 0.750128 O
0.625000 0.477394 0.250128 O
0.625000 0.477394 0.750128 O
0.625000 0.977394 0.250128 O
0.625000 0.977394 0.750128 O
0.125000 0.067412 0.071655 O
0.125000 0.067412 0.571655 O
0.125000 0.567412 0.071655 O
0.125000 0.567412 0.571655 O
0.625000 0.067412 0.071655 O
0.625000 0.067412 0.571655 O
0.625000 0.567412 0.071655 O
0.625000 0.567412 0.571655 O
0.375000 0.182584 0.321654 O
0.375000 0.182584 0.821654 O
0.375000 0.682584 0.321654 O
0.375000 0.682584 0.821654 O
0.875000 0.182584 0.321654 O
0.875000 0.182584 0.821654 O
0.875000 0.682584 0.321654 O
0.875000 0.682584 0.821654 O
0.125000 0.317415 0.178347 O
0.125000 0.317415 0.678347 O
0.125000 0.817415 0.178347 O
0.125000 0.817415 0.678347 O
0.625000 0.317415 0.178347 O
0.625000 0.317415 0.678347 O
0.625000 0.817415 0.178347 O
0.625000 0.817415 0.678347 O
0.375000 0.432591 0.428339 O
0.375000 0.432591 0.928339 O
0.375000 0.932591 0.428339 O
0.375000 0.932591 0.928339 O
0.875000 0.432591 0.428339 O
0.875000 0.432591 0.928339 O
0.875000 0.932591 0.428339 O
0.875000 0.932591 0.928339 O
0.375000 0.111434 0.487062 O
0.375000 0.111434 0.987062 O
0.375000 0.611434 0.487062 O
0.375000 0.611434 0.987062 O
0.875000 0.111434 0.487062 O
0.875000 0.111434 0.987062 O
0.875000 0.611434 0.487062 O
0.875000 0.611434 0.987062 O
0.125000 0.138563 0.237060 O
0.125000 0.138563 0.737060 O
0.125000 0.638563 0.237060 O
0.125000 0.638563 0.737060 O
0.625000 0.138563 0.237060 O
0.625000 0.138563 0.737060 O
0.625000 0.638563 0.237060 O
0.625000 0.638563 0.737060 O
0.375000 0.361432 0.262937 O
0.375000 0.361432 0.762937 O
0.375000 0.861432 0.262937 O
0.375000 0.861432 0.762937 O
0.875000 0.361432 0.262937 O
0.875000 0.361432 0.762937 O
0.875000 0.861432 0.262937 O
0.875000 0.861432 0.762937 O
0.125000 0.388566 0.012938 O
0.125000 0.388566 0.512938 O
0.125000 0.888566 0.012938 O
0.125000 0.888566 0.512938 O
0.625000 0.388566 0.012938 O
0.625000 0.388566 0.512938 O
0.625000 0.888566 0.012938 O
0.625000 0.888566 0.512938 O
0.025434 0.066084 0.367238 O
0.025434 0.066084 0.867238 O
0.025434 0.566084 0.367238 O
0.025434 0.566084 0.867238 O
0.525434 0.066084 0.367238 O
0.525434 0.066084 0.867238 O
0.525434 0.566084 0.367238 O
0.525434 0.566084 0.867238 O
0.224566 0.066084 0.367238 O
0.224566 0.066084 0.867238 O
0.224566 0.566084 0.367238 O
0.224566 0.566084 0.867238 O
0.724566 0.066084 0.367238 O
0.724566 0.066084 0.867238 O
0.724566 0.566084 0.367238 O
0.724566 0.566084 0.867238 O
0.275434 0.183912 0.117234 O
0.275434 0.183912 0.617234 O
0.275434 0.683912 0.117234 O
0.275434 0.683912 0.617234 O
0.775434 0.183912 0.117234 O
0.775434 0.183912 0.617234 O
0.775434 0.683912 0.117234 O
0.775434 0.683912 0.617234 O
0.474566 0.183912 0.117234 O
0.474566 0.183912 0.617234 O
0.474566 0.683912 0.117234 O
0.474566 0.683912 0.617234 O
0.974566 0.183912 0.117234 O
0.974566 0.183912 0.617234 O
0.974566 0.683912 0.117234 O
0.974566 0.683912 0.617234 O
0.025434 0.316083 0.382767 O
0.025434 0.316083 0.882767 O
0.025434 0.816083 0.382767 O
0.025434 0.816083 0.882767 O
0.525434 0.316083 0.382767 O
0.525434 0.316083 0.882767 O
0.525434 0.816083 0.382767 O
0.525434 0.816083 0.882767 O
0.224566 0.316083 0.382767 O
0.224566 0.316083 0.882767 O
0.224566 0.816083 0.382767 O
0.224566 0.816083 0.882767 O
0.724566 0.316083 0.382767 O
0.724566 0.316083 0.882767 O
0.724566 0.816083 0.382767 O
0.724566 0.816083 0.882767 O
0.275435 0.433917 0.132764 O
0.275435 0.433917 0.632764 O
0.275435 0.933917 0.132764 O
0.275435 0.933917 0.632764 O
0.775435 0.433917 0.132764 O
0.775435 0.433917 0.632764 O
0.775435 0.933917 0.132764 O
0.775435 0.933917 0.632764 O
0.474565 0.433917 0.132764 O
0.474565 0.433917 0.632764 O
0.474565 0.933917 0.132764 O
0.474565 0.933917 0.632764 O
0.974565 0.433917 0.132764 O
0.974565 0.433917 0.632764 O
0.974565 0.933917 0.132764 O
0.974565 0.933917 0.632764 O
