Ca16 Co32 O64
1.0
   9.9348539583203177    0.0020363527839858    0.0155261559749270
   1.8116760440607715   10.7682339896564567    2.8866707342574021
   0.0005693568454194    0.0009519990107862   11.4716381540015586
Ca Co O
15 32 64
direct
   0.6845980808883249    0.3403501910285058    0.2923634805465092 Ca
   0.1845980808883247    0.3403501910285058    0.2923634805465092 Ca
   0.1845980808883248    0.3403501910285058    0.7923634805465092 Ca
   0.1845980808883247    0.8403501910285058    0.2923634805465092 Ca
   0.1845980808883247    0.8403501910285057    0.7923634805465093 Ca
   0.6845980808883247    0.3403501910285058    0.7923634805465093 Ca
   0.6845980808883247    0.8403501910285058    0.2923634805465092 Ca
   0.6845980808883246    0.8403501910285059    0.7923634805465093 Ca
   0.3748965464825886    0.3503041843726110    0.0382535340548919 Ca
   0.3748965464825886    0.8503041843726109    0.0382535340548919 Ca
   0.3748965464825886    0.8503041843726108    0.5382535340548920 Ca
   0.8748965464825885    0.3503041843726109    0.0382535340548920 Ca
   0.8748965464825885    0.3503041843726109    0.5382535340548920 Ca
   0.8748965464825887    0.8503041843726109    0.0382535340548920 Ca
   0.8748965464825885    0.8503041843726110    0.5382535340548918 Ca
   0.1533436340179293    0.0943392618765735    0.4783682868804426 Co
   0.1533436340179293    0.0943392618765735    0.9783682868804428 Co
   0.1533436340179293    0.5943392618765735    0.4783682868804426 Co
   0.1533436340179293    0.5943392618765735    0.9783682868804426 Co
   0.6533436340179293    0.0943392618765735    0.4783682868804426 Co
   0.6533436340179293    0.0943392618765735    0.9783682868804426 Co
   0.6533436340179292    0.5943392618765736    0.4783682868804426 Co
   0.6533436340179293    0.5943392618765735    0.9783682868804426 Co
   0.1533062836810118    0.0988194913956022    0.2263837157719131 Co
   0.1533062836810118    0.0988194913956022    0.7263837157719131 Co
   0.1533062836810117    0.5988194913956022    0.2263837157719130 Co
   0.1533062836810118    0.5988194913956022    0.7263837157719132 Co
   0.6533062836810117    0.0988194913956022    0.2263837157719130 Co
   0.6533062836810116    0.0988194913956022    0.7263837157719131 Co
   0.6533062836810117    0.5988194913956022    0.2263837157719131 Co
   0.6533062836810116    0.5988194913956022    0.7263837157719131 Co
   0.4062171282625506    0.0918181732868675    0.1041789909050621 Co
   0.4062171282625506    0.0918181732868675    0.6041789909050621 Co
   0.4062171282625506    0.5918181732868676    0.1041789909050621 Co
   0.4062171282625506    0.5918181732868676    0.6041789909050621 Co
   0.9062171282625505    0.0918181732868675    0.1041789909050621 Co
   0.9062171282625506    0.0918181732868675    0.6041789909050621 Co
   0.9062171282625507    0.5918181732868676    0.1041789909050621 Co
   0.9062171282625505    0.5918181732868675    0.6041789909050621 Co
   0.4061810284021590    0.0963042339748625    0.3521783470377891 Co
   0.4061810284021589    0.0963042339748626    0.8521783470377892 Co
   0.4061810284021589    0.5963042339748625    0.3521783470377891 Co
   0.4061810284021589    0.5963042339748625    0.8521783470377891 Co
   0.9061810284021589    0.0963042339748626    0.3521783470377891 Co
   0.9061810284021589    0.0963042339748626    0.8521783470377891 Co
   0.9061810284021589    0.5963042339748625    0.3521783470377891 Co
   0.9061810284021589    0.5963042339748625    0.8521783470377889 Co
   0.0052530199477161    0.0034016896671681    0.0001549668319143 O
   0.0052530199477161    0.0034016896671681    0.5001549668319143 O
   0.0052530199477161    0.5034016896671681    0.0001549668319143 O
   0.0052530199477161    0.5034016896671681    0.5001549668319143 O
   0.5052530199477161    0.0034016896671681    0.0001549668319143 O
   0.5052530199477161    0.0034016896671681    0.5001549668319143 O
   0.5052530199477161    0.5034016896671680    0.0001549668319143 O
   0.5052530199477162    0.5034016896671680    0.5001549668319143 O
   0.0056046745407947    0.0053628105640158    0.2511434253210147 O
   0.0056046745407947    0.0053628105640158    0.7511434253210149 O
   0.0056046745407947    0.5053628105640158    0.2511434253210147 O
   0.0056046745407947    0.5053628105640158    0.7511434253210147 O
   0.5056046745407947    0.0053628105640158    0.2511434253210147 O
   0.5056046745407947    0.0053628105640157    0.7511434253210147 O
   0.5056046745407947    0.5053628105640158    0.2511434253210147 O
   0.5056046745407947    0.5053628105640158    0.7511434253210147 O
   0.0539353958096207    0.1852641004937184    0.0794075287863869 O
   0.0539353958096207    0.1852641004937184    0.5794075287863869 O
   0.0539353958096207    0.6852641004937183    0.0794075287863869 O
   0.0539353958096207    0.6852641004937183    0.5794075287863869 O
   0.5539353958096207    0.1852641004937184    0.0794075287863869 O
   0.5539353958096206    0.1852641004937184    0.5794075287863869 O
   0.5539353958096207    0.6852641004937183    0.0794075287863869 O
   0.5539353958096207    0.6852641004937183    0.5794075287863869 O
   0.0542741960818418    0.1872437378895526    0.3303787818274628 O
   0.0542741960818418    0.1872437378895526    0.8303787818274628 O
   0.0542741960818418    0.6872437378895526    0.3303787818274628 O
   0.0542741960818418    0.6872437378895526    0.8303787818274628 O
   0.5542741960818417    0.1872437378895526    0.3303787818274628 O
   0.5542741960818418    0.1872437378895526    0.8303787818274628 O
   0.5542741960818418    0.6872437378895526    0.3303787818274628 O
   0.5542741960818418    0.6872437378895526    0.8303787818274629 O
   0.2540507963652380    0.4992153313948932    0.1280174483018399 O
   0.2540507963652380    0.4992153313948932    0.6280174483018399 O
   0.2540507963652380    0.9992153313948933    0.1280174483018399 O
   0.2540507963652380    0.9992153313948933    0.6280174483018399 O
   0.7540507963652380    0.4992153313948932    0.1280174483018399 O
   0.7540507963652381    0.4992153313948932    0.6280174483018399 O
   0.7540507963652379    0.9992153313948933    0.1280174483018399 O
   0.7540507963652381    0.9992153313948932    0.6280174483018400 O
   0.2553382483885364    0.0016478231527692    0.3749459921884757 O
   0.2553382483885365    0.0016478231527693    0.8749459921884758 O
   0.2553382483885364    0.5016478231527693    0.3749459921884757 O
   0.2553382483885364    0.5016478231527692    0.8749459921884758 O
   0.7553382483885364    0.0016478231527692    0.3749459921884757 O
   0.7553382483885364    0.0016478231527692    0.8749459921884758 O
   0.7553382483885364    0.5016478231527692    0.3749459921884757 O
   0.7553382483885365    0.5016478231527692    0.8749459921884757 O
   0.3041896797673651    0.1889951191191237    0.4556075425627171 O
   0.3041896797673651    0.1889951191191237    0.9556075425627172 O
   0.3041896797673651    0.6889951191191237    0.4556075425627171 O
   0.3041896797673651    0.6889951191191237    0.9556075425627172 O
   0.8041896797673650    0.1889951191191237    0.4556075425627171 O
   0.8041896797673651    0.1889951191191237    0.9556075425627172 O
   0.8041896797673651    0.6889951191191237    0.4556075425627171 O
   0.8041896797673650    0.6889951191191237    0.9556075425627171 O
   0.3054607873643285    0.1914343517837338    0.2025679589835719 O
   0.3054607873643284    0.1914343517837338    0.7025679589835719 O
   0.3054607873643285    0.6914343517837338    0.2025679589835719 O
   0.3054607873643285    0.6914343517837339    0.7025679589835718 O
   0.8054607873643285    0.1914343517837338    0.2025679589835719 O
   0.8054607873643285    0.1914343517837338    0.7025679589835718 O
   0.8054607873643286    0.6914343517837338    0.2025679589835719 O
   0.8054607873643284    0.6914343517837338    0.7025679589835719 O
