Ca1 Mn12 F42                            
   1.00000000000000     
     7.3237569999999996   -0.0331140000000000   -0.0623410000000000
    -3.6896330000000002    6.3796090000000003    0.0258050000000000
     0.0783680000000000   -0.0223920000000000   17.4782299999999999
   Ca   Mn   F 
     1    12    42
Direct
  0.4734656696945233  0.5023832817146457  0.6724358656200132
  0.3026353410093888  0.0123551893571426  0.3269813033637991
  0.7037668116621262  0.7165857414045280  0.0048269166582268
 -0.0244927377113329  0.2721443683712219  0.6693166226401421
  0.3222955397901866  0.9759778085452324  0.8408165978178337
  0.6845902573352971  0.6690125137587760  0.4827863273580861
  1.0097030592361260  0.3669999571183116  0.1677848436820252
  0.6679678635067461  0.1611015823487162  0.4867872463168352
  0.5096412753638416  0.3673904285659047  0.1682328349990602
  0.8186666097284555  0.4754963861681559  0.8373507090304688
  0.3113478109908838  0.4748798045434158  0.8563068898194058
  0.1763408591971121  0.6563392098554811  0.4934340714517372
  0.5099408879243321  0.8679500208182681  0.1674149294108379
  0.5709559712240028  0.8344901183452819  0.0658688102374328
  0.1971786257745278  0.3879937031481103  0.7539968145498628
  0.2079130108922735  0.7745292663177291  0.3849731771630217
  0.4431539734794959  0.2719014600881530  0.2697125335770766
  0.7848846738167129  0.5708803787012563  0.9404380501372900
  0.7738396292285620  0.1893228511935718  0.5872631411897375
  0.8228956691233608  0.0261956019107002  0.7144666451297833
  0.1947704483584176  0.1182906002682311  0.3884590879967791
  0.9287910094286864  0.8256842905278962  0.0616383501260859
  0.1628646959170768  0.2046629790834862  0.6263025756819501
  0.0927987994957778  0.9010058182562971  0.2629160671665781
  0.7907983020452554  0.9226127494637761  0.9401773767576357
  0.1592009576606114  0.5389788651686879  0.6194977090151619
  0.4541233278858073  0.9039666225493004  0.2689194043571472
  0.4271368400572147  0.5658314511744927  0.9537615576921493
  0.8384572872249618  0.3937736752660765  0.7240832122778087
  0.5651013272805886  0.1429463979973341  0.3862776123493405
  0.5741699119210752  0.4607803666582919  0.0673146417253192
  0.3827426025577048  0.5759182510619868  0.4754468438894609
  0.2228844906736501  0.6585533948319047  0.1503168631185458
  0.3975821947285987  0.7563174414664356  0.8182267224483250
  0.6147182995757147  0.1916834012548607  0.8603266982998539
  0.5968723463641005  0.3782586411282497  0.5139613730101539
  0.7956395295241914  0.4424426481209623  0.1871639184257436
  0.7070826315600872  0.6208133445662573  0.3869689928209154
  0.9457372201703067  0.3370999114148535  0.0691756349849572
  0.3608468107662807  0.0669577675401737  0.7431180928913649
  0.2865728388826628  0.8919982265346112  0.9366188933639629
  0.6652896058808554  0.7215044530496975  0.5862818398724170
  0.0736084703151365  0.3966423192472969  0.2664450924076622
  0.9706250203864558  0.7390430235866120  0.5092260274105342
  0.7979620256606302  0.0750726369615936  0.1846842755856888
  0.2544030480821101  0.1939983629245229  0.8707368617570665
  0.0311299514262164  0.7602210114980097  0.8150646390941753
  0.7450759556942597  0.9508117600250658  0.4628749107168532
  0.2231692757481864  0.2906809965984479  0.1491129716692400
  0.5995613973616781  0.5280829923196351  0.7965158001358119
  0.9574962232207469  0.3893937596799426  0.4620246000609347
  0.4522563908104766  0.1011196291295379  0.1377191615104345
  0.3933194354556225  0.9284391846762244  0.5249230254246107
  0.5670946495368597  0.6335717006849259  0.1981695157410111
  0.0237122984444955  0.4243279883039327  0.8780193491367712
 
             NaN             NaN             NaN
             NaN             NaN             NaN
             NaN             NaN             NaN
             NaN             NaN             NaN
             NaN             NaN             NaN
             NaN             NaN             NaN
             NaN             NaN             NaN
             NaN             NaN             NaN
             NaN             NaN             NaN
             NaN             NaN             NaN
             NaN             NaN             NaN
             NaN             NaN             NaN
             NaN             NaN             NaN
             NaN             NaN             NaN
             NaN             NaN             NaN
             NaN             NaN             NaN
             NaN             NaN             NaN
             NaN             NaN             NaN
             NaN             NaN             NaN
             NaN             NaN             NaN
             NaN             NaN             NaN
             NaN             NaN             NaN
             NaN             NaN             NaN
             NaN             NaN             NaN
             NaN             NaN             NaN
             NaN             NaN             NaN
             NaN             NaN             NaN
             NaN             NaN             NaN
             NaN             NaN             NaN
             NaN             NaN             NaN
             NaN             NaN             NaN
             NaN             NaN             NaN
             NaN             NaN             NaN
             NaN             NaN             NaN
             NaN             NaN             NaN
             NaN             NaN             NaN
             NaN             NaN             NaN
             NaN             NaN             NaN
             NaN             NaN             NaN
             NaN             NaN             NaN
             NaN             NaN             NaN
             NaN             NaN             NaN
             NaN             NaN             NaN
             NaN             NaN             NaN
             NaN             NaN             NaN
             NaN             NaN             NaN
             NaN             NaN             NaN
             NaN             NaN             NaN
             NaN             NaN             NaN
             NaN             NaN             NaN
             NaN             NaN             NaN
             NaN             NaN             NaN
             NaN             NaN             NaN
             NaN             NaN             NaN
             NaN             NaN             NaN
