Ca1 Mn12 F42
1.0
7.323757 -0.033114 -0.062341
-3.689633 6.379609 0.025805
0.078368 -0.022392 17.478230
Ca Mn F
1 12 42
direct
0.501456 0.547512 0.666101 Ca
0.294369 1.003342 0.329259 Mn
0.706472 0.708795 0.004846 Mn
0.000292 0.297817 0.667024 Mn
0.347357 0.995876 0.838974 Mn
0.653927 0.648333 0.494418 Mn
0.998717 0.352694 0.166824 Mn
0.650664 0.147266 0.491800 Mn
0.499961 0.354272 0.166514 Mn
0.849278 0.495614 0.837810 Mn
0.351448 0.499202 0.841376 Mn
0.151902 0.646137 0.496020 Mn
0.497481 0.853278 0.166952 Mn
0.561688 0.817107 0.065048 F
0.264001 0.443204 0.735714 F
0.191174 0.766132 0.392465 F
0.438195 0.256828 0.268494 F
0.811704 0.576569 0.941691 F
0.748845 0.181593 0.595581 F
0.865088 0.065846 0.722810 F
0.196665 0.120280 0.390526 F
0.920495 0.810508 0.067164 F
0.147928 0.206174 0.613639 F
0.078220 0.890813 0.267825 F
0.805694 0.924155 0.943871 F
0.130422 0.552524 0.608126 F
0.434274 0.884826 0.269144 F
0.445581 0.565458 0.943616 F
0.862311 0.418820 0.723686 F
0.556627 0.123265 0.389444 F
0.562261 0.448284 0.064330 F
0.363233 0.569940 0.477827 F
0.211452 0.643859 0.148177 F
0.434897 0.795783 0.815131 F
0.634792 0.204302 0.857976 F
0.566460 0.359023 0.520745 F
0.786757 0.431794 0.184697 F
0.685774 0.607140 0.398273 F
0.934213 0.319316 0.068193 F
0.388931 0.071173 0.735862 F
0.308707 0.918932 0.934670 F
0.618138 0.678042 0.598335 F
0.063131 0.386069 0.265446 F
0.940344 0.721608 0.517572 F
0.784594 0.062037 0.185309 F
0.268545 0.201833 0.856609 F
0.064139 0.786487 0.813452 F
0.731497 0.931542 0.477037 F
0.212109 0.275459 0.148963 F
0.626272 0.544222 0.799408 F
0.935492 0.375736 0.464575 F
0.443072 0.085502 0.136457 F
0.373458 0.918925 0.532280 F
0.554783 0.621199 0.196920 F
0.068662 0.442619 0.866578 F
