Ca2 Mn4 S6 O24                          
   1.00000000000000     
     7.9851520000000002    0.3319520000000000    4.4387499999999998
     2.9226350000000001    7.6372020000000003    4.4684990000000004
     0.1551290000000000    0.1502800000000000    8.7775130000000008
   Ca   Mn   S    O 
     2     4     6    24
Direct
  0.3433935173337327  0.7393043624224275  0.4688928875419094
  0.9926704854121894  0.0068474205027444 -0.0087504366334487
  0.6522183362051119  0.6249566819910983  0.6617455073455438
  0.1496864209490436  0.1984691824403269  0.1160243740994036
  0.8364933644937995  0.8126609074317902  0.8627865565801516
  0.3626404472625829  0.3525398161182597  0.3589595144078956
  0.9739442881525899  0.2617479157125706  0.5211593409286953
  0.4284597098571648  0.0228602257774263  0.7687071478999434
  0.5665613308752907  0.9679663205876686  0.2331309020215102
  0.7404580894593478  0.4366060960398327  0.0707972488395913
  0.2486867951473060  0.5649459688800282  0.9372069214839945
  0.0214154936310786  0.7371659533024276  0.4700303145258625
  0.3919289156381378  0.5981272333124077  0.7483899315990693
  0.9045951381901391  0.2605270127465045  0.0742598948356424
  0.7885708848480126  0.4035298406804130  0.5598459978607783
 -0.0270732781951739  0.8729988505680694  0.3033808069279819
  0.6061762801474315  0.7897192940242491  0.3818359794933802
  0.2612670226866878  0.0350867353726948  0.9446022492737430
  0.7239225369601447  0.9551661041244507  0.0574634220048592
  0.2198340544632754  0.6125901776240482  0.4160291522870085
  0.0785490470703909  0.7342402593864742  0.9305175155167437
  0.3931573738401606  0.2019570728660507  0.6290266543647554
  0.9946734396683624  0.1081498324980250  0.6948871356535875
  0.5950775655081234  0.4220319368994285  0.2536109693504469
 -0.0020211677651459  0.1933655560408518  0.3847528074237344
  0.4502421102481783  0.8866124130892428  0.7103213157648020
  0.3962990618764506 -0.0029869507598253  0.2144348793016544
  0.6756788267241038  0.4759953944177376  0.9255230571841770
  0.2121934977776850  0.4188205023229740  0.9569813082516514
  0.9008501807533964  0.6381271492722295  0.5906762585812012
  0.1163693370388855  0.3331639568284844  0.4434585630584776
  0.5896569382679286  0.9679301191014262  0.8152887406201054
  0.5406092877159510  0.1122125994270106  0.2793255326931195
  0.8013261122801340  0.5745479971964600  0.0312365210515014
  0.3096636362168865  0.5258474518818418  0.0829610287175026
  0.0182073343209227  0.8221018663964458  0.5822149717583522
 
             NaN             NaN             NaN
             NaN             NaN             NaN
             NaN             NaN             NaN
             NaN             NaN             NaN
             NaN             NaN             NaN
             NaN             NaN             NaN
             NaN             NaN             NaN
             NaN             NaN             NaN
             NaN             NaN             NaN
             NaN             NaN             NaN
             NaN             NaN             NaN
             NaN             NaN             NaN
             NaN             NaN             NaN
             NaN             NaN             NaN
             NaN             NaN             NaN
             NaN             NaN             NaN
             NaN             NaN             NaN
             NaN             NaN             NaN
             NaN             NaN             NaN
             NaN             NaN             NaN
             NaN             NaN             NaN
             NaN             NaN             NaN
             NaN             NaN             NaN
             NaN             NaN             NaN
             NaN             NaN             NaN
             NaN             NaN             NaN
             NaN             NaN             NaN
             NaN             NaN             NaN
             NaN             NaN             NaN
             NaN             NaN             NaN
             NaN             NaN             NaN
             NaN             NaN             NaN
             NaN             NaN             NaN
             NaN             NaN             NaN
             NaN             NaN             NaN
             NaN             NaN             NaN
