Ca2 Mn4 S6 O24
1.0
7.985152 0.331952 4.438750
2.922635 7.637202 4.468499
0.155129 0.150280 8.777513
Ca Mn S O
2 4 6 24
direct
0.341439 0.736547 0.533620 Ca
0.979956 1.006748 1.007354 Ca
0.653376 0.634820 0.648913 Mn
0.153394 0.189482 0.115769 Mn
0.834419 0.812321 0.862140 Mn
0.359137 0.354684 0.353199 Mn
0.970372 0.261138 0.527172 S
0.425326 0.027878 0.761529 S
0.561167 0.962855 0.234229 S
0.742190 0.439020 0.064798 S
0.252055 0.561885 0.933331 S
0.035214 0.736491 0.466983 S
0.401386 0.582375 0.749605 O
0.907150 0.264347 0.067178 O
0.784161 0.400972 0.558827 O
0.017826 0.877806 0.289952 O
0.580897 0.789086 0.389942 O
0.255936 0.047564 0.929767 O
0.727938 0.936279 0.067551 O
0.220924 0.593994 0.437920 O
0.093123 0.742491 0.915460 O
0.403283 0.204914 0.615982 O
0.984872 0.108996 0.705145 O
0.597417 0.414841 0.246622 O
1.008178 0.183755 0.392733 O
0.441752 0.895751 0.700843 O
0.395461 1.012956 0.198877 O
0.681191 0.484498 0.913972 O
0.195995 0.426318 0.959790 O
0.894307 0.667411 0.553892 O
0.107308 0.331882 0.460536 O
0.585091 -0.035067 0.811752 O
0.547021 0.102277 0.279148 O
0.796936 0.576262 0.037374 O
0.308890 0.517864 0.085168 O
0.011155 0.814719 0.594695 O
