Ca2 Mn4 S6 O24                          
   1.00000000000000     
     7.8429359999999999    0.1458950000000000    4.5356820000000004
     2.7161749999999998    7.3988839999999998    4.5416290000000004
     0.1429350000000000    0.1095530000000000    8.9878099999999996
   Ca   Mn   S    O 
     2     4     6    24
Direct
  0.4912109770709741  0.5145022350042564  0.4940160432171751
  0.9922870947044010  1.0058729332061600  0.9973137237319358
  0.6416958533519763  0.6561449920415389  0.6547704617065779
  0.1459139973665866  0.1604776438390201  0.1463354677962103
  0.8472149168980484  0.8487823141596544  0.8436871036818340
  0.3429044678671475  0.3510915000349371  0.3498471173764807
  0.9407997052171432  0.2576760937210847  0.5451618574082390
  0.4378433704153999  0.0507310918384618  0.7510937644841351
  0.5482416755196039  0.9549444839499576  0.2445234098159715
  0.7439358069385092  0.4514698464432044  0.0526322114161048
  0.2446523800570280  0.5558707234968361  0.9457333218940609
  0.0466606433378468  0.7513787485766599  0.4555219391067934
  0.3947412905788035  0.5824952947125434  0.7613551360139721
  0.9024992236620409  0.2724042148188627  0.0635634524467726
  0.7574706836638463  0.4100642424382931  0.5695520478492030
  0.0421700517924195  0.9049843600783051  0.2764677141050971
  0.5788638385743911  0.7717757813517312  0.3944128205891572
  0.2612613780132644  0.0665985273932688  0.9129168403817823
  0.7229895136424327  0.9462142646068633  0.0813759877303296
  0.2301783689318032  0.6001668313740333  0.4221808147603764
  0.0842524930893825  0.7333730691673749  0.9383712213649872
  0.4180885083271084  0.2343654806545248  0.6014483238220473
  0.9316352233336465  0.1009528246221095  0.7240782298125812
  0.5940276832342496  0.4303757636694686  0.2374014634149103
  0.9733041831139061  0.2033864826519804  0.3987115312010168
  0.4627684385930751  0.9130850540572498  0.6911811326270905
  0.3968700962689493  0.9881246398167113  0.1977021272113763
  0.6794803606101953  0.4895193951669412  0.9116095904854018
  0.1932122682744978  0.4105470976833054  0.9762614811560922
  0.8972633158515427  0.6852852722780252  0.5272200797425725
  0.0858580840255172  0.3180453826988429  0.5002683758118331
  0.5922757607761817 -0.0003560518687945  0.8033374591991860
  0.5099237643370444  0.0994883277528279  0.3029737332386854
  0.8000925824259139  0.5972366200543615  0.0128087711944148
  0.3061420761438227  0.5119549883911068  0.0912759619086537
  0.0334851165414832  0.8111717102953480  0.5885842329624869
 
             NaN             NaN             NaN
             NaN             NaN             NaN
             NaN             NaN             NaN
             NaN             NaN             NaN
             NaN             NaN             NaN
             NaN             NaN             NaN
             NaN             NaN             NaN
             NaN             NaN             NaN
             NaN             NaN             NaN
             NaN             NaN             NaN
             NaN             NaN             NaN
             NaN             NaN             NaN
             NaN             NaN             NaN
             NaN             NaN             NaN
             NaN             NaN             NaN
             NaN             NaN             NaN
             NaN             NaN             NaN
             NaN             NaN             NaN
             NaN             NaN             NaN
             NaN             NaN             NaN
             NaN             NaN             NaN
             NaN             NaN             NaN
             NaN             NaN             NaN
             NaN             NaN             NaN
             NaN             NaN             NaN
             NaN             NaN             NaN
             NaN             NaN             NaN
             NaN             NaN             NaN
             NaN             NaN             NaN
             NaN             NaN             NaN
             NaN             NaN             NaN
             NaN             NaN             NaN
             NaN             NaN             NaN
             NaN             NaN             NaN
             NaN             NaN             NaN
             NaN             NaN             NaN
