Ca2 Mn4 S6 O24
1.0
7.842936 0.145895 4.535682
2.716175 7.398884 4.541629
0.142935 0.109553 8.987810
Ca Mn S O
2 4 6 24
direct
0.466285 0.545306 0.504721 Ca
0.993988 0.999347 0.999468 Ca
0.650027 0.646316 0.649133 Mn
0.150030 0.157249 0.142505 Mn
0.843523 0.839103 0.849067 Mn
0.348467 0.347576 0.347279 Mn
0.950549 0.250226 0.545147 S
0.441539 0.045287 0.750305 S
0.551944 0.949044 0.244845 S
0.746436 0.444278 0.052674 S
0.248410 0.552089 0.943138 S
0.046756 0.745298 0.449868 S
0.402314 0.570095 0.761344 O
0.903467 0.264294 0.067053 O
0.768257 0.402232 0.565384 O
0.057184 0.897600 0.269413 O
0.569799 0.769240 0.400024 O
0.262610 0.063133 0.907990 O
0.730262 0.929621 0.087372 O
0.228863 0.592664 0.429943 O
0.092488 0.733174 0.925455 O
0.423021 0.225658 0.597059 O
0.939337 0.095662 0.725706 O
0.593348 0.425326 0.234004 O
0.988976 0.189128 0.401504 O
0.475688 0.902106 0.692546 O
0.402048 0.989929 0.192153 O
0.688613 0.484242 0.905753 O
0.191576 0.408221 0.979294 O
0.901820 0.685858 0.498114 O
0.094384 0.310056 0.501643 O
0.589939 0.002518 0.806032 O
0.518934 0.093376 0.299512 O
0.803065 0.588174 0.017013 O
0.305460 0.513102 0.089955 O
0.011761 0.806624 0.591860 O
