Ca8 Cr12 F42                            
   1.00000000000000     
     7.4225859999999999    0.0153960000000000   -0.5141340000000000
    -3.5780470000000002    6.8480569999999998    0.2645920000000000
     0.9168960000000000    0.3303780000000000   18.3360659999999989
   Ca   Cr   F 
     8    12    42
Direct
  0.8771338623304177  0.0681804434274577  0.3532586393951831
  0.5306942653062218  0.8359171350836757  0.6792973927049343
  0.6013047446492157  0.1269740451518087  0.0031869721386040
  0.0169590573424931  0.8049167984661317  0.6627750262559031
  0.1099713143314317  0.6710818465943856  1.0140049772209661
  0.8742353315863967  0.7529886425039546  0.1860819955248636
  0.8581762427010976  0.9063631362796792  0.8474471393242468
  0.2683255387886001  0.2439727435542304  0.5092036243878512
  0.3176963744389084  1.0026006273585799  0.3325750659847530
  0.0093182943581289  0.3005917800184815  0.6669403630361567
  0.6207927737344318  0.6544149460955133 -0.0027116697633303
  0.3500746761043570  0.9813221719232149  0.8279616689809934
  0.9559986303456932  0.3132663758771361  0.1602451705428430
  0.7076544139637078  0.6921618999908948  0.4977907440250228
  0.4396951049572526  0.8240311546139335  0.1677702216727224
  0.2138073987736567  0.7048597494946860  0.4993619743580284
  0.3125129416075380  0.4695717810443618  0.8315099165313538
  0.8175966130530395  0.4648998290660338  0.8273152235672460
  0.7031970315840743  0.1874348292040749  0.5006517144995927
  0.4525821831768961  0.3181159051472708  0.1557021152807499
  0.7468591639598254  0.1310269860290817  0.6185104428535509
  0.8937543203476704  0.6718116346667825  0.9265340830629522
  0.4027541752955810  0.2111807990471490  0.2580987559938551
  0.2082920770625964  0.7561301815593331  0.3961089300412208
  0.4417582769313840  0.7834391197024864  0.0594811423538054
  0.2716508613024665  0.4704013701968947  0.7221837110983635
  0.7302618771086676  0.9308624313070978  0.9559250123758127
  1.0315499541023432  0.9075413709277491  0.2858005646301677
  0.1318780349237562  0.1476454539394001  0.6196567290631569
  0.8686666923614951  0.7502625376691737  0.0631285006702548
  0.8521353746979478  0.9484096364572915  0.7259476988779294
  0.1997043805804493  0.1348886100212914  0.3962452360212728
  0.5340848726695863  0.3898896557579601  0.0378711554817400
  0.5945655708378156  0.1219318471221661  0.3816657276646973
  0.8919282083740031  0.4691300709139443  0.6921295409499968
  0.3617360901388321  0.5490378259369741  0.9363593235320786
  0.2402497022930436  0.6968265462741193  0.6081328153832652
  0.4259473930513778  0.8677339511279225  0.2714502714414072
  0.7530229016765749  0.4154450582633468  0.1754562998387757
  0.6366973570392024  0.4085770931576655  0.5135699166141823
  0.6335625546092087  0.2398919605543404  0.8862363142243442
  0.5277845150261992  0.8587446204010666  0.8106791797815009
  0.3986632825225547  0.5784009472624371  0.4932882127271050
  0.1409666946674525  0.6958013299319763  0.1501611428049549
  0.9845991421354605  0.2910782254145390  0.2646181283519521
  0.6894625452188582  0.7103225542508879  0.6061295310887284
  0.3155143317624821  0.9254263145869662  0.9385126009321566
  0.3404074015874715  0.9816409805534736  0.7179106489430167
  0.7367463966863786  0.7022181191546257  0.3962927401726400
  0.9170426178195829  0.3485643275419269  0.0507157033844697
  0.1635203395467176  0.2338407916400084  0.1350809066900637
  0.7547990526441979  0.9632012437552840  0.4801327977287669
  0.0119078792877094  0.7323321559072692  0.7901101946903425
  0.1922208430615676  0.1248926329003974  0.8384094026038250
  0.0055489529064916  0.7936313598089652  0.5229234667930447
  0.7398936153773141  0.9684499109014223  0.1736305896140975
  0.0177240632155124  0.3661174627449964  0.8443515932001052
  0.5146021968658081  0.5846796033601863  0.1833721912805868
  0.4111984600000093  0.0361665568454831  0.5210560978001437
  0.4311265862211975  0.0755914001063294  0.1148602688374022
  0.6089385216449004  0.5605621580040220  0.8140341305858835
 -0.0030640005128604  0.3230815369911722  0.4778276918443874
 
             NaN             NaN             NaN
             NaN             NaN             NaN
             NaN             NaN             NaN
             NaN             NaN             NaN
             NaN             NaN             NaN
             NaN             NaN             NaN
             NaN             NaN             NaN
             NaN             NaN             NaN
             NaN             NaN             NaN
             NaN             NaN             NaN
             NaN             NaN             NaN
             NaN             NaN             NaN
             NaN             NaN             NaN
             NaN             NaN             NaN
             NaN             NaN             NaN
             NaN             NaN             NaN
             NaN             NaN             NaN
             NaN             NaN             NaN
             NaN             NaN             NaN
             NaN             NaN             NaN
             NaN             NaN             NaN
             NaN             NaN             NaN
             NaN             NaN             NaN
             NaN             NaN             NaN
             NaN             NaN             NaN
             NaN             NaN             NaN
             NaN             NaN             NaN
             NaN             NaN             NaN
             NaN             NaN             NaN
             NaN             NaN             NaN
             NaN             NaN             NaN
             NaN             NaN             NaN
             NaN             NaN             NaN
             NaN             NaN             NaN
             NaN             NaN             NaN
             NaN             NaN             NaN
             NaN             NaN             NaN
             NaN             NaN             NaN
             NaN             NaN             NaN
             NaN             NaN             NaN
             NaN             NaN             NaN
             NaN             NaN             NaN
             NaN             NaN             NaN
             NaN             NaN             NaN
             NaN             NaN             NaN
             NaN             NaN             NaN
             NaN             NaN             NaN
             NaN             NaN             NaN
             NaN             NaN             NaN
             NaN             NaN             NaN
             NaN             NaN             NaN
             NaN             NaN             NaN
             NaN             NaN             NaN
             NaN             NaN             NaN
             NaN             NaN             NaN
             NaN             NaN             NaN
             NaN             NaN             NaN
             NaN             NaN             NaN
             NaN             NaN             NaN
             NaN             NaN             NaN
             NaN             NaN             NaN
             NaN             NaN             NaN
