Ca8 Cr12 F42
1.0
7.422586 0.015396 -0.514134
-3.578047 6.848057 0.264592
0.916896 0.330378 18.336066
Ca Cr F
8 12 42
direct
0.828235 0.125365 0.341848 Ca
0.532868 0.850689 0.678368 Ca
0.593594 0.106698 0.006095 Ca
0.017506 0.815658 0.661687 Ca
0.112273 0.628236 0.994665 Ca
0.886335 0.751401 0.178502 Ca
0.849956 0.902565 0.846421 Ca
0.254556 0.238576 0.501385 Ca
0.314341 0.990321 0.330697 Cr
0.009088 0.309724 0.661927 Cr
0.633686 0.644556 0.000892 Cr
0.346229 0.984810 0.827317 Cr
0.953415 0.301273 0.159705 Cr
0.706140 0.691516 0.502325 Cr
0.443193 0.810653 0.168284 Cr
0.214676 0.705413 0.500394 Cr
0.314921 0.470312 0.831801 Cr
0.816100 0.463952 0.824633 Cr
0.707347 0.189267 0.502941 Cr
0.450830 0.305321 0.159453 Cr
0.739196 0.144814 0.612158 F
0.883886 0.666609 0.920897 F
0.422230 0.220774 0.266303 F
0.210084 0.748704 0.395491 F
0.413816 0.756970 0.059061 F
0.256688 0.465289 0.724396 F
0.731441 0.919525 0.958858 F
0.992724 0.859185 0.278467 F
0.130278 0.153655 0.615868 F
0.894483 0.724378 0.057462 F
0.853549 0.967530 0.725266 F
0.180382 0.110551 0.393810 F
0.533140 0.376438 0.041169 F
0.659422 0.175066 0.398828 F
0.889732 0.473533 0.691206 F
0.378359 0.544837 0.937210 F
0.245497 0.705091 0.609757 F
0.470852 0.884476 0.272456 F
0.749259 0.403114 0.174403 F
0.621656 0.401288 0.515939 F
0.642578 0.236737 0.886729 F
0.521357 0.857425 0.809333 F
0.402751 0.584277 0.492911 F
0.148633 0.672724 0.169337 F
0.966543 0.275444 0.262532 F
0.687751 0.715519 0.610225 F
0.315335 0.916076 0.935400 F
0.341932 0.995280 0.717856 F
0.724990 0.684467 0.400635 F
0.915550 0.327633 0.049042 F
0.161813 0.216413 0.139980 F
0.786516 0.977521 0.487395 F
0.006208 0.737686 0.787170 F
0.184206 0.125535 0.840929 F
0.002450 0.787086 0.526809 F
0.738511 0.958396 0.154017 F
0.037523 0.410233 0.860231 F
0.517833 0.580130 0.182370 F
0.409486 0.026308 0.515636 F
0.425837 0.056619 0.120052 F
0.603052 0.550816 0.806222 F
0.005856 0.365001 0.501023 F
