Zn8 Cr16 S32                            
   1.00000000000000     
     9.5984252581208640    0.0000332247091951    0.0000098424921558
     0.0000332163215943    9.5983796338730052    0.0000229425210437
     0.0000098454661857    0.0000229329914870    9.5984186547498442
   Zn   Cr   S 
     1    16    32
Direct
  0.7499950837541568  0.7500034881418810  0.7499988417679796
  0.1328270277583395  0.1328190963693902  0.1328233188211790
  0.3671620256969394  0.3671899957179438  0.1328223487575518
  0.3671568153441729  0.1328246009393280  0.3671989280837881
  0.6266943134411619  0.3580357670197429  0.8732928563703513
  0.1419908394948663  0.6267137706637900  0.6267205605644378
  0.3580351447933236  0.8732923561987517  0.6267266882156620
  0.3580395942172138  0.6267243985122684  0.8732929669541061
  0.6266931421242584  0.8732939384110636  0.3580293826165813
  0.6266896213607671  0.1419606684713166  0.6267162349659929
  0.8733068127378854  0.3580197415236193  0.6267115315947586
  0.8733007751948243  0.1419524037179151  0.8732926925214509
  0.1328391025667033  0.3671725570457786  0.3671868868414992
  0.6266921803795544  0.6267144430178304  0.1419403074590828
  0.8733037153426441  0.8732902414401288  0.1419404081511171
  0.8733067001669731  0.6267067057376093  0.3580183294825759
  0.1419791395892282  0.8732847350985397  0.8732906242045448
  0.1248731454168730  0.1248878804042727  0.3751270361401503
  0.8719934216625322  0.8720011588109809  0.3782265923269943
  0.8845312749489284  0.1184746616149112  0.1184713777176813
  0.1184898063790134  0.1184720242411028  0.8845107080019474
  0.3815028667180925  0.3815338442001650  0.8845143348534427
  0.3751368605665882  0.1248731175799257  0.1248881179071502
  0.1248640898382589  0.3751305710633630  0.1248927739257229
  0.1184909484105504  0.8845135634110584  0.1184688519202394
  0.1217647462157934  0.6280068011085167  0.8720108090002959
  0.8719864928582790  0.3782314812087970  0.8720013859093416
  0.8893292083430678  0.6106894168579007  0.6106949607851027
  0.1185025495708501  0.6154686668289666  0.3815133119153121
  0.3814971226436550  0.8845252139683097  0.3815309723832470
  0.3782553539775898  0.6280051070476735  0.6280128299770351
  0.1217625448675491  0.8720117668509090  0.6280056879762482
  0.1185003273583951  0.3815115084940093  0.6154727953263193
  0.6280178597816660  0.1217569222144787  0.8719980767034918
  0.3782462071227328  0.8719883891141836  0.8719958091333792
  0.3815003953412522  0.1184728882702649  0.6154804375085847
  0.6154563776422127  0.1184880768154284  0.3815210827501588
  0.8845473285113525  0.3815108611005904  0.3815162233669028
  0.8719903813894198  0.1217592499585471  0.6280090834699261
  0.6280057354130455  0.3782374905702128  0.6280031063995208
  0.6106571421984426  0.8893137598815201  0.6107013510502552
  0.6280066698744707  0.6279997076585977  0.3782315837655693
  0.3751194071174911  0.3751167758939564  0.3751230333897724
  0.3815031683635483  0.6154835046177660  0.1184630362475274
  0.6106559777960285  0.6106962281469419  0.8893069064955652
  0.8893328929287897  0.8893146376319454  0.8893105419321510
  0.8719874461417275  0.6280076760300972  0.1217606110841753
  0.6280160556535379  0.8719959069885189  0.1217568908863536
  0.6154641609852530  0.3815222333891770  0.1184767723777557
 
  0.00000000E+00  0.00000000E+00  0.00000000E+00
  0.00000000E+00  0.00000000E+00  0.00000000E+00
  0.00000000E+00  0.00000000E+00  0.00000000E+00
  0.00000000E+00  0.00000000E+00  0.00000000E+00
  0.00000000E+00  0.00000000E+00  0.00000000E+00
  0.00000000E+00  0.00000000E+00  0.00000000E+00
  0.00000000E+00  0.00000000E+00  0.00000000E+00
  0.00000000E+00  0.00000000E+00  0.00000000E+00
  0.00000000E+00  0.00000000E+00  0.00000000E+00
  0.00000000E+00  0.00000000E+00  0.00000000E+00
  0.00000000E+00  0.00000000E+00  0.00000000E+00
  0.00000000E+00  0.00000000E+00  0.00000000E+00
  0.00000000E+00  0.00000000E+00  0.00000000E+00
  0.00000000E+00  0.00000000E+00  0.00000000E+00
  0.00000000E+00  0.00000000E+00  0.00000000E+00
  0.00000000E+00  0.00000000E+00  0.00000000E+00
  0.00000000E+00  0.00000000E+00  0.00000000E+00
  0.00000000E+00  0.00000000E+00  0.00000000E+00
  0.00000000E+00  0.00000000E+00  0.00000000E+00
  0.00000000E+00  0.00000000E+00  0.00000000E+00
  0.00000000E+00  0.00000000E+00  0.00000000E+00
  0.00000000E+00  0.00000000E+00  0.00000000E+00
  0.00000000E+00  0.00000000E+00  0.00000000E+00
  0.00000000E+00  0.00000000E+00  0.00000000E+00
  0.00000000E+00  0.00000000E+00  0.00000000E+00
  0.00000000E+00  0.00000000E+00  0.00000000E+00
  0.00000000E+00  0.00000000E+00  0.00000000E+00
  0.00000000E+00  0.00000000E+00  0.00000000E+00
  0.00000000E+00  0.00000000E+00  0.00000000E+00
  0.00000000E+00  0.00000000E+00  0.00000000E+00
  0.00000000E+00  0.00000000E+00  0.00000000E+00
  0.00000000E+00  0.00000000E+00  0.00000000E+00
  0.00000000E+00  0.00000000E+00  0.00000000E+00
  0.00000000E+00  0.00000000E+00  0.00000000E+00
  0.00000000E+00  0.00000000E+00  0.00000000E+00
  0.00000000E+00  0.00000000E+00  0.00000000E+00
  0.00000000E+00  0.00000000E+00  0.00000000E+00
  0.00000000E+00  0.00000000E+00  0.00000000E+00
  0.00000000E+00  0.00000000E+00  0.00000000E+00
  0.00000000E+00  0.00000000E+00  0.00000000E+00
  0.00000000E+00  0.00000000E+00  0.00000000E+00
  0.00000000E+00  0.00000000E+00  0.00000000E+00
  0.00000000E+00  0.00000000E+00  0.00000000E+00
  0.00000000E+00  0.00000000E+00  0.00000000E+00
  0.00000000E+00  0.00000000E+00  0.00000000E+00
  0.00000000E+00  0.00000000E+00  0.00000000E+00
  0.00000000E+00  0.00000000E+00  0.00000000E+00
  0.00000000E+00  0.00000000E+00  0.00000000E+00
  0.00000000E+00  0.00000000E+00  0.00000000E+00
