Ca12 V24 O60
1.0
  10.7186601162000006    0.0000000000000000    0.0000000000000000
   0.0000000000000000    9.9153738021999995    0.0000000000000000
   0.0000000000000000    0.0000000000000000   11.3332300186000001
Ca V O
11 24 60
direct
   0.3333333333333333    0.4251133800000000    0.5000000000000000 Ca
   0.1666666666666667    0.0748866275000000    0.0000000000000000 Ca
   0.1666666666666667    0.5748866275000001    0.0000000000000000 Ca
   0.5000000000000000    0.0748866275000000    0.0000000000000000 Ca
   0.5000000000000000    0.5748866275000001    0.0000000000000000 Ca
   0.8333333333333334    0.0748866275000000    0.0000000000000000 Ca
   0.8333333333333334    0.5748866275000001    0.0000000000000000 Ca
   0.0000000000000000    0.4251133800000000    0.5000000000000000 Ca
   0.0000000000000000    0.9251133800000000    0.5000000000000000 Ca
   0.3333333333333333    0.9251133800000000    0.5000000000000000 Ca
   0.6666666666666666    0.9251133800000000    0.5000000000000000 Ca
   0.0000000000000000    0.3062188030000000    0.8465428350000000 V
   0.0000000000000000    0.8062188030000000    0.8465428350000000 V
   0.3333333333333333    0.3062188030000000    0.8465428350000000 V
   0.3333333333333333    0.8062188030000000    0.8465428350000000 V
   0.6666666666666666    0.3062188030000000    0.8465428350000000 V
   0.6666666666666666    0.8062188030000000    0.8465428350000000 V
   0.1666666666666667    0.1937811970000000    0.6534571650000001 V
   0.1666666666666667    0.6937811970000000    0.6534571650000001 V
   0.5000000000000000    0.1937811970000000    0.6534571650000001 V
   0.5000000000000000    0.6937811970000000    0.6534571650000001 V
   0.8333333333333334    0.1937811970000000    0.6534571650000001 V
   0.8333333333333334    0.6937811970000000    0.6534571650000001 V
   0.1666666666666667    0.1937811970000000    0.3465428350000000 V
   0.1666666666666667    0.6937811970000000    0.3465428350000000 V
   0.5000000000000000    0.1937811970000000    0.3465428350000000 V
   0.5000000000000000    0.6937811970000000    0.3465428350000000 V
   0.8333333333333334    0.1937811970000000    0.3465428350000000 V
   0.8333333333333334    0.6937811970000000    0.3465428350000000 V
   0.0000000000000000    0.3062188030000000    0.1534571650000000 V
   0.0000000000000000    0.8062188030000000    0.1534571650000000 V
   0.3333333333333333    0.3062188030000000    0.1534571650000000 V
   0.3333333333333333    0.8062188030000000    0.1534571650000000 V
   0.6666666666666666    0.3062188030000000    0.1534571650000000 V
   0.6666666666666666    0.8062188030000000    0.1534571650000000 V
   0.1666666666666667    0.2742777765000000    0.5000000000000000 O
   0.1666666666666667    0.7742777765000001    0.5000000000000000 O
   0.5000000000000000    0.2742777765000000    0.5000000000000000 O
   0.5000000000000000    0.7742777765000001    0.5000000000000000 O
   0.8333333333333334    0.2742777765000000    0.5000000000000000 O
   0.8333333333333334    0.7742777765000001    0.5000000000000000 O
   0.0000000000000000    0.2257222385000000    0.0000000000000000 O
   0.0000000000000000    0.7257222384999999    0.0000000000000000 O
   0.3333333333333333    0.2257222385000000    0.0000000000000000 O
   0.3333333333333333    0.7257222384999999    0.0000000000000000 O
   0.6666666666666666    0.2257222385000000    0.0000000000000000 O
   0.6666666666666666    0.7257222384999999    0.0000000000000000 O
   0.1666666666666667    0.2334085555000000    0.8243328330000000 O
   0.1666666666666667    0.7334085555000001    0.8243328330000000 O
   0.5000000000000000    0.2334085555000000    0.8243328330000000 O
   0.5000000000000000    0.7334085555000001    0.8243328330000000 O
   0.8333333333333334    0.2334085555000000    0.8243328330000000 O
   0.8333333333333334    0.7334085555000001    0.8243328330000000 O
   0.0000000000000000    0.2665914295000000    0.6756671670000000 O
   0.0000000000000000    0.7665914295000000    0.6756671670000000 O
   0.3333333333333333    0.2665914295000000    0.6756671670000000 O
   0.3333333333333333    0.7665914295000000    0.6756671670000000 O
   0.6666666666666666    0.2665914295000000    0.6756671670000000 O
   0.6666666666666666    0.7665914295000000    0.6756671670000000 O
   0.1666666666666667    0.2334085555000000    0.1756671370000000 O
   0.1666666666666667    0.7334085555000001    0.1756671370000000 O
   0.5000000000000000    0.2334085555000000    0.1756671370000000 O
   0.5000000000000000    0.7334085555000001    0.1756671370000000 O
   0.8333333333333334    0.2334085555000000    0.1756671370000000 O
   0.8333333333333334    0.7334085555000001    0.1756671370000000 O
   0.0000000000000000    0.2665914295000000    0.3243328630000000 O
   0.0000000000000000    0.7665914295000000    0.3243328630000000 O
   0.3333333333333333    0.2665914295000000    0.3243328630000000 O
   0.3333333333333333    0.7665914295000000    0.3243328630000000 O
   0.6666666666666666    0.2665914295000000    0.3243328630000000 O
   0.6666666666666666    0.7665914295000000    0.3243328630000000 O
   0.0000000000000000    0.4711418150000001    0.1261656140000000 O
   0.0000000000000000    0.9711418150000001    0.1261656140000000 O
   0.3333333333333333    0.4711418150000001    0.1261656140000000 O
   0.3333333333333333    0.9711418150000001    0.1261656140000000 O
   0.6666666666666666    0.4711418150000001    0.1261656140000000 O
   0.6666666666666666    0.9711418150000001    0.1261656140000000 O
   0.1666666666666667    0.0288581940000000    0.3738344010000000 O
   0.1666666666666667    0.5288581940000001    0.3738344010000000 O
   0.5000000000000000    0.0288581940000000    0.3738344010000000 O
   0.5000000000000000    0.5288581940000001    0.3738344010000000 O
   0.8333333333333334    0.0288581940000000    0.3738344010000000 O
   0.8333333333333334    0.5288581940000001    0.3738344010000000 O
   0.1666666666666667    0.0288581940000000    0.6261656280000000 O
   0.1666666666666667    0.5288581940000001    0.6261656280000000 O
   0.5000000000000000    0.0288581940000000    0.6261656280000000 O
   0.5000000000000000    0.5288581940000001    0.6261656280000000 O
   0.8333333333333334    0.0288581940000000    0.6261656280000000 O
   0.8333333333333334    0.5288581940000001    0.6261656280000000 O
   0.0000000000000000    0.4711418150000001    0.8738343720000000 O
   0.0000000000000000    0.9711418150000001    0.8738343720000000 O
   0.3333333333333333    0.4711418150000001    0.8738343720000000 O
   0.3333333333333333    0.9711418150000001    0.8738343720000000 O
   0.6666666666666666    0.4711418150000001    0.8738343720000000 O
   0.6666666666666666    0.9711418150000001    0.8738343720000000 O
