Ca2 Mn4 S6 O24                          
   1.00000000000000     
     8.0207060000000006    0.3784660000000000    4.4145170000000000
     2.9742500000000001    7.6967819999999998    4.4502170000000003
     0.1581770000000000    0.1604620000000000    8.7249389999999991
   Ca   Mn   S    O 
     2     4     6    24
Direct
  0.2938229974291993  0.7970027802462328  0.4965103653032767
  0.9920923351891526  0.0040956646128852 -0.0071280040899247
  0.6572267275970625  0.6210021793415808  0.6549898050318519
  0.1516515150530649  0.2030720273031041  0.1055199112126335
  0.8284371951144291  0.8048401481832856  0.8737922161695704
  0.3639305034024997  0.3576116938131419  0.3604822816149671
  0.9851223288467946  0.2554984990827003  0.5170962503327337
  0.4263173477772511  0.0204301391740493  0.7681510430326062
  0.5658058375915557  0.9695366494502237  0.2328520905807804
  0.7413536022616387  0.4330241066198061  0.0703731022514613
  0.2522276468401941  0.5643936410351972  0.9356914787153288
  0.0199246407369328  0.7365400209601413  0.4720244655866220
  0.3966461564912377  0.5946722434405923  0.7479909190402910
  0.9071722772723032  0.2582924569509298  0.0689339102759543
  0.7977620781215823  0.3905601363435767  0.5642047126757028
 -0.0253051943791895  0.8684791964973202  0.3019377927828382
  0.5973012385653641  0.7932967681325542  0.3841498642456412
  0.2589703481017821  0.0337609948418566  0.9434805448770992
  0.7258181259378659  0.9503797660323219  0.0592204658551381
  0.2215915156332649  0.6213938419182593  0.4263819582733466
  0.0828178764495855  0.7349685322905232  0.9219604962183610
  0.3914539443261342  0.1990179190593251  0.6296232447352526
  1.0174377508391832  0.0972266467567495  0.6858670979054420
  0.5989355003883764  0.4138639796459181  0.2530985672709288
  0.0090671708844259  0.1853660921015714  0.3807724808027900
  0.4487235700661384  0.8857854039366719  0.7073535921090226
  0.3952753877249750  0.0065874738898710  0.2087517277712470
  0.6755618216353506  0.4790170556418846  0.9221020221924704
  0.2159406832867800  0.4191094356934236  0.9565090957389305
  0.9078717157435301  0.6303865670496372  0.5839597423614402
  0.1227122254389667  0.3315497022877725  0.4361874870422970
  0.5862961572780989  0.9638662940828538  0.8176472104246975
  0.5443926300248059  0.1116437391803917  0.2782991828491295
  0.8030622099510207  0.5668868171203167  0.0367447919385909
  0.3079522508955188  0.5291143487906852  0.0847114946020259
 -0.0070807570699574  0.8305615919593036  0.5907465806881710
 
             NaN             NaN             NaN
             NaN             NaN             NaN
             NaN             NaN             NaN
             NaN             NaN             NaN
             NaN             NaN             NaN
             NaN             NaN             NaN
             NaN             NaN             NaN
             NaN             NaN             NaN
             NaN             NaN             NaN
             NaN             NaN             NaN
             NaN             NaN             NaN
             NaN             NaN             NaN
             NaN             NaN             NaN
             NaN             NaN             NaN
             NaN             NaN             NaN
             NaN             NaN             NaN
             NaN             NaN             NaN
             NaN             NaN             NaN
             NaN             NaN             NaN
             NaN             NaN             NaN
             NaN             NaN             NaN
             NaN             NaN             NaN
             NaN             NaN             NaN
             NaN             NaN             NaN
             NaN             NaN             NaN
             NaN             NaN             NaN
             NaN             NaN             NaN
             NaN             NaN             NaN
             NaN             NaN             NaN
             NaN             NaN             NaN
             NaN             NaN             NaN
             NaN             NaN             NaN
             NaN             NaN             NaN
             NaN             NaN             NaN
             NaN             NaN             NaN
             NaN             NaN             NaN
