Ca2 Mn4 S6 O24
1.0
8.020706 0.378466 4.414517
2.974250 7.696782 4.450217
0.158177 0.160462 8.724939
Ca Mn S O
2 4 6 24
direct
0.310228 0.784357 0.540844 Ca
0.976448 1.008598 1.009325 Ca
0.654213 0.631946 0.648858 Mn
0.154235 0.197540 0.109085 Mn
0.832143 0.805626 0.865408 Mn
0.361804 0.356460 0.354679 Mn
0.975328 0.263866 0.522678 S
0.421273 0.023525 0.764335 S
0.563473 0.966307 0.231575 S
0.741128 0.437706 0.067829 S
0.252966 0.564335 0.930879 S
0.032329 0.734289 0.471262 S
0.401154 0.585445 0.746671 O
0.908070 0.264360 0.067209 O
0.788138 0.400657 0.557188 O
0.007986 0.872858 0.295087 O
0.583671 0.794047 0.387422 O
0.254268 0.043671 0.935211 O
0.727357 0.937943 0.062595 O
0.218939 0.594326 0.439914 O
0.093282 0.744820 0.912961 O
0.398348 0.199728 0.620713 O
0.996256 0.112329 0.700004 O
0.598434 0.412219 0.249776 O
1.012979 0.182412 0.390540 O
0.433268 0.894162 0.702918 O
0.393814 1.018712 0.200559 O
0.679336 0.484563 0.916027 O
0.197099 0.430842 0.954915 O
0.892429 0.662799 0.567837 O
0.110539 0.337339 0.450259 O
0.583879 -0.044463 0.813182 O
0.554043 0.104502 0.274057 O
0.795404 0.573284 0.042464 O
0.309748 0.519054 0.083971 O
0.011004 0.816743 0.595404 O
