Li16 Co32 O64                           
   1.00000000000000     
    11.2721085475008511    0.0000010651665685   -0.0004888431253959
     0.0000010389175467   11.2712159928270452    0.0000451795625088
     0.0006301792466574    0.0000320253088253    7.9697480787393724
Li   Co   O 
1     32    64
Direct
  0.1249300000000000  0.8743500000000000  0.6245600000000000
  0.4999999348056861  0.6250580177735827  0.4999998374338546
  0.6249041560285207  0.7499656677078050  0.2497979664040102
  0.8752299036999602  0.9999547897388013  0.7500338350872013
  0.7500433032832348  0.8749561382852136  0.9999159980807875
  0.7499864509524201  0.6249210184858356  0.4997000379450824
  0.6247688541481438  0.4999551689399837  0.2499658198992094
  0.8750643392536688  0.7499339471352044  0.7498116429598909
  0.9999994041440843  0.8748304569633660  0.9999986714922002
  0.8749483028989502  0.4998794655209693  0.7498168218492509
  0.7499543389553551  0.3749559557211910  0.0000845186156937
  0.0000005161177228  0.6247802111586225  0.5000019926444423
  0.1249362038782280  0.7499339912856229  0.2501886887325426
  0.8750944495811268  0.2499654291770526  0.7502016982641067
  0.0000007415196492  0.3750877605564185  0.0000008095388822
  0.2500137718575104  0.6249216133751574  0.5003016596414938
  0.1250517413031247  0.4998782730792470  0.2501835788206961
  0.0000017779052328  0.1250565858208645  0.4999981948267376
  0.1249050617994598  0.2499644043272440  0.2498003703463567
  0.3752307598257119  0.4999562567744817  0.7500325864816233
  0.2500440382758242  0.3749566794423700  0.9999167866247092
  0.2499849490344275  0.1249201205090813  0.4996975603729439
  0.1247706471891448  0.9999562501024073  0.2499676172593368
  0.3750651651766574  0.2499341983937953  0.7498118551221467
  0.5000011995664551  0.3748306194301634  0.0000003402628863
  0.3749485759810867  0.9998776922639010  0.7498168178573792
  0.2499564785051902  0.8749552471673283  0.0000825795580681
  0.5000006821600493  0.1247787500307780  0.5000005138654871
  0.6249355555619474  0.2499349712599894  0.2501874510056581
  0.3750952265636869  0.7499653828618236  0.7502014854451389
  0.5000003221378790  0.8750877344641452  0.9999995924062830
  0.7500125868979381  0.1249202474857398  0.5003007574477536
  0.6250514666250666  0.9998779327026810  0.2501830274156731
  0.4845916619376212  0.6250243618443818  0.7344745171473477
  0.8751140855412132  0.0155757468334983  0.5156315848457496
  0.7344382778597094  0.8748619276172036  0.2343449784570240
  0.5154082636450141  0.6250249237435099  0.2655251175228415
  0.6249639092107770  0.7656140284350954  0.0153683195599470
  0.6250156892211294  0.7343995846873241  0.4841905646405067
  0.7657724162044701  0.8750130331976749  0.7654728068715713
  0.8751186103327200  0.9843065404740159  0.9844230614882434
  0.6248868710377593  0.5155748396221398  0.4843671907997305
  0.7342272142934334  0.6249057718556585  0.2652808593764178
  0.8749862760208060  0.7654680794495619  0.9842316403325810
  0.8750603639577577  0.7342343157992346  0.5153434857451344
  0.9845670968493323  0.8748553971151480  0.7655411094590150
  0.7656078879744825  0.6249587499252272  0.7340684672031443
  0.6248814261352820  0.4843071038566578  0.0155756384367507
  0.0154324118495381  0.8748556667351224  0.2344587722681055
  0.8749458871214699  0.5154150645294138  0.5153044448917257
  0.9843890973864688  0.6248371565287698  0.7343449003199041
  0.1250131429644199  0.7654681752213861  0.0157685661437341
  0.8749221108070770  0.4844143250530735  0.9842414458685766
  0.7342281607457224  0.3750129641715674  0.2345275540425860
  0.7655620152042459  0.3748620872154262  0.7656551194718375
  0.1249399555745327  0.7342343624020486  0.4846570480644345
  0.0156106412896406  0.6248371760132230  0.2656557400245561
  0.9844662236330848  0.3750136915388040  0.7655495762673468
  0.8750370918312171  0.2656142134231274  0.9846308932658019
  0.2343922247744175  0.6249586473803248  0.2659315537866647
  0.2657727808956878  0.6249055704806494  0.7347193665872567
  0.1250541503748792  0.5154146281231391  0.4846982903819494
  0.8749850712071634  0.2343997976376215  0.5158097760901299
  0.0155342009381840  0.3750132716131489  0.2344510227726246
  0.1250778906021637  0.4844139546570219  0.0157601600807240
  0.9845913318590505  0.1250250256397081  0.7344738480919588
  0.3751132196761375  0.5155765299824253  0.5156315456715248
  0.2344370851467232  0.3748618520151084  0.2343456667104320
  0.0154094892172054  0.1250255912815703  0.2655264990269046
  0.1249626820003371  0.2656148049354741  0.0153701052739379
  0.1250147361688505  0.2343984862573549  0.4841891460638124
  0.2657718810573471  0.3750134921021839  0.7654719809926505
  0.3751184656389981  0.4843072902374956  0.9844231779250663
  0.1248861469914075  0.0155772853046514  0.4843668415088587
  0.2342257146599280  0.1249063437274316  0.2652808857012303
  0.3749860824254085  0.2654679243273321  0.9842318233387743
  0.3750598956512619  0.2342349096400085  0.5153429361349566
  0.4845675795742466  0.3748556067296462  0.7655402756870231
  0.2656065146127347  0.1249585997830565  0.7340684447761348
  0.1248803959018119  0.9843075692857752  0.0155752203661876
  0.5154330537281027  0.3748552603018851  0.2344591039936930
  0.3749450248878077  0.0154142452595991  0.5153026725905718
  0.4843891043435491  0.1248371584029897  0.7343463675525470
  0.6250144945307952  0.2654688745753475  0.0157692570778352
  0.3749212780309250  0.9844150960425964  0.9842404361488235
  0.2342271950659054  0.8750130536192628  0.2345280192302681
  0.2655616801586476  0.8748620451809472  0.7656536998348500
  0.6249401134199744  0.2342346407044076  0.4846562852313028
  0.5156114793053987  0.1248376952329480  0.2656540480216947
  0.4844674807404559  0.8750140588343243  0.7655467805196068
  0.3750363965650720  0.7656128323905662  0.9846316114391200
  0.7343931990642858  0.1249589653707446  0.2659303976436576
  0.7657733494563104  0.1249060697812325  0.7347204367736779
  0.6250547180714747  0.0154135541558844  0.4846978609603170
  0.3749841944690857  0.7344002237182821  0.5158090535913189
  0.5155329630330598  0.8750137581606836  0.2344516437485424
  0.6250790414932013  0.9844150218980303  0.0157592424512671
 
  0.00000000E+00  0.00000000E+00  0.00000000E+00
  0.00000000E+00  0.00000000E+00  0.00000000E+00
  0.00000000E+00  0.00000000E+00  0.00000000E+00
  0.00000000E+00  0.00000000E+00  0.00000000E+00
  0.00000000E+00  0.00000000E+00  0.00000000E+00
  0.00000000E+00  0.00000000E+00  0.00000000E+00
  0.00000000E+00  0.00000000E+00  0.00000000E+00
  0.00000000E+00  0.00000000E+00  0.00000000E+00
  0.00000000E+00  0.00000000E+00  0.00000000E+00
  0.00000000E+00  0.00000000E+00  0.00000000E+00
  0.00000000E+00  0.00000000E+00  0.00000000E+00
  0.00000000E+00  0.00000000E+00  0.00000000E+00
  0.00000000E+00  0.00000000E+00  0.00000000E+00
  0.00000000E+00  0.00000000E+00  0.00000000E+00
  0.00000000E+00  0.00000000E+00  0.00000000E+00
  0.00000000E+00  0.00000000E+00  0.00000000E+00
  0.00000000E+00  0.00000000E+00  0.00000000E+00
  0.00000000E+00  0.00000000E+00  0.00000000E+00
  0.00000000E+00  0.00000000E+00  0.00000000E+00
  0.00000000E+00  0.00000000E+00  0.00000000E+00
  0.00000000E+00  0.00000000E+00  0.00000000E+00
  0.00000000E+00  0.00000000E+00  0.00000000E+00
  0.00000000E+00  0.00000000E+00  0.00000000E+00
  0.00000000E+00  0.00000000E+00  0.00000000E+00
  0.00000000E+00  0.00000000E+00  0.00000000E+00
  0.00000000E+00  0.00000000E+00  0.00000000E+00
  0.00000000E+00  0.00000000E+00  0.00000000E+00
  0.00000000E+00  0.00000000E+00  0.00000000E+00
  0.00000000E+00  0.00000000E+00  0.00000000E+00
  0.00000000E+00  0.00000000E+00  0.00000000E+00
  0.00000000E+00  0.00000000E+00  0.00000000E+00
  0.00000000E+00  0.00000000E+00  0.00000000E+00
  0.00000000E+00  0.00000000E+00  0.00000000E+00
  0.00000000E+00  0.00000000E+00  0.00000000E+00
  0.00000000E+00  0.00000000E+00  0.00000000E+00
  0.00000000E+00  0.00000000E+00  0.00000000E+00
  0.00000000E+00  0.00000000E+00  0.00000000E+00
  0.00000000E+00  0.00000000E+00  0.00000000E+00
  0.00000000E+00  0.00000000E+00  0.00000000E+00
  0.00000000E+00  0.00000000E+00  0.00000000E+00
  0.00000000E+00  0.00000000E+00  0.00000000E+00
  0.00000000E+00  0.00000000E+00  0.00000000E+00
  0.00000000E+00  0.00000000E+00  0.00000000E+00
  0.00000000E+00  0.00000000E+00  0.00000000E+00
  0.00000000E+00  0.00000000E+00  0.00000000E+00
  0.00000000E+00  0.00000000E+00  0.00000000E+00
  0.00000000E+00  0.00000000E+00  0.00000000E+00
  0.00000000E+00  0.00000000E+00  0.00000000E+00
  0.00000000E+00  0.00000000E+00  0.00000000E+00
  0.00000000E+00  0.00000000E+00  0.00000000E+00
  0.00000000E+00  0.00000000E+00  0.00000000E+00
  0.00000000E+00  0.00000000E+00  0.00000000E+00
  0.00000000E+00  0.00000000E+00  0.00000000E+00
  0.00000000E+00  0.00000000E+00  0.00000000E+00
  0.00000000E+00  0.00000000E+00  0.00000000E+00
  0.00000000E+00  0.00000000E+00  0.00000000E+00
  0.00000000E+00  0.00000000E+00  0.00000000E+00
  0.00000000E+00  0.00000000E+00  0.00000000E+00
  0.00000000E+00  0.00000000E+00  0.00000000E+00
  0.00000000E+00  0.00000000E+00  0.00000000E+00
  0.00000000E+00  0.00000000E+00  0.00000000E+00
  0.00000000E+00  0.00000000E+00  0.00000000E+00
  0.00000000E+00  0.00000000E+00  0.00000000E+00
  0.00000000E+00  0.00000000E+00  0.00000000E+00
  0.00000000E+00  0.00000000E+00  0.00000000E+00
  0.00000000E+00  0.00000000E+00  0.00000000E+00
  0.00000000E+00  0.00000000E+00  0.00000000E+00
  0.00000000E+00  0.00000000E+00  0.00000000E+00
  0.00000000E+00  0.00000000E+00  0.00000000E+00
  0.00000000E+00  0.00000000E+00  0.00000000E+00
  0.00000000E+00  0.00000000E+00  0.00000000E+00
  0.00000000E+00  0.00000000E+00  0.00000000E+00
  0.00000000E+00  0.00000000E+00  0.00000000E+00
  0.00000000E+00  0.00000000E+00  0.00000000E+00
  0.00000000E+00  0.00000000E+00  0.00000000E+00
  0.00000000E+00  0.00000000E+00  0.00000000E+00
  0.00000000E+00  0.00000000E+00  0.00000000E+00
  0.00000000E+00  0.00000000E+00  0.00000000E+00
  0.00000000E+00  0.00000000E+00  0.00000000E+00
  0.00000000E+00  0.00000000E+00  0.00000000E+00
  0.00000000E+00  0.00000000E+00  0.00000000E+00
  0.00000000E+00  0.00000000E+00  0.00000000E+00
  0.00000000E+00  0.00000000E+00  0.00000000E+00
  0.00000000E+00  0.00000000E+00  0.00000000E+00
  0.00000000E+00  0.00000000E+00  0.00000000E+00
  0.00000000E+00  0.00000000E+00  0.00000000E+00
  0.00000000E+00  0.00000000E+00  0.00000000E+00
  0.00000000E+00  0.00000000E+00  0.00000000E+00
  0.00000000E+00  0.00000000E+00  0.00000000E+00
  0.00000000E+00  0.00000000E+00  0.00000000E+00
  0.00000000E+00  0.00000000E+00  0.00000000E+00
  0.00000000E+00  0.00000000E+00  0.00000000E+00
  0.00000000E+00  0.00000000E+00  0.00000000E+00
  0.00000000E+00  0.00000000E+00  0.00000000E+00
  0.00000000E+00  0.00000000E+00  0.00000000E+00
  0.00000000E+00  0.00000000E+00  0.00000000E+00
