Na2 Ca2 V4 Si4 P2 O24                   
   1.00000000000000     
     8.8469770000000008    0.1552940000000000    0.0317140000000000
     4.2986180000000003    7.6747300000000003    0.0402960000000000
     4.3920040000000000    2.5450110000000001    7.2217549999999999
   Ca   Na   V    Si   P    O 
     2     2     4     4     2    24
Direct
  0.4076524136921267  0.1847620489890378  0.7389788167135396
  0.9988095441599298  0.9948627493094513  0.0070458884919774
  0.2366175424781810  0.7191407807756811  0.4504478554420133
  0.8648099574241055  0.2549964309252979  0.5915898231567606
  0.3686170971338855  0.3679304038992717  0.3395491632321486
  0.6365989291936023  0.6430016914072517  0.6373520247391253
  0.1381033163639514  0.1559717307208787  0.1434140200789559
  0.8447306119227840  0.8541947441787973  0.8574974450377399
  0.0197497535680548  0.4679152735252566  0.7449113737702970
  0.7542535117438548  0.0316587774383272  0.4566689713388180
  0.4628782585449382  0.7496553103862967  0.0259094624571165
  0.5422827890407103  0.2563648104152207  0.9584251509252586
  0.9647175157496434  0.5455293722942325  0.2422572951286285
  0.2526904135675478  0.9750427108753288  0.5384685089374678
  0.2211639515125081  0.4350209231959978  0.5736170637774741
  0.7813195018441722  0.5701949355482894  0.4073686550867481
  0.5761115762613178  0.2251617142046093  0.4276367371540857
  0.4140794913417523  0.7879635563282869  0.5530514484415920
  0.4215946200955605  0.5882033777765572  0.2252306942889944
  0.5594207602053047  0.4205771606377571  0.7562178897420884
  0.9411976806380025  0.0439943898696470  0.2734490546116132
  0.0793768611338520  0.9580431978336962  0.7202122870650070
  0.0665436713629687  0.2765657093253429  0.9185695356323487
  0.9505025017034421  0.7230794313365477  0.0685918240201929
  0.2823045135636599  0.9419332800508076  0.0259653659688535
  0.7369605079132133  0.0778926890094711  0.9372200951575624
  0.5032674768617641  0.3057355146334452  0.1326407772553916
  0.5020994407915024  0.7005313133354467  0.8513611653705770
  0.1318115528096226  0.5072906322362010  0.2847751968265593
  0.8503764032172956  0.4791208528317473  0.7108817288081765
  0.2955192870542734  0.1381849457253479  0.5102662910449015
  0.7145142151646404  0.8478766924566301  0.5036213954276202
  0.3638427100750334  0.2042916088349966  1.0085832679952702
  0.6393497246951521  0.7915385854048808 -0.0042610471791360
  0.1966427441924976  0.0166345365089777  0.3775420461996158
  0.7609508112597484  0.0233684255422725  0.6450579957123257
 -0.0093924284762552  0.3749876055246359  0.2094872831080604
  0.9891006391119415  0.6603338170776397  0.7628460235481995
 
             NaN             NaN             NaN
             NaN             NaN             NaN
             NaN             NaN             NaN
             NaN             NaN             NaN
             NaN             NaN             NaN
             NaN             NaN             NaN
             NaN             NaN             NaN
             NaN             NaN             NaN
             NaN             NaN             NaN
             NaN             NaN             NaN
             NaN             NaN             NaN
             NaN             NaN             NaN
             NaN             NaN             NaN
             NaN             NaN             NaN
             NaN             NaN             NaN
             NaN             NaN             NaN
             NaN             NaN             NaN
             NaN             NaN             NaN
             NaN             NaN             NaN
             NaN             NaN             NaN
             NaN             NaN             NaN
             NaN             NaN             NaN
             NaN             NaN             NaN
             NaN             NaN             NaN
             NaN             NaN             NaN
             NaN             NaN             NaN
             NaN             NaN             NaN
             NaN             NaN             NaN
             NaN             NaN             NaN
             NaN             NaN             NaN
             NaN             NaN             NaN
             NaN             NaN             NaN
             NaN             NaN             NaN
             NaN             NaN             NaN
             NaN             NaN             NaN
             NaN             NaN             NaN
             NaN             NaN             NaN
             NaN             NaN             NaN
