Na2 Ca2 V4 Si4 P2 O24
1.0
8.846977 0.155294 0.031714
4.298618 7.674730 0.040296
4.392004 2.545011 7.221755
Ca Na V Si P O
2 2 4 4 2 24
direct
0.426106 0.268125 0.652542 Ca
-0.014449 0.995446 0.017139 Ca
0.336461 0.627341 0.439616 Na
0.875280 0.250756 0.605116 Na
0.357290 0.361817 0.346342 V
0.641851 0.648296 0.643663 V
0.141787 0.149740 0.139139 V
0.840461 0.853757 0.859306 V
0.028241 0.463702 0.747966 Si
0.747706 0.038306 0.460498 Si
0.457949 0.749381 0.038172 Si
0.532879 0.255187 0.955659 Si
0.959825 0.544130 0.245067 P
0.247697 0.965206 0.537930 P
0.226579 0.438846 0.575327 O
0.772662 0.557292 0.410898 O
0.565798 0.226512 0.437704 O
0.417766 0.786048 0.554218 O
0.433555 0.575245 0.226963 O
0.556914 0.430530 0.762448 O
0.926997 0.062362 0.272855 O
0.076865 0.946074 0.721563 O
0.058987 0.268194 0.921254 O
0.939950 0.725973 0.077116 O
0.263187 0.926209 0.054403 O
0.733484 0.084223 0.934636 O
0.476608 0.299466 0.141456 O
0.503964 0.719608 0.849111 O
0.115806 0.516596 0.298031 O
0.857170 0.487879 0.703413 O
0.278380 0.135525 0.514055 O
0.720039 0.851251 0.494587 O
0.364018 0.200084 -0.010866 O
0.627941 0.801728 1.006753 O
0.201984 1.002223 0.373386 O
0.767521 0.016457 0.646329 O
0.003285 0.374474 0.201042 O
0.980360 0.650559 0.786396 O
