Ca9 V12 F42                             
   1.00000000000000     
     7.5293559999999999   -0.0191500000000000    0.0089290000000000
    -3.7868309999999998    6.4897559999999999   -0.0647490000000000
    -0.5924870000000000    0.5089669999999999   18.4418199999999999
   Ca   V    F 
     9    12    42
Direct
  0.8783734599860384  0.4991560471149794  0.3365445215870833
  0.4965090384953487  0.8440836013383440  0.6660013423009455
  0.6197680962901450  0.1360483380449618  0.9897904986026972
  0.9885786758442644  0.8156265087611719  0.6639057109579619
  0.8194527704343481  0.9801050121402178  0.3343202360347479
  0.1427653938851268  0.6150993447517904  0.0049875435518142
  0.9888181078110734  0.8358919462417385  0.1596252286549231
  0.8594678145101547  0.9995180156928724  0.8385037253989801
  0.2074782329294934  0.1890803909707426  0.4996049175002193
  0.3340277512396111  1.0084592885938064  0.3300208870378648
  1.0086701516987744  0.3233295766300862  0.6675734796725872
  0.6502932142050991  0.6439264288466147  0.9988000535009766
  0.3312731703638962  0.9872409606505073  0.8247091596809242
  0.9801023895849980  0.3122929295350336  0.1694378736449964
  0.6846558786221751  0.6757362413579509  0.4990943623174742
  0.4831641536831344  0.8142436254003340  0.1692441093199855
  0.1794550206284913  0.6738115111606453  0.5020786748692306
  0.3358760805592962  0.4976606938768843  0.8315495907585224
  0.8302257126962490  0.4888124437098784  0.8285573709107300
  0.6827657398675701  0.1691981702884199  0.4974075098598915
  0.4891322317105125  0.3175812926900840  0.1640740560787441
  0.7415478340808501  0.1720281456776522  0.6072822583158347
  0.8033419049683109  0.5042001252736739  0.9413706814528776
  0.4739727984179725  0.2840591114425587  0.2743591236039370
  0.1936915237881980  0.7438021874686676  0.3932728776254983
  0.5036145501425523  0.8049480222795888  0.0546607349728981
  0.2918612041958639  0.4839182006879597  0.7206016955783092
  0.7614425540161385  0.9364146827766289  0.9505298953412927
  0.0269109024725084  0.8334104387689375  0.2802438683477138
  0.1136061291578343  0.1540438093900317  0.6135371401883406
  0.9445448934706455  0.7547270626878180  0.0456695686974516
  0.8438184740961360  0.0166871621088942  0.7181233424031848
  0.1594558941327936  0.1102679281757448  0.3838384511521662
  0.5332375457942861  0.3511659705202334  0.0498243638386576
  0.6319500882728051  0.1531925333397703  0.3818591304082333
  0.8761779413429053  0.4775129074745392  0.7182578558345885
  0.3666377358706760  0.5354547807261312  0.9453587620000480
  0.1525730851786888  0.6175534845858670  0.6150723299480393
  0.4754298830825888  0.8594474586336001  0.2806929226993577
  0.8076195647499526  0.4475311898296698  0.1926505225763875
  0.5624657355534681  0.3577592211009861  0.5107790988894727
  0.6361641627750180  0.1783186879483994  0.8574977016060286
  0.4644851913178275  0.8136976631005536  0.8024309530681046
  0.3645054519442757  0.5480959379366442  0.4887031128703440
  0.1763598825160861  0.6159144195567037  0.1372265363679575
  0.9953736064143354  0.3111029096391863  0.2849041034988061
  0.6706178650101242  0.7144176021053456  0.6104280319197781
  0.3060559595624297  0.9139987285802974  0.9377204610826195
  0.3212067938326605  0.9889793622209488  0.7092376780105323
  0.7310861027055581  0.6640970056546942  0.3881630006723327
  0.9172358002235859  0.2982817132597848  0.0551039360630135
  0.1711543265408146  0.1998568651457230  0.1470414382404944
  0.8112170547715382  0.9908270764825754  0.4713537709651438
  0.0198376191646485  0.8031241712174757  0.8015817110623292
  0.2204325904550963  0.1811128428975425  0.8462890992665626
  0.9999048460748897  0.8033292532646547  0.5272521405966883
  0.7968414086447869  0.0007199958639253  0.1978509397412977
  0.0251485824540604  0.3766368141470560  0.8515550388433222
  0.6083858910318383  0.6294848194865119  0.1664258810157963
  0.4032886898117403  0.9509191057513623  0.5407929206126703
  0.3608869753200209  0.0019180886843617  0.1542566451526459
  0.6440318574822924  0.6121133524656988  0.8198007036507787
  0.9572342412507497  0.3988315975139099  0.4572716090471619
 
             NaN             NaN             NaN
             NaN             NaN             NaN
             NaN             NaN             NaN
             NaN             NaN             NaN
             NaN             NaN             NaN
             NaN             NaN             NaN
             NaN             NaN             NaN
             NaN             NaN             NaN
             NaN             NaN             NaN
             NaN             NaN             NaN
             NaN             NaN             NaN
             NaN             NaN             NaN
             NaN             NaN             NaN
             NaN             NaN             NaN
             NaN             NaN             NaN
             NaN             NaN             NaN
             NaN             NaN             NaN
             NaN             NaN             NaN
             NaN             NaN             NaN
             NaN             NaN             NaN
             NaN             NaN             NaN
             NaN             NaN             NaN
             NaN             NaN             NaN
             NaN             NaN             NaN
             NaN             NaN             NaN
             NaN             NaN             NaN
             NaN             NaN             NaN
             NaN             NaN             NaN
             NaN             NaN             NaN
             NaN             NaN             NaN
             NaN             NaN             NaN
             NaN             NaN             NaN
             NaN             NaN             NaN
             NaN             NaN             NaN
             NaN             NaN             NaN
             NaN             NaN             NaN
             NaN             NaN             NaN
             NaN             NaN             NaN
             NaN             NaN             NaN
             NaN             NaN             NaN
             NaN             NaN             NaN
             NaN             NaN             NaN
             NaN             NaN             NaN
             NaN             NaN             NaN
             NaN             NaN             NaN
             NaN             NaN             NaN
             NaN             NaN             NaN
             NaN             NaN             NaN
             NaN             NaN             NaN
             NaN             NaN             NaN
             NaN             NaN             NaN
             NaN             NaN             NaN
             NaN             NaN             NaN
             NaN             NaN             NaN
             NaN             NaN             NaN
             NaN             NaN             NaN
             NaN             NaN             NaN
             NaN             NaN             NaN
             NaN             NaN             NaN
             NaN             NaN             NaN
             NaN             NaN             NaN
             NaN             NaN             NaN
             NaN             NaN             NaN
