Ca9 V12 F42
1.0
7.529356 -0.019150 0.008929
-3.786831 6.489756 -0.064749
-0.592487 0.508967 18.441820
Ca V F
9 12 42
direct
0.900824 0.485530 0.333335 Ca
0.485543 0.833618 0.665509 Ca
0.627872 0.146704 0.990154 Ca
0.980654 0.809727 0.662722 Ca
0.816981 0.983212 0.334829 Ca
0.148996 0.624768 0.005617 Ca
0.997403 0.849415 0.160318 Ca
0.857118 0.999792 0.837726 Ca
0.192037 0.183485 0.499804 Ca
0.321728 0.996055 0.330081 V
0.997026 0.316945 0.667185 V
0.655830 0.652511 0.999093 V
0.330118 0.988165 0.824820 V
0.988086 0.325351 0.171106 V
0.671658 0.667533 0.498275 V
0.490383 0.825055 0.168256 V
0.164037 0.663960 0.498800 V
0.333709 0.498077 0.831535 V
0.829470 0.490216 0.828788 V
0.669353 0.159635 0.498048 V
0.496969 0.328582 0.165723 V
0.726918 0.162427 0.608311 F
0.807693 0.509678 0.941900 F
0.478112 0.282811 0.277149 F
0.173656 0.724977 0.388938 F
0.511242 0.811228 0.054663 F
0.281555 0.482254 0.720411 F
0.767097 0.945234 0.950746 F
0.015838 0.840309 0.280302 F
0.102850 0.147410 0.613879 F
0.949635 0.764358 0.046265 F
0.835990 0.010239 0.717582 F
0.156568 0.107098 0.384538 F
0.542592 0.363599 0.051878 F
0.611657 0.134014 0.384366 F
0.871024 0.476495 0.718248 F
0.371332 0.542183 0.945309 F
0.140170 0.607558 0.612500 F
0.475858 0.860553 0.279363 F
0.812937 0.456835 0.192964 F
0.547501 0.348534 0.510538 F
0.635242 0.180622 0.857445 F
0.462498 0.813765 0.803196 F
0.352426 0.541299 0.485510 F
0.182801 0.629097 0.137743 F
0.991787 0.313228 0.286611 F
0.661157 0.705689 0.609950 F
0.312679 0.923391 0.938866 F
0.312565 0.980398 0.708996 F
0.705122 0.660923 0.386536 F
0.924432 0.309290 0.056662 F
0.181187 0.214319 0.149905 F
0.801439 0.983290 0.471965 F
0.018353 0.803392 0.802798 F
0.218656 0.181876 0.845384 F
0.986547 0.794085 0.525814 F
0.802216 0.014215 0.195695 F
0.023904 0.377695 0.851971 F
0.615287 0.639731 0.171038 F
0.388348 0.939889 0.538797 F
0.370453 0.014972 0.153119 F
0.641522 0.611489 0.819028 F
0.944772 0.383679 0.458679 F
