Li64 P32 O112
1.0
  17.1225994888474631    0.0000000000000000    0.0041838404093928
  -3.2132505250055536   12.8399378024642221   -5.1980206129258226
   0.0000000000000000    0.0000000000000000   10.3702000000000005
Li P O
63 32 112
direct
   0.0059000000000000    0.5729500000000001    0.9449999999999998 Li+
   0.1043000000000000    0.1634500000000000    0.1778000000000000 Li+
   0.1043000000000000    0.1634500000000000    0.6778000000000000 Li+
   0.1043000000000000    0.6634500000000001    0.1778000000000000 Li+
   0.1043000000000000    0.6634500000000001    0.6778000000000000 Li+
   0.6042999999999999    0.1634500000000000    0.1778000000000000 Li+
   0.6042999999999999    0.1634500000000000    0.6778000000000000 Li+
   0.6043000000000001    0.6634500000000001    0.1778000000000001 Li+
   0.6043000000000001    0.6634500000000001    0.6778000000000001 Li+
   0.3957000000000000    0.3365500000000000    0.3222000000000000 Li+
   0.3957000000000000    0.3365500000000000    0.8221999999999999 Li+
   0.3957000000000000    0.8365500000000001    0.8221999999999999 Li+
   0.8957000000000002    0.3365500000000000    0.3221999999999999 Li+
   0.8957000000000002    0.3365500000000000    0.8221999999999999 Li+
   0.8956999999999999    0.8365500000000001    0.3222000000000000 Li+
   0.8956999999999999    0.8365500000000001    0.8221999999999999 Li+
   0.2740000000000000    0.1224500000000000    0.1492000000000000 Li+
   0.2740000000000000    0.1224500000000000    0.6492000000000000 Li+
   0.2740000000000000    0.6224500000000001    0.1492000000000000 Li+
   0.2740000000000000    0.6224500000000001    0.6492000000000000 Li+
   0.7740000000000000    0.1224500000000000    0.1492000000000000 Li+
   0.7740000000000000    0.1224500000000000    0.6492000000000000 Li+
   0.7739999999999999    0.6224500000000001    0.1492000000000000 Li+
   0.7739999999999999    0.6224500000000001    0.6492000000000000 Li+
   0.2260000000000000    0.3775500000000001    0.3508000000000000 Li+
   0.2260000000000000    0.3775500000000001    0.8508000000000000 Li+
   0.2260000000000000    0.8775500000000001    0.3508000000000000 Li+
   0.2260000000000000    0.8775500000000001    0.8508000000000000 Li+
   0.7260000000000000    0.3775500000000001    0.3508000000000000 Li+
   0.7260000000000000    0.3775500000000001    0.8508000000000000 Li+
   0.7260000000000000    0.8775500000000001    0.3508000000000000 Li+
   0.7260000000000000    0.8775500000000001    0.8508000000000000 Li+
   0.1228500000000000    0.2941000000000000    0.4919500000000000 Li+
   0.1228500000000000    0.2941000000000000    0.9919499999999999 Li+
   0.1228500000000000    0.7941000000000000    0.4919500000000000 Li+
   0.1228500000000000    0.7941000000000000    0.9919500000000000 Li+
   0.6228500000000000    0.2941000000000000    0.4919500000000000 Li+
   0.6228500000000000    0.2941000000000000    0.9919499999999999 Li+
   0.6228500000000001    0.7941000000000000    0.4919499999999999 Li+
   0.6228500000000001    0.7941000000000000    0.9919499999999999 Li+
   0.3771500000000000    0.2059000000000000    0.0080500000000000 Li+
   0.3771500000000000    0.2059000000000000    0.5080500000000000 Li+
   0.3771500000000000    0.7059000000000001    0.0080500000000000 Li+
   0.3771500000000000    0.7059000000000001    0.5080500000000000 Li+
   0.8771500000000000    0.2059000000000000    0.0080500000000000 Li+
   0.8771500000000000    0.2059000000000000    0.5080500000000000 Li+
   0.8771500000000000    0.7059000000000001    0.0080500000000000 Li+
   0.8771500000000000    0.7059000000000001    0.5080500000000000 Li+
   0.0059000000000000    0.0729500000000000    0.4449999999999999 Li+
   0.0059000000000000    0.0729500000000000    0.9449999999999997 Li+
   0.0059000000000000    0.5729500000000001    0.4449999999999999 Li+
   0.5059000000000000    0.0729500000000000    0.4449999999999999 Li+
   0.5059000000000000    0.0729500000000000    0.9450000000000000 Li+
   0.5059000000000000    0.5729500000000001    0.4449999999999999 Li+
   0.5059000000000000    0.5729500000000001    0.9450000000000000 Li+
   0.4941000000000000    0.4270500000000000    0.0550000000000000 Li+
   0.4941000000000000    0.4270500000000000    0.5550000000000000 Li+
   0.4941000000000000    0.9270499999999999    0.0550000000000000 Li+
   0.4941000000000000    0.9270499999999999    0.5549999999999999 Li+
   0.9941000000000001    0.4270500000000000    0.0550000000000000 Li+
   0.9941000000000001    0.4270500000000000    0.5550000000000000 Li+
   0.9941000000000000    0.9270499999999999    0.0550000000000001 Li+
   0.9941000000000000    0.9270499999999999    0.5550000000000000 Li+
   0.0769500000000000    0.3891550000000000    0.2808450000000000 P5+
   0.0769500000000000    0.3891550000000000    0.7808450000000000 P5+
   0.0769500000000000    0.8891550000000001    0.2808450000000000 P5+
   0.0769500000000000    0.8891550000000001    0.7808450000000000 P5+
   0.5769500000000001    0.3891550000000000    0.2808450000000000 P5+
   0.5769500000000001    0.3891550000000000    0.7808450000000000 P5+
   0.5769500000000001    0.8891550000000001    0.2808450000000000 P5+
   0.5769500000000001    0.8891550000000001    0.7808450000000000 P5+
   0.4230500000000000    0.1108450000000000    0.2191550000000000 P5+
   0.4230500000000000    0.1108450000000000    0.7191549999999999 P5+
   0.4230500000000000    0.6108450000000001    0.2191550000000000 P5+
   0.4230500000000000    0.6108450000000001    0.7191549999999999 P5+
   0.9230500000000000    0.1108450000000000    0.2191550000000000 P5+
   0.9230500000000000    0.1108450000000000    0.7191549999999999 P5+
   0.9230499999999999    0.6108450000000001    0.2191550000000000 P5+
   0.9230499999999999    0.6108450000000001    0.7191549999999999 P5+
   0.1845300000000000    0.1070200000000000    0.3932249999999999 P5+
   0.1845300000000000    0.1070200000000000    0.8932250000000000 P5+
   0.1845300000000000    0.6070200000000000    0.3932250000000000 P5+
   0.1845300000000000    0.6070200000000000    0.8932249999999999 P5+
   0.6845300000000001    0.1070200000000000    0.3932250000000000 P5+
   0.6845300000000001    0.1070200000000000    0.8932249999999998 P5+
   0.6845300000000001    0.6070200000000000    0.3932249999999999 P5+
   0.6845300000000001    0.6070200000000000    0.8932249999999999 P5+
   0.3154700000000000    0.3929800000000000    0.1067750000000000 P5+
   0.3154700000000000    0.3929800000000000    0.6067750000000000 P5+
   0.3154700000000000    0.8929800000000000    0.1067750000000000 P5+
   0.3154700000000000    0.8929800000000000    0.6067750000000000 P5+
   0.8154700000000000    0.3929800000000000    0.1067750000000000 P5+
   0.8154700000000000    0.3929800000000000    0.6067750000000000 P5+
   0.8154700000000000    0.8929800000000000    0.1067750000000000 P5+
   0.8154700000000000    0.8929800000000000    0.6067750000000000 P5+
   0.1581500000000000    0.4810600000000000    0.3458999999999999 O2-
   0.1581500000000000    0.4810600000000000    0.8459000000000000 O2-
   0.1581500000000000    0.9810600000000000    0.3458999999999999 O2-
   0.1581500000000000    0.9810600000000000    0.8458999999999999 O2-
   0.6581500000000000    0.4810600000000000    0.3458999999999999 O2-
   0.6581500000000000    0.4810600000000000    0.8458999999999999 O2-
   0.6581499999999999    0.9810600000000000    0.3458999999999999 O2-
   0.6581499999999999    0.9810600000000000    0.8458999999999999 O2-
   0.3418500000000000    0.0189400000000000    0.1541000000000000 O2-
   0.3418500000000000    0.0189400000000000    0.6540999999999999 O2-
   0.3418500000000000    0.5189400000000001    0.1541000000000000 O2-
   0.3418500000000000    0.5189400000000001    0.6541000000000000 O2-
   0.8418500000000000    0.0189400000000000    0.1541000000000000 O2-
   0.8418500000000000    0.0189400000000000    0.6540999999999999 O2-
   0.8418500000000000    0.5189400000000001    0.1541000000000000 O2-
   0.8418500000000000    0.5189400000000001    0.6541000000000000 O2-
   0.0623850000000000    0.3703550000000000    0.1294500000000000 O2-
   0.0623850000000000    0.3703550000000000    0.6294500000000001 O2-
   0.0623850000000001    0.8703550000000001    0.1294500000000000 O2-
   0.0623850000000001    0.8703550000000001    0.6294500000000001 O2-
   0.5623850000000000    0.3703550000000000    0.1294500000000000 O2-
   0.5623850000000000    0.3703550000000000    0.6294500000000001 O2-
   0.5623850000000000    0.8703550000000001    0.1294500000000000 O2-
   0.5623850000000000    0.8703550000000001    0.6294500000000001 O2-
   0.4376150000000000    0.1296450000000000    0.3705500000000000 O2-
   0.4376150000000000    0.1296450000000000    0.8705500000000000 O2-
   0.4376150000000000    0.6296450000000000    0.3705499999999999 O2-
   0.4376150000000000    0.6296450000000000    0.8705499999999999 O2-
   0.9376150000000000    0.1296450000000000    0.3705500000000000 O2-
   0.9376150000000000    0.1296450000000000    0.8705499999999998 O2-
   0.9376150000000001    0.6296450000000000    0.3705500000000000 O2-
   0.9376150000000001    0.6296450000000000    0.8705500000000000 O2-
   0.1030850000000000    0.3011600000000000    0.3051500000000000 O2-
   0.1030850000000000    0.3011600000000000    0.8051500000000000 O2-
   0.1030850000000000    0.8011600000000001    0.3051500000000000 O2-
   0.1030850000000000    0.8011600000000001    0.8051499999999999 O2-
   0.6030850000000000    0.3011600000000000    0.3051500000000000 O2-
   0.6030850000000000    0.3011600000000000    0.8051499999999999 O2-
   0.6030850000000000    0.8011600000000001    0.3051500000000000 O2-
   0.6030850000000000    0.8011600000000001    0.8051499999999999 O2-
   0.3969150000000000    0.1988400000000000    0.1948500000000000 O2-
   0.3969150000000000    0.1988400000000000    0.6948500000000000 O2-
   0.3969150000000000    0.6988400000000000    0.1948500000000000 O2-
   0.3969150000000000    0.6988400000000000    0.6948500000000000 O2-
   0.8969150000000001    0.1988400000000000    0.1948500000000000 O2-
   0.8969150000000001    0.1988400000000000    0.6948500000000000 O2-
   0.8969150000000000    0.6988400000000000    0.1948500000000000 O2-
   0.8969150000000000    0.6988400000000000    0.6948500000000000 O2-
   0.0090550000000000    0.4246500000000000    0.3650499999999999 O2-
   0.0090550000000000    0.4246500000000000    0.8650499999999999 O2-
   0.0090550000000000    0.9246500000000001    0.3650499999999999 O2-
   0.0090550000000000    0.9246500000000001    0.8650499999999999 O2-
   0.5090550000000000    0.4246500000000000    0.3650499999999999 O2-
   0.5090550000000000    0.4246500000000000    0.8650499999999999 O2-
   0.5090550000000000    0.9246500000000001    0.3650499999999999 O2-
   0.5090550000000000    0.9246500000000001    0.8650499999999999 O2-
   0.4909450000000001    0.0753500000000000    0.1349500000000000 O2-
   0.4909450000000001    0.0753500000000000    0.6349499999999999 O2-
   0.4909450000000001    0.5753500000000000    0.1349500000000000 O2-
   0.4909450000000001    0.5753500000000000    0.6349499999999999 O2-
   0.9909450000000002    0.0753500000000000    0.1349500000000000 O2-
   0.9909450000000002    0.0753500000000000    0.6349499999999999 O2-
   0.9909450000000000    0.5753500000000000    0.1349500000000000 O2-
   0.9909450000000000    0.5753500000000000    0.6349499999999999 O2-
   0.1891000000000000    0.1303000000000000    0.2621500000000000 O2-
   0.1891000000000000    0.1303000000000000    0.7621500000000000 O2-
   0.1891000000000000    0.6303000000000000    0.2621499999999999 O2-
   0.1891000000000000    0.6303000000000000    0.7621499999999999 O2-
   0.6891000000000000    0.1303000000000000    0.2621500000000000 O2-
   0.6891000000000000    0.1303000000000000    0.7621500000000000 O2-
   0.6890999999999999    0.6303000000000000    0.2621500000000000 O2-
   0.6890999999999999    0.6303000000000000    0.7621500000000000 O2-
   0.3109000000000000    0.3697000000000001    0.2378500000000000 O2-
   0.3109000000000000    0.3697000000000001    0.7378500000000000 O2-
   0.3109000000000000    0.8697000000000003    0.2378500000000000 O2-
   0.3109000000000000    0.8697000000000003    0.7378500000000000 O2-
   0.8109000000000001    0.3697000000000001    0.2378500000000000 O2-
   0.8109000000000001    0.3697000000000001    0.7378500000000000 O2-
   0.8109000000000001    0.8697000000000003    0.2378500000000001 O2-
   0.8109000000000001    0.8697000000000003    0.7378500000000000 O2-
   0.2639350000000001    0.1348250000000000    0.4765500000000000 O2-
   0.2639350000000001    0.1348250000000000    0.9765499999999999 O2-
   0.2639350000000001    0.6348250000000000    0.4765500000000000 O2-
   0.2639350000000001    0.6348250000000000    0.9765499999999999 O2-
   0.7639350000000001    0.1348250000000000    0.4765500000000000 O2-
   0.7639350000000001    0.1348250000000000    0.9765499999999999 O2-
   0.7639350000000001    0.6348250000000000    0.4765500000000000 O2-
   0.7639350000000001    0.6348250000000000    0.9765499999999999 O2-
   0.2360650000000000    0.3651750000000000    0.0234500000000000 O2-
   0.2360650000000000    0.3651750000000000    0.5234500000000000 O2-
   0.2360650000000000    0.8651750000000001    0.0234500000000000 O2-
   0.2360650000000000    0.8651750000000001    0.5234500000000000 O2-
   0.7360650000000001    0.3651750000000000    0.0234500000000000 O2-
   0.7360650000000001    0.3651750000000000    0.5234500000000000 O2-
   0.7360650000000001    0.8651750000000001    0.0234500000000001 O2-
   0.7360650000000001    0.8651750000000001    0.5234500000000000 O2-
   0.1187350000000000    0.1485700000000000    0.4794499999999999 O2-
   0.1187350000000000    0.1485700000000000    0.9794499999999999 O2-
   0.1187350000000000    0.6485700000000000    0.4794499999999999 O2-
   0.1187350000000000    0.6485700000000000    0.9794499999999998 O2-
   0.6187350000000000    0.1485700000000000    0.4794499999999999 O2-
   0.6187350000000000    0.1485700000000000    0.9794499999999999 O2-
   0.6187349999999999    0.6485700000000000    0.4794499999999999 O2-
   0.6187349999999999    0.6485700000000000    0.9794499999999998 O2-
   0.3812650000000000    0.3514300000000000    0.0205500000000000 O2-
   0.3812650000000000    0.3514300000000000    0.5205500000000000 O2-
   0.3812650000000000    0.8514300000000000    0.0205500000000000 O2-
   0.3812650000000000    0.8514300000000000    0.5205500000000000 O2-
   0.8812650000000001    0.3514300000000000    0.0205500000000000 O2-
   0.8812650000000001    0.3514300000000000    0.5205500000000000 O2-
   0.8812650000000000    0.8514300000000000    0.0205500000000000 O2-
   0.8812650000000000    0.8514300000000000    0.5205500000000000 O2-
