Ca32 Co32 O80
1.0
  10.7025125063707502    0.0000000000000000    0.0000000000000006
   0.0000000000000018   11.0270172712336105    0.0000000000000006
   0.0000000000000000    0.0000000000000000   14.5288446248034351
Ca Co O
31 32 80
direct
   0.7432658304282818    0.5109330576732027    0.8925314166449709 Ca
   0.2432575247197058    0.0109263869288192    0.6074734308609423 Ca
   0.2432575247197058    0.5109263869288192    0.6074734308609423 Ca
   0.7432575247197059    0.0109263869288192    0.6074734308609423 Ca
   0.2432658304282818    0.0109330576732027    0.8925314166449709 Ca
   0.2432658304282818    0.5109330576732027    0.8925314166449709 Ca
   0.7432658304282818    0.0109330576732027    0.8925314166449709 Ca
   0.2567326637737680    0.4890745768048461    0.1074706912052790 Ca
   0.2567326637737679    0.9890745768048461    0.1074706912052790 Ca
   0.7567326637737680    0.4890745768048461    0.1074706912052790 Ca
   0.7567326637737680    0.9890745768048461    0.1074706912052790 Ca
   0.0067361015252949    0.2609236178924021    0.3925239603417054 Ca
   0.0067361015252949    0.7609236178924021    0.3925239603417054 Ca
   0.5067361015252949    0.2609236178924021    0.3925239603417054 Ca
   0.5067361015252949    0.7609236178924021    0.3925239603417054 Ca
   0.4932662514717378    0.2390741771742136    0.8925246612068491 Ca
   0.4932662514717379    0.7390741771742136    0.8925246612068491 Ca
   0.9932662514717379    0.2390741771742136    0.8925246612068491 Ca
   0.9932662514717377    0.7390741771742136    0.8925246612068491 Ca
   0.4932640343251116    0.2390678980391705    0.6074760229051179 Ca
   0.4932640343251116    0.7390678980391704    0.6074760229051179 Ca
   0.9932640343251117    0.2390678980391705    0.6074760229051179 Ca
   0.9932640343251117    0.7390678980391704    0.6074760229051179 Ca
   0.0067344077312761    0.2609189872933761    0.1074767041890539 Ca
   0.0067344077312761    0.7609189872933761    0.1074767041890539 Ca
   0.5067344077312762    0.2609189872933761    0.1074767041890539 Ca
   0.5067344077312761    0.7609189872933761    0.1074767041890539 Ca
   0.2567410352647883    0.4890789540928183    0.3925256181091399 Ca
   0.2567410352647883    0.9890789540928183    0.3925256181091399 Ca
   0.7567410352647883    0.4890789540928183    0.3925256181091399 Ca
   0.7567410352647883    0.9890789540928183    0.3925256181091399 Ca
   0.2500055054110319    0.2499911994687949    0.5000008595069403 Co
   0.2500055054110320    0.7499911994687949    0.5000008595069403 Co
   0.7500055054110321    0.2499911994687949    0.5000008595069403 Co
   0.7500055054110321    0.7499911994687949    0.5000008595069404 Co
   0.2500067717699253    0.2499918260060987    0.9999983717066598 Co
   0.2500067717699253    0.7499918260060987    0.9999983717066598 Co
   0.7500067717699254    0.2499918260060987    0.9999983717066598 Co
   0.7500067717699253    0.7499918260060987    0.9999983717066598 Co
   0.0238778305683702    0.0327106940799275    0.2499901254573018 Co
   0.0238778305683702    0.5327106940799275    0.2499901254573018 Co
   0.5238778305683703    0.0327106940799275    0.2499901254573018 Co
   0.5238778305683702    0.5327106940799275    0.2499901254573018 Co
   0.4761339760623429    0.4672918360890215    0.7500102474232051 Co
   0.4761339760623429    0.9672918360890216    0.7500102474232051 Co
   0.9761339760623430    0.4672918360890215    0.7500102474232051 Co
   0.9761339760623430    0.9672918360890216    0.7500102474232051 Co
   0.0000018951653047    0.0000063664761747    0.0000000320201465 Co
   0.0000018951653047    0.5000063664761747    0.0000000320201465 Co
   0.5000018951653047    0.0000063664761747    0.0000000320201465 Co
   0.5000018951653047    0.5000063664761747    0.0000000320201465 Co
   0.0000030807713678    0.0000068276510596    0.4999990575734259 Co
   0.0000030807713678    0.5000068276510596    0.4999990575734259 Co
   0.5000030807713678    0.0000068276510596    0.4999990575734259 Co
   0.5000030807713678    0.5000068276510596    0.4999990575734259 Co
   0.2738800749084795    0.2172690822433730    0.2499979310092399 Co
   0.2738800749084795    0.7172690822433729    0.2499979310092399 Co
   0.7738800749084795    0.2172690822433730    0.2499979310092399 Co
   0.7738800749084797    0.7172690822433729    0.2499979310092399 Co
   0.2261148858631365    0.2827248582583834    0.7500025150976698 Co
   0.2261148858631365    0.7827248582583834    0.7500025150976698 Co
   0.7261148858631367    0.2827248582583834    0.7500025150976698 Co
   0.7261148858631367    0.7827248582583834    0.7500025150976697 Co
   0.2964367809236457    0.4427145319611157    0.7499886918031180 O
   0.2964367809236457    0.9427145319611158    0.7499886918031180 O
   0.7964367809236458    0.4427145319611157    0.7499886918031180 O
   0.7964367809236458    0.9427145319611158    0.7499886918031180 O
   0.0464554156147301    0.3072987704032428    0.7499903995304039 O
   0.0464554156147301    0.8072987704032428    0.7499903995304038 O
   0.5464554156147302    0.3072987704032428    0.7499903995304038 O
   0.5464554156147301    0.8072987704032428    0.7499903995304038 O
   0.4535546537935815    0.1927014645786151    0.2500101743352019 O
   0.4535546537935815    0.6927014645786151    0.2500101743352019 O
   0.9535546537935816    0.1927014645786151    0.2500101743352019 O
   0.9535546537935815    0.6927014645786151    0.2500101743352019 O
   0.2035568285307754    0.0572913243996283    0.2500111396945996 O
   0.2035568285307754    0.5572913243996283    0.2500111396945996 O
   0.7035568285307755    0.0572913243996283    0.2500111396945996 O
   0.7035568285307754    0.5572913243996283    0.2500111396945996 O
   0.4911865052587246    0.4690611121591247    0.3642225560588628 O
   0.4911865052587246    0.9690611121591246    0.3642225560588628 O
   0.9911865052587246    0.4690611121591247    0.3642225560588628 O
   0.9911865052587246    0.9690611121591246    0.3642225560588628 O
   0.2411911667383429    0.2809242058712975    0.1357783255007732 O
   0.2411911667383429    0.7809242058712975    0.1357783255007732 O
   0.7411911667383430    0.2809242058712975    0.1357783255007732 O
   0.7411911667383430    0.7809242058712975    0.1357783255007732 O
   0.2588063004014849    0.2190675993119129    0.6357725744749843 O
   0.2588063004014849    0.7190675993119129    0.6357725744749843 O
   0.7588063004014850    0.2190675993119129    0.6357725744749843 O
   0.7588063004014849    0.7190675993119129    0.6357725744749843 O
   0.0088056148877023    0.0309322110647337    0.8642150342184678 O
   0.0088056148877023    0.5309322110647337    0.8642150342184678 O
   0.5088056148877023    0.0309322110647337    0.8642150342184678 O
   0.5088056148877023    0.5309322110647337    0.8642150342184678 O
   0.0088151826086822    0.0309301705331002    0.6357809649154404 O
   0.0088151826086822    0.5309301705331002    0.6357809649154404 O
   0.5088151826086823    0.0309301705331002    0.6357809649154404 O
   0.5088151826086822    0.5309301705331002    0.6357809649154404 O
   0.2588047139690559    0.2190833746101682    0.8642183214334764 O
   0.2588047139690559    0.7190833746101681    0.8642183214334764 O
   0.7588047139690560    0.2190833746101682    0.8642183214334764 O
   0.7588047139690559    0.7190833746101681    0.8642183214334764 O
   0.2411828899918191    0.2809346387633873    0.3642299883552553 O
   0.2411828899918191    0.7809346387633874    0.3642299883552553 O
   0.7411828899918192    0.2809346387633873    0.3642299883552553 O
   0.7411828899918191    0.7809346387633874    0.3642299883552553 O
   0.4911944579397059    0.4690614898550116    0.1357826014350962 O
   0.4911944579397059    0.9690614898550116    0.1357826014350962 O
   0.9911944579397060    0.4690614898550116    0.1357826014350962 O
   0.9911944579397060    0.9690614898550116    0.1357826014350962 O
   0.3720464896673761    0.3783744064274117    0.5164724665472420 O
   0.3720464896673761    0.8783744064274116    0.5164724665472420 O
   0.8720464896673761    0.3783744064274117    0.5164724665472420 O
   0.8720464896673762    0.8783744064274116    0.5164724665472420 O
   0.1220873456008107    0.3716099886965409    0.9835346687714052 O
   0.1220873456008107    0.8716099886965409    0.9835346687714051 O
   0.6220873456008107    0.3716099886965409    0.9835346687714051 O
   0.6220873456008108    0.8716099886965409    0.9835346687714051 O
   0.3779351166672171    0.1283931650017784    0.4835216436880145 O
   0.3779351166672171    0.6283931650017784    0.4835216436880144 O
   0.8779351166672172    0.1283931650017784    0.4835216436880144 O
   0.8779351166672172    0.6283931650017784    0.4835216436880145 O
   0.1279647704855797    0.1216386579895073    0.0164663993930532 O
   0.1279647704855797    0.6216386579895072    0.0164663993930532 O
   0.6279647704855797    0.1216386579895073    0.0164663993930532 O
   0.6279647704855799    0.6216386579895072    0.0164663993930532 O
   0.3720356909986507    0.3783605143689606    0.9835337509456679 O
   0.3720356909986507    0.8783605143689607    0.9835337509456679 O
   0.8720356909986506    0.3783605143689606    0.9835337509456679 O
   0.8720356909986507    0.8783605143689607    0.9835337509456679 O
   0.1220592098084019    0.3716123285114854    0.5164767996556634 O
   0.1220592098084019    0.8716123285114854    0.5164767996556634 O
   0.6220592098084019    0.3716123285114854    0.5164767996556634 O
   0.6220592098084019    0.8716123285114854    0.5164767996556634 O
   0.3779100032425653    0.1283971721040089    0.0164654870893770 O
   0.3779100032425652    0.6283971721040089    0.0164654870893770 O
   0.8779100032425653    0.1283971721040089    0.0164654870893770 O
   0.8779100032425654    0.6283971721040089    0.0164654870893770 O
   0.1279489931112217    0.1216225272172977    0.4835263668962568 O
   0.1279489931112217    0.6216225272172977    0.4835263668962568 O
   0.6279489931112218    0.1216225272172977    0.4835263668962568 O
   0.6279489931112217    0.6216225272172977    0.4835263668962568 O
