Ca16 Cr32 O64                           
   1.00000000000000     
     9.6234456596959479   -0.0003686480582907   -2.8554919871590165
    -0.0002259448570601   11.5755374588160809    0.0007796050233243
    -0.0270379125309137    0.0007478702209680   11.3044100132456631
   Ca   Cr   O 
     1    32    64
Direct
  0.3343340297244177  0.8749762631286711  0.5035392052430454
  0.9979046319946523  0.2511151438666522  0.2430899280173928
  0.9942330616384163  0.2532036918876888  0.7410694509273745
  0.0001560624039380  0.7492159390738145  0.2505168733432125
  0.9996738377960067  0.7517869435551628  0.7514518815825376
  0.4987679451121462  0.2489392539706460  0.2432802020796218
  0.4940261840739927  0.2482139350559121  0.7394962741846385
  0.5022703649571959  0.7502499511218282  0.2501357500132340
  0.5093991703369931  0.7504650321860765  0.7733086658152102
  0.0000899139424953  0.0009415861554916  0.2504453113129919
  0.9998040026374962 -0.0017396035882167  0.7516167946289087
  0.9981436706180882  0.4992086899939164  0.2436901941382663
  0.9949853885784077  0.4969967473018396  0.7418140063854159
  0.5021699991168335  0.9997781492495881  0.2497578808909859
  0.5095159407424223 -0.0003886240680868  0.7735138961024811
  0.4988581407381812  0.5008032883769865  0.2436580879149403
  0.4936767598102472  0.5018353242218478  0.7393085108797952
  0.2497309927433655  0.1259642034858501  0.2474182535283632
  0.2492852042440322  0.1265842978965921  0.7459687560857555
  0.2497744380575079  0.6239767452394424  0.2470935176332180
  0.2492462566279437  0.6229298594038064  0.7460850909343398
  0.7513290622430919  0.1253351594798892  0.2550332184223366
  0.7514206850625866  0.1272701028665552  0.7433795594234578
  0.7510124137164325  0.6246811266768568  0.2544406516358261
  0.7514369421275666  0.6226369666773315  0.7435921557497623
  0.2562996323418786  0.3749594152504946  0.2614139972018401
  0.2527161936044438  0.3745668037438348  0.7634222210046747
  0.2393901497147600  0.8749765390642037  0.2167197845497344
  0.2511443797687496  0.8748836908591847  0.7705783564688640
  0.7537489678586470  0.3750368274041901  0.2578467202773007
  0.7489169633211797  0.3750957193084226  0.7636973426026744
  0.7491468633416908  0.8750359960821505  0.2392128811438466
  0.7483611548729602  0.8749497324022515  0.7524519506951207
  0.0554293358097438  0.1254338391384296  0.1611247666846231
  0.0560888988133016  0.1247738670957553  0.6631765720398972
  0.0555410782624666  0.6246644514971009  0.1612093704140226
  0.0560339636942691  0.6253793198199677  0.6631917802134669
  0.5556710552856711  0.1243715147887683  0.1610928492977790
  0.5546207003106477  0.1223899171086462  0.6642668352346133
  0.5555143004836182  0.6255288585307287  0.1612570202998399
  0.5545494160073053  0.6275980922570656  0.6642977031490654
  0.4467669674043427  0.3749027011026000  0.3383680931982284
  0.4411152862541518  0.3750876156374104  0.8357243049825307
  0.4371815482080966  0.8750348292882214  0.3353364946898478
  0.4554003482661550  0.8749685970539639  0.8573805601179821
  0.9471447890356286  0.3750488179362055  0.3384706919973133
  0.9460391800728044  0.3749132320299787  0.8388875166113583
  0.9469932496310870  0.8750820644999672  0.3355682978815229
  0.9428254958494612  0.8750561619540222  0.8391852749435311
  0.4438304853289712  0.1226096908449124  0.3355492383261994
  0.4450148096375243  0.1252648710544746  0.8408286040173844
  0.4438589082246053  0.6272788103700129  0.3356479642936043
  0.4449376668643816  0.6246247956944023  0.8406266652963562
  0.9466721135684958  0.1238303507978938  0.3375061080261532
  0.9451318641888626  0.1251322371274871  0.8332965610942726
  0.9465777292327393  0.6263241679098212  0.3374524624459163
  0.9451684896295440  0.6250721682156990  0.8334943181026985
  0.0566415462214694  0.3751217513819073  0.1622236674554493
  0.0551835213044545  0.3751334509754846  0.6571440749268119
  0.0521319155021388  0.8751090233862423  0.1526578510146652
  0.0570612631408220  0.8750198701900039  0.6647360860928959
  0.5565685194103240  0.3749732365273299  0.1629278795208400
  0.5487100805882592  0.3750461459274754  0.6599253986338506
  0.5551906232622651  0.8750294747529606  0.1596613957481219
  0.5498826109235939  0.8750657792457007  0.6667335045882479
  0.1963594492791876  0.2486350619154859  0.3384326857907430
  0.1925849498170181  0.2505840351354695  0.8389171358358302
  0.1992248925932226  0.7561876758085867  0.3349507695110608
  0.1981580473876169  0.7486227433439783  0.8441768166637302
  0.6956663581196179  0.2493264162853616  0.3400323338948288
  0.6935060998772267  0.2505747527445180  0.8383943934214892
  0.6941456330355021  0.7515937522680697  0.3368138373763436
  0.6991397119513078  0.7477693962224640  0.8434140349267425
  0.3028957408602783  0.0004869858966179  0.1524497252087922
  0.3107618924516158  0.9927633957787830  0.6665937454258337
  0.3057635783820706  0.4993799718106977  0.1628140275075704
  0.3024734925093268  0.5035018791141751  0.6588793883998172
  0.8058179973089595  0.0009264682868971  0.1611383175782174
  0.8044419093654704  0.9986566421917775  0.6625295871785442
  0.8056582994907380  0.4999418800946926  0.1641769282831810
  0.8023002627791687  0.4985238895805219  0.6585435214180080
  0.3057635563856631  0.2505010093281044  0.1628479506725725
  0.3029077537411426  0.2460071354417074  0.6591004484936726
  0.3029374172513712  0.7495161950208432  0.1524366409487356
  0.3108301877213814  0.7570508284481795  0.6665770620974405
  0.8056033472860306  0.2501942100903822  0.1641216984901980
  0.8020868641435767  0.2516952113037924  0.6580869229541437
  0.8057663485241451  0.7492169248853202  0.1610752485538428
  0.8043636154022903  0.7512905248299652  0.6625535173327410
  0.1964403044367609  0.5013361970339159  0.3384766401737852
  0.1926147933964055  0.4996627433631169  0.8391288882980825
  0.1991853525778349  0.9937961484345307  0.3350218034511782
  0.1982378977115977  0.0012043008454608  0.8443362601257156
  0.6956358508307046  0.5006417658205803  0.3400330051407998
  0.6933087964554379  0.4993689540287837  0.8384685099821491
  0.6941575949587202  0.9984467092517267  0.3368707832216893
  0.6991723396825978  0.0022415939239663  0.8433925894862467
 
  0.00000000E+00  0.00000000E+00  0.00000000E+00
  0.00000000E+00  0.00000000E+00  0.00000000E+00
  0.00000000E+00  0.00000000E+00  0.00000000E+00
  0.00000000E+00  0.00000000E+00  0.00000000E+00
  0.00000000E+00  0.00000000E+00  0.00000000E+00
  0.00000000E+00  0.00000000E+00  0.00000000E+00
  0.00000000E+00  0.00000000E+00  0.00000000E+00
  0.00000000E+00  0.00000000E+00  0.00000000E+00
  0.00000000E+00  0.00000000E+00  0.00000000E+00
  0.00000000E+00  0.00000000E+00  0.00000000E+00
  0.00000000E+00  0.00000000E+00  0.00000000E+00
  0.00000000E+00  0.00000000E+00  0.00000000E+00
  0.00000000E+00  0.00000000E+00  0.00000000E+00
  0.00000000E+00  0.00000000E+00  0.00000000E+00
  0.00000000E+00  0.00000000E+00  0.00000000E+00
  0.00000000E+00  0.00000000E+00  0.00000000E+00
  0.00000000E+00  0.00000000E+00  0.00000000E+00
  0.00000000E+00  0.00000000E+00  0.00000000E+00
  0.00000000E+00  0.00000000E+00  0.00000000E+00
  0.00000000E+00  0.00000000E+00  0.00000000E+00
  0.00000000E+00  0.00000000E+00  0.00000000E+00
  0.00000000E+00  0.00000000E+00  0.00000000E+00
  0.00000000E+00  0.00000000E+00  0.00000000E+00
  0.00000000E+00  0.00000000E+00  0.00000000E+00
  0.00000000E+00  0.00000000E+00  0.00000000E+00
  0.00000000E+00  0.00000000E+00  0.00000000E+00
  0.00000000E+00  0.00000000E+00  0.00000000E+00
  0.00000000E+00  0.00000000E+00  0.00000000E+00
  0.00000000E+00  0.00000000E+00  0.00000000E+00
  0.00000000E+00  0.00000000E+00  0.00000000E+00
  0.00000000E+00  0.00000000E+00  0.00000000E+00
  0.00000000E+00  0.00000000E+00  0.00000000E+00
  0.00000000E+00  0.00000000E+00  0.00000000E+00
  0.00000000E+00  0.00000000E+00  0.00000000E+00
  0.00000000E+00  0.00000000E+00  0.00000000E+00
  0.00000000E+00  0.00000000E+00  0.00000000E+00
  0.00000000E+00  0.00000000E+00  0.00000000E+00
  0.00000000E+00  0.00000000E+00  0.00000000E+00
  0.00000000E+00  0.00000000E+00  0.00000000E+00
  0.00000000E+00  0.00000000E+00  0.00000000E+00
  0.00000000E+00  0.00000000E+00  0.00000000E+00
  0.00000000E+00  0.00000000E+00  0.00000000E+00
  0.00000000E+00  0.00000000E+00  0.00000000E+00
  0.00000000E+00  0.00000000E+00  0.00000000E+00
  0.00000000E+00  0.00000000E+00  0.00000000E+00
  0.00000000E+00  0.00000000E+00  0.00000000E+00
  0.00000000E+00  0.00000000E+00  0.00000000E+00
  0.00000000E+00  0.00000000E+00  0.00000000E+00
  0.00000000E+00  0.00000000E+00  0.00000000E+00
  0.00000000E+00  0.00000000E+00  0.00000000E+00
  0.00000000E+00  0.00000000E+00  0.00000000E+00
  0.00000000E+00  0.00000000E+00  0.00000000E+00
  0.00000000E+00  0.00000000E+00  0.00000000E+00
  0.00000000E+00  0.00000000E+00  0.00000000E+00
  0.00000000E+00  0.00000000E+00  0.00000000E+00
  0.00000000E+00  0.00000000E+00  0.00000000E+00
  0.00000000E+00  0.00000000E+00  0.00000000E+00
  0.00000000E+00  0.00000000E+00  0.00000000E+00
  0.00000000E+00  0.00000000E+00  0.00000000E+00
  0.00000000E+00  0.00000000E+00  0.00000000E+00
  0.00000000E+00  0.00000000E+00  0.00000000E+00
  0.00000000E+00  0.00000000E+00  0.00000000E+00
  0.00000000E+00  0.00000000E+00  0.00000000E+00
  0.00000000E+00  0.00000000E+00  0.00000000E+00
  0.00000000E+00  0.00000000E+00  0.00000000E+00
  0.00000000E+00  0.00000000E+00  0.00000000E+00
  0.00000000E+00  0.00000000E+00  0.00000000E+00
  0.00000000E+00  0.00000000E+00  0.00000000E+00
  0.00000000E+00  0.00000000E+00  0.00000000E+00
  0.00000000E+00  0.00000000E+00  0.00000000E+00
  0.00000000E+00  0.00000000E+00  0.00000000E+00
  0.00000000E+00  0.00000000E+00  0.00000000E+00
  0.00000000E+00  0.00000000E+00  0.00000000E+00
  0.00000000E+00  0.00000000E+00  0.00000000E+00
  0.00000000E+00  0.00000000E+00  0.00000000E+00
  0.00000000E+00  0.00000000E+00  0.00000000E+00
  0.00000000E+00  0.00000000E+00  0.00000000E+00
  0.00000000E+00  0.00000000E+00  0.00000000E+00
  0.00000000E+00  0.00000000E+00  0.00000000E+00
  0.00000000E+00  0.00000000E+00  0.00000000E+00
  0.00000000E+00  0.00000000E+00  0.00000000E+00
  0.00000000E+00  0.00000000E+00  0.00000000E+00
  0.00000000E+00  0.00000000E+00  0.00000000E+00
  0.00000000E+00  0.00000000E+00  0.00000000E+00
  0.00000000E+00  0.00000000E+00  0.00000000E+00
  0.00000000E+00  0.00000000E+00  0.00000000E+00
  0.00000000E+00  0.00000000E+00  0.00000000E+00
  0.00000000E+00  0.00000000E+00  0.00000000E+00
  0.00000000E+00  0.00000000E+00  0.00000000E+00
  0.00000000E+00  0.00000000E+00  0.00000000E+00
  0.00000000E+00  0.00000000E+00  0.00000000E+00
  0.00000000E+00  0.00000000E+00  0.00000000E+00
  0.00000000E+00  0.00000000E+00  0.00000000E+00
  0.00000000E+00  0.00000000E+00  0.00000000E+00
  0.00000000E+00  0.00000000E+00  0.00000000E+00
  0.00000000E+00  0.00000000E+00  0.00000000E+00
  0.00000000E+00  0.00000000E+00  0.00000000E+00
