Ca8 Ni12 F42                            
   1.00000000000000     
     7.2758960000000004   -0.0056300000000000   -0.0029760000000000
    -3.6669820000000000    6.3644259999999999    0.0038700000000000
    -0.0000920000000000    0.0078260000000000   18.2924490000000013
   Ca   Ni   F 
     8    12    42
Direct
  0.3259557205525224  0.8141082094401562  0.6841777725018997
  0.1463739841738807  0.6423722965469361  0.9866915219575446
  0.3543772601888408  0.5055637740237769  0.3209033428565528
  0.8404992449905276  0.0205413608540744  0.3461772517901534
  0.1782490938356822  0.1656253221792066  0.0035273948007536
  0.9825144021910781  0.7931992569170923  0.1743891394432439
  0.8094212438844158  0.9722488077174087  0.8331834872109540
  0.1986531688845517  0.1607992445846146  0.5111707532696683
  0.3338537259384817  0.0007332887113441  0.3330244218982805
  0.9692616224816432  0.3190732667582521  0.6645530099550427
  0.6677961727949593  0.6708501256234889  0.0014921925996968
  0.3379569079585721  0.0326565358380751  0.8368113144133310
  0.9934926169258667  0.3110577155631672  0.1615148738344142
  0.6743583495217748  0.6710717182531234  0.4926746094392955
  0.4952875925677500  0.8190631290384623  0.1640458299250049
  0.1691766011627281  0.6589698992079327  0.4910875917679077
  0.3234591189576176  0.5038619608258584  0.8309423172060106
  0.8312134530681287  0.5103716537730022  0.8279703733762314
  0.6798995526383143  0.1730236811045786  0.4969906297185006
  0.4914058374582783  0.3105429913291825  0.1618414389717417
  0.7243147890361237  0.1916762352190484  0.6013427670494098
  0.8182477246959097  0.5710516417491106  0.9371903203017586
  0.4386379513991148  0.2564825042947069  0.2706942276507808
  0.2363540003053554  0.7250327591643292  0.3841226847262180
  0.4833569710646356  0.7533522185651681  0.0585859018164056
  0.2438034046445298  0.4837739018076443  0.7261098833389704
  0.8312504136305116  0.9565378374151609  0.9550700404725089
  0.0416117888787761  0.8839737129532813  0.2886053315761666
  0.1089729895359589  0.1888036546981999  0.6181674436067786
  0.9748260543464892  0.7994116440634806  0.0533268888032806
  0.8105938557782640  0.0723906330076189  0.7244956458376072
  0.2029168272089860  0.1730016290159271  0.3873932272815157
  0.5192222819533718  0.3880405626077727  0.0532609123073841
  0.6061874242388461  0.1247176082728057  0.3883564672777144
  0.8932745657545469  0.4957883450859407  0.7242109512046478
  0.3906076243418919  0.5384489765091264  0.9424289956963072
  0.1209838694880708  0.5871446226925754  0.5982306363133773
  0.5004523468980100  0.8696194595161617  0.2762865154484752
  0.7963188574568937  0.4230271763951556  0.1709197326297050
  0.5665914887476891  0.3629797817659597  0.4984841492464362
  0.6470488254597485  0.2099315912066229  0.8510168168476268
  0.4298116737618091  0.8164981356552926  0.8125623356771463
  0.3688162522292701  0.5540201392675564  0.4864308028381490
  0.1876883429515517  0.6216988123183694  0.1741165520708013
  0.0262622091943003  0.3008699729015589  0.2725460943729713
  0.6677856382417309  0.7000987479385060  0.5902358297175526
  0.3001180802081718  0.9712001764753539  0.9452077879011802
  0.3650733101279058  0.0960503477295922  0.7337660633821458
  0.6632033310796449  0.6712328903252940  0.3843472338925574
  0.0182856033214117  0.3443184167118098  0.0501345413451771
  0.1859203863464997  0.1969919477244608  0.1414495879056262
  0.7972245952488451  0.9828078627937161  0.4767701784988734
  0.0322474446155744  0.8223114324212620  0.8162875496707005
  0.1979348793529641  0.2034418321581120  0.8612137614384258
  0.9786182215503735  0.7745606753186342  0.4903422575471599
  0.8034535761856204 -0.0006745384892285  0.1649443181202464
  0.0551626414852642  0.4631882858472623  0.8715658988734297
  0.5733568549166994  0.6047709643006236  0.1997529697901029
  0.3726113001986537  0.9568916756237812  0.5266249078204113
  0.3877024553703993  0.0100775812294156  0.1390133645896770
  0.6223061429427386  0.6016119897003802  0.8085409092287331
  0.9714756687088197  0.3681225256977323  0.4609935448988287
 
             NaN             NaN             NaN
             NaN             NaN             NaN
             NaN             NaN             NaN
             NaN             NaN             NaN
             NaN             NaN             NaN
             NaN             NaN             NaN
             NaN             NaN             NaN
             NaN             NaN             NaN
             NaN             NaN             NaN
             NaN             NaN             NaN
             NaN             NaN             NaN
             NaN             NaN             NaN
             NaN             NaN             NaN
             NaN             NaN             NaN
             NaN             NaN             NaN
             NaN             NaN             NaN
             NaN             NaN             NaN
             NaN             NaN             NaN
             NaN             NaN             NaN
             NaN             NaN             NaN
             NaN             NaN             NaN
             NaN             NaN             NaN
             NaN             NaN             NaN
             NaN             NaN             NaN
             NaN             NaN             NaN
             NaN             NaN             NaN
             NaN             NaN             NaN
             NaN             NaN             NaN
             NaN             NaN             NaN
             NaN             NaN             NaN
             NaN             NaN             NaN
             NaN             NaN             NaN
             NaN             NaN             NaN
             NaN             NaN             NaN
             NaN             NaN             NaN
             NaN             NaN             NaN
             NaN             NaN             NaN
             NaN             NaN             NaN
             NaN             NaN             NaN
             NaN             NaN             NaN
             NaN             NaN             NaN
             NaN             NaN             NaN
             NaN             NaN             NaN
             NaN             NaN             NaN
             NaN             NaN             NaN
             NaN             NaN             NaN
             NaN             NaN             NaN
             NaN             NaN             NaN
             NaN             NaN             NaN
             NaN             NaN             NaN
             NaN             NaN             NaN
             NaN             NaN             NaN
             NaN             NaN             NaN
             NaN             NaN             NaN
             NaN             NaN             NaN
             NaN             NaN             NaN
             NaN             NaN             NaN
             NaN             NaN             NaN
             NaN             NaN             NaN
             NaN             NaN             NaN
             NaN             NaN             NaN
             NaN             NaN             NaN
