Ca8 Ni12 F42
1.0
7.275896 -0.005630 -0.002976
-3.666982 6.364426 0.003870
-0.000092 0.007826 18.292449
Ca Ni F
8 12 42
direct
0.304812 0.848584 0.661858 Ca
0.153921 0.646972 0.979476 Ca
0.349983 0.510101 0.324723 Ca
0.842700 0.017084 0.346116 Ca
0.171141 0.163556 0.009870 Ca
0.983617 0.790007 0.174346 Ca
0.802657 0.981544 0.834894 Ca
0.208923 0.170097 0.512281 Ca
0.340476 0.007848 0.333567 Ni
0.990957 0.343050 0.667133 Ni
0.663020 0.659438 0.000950 Ni
0.321683 0.007500 0.831508 Ni
0.995940 0.313679 0.162330 Ni
0.684834 0.677303 0.493330 Ni
0.497571 0.819352 0.162840 Ni
0.178364 0.667832 0.494665 Ni
0.316808 0.497772 0.829557 Ni
0.816491 0.499688 0.827865 Ni
0.691019 0.182985 0.496069 Ni
0.494502 0.311533 0.163548 Ni
0.746009 0.199490 0.600417 F
0.809334 0.553792 0.937539 F
0.440290 0.262692 0.271297 F
0.244212 0.735501 0.386254 F
0.479458 0.748523 0.056206 F
0.252946 0.509508 0.727531 F
0.830429 0.949952 0.955565 F
0.050093 0.889196 0.287694 F
0.128452 0.205289 0.619497 F
0.973451 0.791951 0.052987 F
0.832633 0.066480 0.722292 F
0.207323 0.175248 0.388316 F
0.522762 0.383638 0.055759 F
0.614467 0.134165 0.387598 F
0.858682 0.475679 0.723664 F
0.373020 0.497035 0.944016 F
0.132484 0.607706 0.601471 F
0.506429 0.874663 0.275598 F
0.798469 0.422005 0.173850 F
0.577072 0.371895 0.501112 F
0.628497 0.200416 0.843593 F
0.423125 0.800871 0.849247 F
0.372724 0.555900 0.487155 F
0.193155 0.621337 0.179338 F
0.026267 0.296625 0.272552 F
0.680367 0.717489 0.594409 F
0.283995 0.983281 0.943150 F
0.345466 0.006034 0.728283 F
0.664087 0.674098 0.380510 F
0.023020 0.358604 0.051577 F
0.189002 0.200363 0.142322 F
0.805425 0.990029 0.475818 F
0.012575 0.806018 0.821535 F
0.195361 0.194609 0.837762 F
0.992971 0.787899 0.491162 F
0.805088 0.002086 0.159503 F
0.034343 0.431075 0.869335 F
0.583688 0.610539 0.197049 F
0.389011 0.967760 0.526037 F
0.386223 0.008770 0.140095 F
0.617613 0.606560 0.806351 F
0.979873 0.380293 0.461410 F
