Ca1 Co4 P6 O24
1.0
2.682593 6.973253 4.524047
0.331765 0.302062 8.711613
7.424665 0.269583 4.571672
Ca Co P O
1 4 6 24
direct
0.496410 0.498540 0.497732 Ca
0.645247 0.645191 0.645013 Co
0.139433 0.139082 0.140216 Co
0.855261 0.855085 0.855002 Co
0.349719 0.349909 0.350233 Co
0.251268 0.526416 0.956677 P
0.037028 0.743249 0.467909 P
0.957888 0.251412 0.527277 P
0.467747 0.038709 0.743871 P
0.527383 0.956608 0.250980 P
0.743820 0.468449 0.038466 P
0.611438 0.749910 0.389414 O
0.317860 0.010371 0.955455 O
0.389291 0.612486 0.750261 O
0.955471 0.320125 0.011083 O
0.750352 0.388902 0.611474 O
0.009229 0.956237 0.321417 O
0.985192 0.038672 0.674146 O
0.605267 0.383107 0.244595 O
0.676891 0.985002 0.039229 O
0.244677 0.606339 0.383104 O
0.039496 0.674754 0.984099 O
0.384000 0.245237 0.605166 O
0.278244 0.331860 0.970105 O
0.883615 0.688206 0.493318 O
0.976862 0.277847 0.330364 O
0.499983 0.882952 0.686851 O
0.333624 0.971392 0.275149 O
0.689818 0.499242 0.881189 O
0.305879 0.495636 0.113492 O
0.018663 0.716322 0.664737 O
0.111758 0.306363 0.501392 O
0.661394 0.023572 0.719992 O
0.495407 0.112073 0.308184 O
0.716785 0.663143 0.024811 O
