Al1 V24 O60
1.0
10.732967 -0.000062 -0.000000
-0.000061 10.516331 0.000017
-0.000000 0.000018 11.490965
Al V O
1 24 60
direct
   0.5000010000000000    0.3996240000000000    0.2500000000000000 Al
0.998241 0.218694 0.400477 V
0.998241 0.218694 0.099522 V
0.002342 0.785583 0.898550 V
0.002341 0.785585 0.601451 V
0.166667 0.680625 0.104037 V
0.166667 0.298318 0.895184 V
0.166666 0.680629 0.395964 V
0.166667 0.298320 0.604815 V
0.335092 0.218693 0.400476 V
0.335091 0.218692 0.099523 V
0.330992 0.785583 0.898549 V
0.330992 0.785585 0.601451 V
0.500934 0.699157 0.104231 V
0.500242 0.300552 0.897050 V
0.500934 0.699159 0.395770 V
0.500243 0.300551 0.602950 V
0.666667 0.211413 0.396300 V
0.666667 0.211414 0.103700 V
0.666667 0.794732 0.897555 V
0.666667 0.794732 0.602446 V
0.832399 0.699157 0.104230 V
0.833092 0.300556 0.897049 V
0.832399 0.699158 0.395770 V
0.833093 0.300556 0.602950 V
0.000268 0.069773 0.375391 O
0.000196 0.246719 0.569475 O
0.026125 0.301027 0.249999 O
0.000266 0.069773 0.124610 O
0.000195 0.246719 0.930523 O
0.012026 0.936867 0.892083 O
0.003251 0.733534 0.071850 O
0.001674 0.732162 0.750000 O
0.012024 0.936869 0.607919 O
0.003251 0.733538 0.428150 O
0.166667 0.522698 0.135670 O
0.166666 0.727842 0.934345 O
0.166666 0.739036 0.249999 O
0.166669 0.449166 0.878922 O
0.166667 0.273255 0.070802 O
0.166665 0.235793 0.749999 O
0.166666 0.522701 0.364333 O
0.166666 0.727845 0.565655 O
0.166669 0.449167 0.621078 O
0.166667 0.273263 0.429194 O
0.333061 0.069774 0.375389 O
0.333137 0.246718 0.569474 O
0.307208 0.301026 0.249999 O
0.333063 0.069774 0.124612 O
0.333138 0.246718 0.930524 O
0.321311 0.936867 0.892081 O
0.330083 0.733537 0.071851 O
0.331659 0.732161 0.750000 O
0.321312 0.936869 0.607920 O
0.330083 0.733540 0.428149 O
0.505501 0.548270 0.119459 O
0.498701 0.748918 0.933099 O
0.498621 0.760960 0.250000 O
0.495940 0.451494 0.882826 O
0.498134 0.263078 0.075934 O
0.500648 0.242582 0.750000 O
0.505499 0.548271 0.380542 O
0.498700 0.748918 0.566901 O
0.495940 0.451494 0.617172 O
0.498134 0.263077 0.424064 O
0.666665 0.060136 0.384282 O
0.666667 0.255221 0.568197 O
0.666667 0.270161 0.250000 O
0.666665 0.060137 0.115718 O
0.666667 0.255221 0.931801 O
0.666667 0.945795 0.885297 O
0.666667 0.747866 0.069295 O
0.666667 0.736577 0.750000 O
0.666667 0.945794 0.614703 O
0.666667 0.747866 0.430706 O
0.827828 0.548270 0.119459 O
0.834632 0.748919 0.933100 O
0.834713 0.760959 0.250000 O
0.837395 0.451495 0.882826 O
0.835201 0.263081 0.075934 O
0.832686 0.242585 0.750000 O
0.827830 0.548271 0.380542 O
0.834632 0.748919 0.566901 O
0.837396 0.451495 0.617173 O
0.835201 0.263080 0.424064 O
