Li16 Ni16 P16 O64
1.0
  10.0317000000000007    0.0000000000000000    0.0000000000000000
   0.0000000000000000   11.7078000000000007    0.0000000000000000
   0.0000000000000000    0.0000000000000000    9.3536000000000001
Li Ni P O
15 16 16 64
direct
   0.5000000000000000    0.5000000000000000    0.7500000000000000 Li
   0.0000000000000000    0.0000000000000000    0.0000000000000000 Li
   0.0000000000000000    0.0000000000000000    0.5000000000000000 Li
   0.0000000000000000    0.5000000000000000    0.0000000000000000 Li
   0.0000000000000000    0.5000000000000000    0.5000000000000000 Li
   0.0000000000000000    0.2500000000000000    0.0000000000000000 Li
   0.0000000000000000    0.2500000000000000    0.5000000000000000 Li
   0.0000000000000000    0.7500000000000001    0.0000000000000000 Li
   0.0000000000000000    0.7500000000000001    0.5000000000000000 Li
   0.5000000000000000    0.0000000000000000    0.2500000000000000 Li
   0.5000000000000000    0.0000000000000000    0.7500000000000000 Li
   0.5000000000000000    0.5000000000000000    0.2500000000000000 Li
   0.5000000000000000    0.2500000000000000    0.2500000000000000 Li
   0.5000000000000000    0.2500000000000000    0.7500000000000000 Li
   0.5000000000000000    0.7500000000000001    0.2500000000000000 Li
   0.7756000000000000    0.1250000000000000    0.2587500000000000 Ni
   0.7756000000000000    0.1250000000000000    0.7587500000000000 Ni
   0.7756000000000000    0.6250000000000000    0.2587500000000000 Ni
   0.7756000000000000    0.6250000000000000    0.7587500000000000 Ni
   0.2756000000000000    0.1250000000000000    0.4912500000000000 Ni
   0.2756000000000000    0.1250000000000000    0.9912500000000000 Ni
   0.2756000000000000    0.6250000000000000    0.4912500000000000 Ni
   0.2756000000000000    0.6250000000000000    0.9912500000000000 Ni
   0.2244000000000000    0.3750000000000001    0.2412500000000000 Ni
   0.2244000000000000    0.3750000000000001    0.7412500000000000 Ni
   0.2244000000000000    0.8750000000000000    0.2412500000000000 Ni
   0.2244000000000000    0.8750000000000000    0.7412500000000000 Ni
   0.7244000000000000    0.3750000000000001    0.0087500000000000 Ni
   0.7244000000000000    0.3750000000000001    0.5087500000000000 Ni
   0.7244000000000000    0.8750000000000000    0.0087500000000000 Ni
   0.7244000000000000    0.8750000000000000    0.5087500000000000 Ni
   0.5943000000000001    0.1250000000000000    0.0416500000000000 P
   0.5943000000000001    0.1250000000000000    0.5416500000000001 P
   0.5943000000000001    0.6250000000000000    0.0416500000000000 P
   0.5943000000000001    0.6250000000000000    0.5416500000000001 P
   0.0943000000000000    0.1250000000000000    0.2083500000000000 P
   0.0943000000000000    0.1250000000000000    0.7083500000000000 P
   0.0943000000000000    0.6250000000000000    0.2083500000000000 P
   0.0943000000000000    0.6250000000000000    0.7083500000000000 P
   0.4057000000000000    0.3750000000000001    0.4583500000000000 P
   0.4057000000000000    0.3750000000000001    0.9583500000000000 P
   0.4057000000000000    0.8750000000000000    0.4583500000000000 P
   0.4057000000000000    0.8750000000000000    0.9583500000000000 P
   0.9056999999999999    0.3750000000000001    0.2916500000000000 P
   0.9056999999999999    0.3750000000000001    0.7916500000000001 P
   0.9056999999999999    0.8750000000000000    0.2916500000000000 P
   0.9056999999999999    0.8750000000000000    0.7916500000000001 P
   0.6008000000000000    0.1250000000000000    0.3786500000000000 O
   0.6008000000000000    0.1250000000000000    0.8786500000000000 O
   0.6008000000000000    0.6250000000000000    0.3786500000000000 O
   0.6008000000000000    0.6250000000000000    0.8786500000000000 O
   0.1008000000000000    0.1250000000000000    0.3713500000000000 O
   0.1008000000000000    0.1250000000000000    0.8713500000000000 O
   0.1008000000000000    0.6250000000000000    0.3713500000000000 O
   0.1008000000000000    0.6250000000000000    0.8713500000000000 O
   0.3991999999999999    0.3750000000000001    0.1213500000000000 O
   0.3991999999999999    0.3750000000000001    0.6213500000000000 O
   0.3991999999999999    0.8750000000000000    0.1213500000000000 O
   0.3991999999999999    0.8750000000000000    0.6213500000000000 O
   0.8991999999999999    0.3750000000000001    0.1286500000000000 O
   0.8991999999999999    0.3750000000000001    0.6286500000000000 O
   0.8991999999999999    0.8750000000000000    0.1286500000000000 O
   0.8991999999999999    0.8750000000000000    0.6286500000000000 O
   0.9491999999999999    0.1250000000000000    0.1511000000000000 O
   0.9491999999999999    0.1250000000000000    0.6511000000000000 O
   0.9491999999999999    0.6250000000000000    0.1511000000000000 O
   0.9491999999999999    0.6250000000000000    0.6511000000000000 O
   0.4492000000000000    0.1250000000000000    0.0989000000000000 O
   0.4492000000000000    0.1250000000000000    0.5989000000000000 O
   0.4492000000000000    0.6250000000000000    0.0989000000000000 O
   0.4492000000000000    0.6250000000000000    0.5989000000000000 O
   0.0508000000000000    0.3750000000000001    0.3489000000000000 O
   0.0508000000000000    0.3750000000000001    0.8489000000000000 O
   0.0508000000000000    0.8750000000000000    0.3489000000000000 O
   0.0508000000000000    0.8750000000000000    0.8489000000000000 O
   0.5508000000000000    0.3750000000000001    0.4011000000000001 O
   0.5508000000000000    0.3750000000000001    0.9011000000000001 O
   0.5508000000000000    0.8750000000000000    0.4011000000000001 O
   0.5508000000000000    0.8750000000000000    0.9011000000000001 O
   0.6667999999999999    0.0219500000000000    0.1108500000000000 O
   0.6667999999999999    0.0219500000000000    0.6108500000000000 O
   0.6667999999999999    0.5219500000000000    0.1108500000000000 O
   0.6667999999999999    0.5219500000000000    0.6108500000000000 O
   0.1668000000000000    0.2280500000000000    0.1391500000000000 O
   0.1668000000000000    0.2280500000000000    0.6391500000000000 O
   0.1668000000000000    0.7280500000000000    0.1391500000000000 O
   0.1668000000000000    0.7280500000000000    0.6391500000000000 O
   0.3331999999999999    0.2719500000000000    0.3891500000000001 O
   0.3331999999999999    0.2719500000000000    0.8891500000000000 O
   0.3331999999999999    0.7719500000000001    0.3891500000000001 O
   0.3331999999999999    0.7719500000000001    0.8891500000000000 O
   0.8331999999999999    0.4780500000000000    0.3608500000000000 O
   0.8331999999999999    0.4780500000000000    0.8608500000000001 O
   0.8331999999999999    0.9780500000000001    0.3608500000000000 O
   0.8331999999999999    0.9780500000000001    0.8608500000000001 O
   0.3331999999999999    0.4780500000000000    0.3891500000000001 O
   0.3331999999999999    0.4780500000000000    0.8891500000000000 O
   0.3331999999999999    0.9780500000000001    0.3891500000000001 O
   0.3331999999999999    0.9780500000000001    0.8891500000000000 O
   0.8331999999999999    0.2719500000000000    0.3608500000000000 O
   0.8331999999999999    0.2719500000000000    0.8608500000000001 O
   0.8331999999999999    0.7719500000000001    0.3608500000000000 O
   0.8331999999999999    0.7719500000000001    0.8608500000000001 O
   0.6667999999999999    0.2280500000000000    0.1108500000000000 O
   0.6667999999999999    0.2280500000000000    0.6108500000000000 O
   0.6667999999999999    0.7280500000000000    0.1108500000000000 O
   0.6667999999999999    0.7280500000000000    0.6108500000000000 O
   0.1668000000000000    0.0219500000000000    0.1391500000000000 O
   0.1668000000000000    0.0219500000000000    0.6391500000000000 O
   0.1668000000000000    0.5219500000000000    0.1391500000000000 O
   0.1668000000000000    0.5219500000000000    0.6391500000000000 O
