Ca1 Ni12 F42                            
   1.00000000000000     
     7.0028649999999999   -0.0254720000000000    0.0034510000000000
    -3.5197050000000001    6.1215789999999997   -0.0222080000000000
    -0.1078770000000000   -0.0244610000000000   16.8907559999999997
   Ca   Ni   F 
     1    12    42
Direct
  0.5902857221642192  0.8200959408742875  0.7006690015596694
  0.2961019433104903  0.9963600400325182  0.3274589667544463
  0.6960842612708652  0.6872103015712223  0.0049600594273748
  0.0056594249797124  0.3240421411076758  0.6661780598659859
  0.3458459989635854 -0.0086518333263348  0.8396211452445229
  0.6500911233646955  0.6474275261871760  0.4875692725001108
  0.9994800800368780  0.3437486148514563  0.1671145540648465
  0.6501103585078357  0.1490066080976042  0.4930276715939543
  0.4997330514482908  0.3439909602433593  0.1682620439697086
  0.8484300294427414  0.4934115977218466  0.8381511078056015
  0.3382045579686344  0.4825642370044781  0.8432088257145200
  0.1503755702295831  0.6506601168242936  0.4908923473369736
  0.4993505189066497  0.8437313244253910  0.1660189472799972
  0.5588688799770080  0.8169355030927024  0.0602781997355031
  0.2676959953384872  0.4692694041074681  0.7317505829610635
  0.1661676573910428  0.7394493141200847  0.3832885780473121
  0.4334743360502225  0.2626098190921890  0.2732174662070340
  0.8227731968482788  0.5595722009031429  0.9476641332050143
  0.7425909719018707  0.1724991315065430  0.6027930975868615
  0.8973283914105783  0.1025626669501498  0.7377625258850459
  0.1819121472121586  0.1075064727363203  0.3909362598653540
  0.9270190346911198  0.8140511135427880  0.0669687200098683
  0.1196630623974142  0.1943473190031485  0.6110418309830342
  0.0715163794913296  0.8889801086557431  0.2622416515523723
  0.7988181837271131  0.9067518171503939  0.9391000287910954
  0.1372214758673059  0.5696641828716562  0.6021232106724248
  0.4380382123951014  0.8704314391719987  0.2703652687843039
  0.4257177094407192  0.5308473853609773  0.9494392961406305
  0.8720278434424340  0.4502136601441691  0.7243453826699106
  0.5610882230860452  0.1196607347135206  0.3865283977452446
  0.5690820377899664  0.4262911711888699  0.0641906261806920
  0.3601138693468895  0.5644671743497206  0.4620185857478380
  0.2065672655085658  0.6432174647216117  0.1433165215668022
  0.4433285151181754  0.7925508636687294  0.8268762134565814
  0.6327432174025885  0.1957869028140910  0.8645595242793712
  0.5605492054328124  0.3569394737809828  0.5127682303045068
  0.7911914678964793  0.4337481912619611  0.1932691935206297
  0.6999903956459775  0.6155025499430360  0.3885692983764176
  0.9188654833500569  0.3055239447064746  0.0673182654680380
  0.4104954021335588  0.0450554139737355  0.7341854161018244
  0.2921875492709778  0.9180094309021659  0.9401974472761616
  0.5962405914555745  0.6772146140413362  0.5911506164853155
  0.0802058589295788  0.3820564711894461  0.2668530233789418
  0.9380602104686149  0.7335416603916749  0.5175137655989827
  0.7918510501533705  0.0442264310195184  0.1895069106752470
  0.2428076180135278  0.1804180533371382  0.8528853468923336
  0.0596381458800035  0.7897432958603803  0.8115835715246732
  0.7418504384268504  0.9418709306376244  0.4704668653744203
  0.2088985216809827  0.2550133836528143  0.1421280220678949
  0.6168064090634724  0.5599354095453595  0.8039228294445491
  0.9294293452708281  0.3627647274434666  0.4611291686550536
  0.4398000373045797  0.0607693392782238  0.1342878183019330
  0.3741304749564299  0.9333695464519942  0.5276021193318632
  0.5596142503837798  0.6282832653416858  0.1995890269915382
  0.0635422758515908  0.4186971852952545  0.8751498411130807
 
             NaN             NaN             NaN
             NaN             NaN             NaN
             NaN             NaN             NaN
             NaN             NaN             NaN
             NaN             NaN             NaN
             NaN             NaN             NaN
             NaN             NaN             NaN
             NaN             NaN             NaN
             NaN             NaN             NaN
             NaN             NaN             NaN
             NaN             NaN             NaN
             NaN             NaN             NaN
             NaN             NaN             NaN
             NaN             NaN             NaN
             NaN             NaN             NaN
             NaN             NaN             NaN
             NaN             NaN             NaN
             NaN             NaN             NaN
             NaN             NaN             NaN
             NaN             NaN             NaN
             NaN             NaN             NaN
             NaN             NaN             NaN
             NaN             NaN             NaN
             NaN             NaN             NaN
             NaN             NaN             NaN
             NaN             NaN             NaN
             NaN             NaN             NaN
             NaN             NaN             NaN
             NaN             NaN             NaN
             NaN             NaN             NaN
             NaN             NaN             NaN
             NaN             NaN             NaN
             NaN             NaN             NaN
             NaN             NaN             NaN
             NaN             NaN             NaN
             NaN             NaN             NaN
             NaN             NaN             NaN
             NaN             NaN             NaN
             NaN             NaN             NaN
             NaN             NaN             NaN
             NaN             NaN             NaN
             NaN             NaN             NaN
             NaN             NaN             NaN
             NaN             NaN             NaN
             NaN             NaN             NaN
             NaN             NaN             NaN
             NaN             NaN             NaN
             NaN             NaN             NaN
             NaN             NaN             NaN
             NaN             NaN             NaN
             NaN             NaN             NaN
             NaN             NaN             NaN
             NaN             NaN             NaN
             NaN             NaN             NaN
             NaN             NaN             NaN
