Ca1 Ni12 F42
1.0
7.002865 -0.025472 0.003451
-3.519705 6.121579 -0.022208
-0.107877 -0.024461 16.890756
Ca Ni F
1 12 42
direct
0.497620 0.795547 0.672594 Ca
0.298284 0.998084 0.328846 Ni
0.700189 0.695825 0.005193 Ni
0.002982 0.312422 0.667387 Ni
0.343757 1.001820 0.840613 Ni
0.657296 0.654329 0.492478 Ni
0.998567 0.344662 0.167109 Ni
0.656802 0.155786 0.491987 Ni
0.498822 0.345535 0.167615 Ni
0.847071 0.500309 0.838593 Ni
0.345790 0.496598 0.841696 Ni
0.155008 0.653806 0.493881 Ni
0.498347 0.845360 0.166457 Ni
0.562957 0.824119 0.061409 F
0.262807 0.453719 0.732159 F
0.174697 0.743454 0.386375 F
0.432486 0.262379 0.273041 F
0.826984 0.568108 0.946376 F
0.745807 0.188619 0.600946 F
0.860060 0.065109 0.724329 F
0.188577 0.110965 0.393757 F
0.929132 0.814784 0.068420 F
0.126787 0.200486 0.607443 F
0.068948 0.888067 0.265742 F
0.808578 0.919347 0.940972 F
0.143939 0.574839 0.608572 F
0.433092 0.867313 0.270936 F
0.432217 0.552566 0.947772 F
0.868537 0.436025 0.727379 F
0.566165 0.120889 0.386209 F
0.566585 0.430945 0.063008 F
0.364913 0.567438 0.468782 F
0.205980 0.643450 0.142420 F
0.439298 0.801806 0.816398 F
0.636438 0.206111 0.863511 F
0.564601 0.361253 0.514720 F
0.790398 0.435379 0.192514 F
0.701230 0.620285 0.392704 F
0.916843 0.303813 0.067511 F
0.388713 0.075091 0.735214 F
0.302778 0.923412 0.940411 F
0.613219 0.687129 0.597286 F
0.080139 0.385158 0.266733 F
0.946564 0.738319 0.520350 F
0.790573 0.046398 0.191138 F
0.244649 0.194090 0.859457 F
0.056586 0.792925 0.812581 F
0.750500 0.948399 0.473807 F
0.207233 0.254887 0.142322 F
0.625535 0.560969 0.804370 F
0.937627 0.371938 0.460320 F
0.438787 0.064740 0.134530 F
0.383477 0.932025 0.533644 F
0.558187 0.626587 0.199582 F
0.063124 0.434365 0.871994 F
