Ca1 V12 F42                             
   1.00000000000000     
     7.3762740000000004   -0.0071930000000000   -0.1007470000000000
    -3.6798449999999998    6.3953040000000003    0.0900900000000000
     0.2784150000000000    0.0161290000000000   17.5400789999999986
   Ca   V    F 
     1    12    42
Direct
  0.8124847668777385  0.3982314554246492  0.3332555977249277
  0.2705499053854249  0.9849115188629421  0.3290156844606785
  0.7275447815613780  0.7256634528878374  0.9977571921225575
  0.9977000591354699  0.2759019277481515  0.6704419955308807
  0.3575280998515247  0.0022877861798761  0.8336760708410680
  0.6267261539056508  0.6278789033449593  0.5014099705915371
  0.0216825833446885  0.3642990376215116  0.1618310909245196
  0.6249521503228070  0.1241760659623369  0.5075314588618186
  0.5134024645100216  0.3624265538833857  0.1646216283996670
  0.8573529686925682  0.5022020611104743  0.8326270235008871
  0.3574627802113576  0.5023534712312030  0.8346807425042426
  0.1301326341129485  0.6320345492652673  0.5010188530197642
  0.5209810522523635  0.8651123360186649  0.1679448359631190
  0.5943129007128423  0.8363276765879110  0.0643056255037673
  0.2484629207618277  0.4256395219437236  0.7313243578902276
  0.1399120247807800  0.7197503320281280  0.3913501969999587
  0.4535464080876399  0.2584335628811096  0.2728439405510485
  0.8312222478576747  0.5821580127227119  0.9350786561471033
  0.7462443210071165  0.1560269601400839  0.6069897802265057
  0.8822039882727244  0.0701302172180014  0.7367644305764547
  0.1428677826950435  0.0942290944488668  0.3805502772471522
  0.9468223304423834  0.8236891383114775  0.0582436756337703
  0.1172374307974444  0.1795591884174402  0.6080364169299205
  0.0752889049191392  0.8450657498332831  0.2579292434229357
  0.8126863972469844  0.9357619488752220  0.9334347230706240
  0.0954592269632769  0.5224340769925340  0.6029229577481687
  0.4594349696792737  0.9049884892287179  0.2742024616344958
  0.4631962606195376  0.5722519262298404  0.9378746631950228
  0.8871370167363751  0.4298763425858642  0.7297776797397650
  0.5276632486930104  0.1136183576533287  0.3991694423879366
  0.5891683195713362  0.4709552318719424  0.0627739573310360
  0.3379806887584371  0.5493660928179669  0.4775276508156016
  0.2328924558491544  0.6549344195870532  0.1490160248714703
  0.4380921932154195  0.7917383616735589  0.8147088485113442
  0.6482366434078172  0.2135327004515422  0.8535678833367319
  0.5511405764394794  0.3392267472925493  0.5247662060165963
  0.8035758576618497  0.4391561163702674  0.1962513871005683
  0.6769865144573991  0.5741043242672149  0.3992758557115898
  0.9321071277237720  0.3360517247594425  0.0672203659826364
  0.3954497388160851  0.0737404521566874  0.7359201520032583
  0.3212441534215257  0.9314069166296879  0.9314362666867118
  0.5915448684017250  0.6742065807600621  0.5975224005893662
  0.0751393453279573  0.3968907298107836  0.2690907237298015
  0.9188179092193400  0.7112183702672867  0.5188671382669778
  0.8112375392545812  0.0750644472623994  0.1888966418399148
  0.2759788247359348  0.2115359623114273  0.8535296510365250
  0.0675259873627069  0.7925915272387769  0.8128465895940165
  0.7012793632680248  0.9172378325408177  0.4761462738495946
  0.2233037965689215  0.2788754593608472  0.1474654579410165
  0.6311662489601807  0.5516969439943621  0.8029722537207276
  0.8984866058840906  0.3535640539375982  0.4621778391244840
  0.4695919116345290  0.0894300633713980  0.1370894728431121
  0.3482728979815610  0.9028448655009178  0.5350111223109610
  0.5672120441335046  0.6363116494697501  0.1990651572957678
  0.0823898625841801  0.4528355126077670  0.8643188125784578
 
             NaN             NaN             NaN
             NaN             NaN             NaN
             NaN             NaN             NaN
             NaN             NaN             NaN
             NaN             NaN             NaN
             NaN             NaN             NaN
             NaN             NaN             NaN
             NaN             NaN             NaN
             NaN             NaN             NaN
             NaN             NaN             NaN
             NaN             NaN             NaN
             NaN             NaN             NaN
             NaN             NaN             NaN
             NaN             NaN             NaN
             NaN             NaN             NaN
             NaN             NaN             NaN
             NaN             NaN             NaN
             NaN             NaN             NaN
             NaN             NaN             NaN
             NaN             NaN             NaN
             NaN             NaN             NaN
             NaN             NaN             NaN
             NaN             NaN             NaN
             NaN             NaN             NaN
             NaN             NaN             NaN
             NaN             NaN             NaN
             NaN             NaN             NaN
             NaN             NaN             NaN
             NaN             NaN             NaN
             NaN             NaN             NaN
             NaN             NaN             NaN
             NaN             NaN             NaN
             NaN             NaN             NaN
             NaN             NaN             NaN
             NaN             NaN             NaN
             NaN             NaN             NaN
             NaN             NaN             NaN
             NaN             NaN             NaN
             NaN             NaN             NaN
             NaN             NaN             NaN
             NaN             NaN             NaN
             NaN             NaN             NaN
             NaN             NaN             NaN
             NaN             NaN             NaN
             NaN             NaN             NaN
             NaN             NaN             NaN
             NaN             NaN             NaN
             NaN             NaN             NaN
             NaN             NaN             NaN
             NaN             NaN             NaN
             NaN             NaN             NaN
             NaN             NaN             NaN
             NaN             NaN             NaN
             NaN             NaN             NaN
             NaN             NaN             NaN
