Ca1 V12 F42                             
   1.00000000000000     
     7.3762740000000004   -0.0071930000000000   -0.1007470000000000
    -3.6798449999999998    6.3953040000000003    0.0900900000000000
     0.2784150000000000    0.0161290000000000   17.5400789999999986
   Ca   V    F 
     1    12    42
Direct
  0.8099047198485556  0.3947237235543618  0.3334987437835578
  0.2698652223827374 -0.0135984687219039  0.3287289523253412
  0.7316216928596142  0.7310036129435175  0.9969167210711365
 -0.0053583016537648  0.2697218727987608  0.6711360599610973
  0.3595678042681341  1.0016826983224203  0.8336547853201031
  0.6192491283216337  0.6180771006993778  0.5024340837960438
  1.0263600565543760  0.3744028073470798  0.1617222641923889
  0.6204796392199969  0.1166917311028488  0.5081671783078514
  0.5168211857253504  0.3699807517514324  0.1650234423750771
  0.8588853768500005  0.5019578081690735  0.8326553645926690
  0.3586223704095111  0.5014120186387301  0.8345608028339679
  0.1248260307634332  0.6259960074444861  0.5009513372591370
  0.5266179622176913  0.8739910071393012  0.1671935765330284
  0.6007383268040353  0.8445369026002369  0.0635859398988973
  0.2463245839060918  0.4207269309622111  0.7316363282946845
  0.1358743495121386  0.7203982523462580  0.3917902680092920
  0.4534943166252594  0.2621554756939933  0.2730581069682861
  0.8336400345052789  0.5847288707108528  0.9347998608151981
  0.7424798959089381  0.1481667036310775  0.6076227913367203
  0.8785755708933402  0.0661860598138813  0.7383063566860862
  0.1363091234429228  0.0933990380686109  0.3779829993893170
  0.9533115250587638  0.8325268502850997  0.0562468736316454
  0.1125401804141904  0.1694864608006763  0.6096765620532297
  0.0803336402102469  0.8467743629189063  0.2560849490001763
  0.8145013099287413  0.9384775501894860  0.9314980717872147
  0.0915042991818947  0.5132339213729671  0.6023826463043105
  0.4654229803340097  0.9134720275565640  0.2735233070312192
  0.4660539899097261  0.5744510308616269  0.9375387412339103
  0.8869590695044788  0.4273171738198706  0.7299635211368952
  0.5229330721886759  0.1092212439851244  0.3998802768869210
  0.5952681011328871  0.4796346391472123  0.0633143772667697
  0.3319454204965320  0.5422351371537383  0.4767358614623647
  0.2384452287152775  0.6646107849367676  0.1484269557989364
  0.4390963334708201  0.7905079243995149  0.8138805456265690
  0.6500371077122798  0.2134881514310871  0.8540998523403577
  0.5440826953751127  0.3295369392696049  0.5257756650138891
  0.8057430222340701  0.4453205839247224  0.1970754573237607
  0.6719698562854891  0.5651567385184435  0.4004811723579569
  0.9367466072787233  0.3486823964390303  0.0671899483374889
  0.3985108948560049  0.0747663173139448  0.7360999260237155
  0.3234406258023428  0.9291791304040457  0.9312262758137791
  0.5796440059143971  0.6610993125016890  0.5984480751712499
  0.0789831466720435  0.4058610199203244  0.2689388487856759
  0.9111859620233312  0.7014356594059252  0.5205363667586063
  0.8169279865532643  0.0840790288176475  0.1879828859799555
  0.2783712242745764  0.2110072287103469  0.8540964184032376
  0.0696728378610489  0.7920994823375698  0.8124138855072942
  0.6952962677114199  0.9081241555651716  0.4775105336404934
  0.2276636620001082  0.2888168964394108  0.1469454147032217
  0.6323532222666380  0.5507738674094624  0.8026966187185797
  0.8936945791741618  0.3470446315391593  0.4622320170890836
  0.4746528179915595  0.0981765438965811  0.1365729290147182
  0.3432398700807642  0.8957600945704945  0.5356483125924061
  0.5716069414893241  0.6446228876037167  0.1989840720536781
  0.0839896637994876  0.4527505353153957  0.8645411925606389
 
             NaN             NaN             NaN
             NaN             NaN             NaN
             NaN             NaN             NaN
             NaN             NaN             NaN
             NaN             NaN             NaN
             NaN             NaN             NaN
             NaN             NaN             NaN
             NaN             NaN             NaN
             NaN             NaN             NaN
             NaN             NaN             NaN
             NaN             NaN             NaN
             NaN             NaN             NaN
             NaN             NaN             NaN
             NaN             NaN             NaN
             NaN             NaN             NaN
             NaN             NaN             NaN
             NaN             NaN             NaN
             NaN             NaN             NaN
             NaN             NaN             NaN
             NaN             NaN             NaN
             NaN             NaN             NaN
             NaN             NaN             NaN
             NaN             NaN             NaN
             NaN             NaN             NaN
             NaN             NaN             NaN
             NaN             NaN             NaN
             NaN             NaN             NaN
             NaN             NaN             NaN
             NaN             NaN             NaN
             NaN             NaN             NaN
             NaN             NaN             NaN
             NaN             NaN             NaN
             NaN             NaN             NaN
             NaN             NaN             NaN
             NaN             NaN             NaN
             NaN             NaN             NaN
             NaN             NaN             NaN
             NaN             NaN             NaN
             NaN             NaN             NaN
             NaN             NaN             NaN
             NaN             NaN             NaN
             NaN             NaN             NaN
             NaN             NaN             NaN
             NaN             NaN             NaN
             NaN             NaN             NaN
             NaN             NaN             NaN
             NaN             NaN             NaN
             NaN             NaN             NaN
             NaN             NaN             NaN
             NaN             NaN             NaN
             NaN             NaN             NaN
             NaN             NaN             NaN
             NaN             NaN             NaN
             NaN             NaN             NaN
             NaN             NaN             NaN
