Ca1 Cr12 F42                            
   1.00000000000000     
     7.2528240000000004   -0.0348020000000000   -0.0239270000000000
    -3.6069230000000001    6.2723409999999999    0.0167160000000000
     0.0211940000000000    0.0863200000000000   17.3449160000000013
   Ca   Cr   F 
     1    12    42
Direct
  0.0745246738175602  0.2575440826618862  0.3660047383166973
  0.3247592629399171  1.0136447059009430  0.3375879023080219
  0.7050053792738783  0.7113787307140228  0.9966947203281418
  0.0003043599412403  0.2932668336510968  0.6683405316203849
  0.3480721807241017 -0.0010468595966789  0.8326368183515707
  0.6576492824151107  0.6514471852125052  0.5017179826496777
  0.9856356647199510  0.3536831513925353  0.1549442408208628
  0.6583916434064248  0.1510980079876647  0.5015097561313063
  0.4875968578326467  0.3534782327488061  0.1622860438181494
  0.8482527871685833  0.4991624726839703  0.8329415604287510
  0.3485019628223157  0.4991139414164648  0.8329882661531194
  0.1605110399667009  0.6630771437164691  0.5052269483175468
  0.4865310535261647  0.8527907152125168  0.1588775500545030
  0.5680635223578240  0.8348142739985180  0.0558362780795401
  0.2573757671362826  0.4440957729666482  0.7277543902484129
  0.2072141564065018  0.7463065989332166  0.3973457536072758
  0.4368648674081686  0.2681144253039043  0.2718000971501940
  0.8172220559777220  0.5645235401635125  0.9374015141851547
  0.7438551755581838  0.1684906025184490  0.6062621151659772
  0.8949386634449163  0.0708475840381779  0.7285073159444431
  0.2760486174158548  0.1522610450088230  0.4197344277484162
  0.9155019369574630  0.8031183736134767  0.0614301954892586
  0.1275248291241828  0.2171153942343026  0.6006695531704990
  0.0585803244661261  0.9613172837499944  0.3037173492171032
  0.8080156533911630  0.9249070324967182  0.9325625389354728
  0.1046293300442893  0.5649891059472080  0.6083596168773167
  0.3998084705334256  0.8659955147683023  0.2625634657543054
  0.4419738950250522  0.5661936232434052  0.9371204550111562
  0.8703562604926174  0.4220535568332110  0.7293807449833269
  0.6051134634851182  0.1221771203056980  0.3897474024979988
  0.5481751504636613  0.4466383256337987  0.0581377971553551
  0.3543567328775656  0.5590868247702969  0.4866612407142019
  0.1982956411316401  0.6442857137516095  0.1325930532789766
  0.4366802951907416  0.7948768808220427  0.8143949417771369
  0.6390983153589385  0.2058996265456533  0.8546299289301780
  0.5878716326349167  0.3647789843467943  0.5267977568933651
  0.7830167756634883  0.4430286560037846  0.1776846744634993
  0.6561880623847852  0.5945126219793514  0.4008353974695605
  0.9113794717505799  0.3028912987237632  0.0574244069092433
  0.3855421521490766  0.0717052794102437  0.7340762187332225
  0.3039713982913940  0.9260666510207304  0.9310502661839041
  0.6300191906823442  0.6979862897483132  0.6001088452128067
  0.0650690405220831  0.4084402569361346  0.2613031995026939
  0.9551986433885747  0.7537640586902509  0.5118747096814782
  0.7745437475681418  0.0648794832637573  0.1857546917790849
  0.2598076683096801  0.2048246234064104  0.8511638856326760
  0.0556190417189677  0.7901129311043773  0.8105809044313099
  0.7518409040158871  0.9507634438576913  0.4763971810818586
  0.1910202932775650  0.2610752285378979  0.1463477036506782
  0.6268629141748813  0.5564528314927323  0.8008805017523218
  0.9446964978835556  0.3759945024709057  0.4676510802937865
  0.4266959218725160  0.0744992571517239  0.1299207604716048
  0.3816781096780545  0.9364933732540197  0.5358599395753111
  0.5425505964529602  0.6315390681304658  0.1939262296486671
  0.0693946075242904  0.4412546327043655  0.8647140866628326
 
             NaN             NaN             NaN
             NaN             NaN             NaN
             NaN             NaN             NaN
             NaN             NaN             NaN
             NaN             NaN             NaN
             NaN             NaN             NaN
             NaN             NaN             NaN
             NaN             NaN             NaN
             NaN             NaN             NaN
             NaN             NaN             NaN
             NaN             NaN             NaN
             NaN             NaN             NaN
             NaN             NaN             NaN
             NaN             NaN             NaN
             NaN             NaN             NaN
             NaN             NaN             NaN
             NaN             NaN             NaN
             NaN             NaN             NaN
             NaN             NaN             NaN
             NaN             NaN             NaN
             NaN             NaN             NaN
             NaN             NaN             NaN
             NaN             NaN             NaN
             NaN             NaN             NaN
             NaN             NaN             NaN
             NaN             NaN             NaN
             NaN             NaN             NaN
             NaN             NaN             NaN
             NaN             NaN             NaN
             NaN             NaN             NaN
             NaN             NaN             NaN
             NaN             NaN             NaN
             NaN             NaN             NaN
             NaN             NaN             NaN
             NaN             NaN             NaN
             NaN             NaN             NaN
             NaN             NaN             NaN
             NaN             NaN             NaN
             NaN             NaN             NaN
             NaN             NaN             NaN
             NaN             NaN             NaN
             NaN             NaN             NaN
             NaN             NaN             NaN
             NaN             NaN             NaN
             NaN             NaN             NaN
             NaN             NaN             NaN
             NaN             NaN             NaN
             NaN             NaN             NaN
             NaN             NaN             NaN
             NaN             NaN             NaN
             NaN             NaN             NaN
             NaN             NaN             NaN
             NaN             NaN             NaN
             NaN             NaN             NaN
             NaN             NaN             NaN
