Ca1 Cr12 F42                            
   1.00000000000000     
     7.2528240000000004   -0.0348020000000000   -0.0239270000000000
    -3.6069230000000001    6.2723409999999999    0.0167160000000000
     0.0211940000000000    0.0863200000000000   17.3449160000000013
   Ca   Cr   F 
     1    12    42
Direct
  0.0949239007962527  0.3353775485922217  0.3762247961676465
  0.3054982360773546  0.9922766065791763  0.3293875289951316
  0.7137462872018999  0.7114038152077381  0.9969240950740224
  1.0001506764878152  0.2960619720069160  0.6688576945846580
  0.3581561234056078  1.0003253676054924  0.8335443095650977
  0.6442311963130499  0.6635504936350130  0.5056322428014579
  0.9951735307105185  0.3463081779237347  0.1520830467934636
  0.6380890009114378  0.1600802638015325  0.5063532074086114
  0.4960463301791522  0.3451471817154250  0.1598524836509006
  0.8579134671174962  0.5021855789879975  0.8344163903259768
  0.3561296383742946  0.4985166822658520  0.8328731328212819
  0.1451467808972618  0.6735464918245007  0.5099734334220594
  0.4983715802304782  0.8461903573878081  0.1601063106662538
  0.5643333603919528  0.8215253130150897  0.0557429258340107
  0.2601844350492932  0.4382974953547925  0.7277012289884641
  0.1835738754567507  0.7344320138458038  0.3978303916541947
  0.4313758542328971  0.2515227164795370  0.2674958787589237
  0.8345079800737474  0.5726206738716875  0.9383447816854976
  0.7374202531780180  0.1856535337553055  0.6094420225057958
  0.8939052138717209  0.0700365557122182  0.7271462588440214
  0.1948051360034922  0.1105803720129203  0.3991959605802328
  0.9247359787752734  0.8114389701323775  0.0616131525845205
  0.1185567709357094  0.2195588265908952  0.5973953401320413
  0.0704352232710631  0.8776407306486079  0.2724924194371385
  0.8101363271915631  0.9253516498984167  0.9329989545700293
  0.1105269021829760  0.5752414172519099  0.6120292525096516
  0.4398628419976880  0.8715363056882294  0.2678541153210515
  0.4508916530730894  0.5617811446226146  0.9369578912751154
  0.8763622970638685  0.4255537155602664  0.7312158900168586
  0.5683436614553979  0.1334951382286910  0.3975428603994291
  0.5684863114759714  0.4443509070596314  0.0566933218496175
  0.3387798536805059  0.5677794140633670  0.4838654159389489
  0.2053583976880817  0.6415862552536724  0.1383623339137369
  0.4450796330624134  0.7950186337702975  0.8148986593418243
  0.6484796765254378  0.2093538296270670  0.8566672218839454
  0.5590596989226707  0.3712297795008038  0.5275070438724567
  0.7881920728215237  0.4279358692984908  0.1791192178240252
  0.6671682270789540  0.6182275045864053  0.4046199539910946
  0.9235663617850993  0.3091168379789870  0.0542066808768362
  0.3979594619922681  0.0743936872581007  0.7350986578143748
  0.3140445597590507  0.9266181339217674  0.9318497000673993
  0.6058032868429321  0.7098272923643728  0.6032026800087555
  0.0720240574893448  0.3852605105086640  0.2590605596956055
  0.9414193837446018  0.7617336523936508  0.5239518106368056
  0.7907833293368079  0.0546806054131518  0.1794531192488611
  0.2677297296211920  0.2041693677954180  0.8514126993537832
  0.0659216716477448  0.7922256763248797  0.8109553090619500
  0.7324208415515318  0.9611241632994681  0.4807877052801299
  0.2045797965461106  0.2603705974641100  0.1384117894005138
  0.6358360376900697  0.5580428007605025  0.8016649631185151
  0.9222566091971491  0.3886427932130300  0.4742115964343455
  0.4369524224810808  0.0656885326921384  0.1295926054501601
  0.3621160454199825  0.9484098937175919  0.5396314317961901
  0.5525599244359967  0.6227754706112700  0.1930718795473999
  0.0781406729328096  0.4420065802976402  0.8651940447955985
 
             NaN             NaN             NaN
             NaN             NaN             NaN
             NaN             NaN             NaN
             NaN             NaN             NaN
             NaN             NaN             NaN
             NaN             NaN             NaN
             NaN             NaN             NaN
             NaN             NaN             NaN
             NaN             NaN             NaN
             NaN             NaN             NaN
             NaN             NaN             NaN
             NaN             NaN             NaN
             NaN             NaN             NaN
             NaN             NaN             NaN
             NaN             NaN             NaN
             NaN             NaN             NaN
             NaN             NaN             NaN
             NaN             NaN             NaN
             NaN             NaN             NaN
             NaN             NaN             NaN
             NaN             NaN             NaN
             NaN             NaN             NaN
             NaN             NaN             NaN
             NaN             NaN             NaN
             NaN             NaN             NaN
             NaN             NaN             NaN
             NaN             NaN             NaN
             NaN             NaN             NaN
             NaN             NaN             NaN
             NaN             NaN             NaN
             NaN             NaN             NaN
             NaN             NaN             NaN
             NaN             NaN             NaN
             NaN             NaN             NaN
             NaN             NaN             NaN
             NaN             NaN             NaN
             NaN             NaN             NaN
             NaN             NaN             NaN
             NaN             NaN             NaN
             NaN             NaN             NaN
             NaN             NaN             NaN
             NaN             NaN             NaN
             NaN             NaN             NaN
             NaN             NaN             NaN
             NaN             NaN             NaN
             NaN             NaN             NaN
             NaN             NaN             NaN
             NaN             NaN             NaN
             NaN             NaN             NaN
             NaN             NaN             NaN
             NaN             NaN             NaN
             NaN             NaN             NaN
             NaN             NaN             NaN
             NaN             NaN             NaN
             NaN             NaN             NaN
