Ca8 V12 F42                             
   1.00000000000000     
     7.5204069999999996    0.0254910000000000    0.0609360000000000
    -3.7445300000000001    6.4876069999999997   -0.0724840000000000
    -0.4601830000000000    0.5617560000000000   18.4645599999999988
   Ca   V    F 
     8    12    42
Direct
  0.8748748195926522  0.0925746778571289  0.3511111030066867
  0.4883901066552561  0.8297429611227907  0.6710450050633188
  0.6054141437032315  0.1449146427901736  0.9977716513416749
  0.9826770210905126  0.8111325526413571  0.6644283975369331
  0.1363622368982047  0.6350744805692384  0.0059579048026228
  0.9303595503381780  0.7916618264230488  0.1701507294845509
  0.8566729251473159  0.0113796768528102  0.8405794144855359
  0.2304317835645005  0.1930773256835195  0.5064767771072600
  0.3285379278874739  1.0038761920447574  0.3308263524040875
 -0.0021355724972256  0.3165805172570537  0.6679725929084201
  0.6479630984978516  0.6618630732277532  0.9965274949754461
  0.3267136130008541  0.9916264949090755  0.8258723131241846
  0.9786438865547390  0.3176498347908424  0.1604616249959936
  0.6870675114132103  0.6746030975030070  0.4994207266413364
  0.4737331968040909  0.8219079156136760  0.1657910312818731
  0.1778976264977862  0.6687463210390849  0.4994731838475294
  0.3302219858418355  0.4998488618157651  0.8316093987910216
  0.8245754034297693  0.4926793473395952  0.8290462916436119
  0.6813574105918078  0.1688919110537600  0.5015801082463159
  0.4717320463900473  0.3138454017036606  0.1600683755032790
  0.7270002019224695  0.1549412678148286  0.6111813152071878
  0.8008707956650615  0.5191037105552374  0.9408333091107748
  0.4373209410842000  0.2437113368786330  0.2640953448633045
  0.2149821641833489  0.7603108559413562  0.3970756218900718
  0.4915266268888290  0.7823075822038129  0.0543862083982761
  0.2789643716307535  0.4790376599825056  0.7215024884934873
  0.7531387027706913  0.9557050076408232  0.9517604241918868
  0.0624376238920455  0.8881580360274215  0.2758203856384298
  0.1067049892494936  0.1468951186631814  0.6162061213762089
  0.9300886120129254  0.7657996962319582  0.0494711771197532
  0.8380798533173757  0.0142545392657422  0.7208332369284739
  0.1817122269807983  0.1283438151333137  0.3908866501919381
  0.5269008541397654  0.3817459551174489  0.0493098492338342
  0.6044556136627868  0.1338611230010874  0.3916179689053839
  0.8734496087655127  0.4801441811150677  0.7186799032428153
  0.3654396206441584  0.5516191466273511  0.9420528677172816
  0.1519985837531260  0.6094374733756183  0.6129450279895898
  0.4757353461202734  0.8950259625675103  0.2711681513545074
  0.7786826886130482  0.4262825652172304  0.1700833011836005
  0.5799446454245030  0.3689122382658643  0.5220370121125296
  0.6302504968720107  0.1841941995381285  0.8563390472214033
  0.4575433424848553  0.8140701987601069  0.8040522435876857
  0.3766154668613378  0.5566316907685492  0.4950422431766900
  0.1639937448150370  0.6367823618610535  0.1397521509251130
  1.0188742710554790  0.3275428815456572  0.2669489571824694
  0.6689766231308106  0.7127501071636424  0.6126671813311965
  0.3053939246937020  0.9310338329171240  0.9395135895161516
  0.3112712544840863  0.9800356066860663  0.7101569487397715
  0.7331980297277875  0.6703220455085033  0.3990290700447519
  0.9210732090614189  0.3133854819682504  0.0483831718533710
  0.1707028486424509  0.2033332047538882  0.1447328130297142
  0.7962382655122071  0.9803165204842191  0.4781148230500652
  0.0152171782197649  0.8065090449245380  0.8059513536282742
  0.2146276015137689  0.1857323881609564  0.8466584297884063
  0.9905988004370053  0.7875109670259105  0.5289201546384740
  0.7852795885299391  1.0062843701909197  0.1730022439058282
  0.0224349683191609  0.3848788484901924  0.8516472059670221
  0.5665329646684620  0.6117774221851403  0.1862952491448138
  0.3819268025767238  0.9644249321891457  0.5331529895204735
  0.4227534126283597  0.0426665450361943  0.1185955477255148
  0.6333927871005617  0.6078666620946612  0.8148185122824230
  0.9819407367248845  0.3661148957085983  0.4715231364120257
 
             NaN             NaN             NaN
             NaN             NaN             NaN
             NaN             NaN             NaN
             NaN             NaN             NaN
             NaN             NaN             NaN
             NaN             NaN             NaN
             NaN             NaN             NaN
             NaN             NaN             NaN
             NaN             NaN             NaN
             NaN             NaN             NaN
             NaN             NaN             NaN
             NaN             NaN             NaN
             NaN             NaN             NaN
             NaN             NaN             NaN
             NaN             NaN             NaN
             NaN             NaN             NaN
             NaN             NaN             NaN
             NaN             NaN             NaN
             NaN             NaN             NaN
             NaN             NaN             NaN
             NaN             NaN             NaN
             NaN             NaN             NaN
             NaN             NaN             NaN
             NaN             NaN             NaN
             NaN             NaN             NaN
             NaN             NaN             NaN
             NaN             NaN             NaN
             NaN             NaN             NaN
             NaN             NaN             NaN
             NaN             NaN             NaN
             NaN             NaN             NaN
             NaN             NaN             NaN
             NaN             NaN             NaN
             NaN             NaN             NaN
             NaN             NaN             NaN
             NaN             NaN             NaN
             NaN             NaN             NaN
             NaN             NaN             NaN
             NaN             NaN             NaN
             NaN             NaN             NaN
             NaN             NaN             NaN
             NaN             NaN             NaN
             NaN             NaN             NaN
             NaN             NaN             NaN
             NaN             NaN             NaN
             NaN             NaN             NaN
             NaN             NaN             NaN
             NaN             NaN             NaN
             NaN             NaN             NaN
             NaN             NaN             NaN
             NaN             NaN             NaN
             NaN             NaN             NaN
             NaN             NaN             NaN
             NaN             NaN             NaN
             NaN             NaN             NaN
             NaN             NaN             NaN
             NaN             NaN             NaN
             NaN             NaN             NaN
             NaN             NaN             NaN
             NaN             NaN             NaN
             NaN             NaN             NaN
             NaN             NaN             NaN
