Ca8 V12 F42
1.0
7.520407 0.025491 0.060936
-3.744530 6.487607 -0.072484
-0.460183 0.561756 18.464560
Ca V F
8 12 42
direct
0.832410 0.115545 0.335831 Ca
0.494443 0.846481 0.666199 Ca
0.610226 0.136615 0.998418 Ca
0.991356 0.823419 0.662735 Ca
0.140639 0.625012 0.005709 Ca
0.941012 0.785898 0.168729 Ca
0.857840 0.009063 0.839368 Ca
0.185049 0.213691 0.496515 Ca
0.326162 0.991214 0.331621 V
1.004015 0.326694 0.667669 V
0.651478 0.653020 0.996542 V
0.330890 0.991263 0.826679 V
0.979330 0.304712 0.163345 V
0.682471 0.677994 0.501552 V
0.476237 0.809340 0.166097 V
0.177336 0.680481 0.502004 V
0.334860 0.500754 0.830555 V
0.829044 0.492693 0.829434 V
0.675053 0.172831 0.499912 V
0.475950 0.304499 0.160582 V
0.735711 0.178800 0.609517 F
0.805895 0.511552 0.941779 F
0.450474 0.235442 0.265433 F
0.198579 0.746030 0.397263 F
0.494094 0.772576 0.054596 F
0.283931 0.485812 0.721007 F
0.757084 0.947534 0.951418 F
0.049925 0.859871 0.276430 F
0.113085 0.159097 0.614206 F
0.934596 0.756776 0.049276 F
0.841923 0.021505 0.719036 F
0.177011 0.107410 0.389120 F
0.529048 0.371911 0.049568 F
0.598481 0.117352 0.391814 F
0.878221 0.486836 0.719389 F
0.369023 0.544403 0.941721 F
0.151641 0.620130 0.614758 F
0.472312 0.874335 0.272292 F
0.782803 0.417560 0.170823 F
0.556818 0.362847 0.509742 F
0.635447 0.183008 0.856952 F
0.463032 0.815566 0.803494 F
0.373456 0.570375 0.496194 F
0.166753 0.623377 0.141801 F
-0.000513 0.303199 0.269576 F
0.670538 0.711880 0.614294 F
0.310048 0.924567 0.940309 F
0.316329 0.987998 0.711537 F
0.712843 0.678550 0.396617 F
0.926041 0.304737 0.050303 F
0.172404 0.191017 0.148604 F
0.801753 0.989517 0.487872 F
0.018904 0.807550 0.806972 F
0.218884 0.186387 0.846260 F
0.990284 0.794712 0.528617 F
0.786925 -0.007233 0.174223 F
0.027216 0.385053 0.850428 F
0.574706 0.602963 0.187304 F
0.396002 0.955447 0.540669 F
0.421142 0.029761 0.119831 F
0.638551 0.609064 0.817603 F
0.975658 0.381473 0.475571 F
