Na2 Ca2 V4 Si4 P2 O24                   
   1.00000000000000     
     8.8751619999999996    0.1736860000000000    0.0496880000000000
     4.3277739999999998    7.6996209999999996    0.0529690000000000
     4.4254350000000002    2.5638580000000002    7.2656960000000002
   Ca   Na   V    Si   P    O 
     2     2     4     4     2    24
Direct
  0.5910581937291930  0.8268083900785401  0.2508273689594671
  0.0051931201051496  0.0012274905570066  0.9976331133972883
  0.1316838755396230  0.7460038448802692  0.4003487685614082
  0.8576224505563358  0.2575007192585441  0.5912531552344854
  0.3740634917792088  0.3581755646422919  0.3601719876457983
  0.6436187063016179  0.6300595228236879  0.6631981311570078
  0.1509988496304299  0.1462724633816106  0.1360362375815618
  0.8576813399268048  0.8492699310812740  0.8421890926783180
  0.0346461558111554  0.4502307574394473  0.7536872384627319
  0.7517684235980142  0.0278947794053028  0.4677183179163198
  0.4589439997614884  0.7424238143956029  0.0375471440904287
  0.5356381185419669  0.2540166030459358  0.9658845278428033
  0.9754621494836171  0.5424341743523615  0.2467194524269450
  0.2481555665087297  0.9710465141385223  0.5389825696979541
  0.2187692528512592  0.4350654253773421  0.5700670108416316
  0.7829321269214983  0.5663645757328802  0.4101141214888647
  0.5659874971283091  0.2079642469330054  0.4377320037237451
  0.4273731894303852  0.8026637026518585  0.5582221191053514
  0.4397767586213926  0.5742947935667937  0.2370240144841478
  0.5667390803604980  0.4175860138391271  0.7680875079139881
  0.9313754530707055  0.0564870074958326  0.2780275149960625
  0.0783210004875840  0.9466695526681911  0.7212946489811137
  0.0611472033081459  0.2669766851354737  0.9335496274973460
  0.9301476596202093  0.7238797217248368  0.0813573918265324
  0.2630764777668883  0.9152181731175398  0.0663434491265456
  0.7245680027280819  0.0641908918204034  0.9659585981313633
  0.4805532517406126  0.3043948396357837  0.1447717710836787
  0.4953279436291343  0.6933502587339727  0.8659524039961063
  0.1277883119223857  0.5429112089923916  0.2796932461426470
  0.8586360514124461  0.4681242923597830  0.7223978054543375
  0.2575915885677258  0.1572613731396520  0.4965265578662727
  0.7361749918899679  0.8339568359789110  0.5097121645063900
  0.3666523731879836  0.1871252639485011  0.0151465982982957
  0.6332808093043625  0.7925725194845974 -0.0049123334740136
  0.2279179578506025  0.9697662425384476  0.3743678683125794
  0.7840648469704334  0.0192142265281096  0.6384111743604954
  0.0189113436951884  0.3617902802712075  0.2229552797061211
  0.9946828752616319  0.6442509124308108  0.7761154009980171
 
             NaN             NaN             NaN
             NaN             NaN             NaN
             NaN             NaN             NaN
             NaN             NaN             NaN
             NaN             NaN             NaN
             NaN             NaN             NaN
             NaN             NaN             NaN
             NaN             NaN             NaN
             NaN             NaN             NaN
             NaN             NaN             NaN
             NaN             NaN             NaN
             NaN             NaN             NaN
             NaN             NaN             NaN
             NaN             NaN             NaN
             NaN             NaN             NaN
             NaN             NaN             NaN
             NaN             NaN             NaN
             NaN             NaN             NaN
             NaN             NaN             NaN
             NaN             NaN             NaN
             NaN             NaN             NaN
             NaN             NaN             NaN
             NaN             NaN             NaN
             NaN             NaN             NaN
             NaN             NaN             NaN
             NaN             NaN             NaN
             NaN             NaN             NaN
             NaN             NaN             NaN
             NaN             NaN             NaN
             NaN             NaN             NaN
             NaN             NaN             NaN
             NaN             NaN             NaN
             NaN             NaN             NaN
             NaN             NaN             NaN
             NaN             NaN             NaN
             NaN             NaN             NaN
             NaN             NaN             NaN
             NaN             NaN             NaN
