Na2 Ca2 V4 Si4 P2 O24
1.0
8.875162 0.173686 0.049688
4.327774 7.699621 0.052969
4.425435 2.563858 7.265696
Ca Na V Si P O
2 2 4 4 2 24
direct
0.579810 0.778685 0.315831 Ca
0.016665 1.000778 -0.014649 Ca
0.140749 0.752199 0.394620 Na
0.837015 0.257512 0.587256 Na
0.371909 0.354183 0.360420 V
0.645815 0.639266 0.655063 V
0.150749 0.151735 0.130294 V
0.852999 0.848037 0.851605 V
0.037662 0.454954 0.750561 Si
0.750623 0.031903 0.460578 Si
0.466013 0.748810 0.037139 Si
0.535288 0.254572 0.964964 Si
0.971638 0.541912 0.246642 P
0.248169 0.969679 0.539682 P
0.224250 0.445695 0.568431 O
0.779089 0.563895 0.409166 O
0.570743 0.222524 0.437971 O
0.419528 0.790774 0.562622 O
0.438985 0.569252 0.221818 O
0.561509 0.429017 0.775956 O
0.934613 0.059027 0.276500 O
0.074055 0.948628 0.716620 O
0.059903 0.266573 0.927245 O
0.939959 0.729254 0.082169 O
0.266404 0.917209 0.067040 O
0.732725 0.076004 0.943611 O
0.485756 0.273151 0.159345 O
0.515630 0.717068 0.849447 O
0.127214 0.521328 0.291675 O
0.863269 0.488096 0.705195 O
0.269439 0.143359 0.515495 O
0.724422 0.853168 0.478464 O
0.364439 0.199032 0.000736 O
0.633005 0.794274 1.018432 O
0.225453 0.988238 0.368325 O
0.781809 0.000507 0.642014 O
0.009288 0.371450 0.209101 O
0.992181 0.640467 0.790249 O
