Na2 Ca2 V4 P2 S4 O24
1.0
8.954171 0.330202 0.276697
4.234941 7.937573 0.313576
4.225900 2.673732 7.519067
Ca Na V P S O
2 2 4 2 4 24
direct
0.260798 0.615326 0.881019 Ca
-0.053400 1.005738 0.077550 Ca
0.405573 0.106448 0.753622 Na
0.540429 0.514832 0.431819 Na
0.355032 0.363149 0.355058 V
0.657198 0.674873 0.621526 V
0.152437 0.152095 0.142528 V
0.843930 0.858820 0.852762 V
0.751599 0.058181 0.445887 P
0.439837 0.758977 0.036966 P
0.052268 0.465031 0.747868 S
0.968104 0.557429 0.248891 S
0.249672 0.963799 0.547171 S
0.549700 0.258352 0.941049 S
0.229854 0.438888 0.595694 O
0.790886 0.561453 0.398105 O
0.571520 0.224524 0.453444 O
0.406224 0.781034 0.562652 O
0.433840 0.591639 0.212361 O
0.572780 0.420060 0.766710 O
0.900866 0.126452 0.266473 O
0.099411 0.924154 0.731079 O
0.064657 0.282948 0.902587 O
0.945101 0.737539 0.085682 O
0.251077 0.922591 0.062216 O
0.725260 0.101724 0.933984 O
0.488501 0.312672 0.096692 O
0.458304 0.722012 0.874191 O
0.105353 0.549603 0.299256 O
0.894307 0.521866 0.699320 O
0.299319 0.105131 0.531931 O
0.739424 0.904914 0.421268 O
0.402937 0.215288 0.952195 O
0.593625 0.823405 -0.015515 O
0.195426 0.012088 0.397135 O
0.792200 0.992829 0.617306 O
1.041090 0.411643 0.175889 O
0.038039 0.602684 0.805993 O
