Na2 Ca2 V4 P4 S2 O24                    
   1.00000000000000     
     8.8888219999999993    0.2585590000000000    0.1788940000000000
     4.3723669999999997    7.8668699999999996    0.2299610000000000
     4.3501609999999999    2.7145510000000002    7.3809550000000002
   Ca   Na   V    P    S    O 
     2     2     4     4     2    24
Direct
  0.6803266289692202  0.3188489035035850  0.5607935277313328
  0.0304383219062041  0.9743735871146860  0.0002091437753949
  0.7522787682901519  0.4000437914114029  0.1024945584390449
  0.5964018751146822  0.8675738498614798  0.2398309594485563
  0.3618289550308205  0.3599044783714149  0.3516162667834186
  0.6367860488793441  0.6562171077357909  0.6521914853671721
  0.1478401174487327  0.1505271684538191  0.1465051605913067
  0.8619550842917624  0.8502800853677035  0.8494481735867222
  0.9579861775087900  0.5382112503114957  0.2550334910669645
  0.7585388267638885  0.0335408230040813  0.4435781026695519
  0.4570209548945114  0.7583474973174166  0.0375808335644466
  0.5511877002583531  0.2515837021428005  0.9712464639298989
  0.0508100605209216  0.4589457269344725  0.7452004734290032
  0.2496630004461790  0.9651028427575062  0.5471633079682783
  0.2212543743197622  0.4409035134853306  0.5856103196077916
  0.7760678805772087  0.5655624886695599  0.4256980616302630
  0.5939035941811859  0.2232136302509048  0.4320976010641001
  0.4137059316641263  0.7923713684600596  0.5521324333990882
  0.4436258711801143  0.5822430094660535  0.2110525584087379
  0.5575254989692487  0.4261952880526355  0.7917438800033475
  0.9163467129842583  0.0696444543146928  0.2536987555540119
  0.0968719179835996  0.9313231942493359  0.7298171376535454
  0.0690990251928835  0.2751402362153774  0.9061374233724059
  0.9298145258551902  0.7278458559199393  0.0923050451231085
  0.2756771938757837  0.9228840044811853  0.0705982654259879
  0.7391480100191550  0.0932807729231995  0.9197669478917816
  0.5478565125204545  0.2759534585286051  0.1297930502722004
  0.4786736836357388  0.7372452710554463  0.8673789526762526
  0.1312687375101163  0.4912688346780804  0.2869879922600320
  0.8844271033523088  0.4963047309129982  0.7139618719912387
  0.2911941584616081  0.1167299501377447  0.5234588587257856
  0.7100728028976099  0.8797264504403934  0.4714169087069514
  0.3884113859375105  0.1989200500694850  0.0223758866710699
  0.6262441457008506  0.7907892983418942  0.0093886334786294
  0.1912167535015182  0.0067392399744226  0.3995380268727251
  0.8103510759216866  1.0021455303204831  0.6011840609312511
  0.9567432274645398  0.3816574333738836  0.2265600585384464
  0.0232152894916665  0.5994888270953056  0.8035493240029099
 
             NaN             NaN             NaN
             NaN             NaN             NaN
             NaN             NaN             NaN
             NaN             NaN             NaN
             NaN             NaN             NaN
             NaN             NaN             NaN
             NaN             NaN             NaN
             NaN             NaN             NaN
             NaN             NaN             NaN
             NaN             NaN             NaN
             NaN             NaN             NaN
             NaN             NaN             NaN
             NaN             NaN             NaN
             NaN             NaN             NaN
             NaN             NaN             NaN
             NaN             NaN             NaN
             NaN             NaN             NaN
             NaN             NaN             NaN
             NaN             NaN             NaN
             NaN             NaN             NaN
             NaN             NaN             NaN
             NaN             NaN             NaN
             NaN             NaN             NaN
             NaN             NaN             NaN
             NaN             NaN             NaN
             NaN             NaN             NaN
             NaN             NaN             NaN
             NaN             NaN             NaN
             NaN             NaN             NaN
             NaN             NaN             NaN
             NaN             NaN             NaN
             NaN             NaN             NaN
             NaN             NaN             NaN
             NaN             NaN             NaN
             NaN             NaN             NaN
             NaN             NaN             NaN
             NaN             NaN             NaN
             NaN             NaN             NaN
