Na2 Ca2 V4 P4 S2 O24
1.0
8.888822 0.258559 0.178894
4.372367 7.866870 0.229961
4.350161 2.714551 7.380955
Ca Na V P S O
2 2 4 4 2 24
direct
0.680291 0.323011 0.562135 Ca
0.029007 0.975231 0.001189 Ca
0.752757 0.400567 0.107481 Na
0.596838 0.867220 0.241168 Na
0.364647 0.358559 0.351760 V
0.637330 0.656359 0.650856 V
0.148731 0.149823 0.146077 V
0.863049 0.847434 0.851128 V
0.959946 0.537617 0.255073 P
0.759006 0.032582 0.445013 P
0.457962 0.757937 0.037348 P
0.551758 0.252427 0.969722 P
0.050184 0.458197 0.745942 S
0.249912 0.964728 0.546796 S
0.220864 0.438915 0.586945 O
0.777871 0.564157 0.425459 O
0.597492 0.224309 0.435618 O
0.412474 0.790416 0.552806 O
0.443032 0.583009 0.212284 O
0.557620 0.426168 0.789750 O
0.917355 0.068363 0.255005 O
0.096430 0.933135 0.729219 O
0.066870 0.274532 0.906986 O
0.930549 0.727745 0.092671 O
0.277039 0.923045 0.068319 O
0.739234 0.094798 0.915672 O
0.551244 0.276370 0.127288 O
0.482010 0.734696 0.867838 O
0.133121 0.491495 0.286538 O
0.884330 0.498087 0.712919 O
0.294618 0.114803 0.521478 O
0.705667 0.883451 0.469120 O
0.388571 0.198441 0.024718 O
0.626654 0.789960 0.010907 O
0.190693 1.006580 0.399668 O
0.815163 0.990643 0.603640 O
0.960993 0.381176 0.224846 O
0.024888 0.597229 0.804800 O
