Li48 P16 O64
1.0
9.626822 0.000000 0.000000
0.000000 10.403953 0.000000
0.000000 0.000000 12.114934
Li P O
47 16 64
direct
   0.2545290000000000    0.1638580000000000    0.3742370000000000 Li
0.254858 0.421068 0.000000 Li
0.254858 0.421068 0.500000 Li
0.254858 0.921068 0.000000 Li
0.254858 0.921068 0.500000 Li
0.754858 0.421068 0.000000 Li
0.754858 0.421068 0.500000 Li
0.754858 0.921068 0.000000 Li
0.754858 0.921068 0.500000 Li
0.004858 0.078932 0.250000 Li
0.004858 0.078932 0.750000 Li
0.004858 0.578932 0.250000 Li
0.004858 0.578932 0.750000 Li
0.504858 0.078932 0.250000 Li
0.504858 0.078932 0.750000 Li
0.504858 0.578932 0.250000 Li
0.504858 0.578932 0.750000 Li
0.254529 0.163858 0.125763 Li
0.254529 0.163858 0.625763 Li
0.254529 0.663858 0.125763 Li
0.254529 0.663858 0.625763 Li
0.754529 0.163858 0.125763 Li
0.754529 0.163858 0.625763 Li
0.754529 0.663858 0.125763 Li
0.754529 0.663858 0.625763 Li
0.004529 0.336142 0.124237 Li
0.004529 0.336142 0.624237 Li
0.004529 0.836142 0.124237 Li
0.004529 0.836142 0.624237 Li
0.504529 0.336142 0.124237 Li
0.504529 0.336142 0.624237 Li
0.504529 0.836142 0.124237 Li
0.504529 0.836142 0.624237 Li
0.004529 0.336142 0.875763 Li
0.004529 0.836142 0.375763 Li
0.004529 0.836142 0.875763 Li
0.504529 0.336142 0.375763 Li
0.504529 0.336142 0.875763 Li
0.504529 0.836142 0.375763 Li
0.504529 0.836142 0.875763 Li
0.254529 0.163858 0.874237 Li
0.254529 0.663858 0.374237 Li
0.254529 0.663858 0.874237 Li
0.754529 0.163858 0.374237 Li
0.754529 0.163858 0.874237 Li
0.754529 0.663858 0.374237 Li
0.754529 0.663858 0.874237 Li
0.250492 0.412719 0.250000 P
0.250492 0.412719 0.750000 P
0.250492 0.912719 0.250000 P
0.250492 0.912719 0.750000 P
0.750492 0.412719 0.250000 P
0.750492 0.412719 0.750000 P
0.750492 0.912719 0.250000 P
0.750492 0.912719 0.750000 P
0.000492 0.087281 0.000000 P
0.000492 0.087281 0.500000 P
0.000492 0.587281 0.000000 P
0.000492 0.587281 0.500000 P
0.500492 0.087281 0.000000 P
0.500492 0.087281 0.500000 P
0.500492 0.587281 0.000000 P
0.500492 0.587281 0.500000 P
0.053971 0.156599 0.395649 O
0.053971 0.156599 0.895649 O
0.053971 0.656599 0.395649 O
0.053971 0.656599 0.895649 O
0.553971 0.156599 0.395649 O
0.553971 0.156599 0.895649 O
0.553971 0.656599 0.395649 O
0.553971 0.656599 0.895649 O
0.301530 0.053235 0.250000 O
0.301530 0.053235 0.750000 O
0.301530 0.553235 0.250000 O
0.301530 0.553235 0.750000 O
0.801530 0.053235 0.250000 O
0.801530 0.053235 0.750000 O
0.801530 0.553235 0.250000 O
0.801530 0.553235 0.750000 O
0.090571 0.409910 0.250000 O
0.090571 0.409910 0.750000 O
0.090571 0.909910 0.250000 O
0.090571 0.909910 0.750000 O
0.590571 0.409910 0.250000 O
0.590571 0.409910 0.750000 O
0.590571 0.909910 0.250000 O
0.590571 0.909910 0.750000 O
0.340571 0.090090 0.000000 O
0.340571 0.090090 0.500000 O
0.340571 0.590090 0.000000 O
0.340571 0.590090 0.500000 O
0.840571 0.090090 0.000000 O
0.840571 0.090090 0.500000 O
0.840571 0.590090 0.000000 O
0.840571 0.590090 0.500000 O
0.303971 0.343401 0.145649 O
0.303971 0.343401 0.645649 O
0.303971 0.843401 0.145649 O
0.303971 0.843401 0.645649 O
0.803971 0.343401 0.145649 O
0.803971 0.343401 0.645649 O
0.803971 0.843401 0.145649 O
0.803971 0.843401 0.645649 O
0.053971 0.156599 0.104351 O
0.053971 0.156599 0.604351 O
0.053971 0.656599 0.104351 O
0.053971 0.656599 0.604351 O
0.553971 0.156599 0.104351 O
0.553971 0.156599 0.604351 O
0.553971 0.656599 0.104351 O
0.553971 0.656599 0.604351 O
0.051530 0.446765 0.000000 O
0.051530 0.446765 0.500000 O
0.051530 0.946765 0.000000 O
0.051530 0.946765 0.500000 O
0.551530 0.446765 0.000000 O
0.551530 0.446765 0.500000 O
0.551530 0.946765 0.000000 O
0.551530 0.946765 0.500000 O
0.303971 0.343401 0.354351 O
0.303971 0.343401 0.854351 O
0.303971 0.843401 0.354351 O
0.303971 0.843401 0.854351 O
0.803971 0.343401 0.354351 O
0.803971 0.343401 0.854351 O
0.803971 0.843401 0.354351 O
0.803971 0.843401 0.854351 O
