Ca1 Ni12 F42                            
   1.00000000000000     
     7.0126989999999996   -0.0289380000000000    0.0059370000000000
    -3.5275780000000001    6.1120640000000002   -0.0249380000000000
    -0.1017720000000000   -0.0283340000000000   16.9126370000000001
   Ca   Ni   F 
     1    12    42
Direct
  0.8904203070847240  0.7536055635479434  0.6717616838984497
  0.2908122573937126  1.0011379247495191  0.3296366540056854
  0.6967156058702451  0.6971713594675650  0.0049393667697423
 -0.0043529651760261  0.2977310631376706  0.6642326337552601
  0.3423878924747862  0.9904900421601766  0.8352710111035729
  0.6380824954790636  0.6538601289298865  0.4951270781331364
  0.9955905515684269  0.3496458534963282  0.1679656667688791
  0.6416190852537245  0.1549374411143854  0.4962155787010841
  0.4949038109379653  0.3491180825567996  0.1681673483394384
  0.8406336353665542  0.4844471498046713  0.8422941586600501
  0.3445271657447755  0.4921060125220780  0.8358814334158261
  0.1455248782958983  0.6561254975685642  0.4948418005764673
  0.4959629391179979  0.8495394352389339  0.1672759344605999
  0.5535378933452292  0.8189587195561404  0.0606607085793724
  0.2509116111359079  0.4284224105372867  0.7298859383845864
  0.1634879677397124  0.7459690979244306  0.3865388074605670
  0.4272203485120245  0.2649075407899811  0.2739645691888127
  0.8287490677088005  0.5714175413398527  0.9487864183877327
  0.7345168178211922  0.1751511590533802  0.6011950915104968
  0.8828109911552261  0.0466098542619105  0.7204362160874300
  0.1712558044264830  0.1105272363088987  0.3915580843009313
  0.9204490912245072  0.8161556837553101  0.0704742682847003
  0.1164298502577451  0.1869621976870216  0.6012339167790499
  0.0676007942561818  0.8882711494442234  0.2640356117837154
  0.8106674138125975  0.9238270775151195  0.9422255054379505
  0.1037944165108378  0.5648915043445317  0.6095716194802463
  0.4374283434513132  0.8806275574929394  0.2728030171758469
  0.4372902741375771  0.5526617914540926  0.9423868099906187
  0.8596913516573482  0.4162170390871196  0.7278124425414753
  0.5531477157640879  0.1338744896138469  0.3906798398091140
  0.5597452548925944  0.4331986123286863  0.0630442823730374
  0.3502770107727779  0.5602215770299646  0.4691556396287807
  0.2040940854659273  0.6523623502933327  0.1447572042145560
  0.4323624849445580  0.7887513387211121  0.8111994057021277
  0.6282188471495522  0.1878162533112081  0.8655766691962119
  0.5614752441456216  0.3697332065108556  0.5242342463446490
  0.7840837206234438  0.4402250912457832  0.1934229653709184
  0.6907428047363474  0.6116360390188904  0.3973410363616066
  0.9165830872804006  0.3114612213272235  0.0684159773191606
  0.3803890653012324  0.0722805176926494  0.7334641248989748
  0.2885353366323690  0.8978705869002737  0.9339668307880437
  0.5959851284560833  0.6992136412921770  0.5993539181952413
  0.0747516210682851  0.3877053363119869  0.2675076546839523
  0.9295016238226045  0.7443242233163354  0.5277635501399690
  0.7875027650646685  0.0465693034142588  0.1903128035981536
  0.2528939758190378  0.1917088991531507  0.8578315645119303
  0.0509885019922815  0.7813282943196064  0.8049188404391598
  0.7252246147890604  0.9419853335407028  0.4703319000870326
  0.2059132483999925  0.2578168503093612  0.1430157013255526
  0.6265425211738732  0.5564988894002391  0.7991495904413167
  0.9194120297064002  0.3665577386567848  0.4639503738034310
  0.4400139931851286  0.0692701652442541  0.1344674544684167
  0.3650062380097302  0.9425519298254150  0.5302721982753019
  0.5514248468585465  0.6298816462355668  0.2009854879931040
  0.0658553875430233  0.4220488094692270  0.8718994134041067
 
             NaN             NaN             NaN
             NaN             NaN             NaN
             NaN             NaN             NaN
             NaN             NaN             NaN
             NaN             NaN             NaN
             NaN             NaN             NaN
             NaN             NaN             NaN
             NaN             NaN             NaN
             NaN             NaN             NaN
             NaN             NaN             NaN
             NaN             NaN             NaN
             NaN             NaN             NaN
             NaN             NaN             NaN
             NaN             NaN             NaN
             NaN             NaN             NaN
             NaN             NaN             NaN
             NaN             NaN             NaN
             NaN             NaN             NaN
             NaN             NaN             NaN
             NaN             NaN             NaN
             NaN             NaN             NaN
             NaN             NaN             NaN
             NaN             NaN             NaN
             NaN             NaN             NaN
             NaN             NaN             NaN
             NaN             NaN             NaN
             NaN             NaN             NaN
             NaN             NaN             NaN
             NaN             NaN             NaN
             NaN             NaN             NaN
             NaN             NaN             NaN
             NaN             NaN             NaN
             NaN             NaN             NaN
             NaN             NaN             NaN
             NaN             NaN             NaN
             NaN             NaN             NaN
             NaN             NaN             NaN
             NaN             NaN             NaN
             NaN             NaN             NaN
             NaN             NaN             NaN
             NaN             NaN             NaN
             NaN             NaN             NaN
             NaN             NaN             NaN
             NaN             NaN             NaN
             NaN             NaN             NaN
             NaN             NaN             NaN
             NaN             NaN             NaN
             NaN             NaN             NaN
             NaN             NaN             NaN
             NaN             NaN             NaN
             NaN             NaN             NaN
             NaN             NaN             NaN
             NaN             NaN             NaN
             NaN             NaN             NaN
             NaN             NaN             NaN
