Ca1 Ni12 F42
1.0
7.012699 -0.028938 0.005937
-3.527578 6.112064 -0.024938
-0.101772 -0.028334 16.912637
Ca Ni F
1 12 42
direct
0.504879 0.550489 0.664991 Ca
0.298887 0.997769 0.329238 Ni
0.701166 0.697829 0.006029 Ni
0.002884 0.311740 0.665501 Ni
0.342746 0.998644 0.839809 Ni
0.658512 0.657295 0.492541 Ni
0.998812 0.344847 0.167527 Ni
0.657598 0.152964 0.491575 Ni
0.499004 0.345696 0.167868 Ni
0.845126 0.499177 0.838908 Ni
0.342921 0.498365 0.841955 Ni
0.155850 0.654700 0.494532 Ni
0.498853 0.845468 0.167000 Ni
0.565664 0.827270 0.062053 F
0.258918 0.447864 0.730287 F
0.175148 0.743096 0.387312 F
0.432236 0.261562 0.272998 F
0.824773 0.568903 0.946973 F
0.745868 0.190351 0.600982 F
0.874777 0.071209 0.723863 F
0.191025 0.112283 0.394271 F
0.930743 0.815840 0.069045 F
0.139179 0.206860 0.606515 F
0.067938 0.886363 0.266968 F
0.811533 0.922339 0.942132 F
0.137054 0.572154 0.606574 F
0.431371 0.865106 0.271177 F
0.436141 0.557566 0.948065 F
0.862933 0.431084 0.725144 F
0.567570 0.122670 0.385734 F
0.565859 0.432009 0.063404 F
0.366110 0.569396 0.469175 F
0.206972 0.643442 0.142334 F
0.437631 0.801009 0.816693 F
0.634876 0.204287 0.862990 F
0.565610 0.362948 0.516929 F
0.790712 0.435730 0.192624 F
0.700654 0.618987 0.393067 F
0.916683 0.302909 0.068130 F
0.385559 0.074987 0.734930 F
0.302017 0.919526 0.939387 F
0.613329 0.688550 0.597450 F
0.080672 0.386479 0.266956 F
0.946491 0.738791 0.520674 F
0.790477 0.046661 0.192203 F
0.246468 0.193695 0.859411 F
0.054555 0.790420 0.812358 F
0.754742 0.949233 0.472796 F
0.207141 0.254671 0.142921 F
0.622946 0.552534 0.800238 F
0.940237 0.373831 0.460928 F
0.439133 0.065780 0.134985 F
0.379371 0.934450 0.530694 F
0.558621 0.625701 0.200006 F
0.056976 0.431540 0.872732 F
