Ca4 V4 P6 O24                           
   1.00000000000000     
     2.5818319999999999    7.3694590000000000    4.4154479999999996
    -0.0153310000000000    0.0738610000000000    8.8580790000000000
     7.7220279999999999    0.0816210000000000    4.3407760000000000
   Ca   V    P    O 
     4     4     6    24
Direct
  0.3931051174489223  0.6407384404035591  0.5172679100436424
  0.9529472152690723  0.0054369072013796  0.0215430485799328
  0.3921526361369136  0.7461765353517735  0.0839650697022489
  0.1064250082645197  0.3786905665730222  0.7501593886109569
  0.6562709606861523  0.6310747692379539  0.6483688507887112
  0.1487646800782250  0.1432818077495742  0.1562883686503340
  0.8499583034518793  0.8669133645281831  0.8460049542940219
  0.3459251889699512  0.3479281621381826  0.3487189244844702
  0.2378680136340898  0.5549210997928327  0.9573207815260852
  0.0388205099671926  0.7542829766472721  0.4503562003809640
  0.9492188902643406  0.2538253347862384  0.5514216404780969
  0.4632037892716954  0.0414818404534159  0.7466355598292431
  0.5376643062199595  0.9518843639642494  0.2479625667152325
  0.7543257552066611  0.4515276111672165  0.0373458511941897
  0.5566868258988368  0.8048496708075060  0.4336326104077662
  0.2675243024236826  0.0723084993538454  0.9102396887487499
  0.4152281896910470  0.5650134270286775  0.7857837608538438
  0.9188943490125229  0.2717369837829102  0.0746327218919132
  0.7712833608282844  0.4230289103256782  0.5508588232622756
  0.0771224948001409  0.9026830788441398  0.2572077561200796
  0.9185517033934744  0.0977669240055761  0.7412485082358299
  0.5729279642487805  0.4445988684855687  0.1995125779714315
  0.7244910790549036  0.9161834726896688  0.0944267315938748
  0.2257388331879038  0.5824885972318181  0.4318149775928826
  0.0830272982119571  0.7428211674899101  0.9203292177538379
  0.4255054098261623  0.2122885044978561  0.5808112496193595
  0.1931007655595537  0.3966997179156989  0.9782014132006798
  0.8780390262665617  0.7100513099382132  0.4919829683067689
  0.0119022502369086  0.1845898271668309  0.3953623778228145
  0.4994775608206330  0.8497613080978117  0.7497190217232792
  0.3924889243457246  0.9202327975393664  0.2249394225541030
  0.7608456987386072  0.4529559504637632  0.8573387950804040
  0.2672830423092660  0.5360838896017971  0.1245006773396106
  0.0325316262017063  0.7890352217049486  0.6085101790328812
  0.1030192147751580  0.3039478848524396  0.5355139694634298
  0.6100263459877922  0.0284589479652871  0.7960040035444151
  0.4739861913808232  0.1458612870860395  0.2472957796061557
  0.7774884697224713  0.6295374289969994 -0.0033742404075311
 
             NaN             NaN             NaN
             NaN             NaN             NaN
             NaN             NaN             NaN
             NaN             NaN             NaN
             NaN             NaN             NaN
             NaN             NaN             NaN
             NaN             NaN             NaN
             NaN             NaN             NaN
             NaN             NaN             NaN
             NaN             NaN             NaN
             NaN             NaN             NaN
             NaN             NaN             NaN
             NaN             NaN             NaN
             NaN             NaN             NaN
             NaN             NaN             NaN
             NaN             NaN             NaN
             NaN             NaN             NaN
             NaN             NaN             NaN
             NaN             NaN             NaN
             NaN             NaN             NaN
             NaN             NaN             NaN
             NaN             NaN             NaN
             NaN             NaN             NaN
             NaN             NaN             NaN
             NaN             NaN             NaN
             NaN             NaN             NaN
             NaN             NaN             NaN
             NaN             NaN             NaN
             NaN             NaN             NaN
             NaN             NaN             NaN
             NaN             NaN             NaN
             NaN             NaN             NaN
             NaN             NaN             NaN
             NaN             NaN             NaN
             NaN             NaN             NaN
             NaN             NaN             NaN
             NaN             NaN             NaN
             NaN             NaN             NaN
