Ca4 V4 P6 O24
1.0
2.581832 7.369459 4.415448
-0.015331 0.073861 8.858079
7.722028 0.081621 4.340776
Ca V P O
4 4 6 24
direct
0.428643 0.624466 0.534644 Ca
0.958517 0.001624 0.024905 Ca
0.395969 0.745170 0.102954 Ca
0.123820 0.400888 0.746291 Ca
0.647333 0.637499 0.632807 V
0.146690 0.147466 0.151569 V
0.845607 0.860141 0.855043 V
0.349292 0.346494 0.351212 V
0.246972 0.553162 0.947773 P
0.034563 0.752500 0.450299 P
0.962242 0.246673 0.555548 P
0.456663 0.040769 0.743281 P
0.534908 0.944233 0.250868 P
0.748159 0.456069 0.035516 P
0.560535 0.761833 0.411488 O
0.264827 0.067688 0.908927 O
0.408192 0.569425 0.762067 O
0.920697 0.279869 0.054032 O
0.780277 0.408639 0.558587 O
0.071243 0.910475 0.263622 O
0.934618 0.084773 0.739730 O
0.579723 0.431640 0.213095 O
0.716920 0.937129 0.086528 O
0.225976 0.588850 0.424828 O
0.083329 0.738558 0.928346 O
0.425465 0.227883 0.587267 O
0.194815 0.394331 0.980004 O
0.878394 0.709713 0.474684 O
0.029755 0.181101 0.395094 O
0.481915 0.871269 0.714050 O
0.386325 0.955837 0.198591 O
0.725093 0.482480 0.862691 O
0.295920 0.526221 0.106030 O
0.007716 0.777733 0.623711 O
0.108683 0.300626 0.546206 O
0.608942 1.006762 0.797173 O
0.475645 0.108513 0.306852 O
0.768961 0.628650 0.013521 O
