Ca8 Ti16 S32                            
   1.00000000000000     
     9.9927576081090042   -0.0000033897604531   -0.0000017240764780
    -0.0000033899588138    9.9927580968459395    0.0000173248794143
    -0.0000017326171596    0.0000173158915488    9.9927433640345704
   Ca   Ti   S 
     1    16    32
Direct
   1.2500002234878349   -0.2500006268561016   -0.2499995935143632 Ca
  0.1331510465166851  0.6081902192359647  0.1331537545628073
  0.1331501622474034  0.8668519315718778  0.3918071632229431
  0.3789398339355849  0.6210628122670883  0.3789397548555116
  0.3918116990485700  0.8668489559884223  0.1331552595773813
  0.1331517359989755  0.1331477844181912  0.6081917272607613
  0.1331512604710433  0.3918090560970678  0.8668475042618068
  0.3918113862869009  0.1331496538297431  0.8668449673064398
  0.3789392956277389  0.3789368729435533  0.6210600586194229
  0.6210611354547110  0.6210624501758982  0.6210600914452670
  0.6081924504910209  0.8668535360597035  0.8668467581224965
  0.8668464375518437  0.6081887451965913  0.8668445188776859
  0.8668453942669807  0.8668516798832768  0.6081905182441789
  0.6081917692706342  0.1331481381376898  0.1331534155604100
  0.6210609627735677  0.3789376224273001  0.3789401434440741
  0.8668454914574256  0.1331499520644633  0.3918094733021320
  0.8668465589684062  0.3918115948038080  0.1331553836078539
  0.3756290725263950  0.8681237301941521  0.3756299658720338
  0.3743347939638210  0.1172774575750701  0.1172728507537920
  0.1172721401433643  0.1172792730584658  0.3743322377565543
  0.1172729115415041  0.3743329613978036  0.1172764432049643
  0.6243700991332005  0.1318749422921954  0.3756306713984435
  0.1470019713461544  0.8530011925187588  0.1469971095252431
  0.3788990469664860  0.3789002070382722  0.3788943554598868
  0.8530007572259873  0.1470016091032302  0.1470016120649302
  0.3756278155301943  0.3756256347206843  0.8681210857194468
  0.3788992646454553  0.6210989538176855  0.6211050808853232
  0.1172729659390714  0.6256660577490115  0.8827244722214089
  0.1172725295058914  0.8827213756073494  0.6256669054136287
  0.6243734032367504  0.6243745391274058  0.8681223974743204
  0.1318782603257483  0.3756254472488209  0.6243725293214830
  0.3743356905376979  0.8827220374974057  0.8827269326996229
  0.8681212384176235  0.6243725973083671  0.6243698049908116
  0.8530016323744757  0.8529987915971852  0.8529992209945603
  0.8827235806461533  0.1172768411895656  0.6256686975491197
  0.6256707531306879  0.1172781730909025  0.8827265849647690
  0.6211040376085435  0.3788979411187610  0.6211051749837136
  0.1470014581261126  0.1469973228261959  0.8530015466672186
  0.6243705042447678  0.8681253863752297  0.6243696729548722
  0.8827230762334164  0.3743315141979311  0.8827283377917361
  0.3756291455479626  0.1318763246902455  0.6243692751123244
  0.8681219350838436  0.3756282377009798  0.3756300340653299
  0.8827232394474138  0.6256682082613833  0.1172725586821789
  0.6211042856668074  0.6211017329112015  0.3788945542303818
  0.6256703500975205  0.8827223037288996  0.1172729208752170
  0.1318774876629726  0.6243735512403635  0.3756273527158442
  0.6243728144722438  0.3756267859556552  0.1318774404904758
  0.8827228364378068  0.8827236175040312  0.3743310218940147
  0.3756277083765620  0.6243735874403744  0.1318795073844304
 
  0.00000000E+00  0.00000000E+00  0.00000000E+00
  0.00000000E+00  0.00000000E+00  0.00000000E+00
  0.00000000E+00  0.00000000E+00  0.00000000E+00
  0.00000000E+00  0.00000000E+00  0.00000000E+00
  0.00000000E+00  0.00000000E+00  0.00000000E+00
  0.00000000E+00  0.00000000E+00  0.00000000E+00
  0.00000000E+00  0.00000000E+00  0.00000000E+00
  0.00000000E+00  0.00000000E+00  0.00000000E+00
  0.00000000E+00  0.00000000E+00  0.00000000E+00
  0.00000000E+00  0.00000000E+00  0.00000000E+00
  0.00000000E+00  0.00000000E+00  0.00000000E+00
  0.00000000E+00  0.00000000E+00  0.00000000E+00
  0.00000000E+00  0.00000000E+00  0.00000000E+00
  0.00000000E+00  0.00000000E+00  0.00000000E+00
  0.00000000E+00  0.00000000E+00  0.00000000E+00
  0.00000000E+00  0.00000000E+00  0.00000000E+00
  0.00000000E+00  0.00000000E+00  0.00000000E+00
  0.00000000E+00  0.00000000E+00  0.00000000E+00
  0.00000000E+00  0.00000000E+00  0.00000000E+00
  0.00000000E+00  0.00000000E+00  0.00000000E+00
  0.00000000E+00  0.00000000E+00  0.00000000E+00
  0.00000000E+00  0.00000000E+00  0.00000000E+00
  0.00000000E+00  0.00000000E+00  0.00000000E+00
  0.00000000E+00  0.00000000E+00  0.00000000E+00
  0.00000000E+00  0.00000000E+00  0.00000000E+00
  0.00000000E+00  0.00000000E+00  0.00000000E+00
  0.00000000E+00  0.00000000E+00  0.00000000E+00
  0.00000000E+00  0.00000000E+00  0.00000000E+00
  0.00000000E+00  0.00000000E+00  0.00000000E+00
  0.00000000E+00  0.00000000E+00  0.00000000E+00
  0.00000000E+00  0.00000000E+00  0.00000000E+00
  0.00000000E+00  0.00000000E+00  0.00000000E+00
  0.00000000E+00  0.00000000E+00  0.00000000E+00
  0.00000000E+00  0.00000000E+00  0.00000000E+00
  0.00000000E+00  0.00000000E+00  0.00000000E+00
  0.00000000E+00  0.00000000E+00  0.00000000E+00
  0.00000000E+00  0.00000000E+00  0.00000000E+00
  0.00000000E+00  0.00000000E+00  0.00000000E+00
  0.00000000E+00  0.00000000E+00  0.00000000E+00
  0.00000000E+00  0.00000000E+00  0.00000000E+00
  0.00000000E+00  0.00000000E+00  0.00000000E+00
  0.00000000E+00  0.00000000E+00  0.00000000E+00
  0.00000000E+00  0.00000000E+00  0.00000000E+00
  0.00000000E+00  0.00000000E+00  0.00000000E+00
  0.00000000E+00  0.00000000E+00  0.00000000E+00
  0.00000000E+00  0.00000000E+00  0.00000000E+00
  0.00000000E+00  0.00000000E+00  0.00000000E+00
  0.00000000E+00  0.00000000E+00  0.00000000E+00
  0.00000000E+00  0.00000000E+00  0.00000000E+00
