Pm16 Mg8 Se32
1.0
       11.9404516220         0.0000000000         0.0000000000
        0.0000000000        11.9404516220         0.0000000000
        0.0000000000         0.0000000000        11.9404516220
Mg   Pm   Mg   Se
1   16    6   32
Direct
   0.5000000000000000    0.5000000000000000    0.5000000000000000 Mg
     0.375000000         0.125000000         0.375000000
     0.875000000         0.875000000         0.125000000
     0.625000000         0.875000000         0.375000000
     0.125000000         0.125000000         0.125000000
     0.375000000         0.625000000         0.875000000
     0.875000000         0.375000000         0.625000000
     0.625000000         0.375000000         0.875000000
     0.125000000         0.625000000         0.625000000
     0.875000000         0.125000000         0.875000000
     0.375000000         0.875000000         0.625000000
     0.125000000         0.875000000         0.875000000
     0.625000000         0.125000000         0.625000000
     0.875000000         0.625000000         0.375000000
     0.375000000         0.375000000         0.125000000
     0.125000000         0.375000000         0.375000000
     0.625000000         0.625000000         0.125000000
     0.000000000         0.000000000         0.500000000
     0.250000000         0.750000000         0.250000000
     0.000000000         0.500000000         0.000000000
     0.250000000         0.250000000         0.750000000
     0.500000000         0.000000000         0.000000000
     0.750000000         0.250000000         0.250000000
     0.377907008         0.877906978         0.377907008
     0.877906978         0.122093000         0.122093000
     0.122093000         0.877906978         0.122093000
     0.622093022         0.122093000         0.377907008
     0.127906993         0.127906993         0.372092992
     0.127906993         0.372092992         0.127906993
     0.372092992         0.127906993         0.127906993
     0.372092992         0.372092992         0.372092992
     0.377907008         0.377907008         0.877906978
     0.877906978         0.622093022         0.622093022
     0.122093000         0.377907008         0.622093022
     0.622093022         0.622093022         0.877906978
     0.127906993         0.627906978         0.872093022
     0.127906993         0.872093022         0.627906978
     0.372092992         0.627906978         0.627906978
     0.372092992         0.872093022         0.872093022
     0.877906978         0.877906978         0.877906978
     0.377907008         0.122093000         0.622093022
     0.622093022         0.877906978         0.622093022
     0.122093000         0.122093000         0.877906978
     0.627906978         0.127906993         0.872093022
     0.627906978         0.372092992         0.627906978
     0.872093022         0.127906993         0.627906978
     0.872093022         0.372092992         0.872093022
     0.877906978         0.377907008         0.377907008
     0.377907008         0.622093022         0.122093000
     0.622093022         0.377907008         0.122093000
     0.122093000         0.622093022         0.377907008
     0.627906978         0.627906978         0.372092992
     0.627906978         0.872093022         0.127906993
     0.872093022         0.627906978         0.127906993
     0.872093022         0.872093022         0.372092992
