Rb8 V8 P8 O32 F8
1.0
   6.6605889447463342    0.0000000000000000    0.0000000000000004
   0.0000000000000017   11.1088418799573194    0.0000000000000007
   0.0000000000000000    0.0000000000000000   13.3671015340527646
Rb V P O F
7 8 8 32 8
direct
   0.2755550000000000    0.8009249999999999    0.1216439999999999 Rb
   0.2244450000000000    0.8009249999999999    0.6216440000000000 Rb+
   0.7244450000000000    0.3009249999999999    0.8783560000000000 Rb+
   0.7755550000000000    0.3009249999999999    0.3783560000000000 Rb+
   0.7014720000000000    0.0600110000000000    0.1032520000000000 Rb+
   0.2985280000000000    0.5600110000000000    0.8967480000000000 Rb+
   0.7985280000000000    0.0600110000000000    0.6032520000000000 Rb+
   0.4946999999999999    0.0031530000000000    0.3844660000000000 V3+
   0.5053000000000001    0.5031530000000000    0.6155340000000000 V3+
   0.0053000000000001    0.0031530000000000    0.8844660000000000 V3+
   0.9946999999999999    0.5031530000000000    0.1155340000000000 V3+
   0.2495350000000000    0.2521429999999999    0.2466630000000000 V3+
   0.7504650000000000    0.7521429999999999    0.7533370000000000 V3+
   0.2504650000000000    0.2521429999999999    0.7466630000000000 V3+
   0.7495350000000000    0.7521429999999999    0.2533370000000000 V3+
   0.3339329999999999    0.2541619999999999    0.4987610000000000 P5+
   0.6660670000000002    0.7541619999999999    0.5012390000000000 P5+
   0.1660670000000001    0.2541619999999999    0.9987610000000000 P5+
   0.8339329999999998    0.7541619999999999    0.0012390000000000 P5+
   0.4976249999999999    0.5041889999999999    0.1804500000000000 P5+
   0.5023750000000001    0.0041889999999998    0.8195500000000000 P5+
   0.0023750000000001    0.5041889999999999    0.6804500000000000 P5+
   0.9976249999999999    0.0041889999999998    0.3195500000000000 P5+
   0.4853899999999999    0.1440099999999999    0.4836630000000000 O2-
   0.5146100000000001    0.6440100000000000    0.5163370000000000 O2-
   0.0146100000000001    0.1440099999999999    0.9836630000000000 O2-
   0.9853899999999999    0.6440100000000000    0.0163370000000000 O2-
   0.4727849999999999    0.3705659999999999    0.5101860000000000 O2-
   0.5272150000000001    0.8705660000000000    0.4898140000000000 O2-
   0.0272150000000001    0.3705659999999999    0.0101860000000000 O2-
   0.9727849999999999    0.8705660000000000    0.9898140000000000 O2-
   0.1967139999999999    0.2728369999999999    0.4024110000000000 O2-
   0.8032860000000001    0.7728369999999999    0.5975889999999999 O2-
   0.3032860000000001    0.2728369999999999    0.9024110000000001 O2-
   0.6967139999999999    0.7728369999999999    0.0975890000000000 O2-
   0.1978569999999999    0.2316749999999999    0.5941460000000000 O2-
   0.8021430000000001    0.7316750000000000    0.4058540000000000 O2-
   0.3021430000000001    0.2316749999999999    0.0941459999999998 O2-
   0.6978569999999999    0.7316750000000000    0.9058540000000000 O2-
   0.3083599999999999    0.5302859999999999    0.1111540000000000 O2-
   0.6916400000000000    0.0302859999999998    0.8888460000000000 O2-
   0.1916400000000001    0.5302859999999999    0.6111540000000000 O2-
   0.8083600000000000    0.0302859999999998    0.3888460000000000 O2-
   0.6863460000000000    0.4781629999999999    0.1121810000000000 O2-
   0.3136540000000000    0.9781629999999999    0.8878190000000000 O2-
   0.8136540000000000    0.4781629999999999    0.6121810000000000 O2-
   0.1863459999999999    0.9781629999999999    0.3878190000000000 O2-
   0.5334009999999999    0.6193149999999999    0.2509290000000000 O2-
   0.4665990000000001    0.1193149999999998    0.7490710000000000 O2-
   0.9665990000000001    0.6193149999999999    0.7509290000000000 O2-
   0.0334010000000000    0.1193149999999998    0.2490710000000000 O2-
   0.4538199999999999    0.3927909999999999    0.2532700000000000 O2-
   0.5461800000000001    0.8927909999999999    0.7467300000000000 O2-
   0.0461800000000001    0.3927909999999999    0.7532700000000000 O2-
   0.9538199999999999    0.8927909999999999    0.2467300000000000 O2-
   0.5236229999999998    0.8810089999999999    0.2690050000000000 F-
   0.4763770000000002    0.3810089999999999    0.7309950000000001 F-
   0.9763770000000002    0.8810089999999999    0.7690049999999999 F-
   0.0236229999999997    0.3810089999999999    0.2309950000000000 F-
   0.4800329999999999    0.1299359999999999    0.2696970000000000 F-
   0.5199670000000001    0.6299359999999999    0.7303029999999999 F-
   0.0199670000000001    0.1299359999999999    0.7696970000000001 F-
   0.9800329999999999    0.6299359999999999    0.2303030000000000 F-
