Ca4 Mn4 P6 O24                          
   1.00000000000000     
     2.6953299999999998    8.1615149999999996    4.6131549999999999
    -0.1214760000000000    0.4911390000000000    8.6283790000000007
     7.5996610000000002    0.4827420000000000    4.1290950000000004
   Ca   Mn   P    O 
     4     4     6    24
Direct
  0.5214698555380929  0.4846359013469800  0.5000007697016772
  0.8900185017071301  0.9986177115954361  0.0971004857033069
  0.3543381162835426  0.7263000247351761  0.0521497828906854
  0.1152788138089744  0.4128194944383951  0.7828326009387565
  0.6871201265830911  0.6648210369731112  0.6074270601106715
  0.1883991202407751  0.1360500905999082  0.1754932622429742
  0.8298173748932278  0.8864116369639158  0.8220252884946940
  0.3109561274632321  0.3044112884039749  0.3787904487357541
  0.2147712565211789  0.5307147960781111  0.9868010549745799
  0.0402953197784857  0.7800983260239114  0.4245814802571923
  0.9595376831008137  0.2390225990807046  0.5934909131507489
  0.4653768873787947  0.0723698773607674  0.7324338695403873
  0.5553623361847180  0.9166919597858070  0.2522043604872651
  0.7306980913043588  0.4979754371365637  0.0038015265338792
  0.5810944459743118  0.7408978655402841  0.4218665935278581
  0.2992365337682679  0.0937614900131865  0.9167638318388892
  0.3137924323042020  0.5229008270341768  0.7802495987130835
  0.8701256105895377  0.3011180096278211  0.0280831239685697
  0.7979856223668614  0.4107937676869642  0.5594474931921968
  0.0889732258592909  0.9336555999486438  0.2372650722649487
  0.9004674376207973  0.0861792646395006  0.7767052989903080
  0.5838081625758091  0.5397694320878752  0.1871620253884847
  0.7296855227931089  0.8781635267494496  0.0812683055876629
  0.2018588813328792  0.5955536789478272  0.4110415388516586
  0.1203156068583764  0.7363670892386227  0.9978015734078112
  0.4104608917407541  0.2533965994083401  0.5770945558164385
  0.0949425311702371  0.4184024856544374  0.0708037413766399
  0.8819483145144348  0.7719163165030282  0.4325124677527331
  0.0709485018308177  0.1557377076934774  0.4262522173868465
  0.4967690732384112  0.8881990575347145  0.7096236063781832
  0.4076057354103756  0.9380031286123985  0.2162066367307451
  0.6404727293872504  0.5337308930817392  0.8788584884019803
  0.3330954696424267  0.4342802006233345  0.1016010776197588
  0.0061243474015603  0.8248700949865019  0.5970449965343111
  0.0754182094446663  0.2942439705091316  0.6165213452072488
  0.6196811260863403  0.0694812082399257  0.7404349187818365
  0.5360672625063436  0.0872178297453351  0.2870083582076823
  0.8313896951780827  0.6361783937832549  0.8909802232626660
 
             NaN             NaN             NaN
             NaN             NaN             NaN
             NaN             NaN             NaN
             NaN             NaN             NaN
             NaN             NaN             NaN
             NaN             NaN             NaN
             NaN             NaN             NaN
             NaN             NaN             NaN
             NaN             NaN             NaN
             NaN             NaN             NaN
             NaN             NaN             NaN
             NaN             NaN             NaN
             NaN             NaN             NaN
             NaN             NaN             NaN
             NaN             NaN             NaN
             NaN             NaN             NaN
             NaN             NaN             NaN
             NaN             NaN             NaN
             NaN             NaN             NaN
             NaN             NaN             NaN
             NaN             NaN             NaN
             NaN             NaN             NaN
             NaN             NaN             NaN
             NaN             NaN             NaN
             NaN             NaN             NaN
             NaN             NaN             NaN
             NaN             NaN             NaN
             NaN             NaN             NaN
             NaN             NaN             NaN
             NaN             NaN             NaN
             NaN             NaN             NaN
             NaN             NaN             NaN
             NaN             NaN             NaN
             NaN             NaN             NaN
             NaN             NaN             NaN
             NaN             NaN             NaN
             NaN             NaN             NaN
             NaN             NaN             NaN
