Ca4 Mn4 P6 O24
1.0
2.695330 8.161515 4.613155
-0.121476 0.491139 8.628379
7.599661 0.482742 4.129095
Ca Mn P O
4 4 6 24
direct
0.492615 0.534920 0.537731 Ca
0.919570 0.985797 0.072097 Ca
0.381034 0.723122 0.071641 Ca
0.119933 0.425507 0.772798 Ca
0.678134 0.662163 0.605757 Mn
0.185413 0.132359 0.170383 Mn
0.812075 0.892126 0.829177 Mn
0.312884 0.325818 0.366394 Mn
0.248806 0.524198 0.974390 P
0.037237 0.770383 0.421345 P
0.964347 0.235136 0.586170 P
0.455597 0.071382 0.726813 P
0.533642 0.911726 0.261005 P
0.748827 0.481892 0.011050 P
0.577159 0.731007 0.418089 O
0.290644 0.096873 0.910454 O
0.353782 0.519502 0.771973 O
0.895219 0.288267 0.007150 O
0.799934 0.405158 0.563449 O
0.090442 0.925332 0.240062 O
0.916132 0.079381 0.768790 O
0.602312 0.486634 0.202674 O
0.700113 0.926953 0.092653 O
0.201884 0.585525 0.399487 O
0.142865 0.727912 0.980230 O
0.406702 0.251874 0.571280 O
0.138918 0.404686 0.057346 O
0.880660 0.768344 0.421400 O
0.058067 0.149847 0.421034 O
0.486808 0.888774 0.704149 O
0.409522 0.907404 0.203153 O
0.660104 0.549995 0.871455 O
0.357240 0.439333 0.095535 O
1.004729 0.793444 0.604065 O
0.087488 0.292198 0.593633 O
0.610688 0.062580 0.736737 O
0.448563 0.080277 0.337353 O
0.839077 0.619837 0.942216 O
