Na2 Ca2 V4 Si2 P4 O24                   
   1.00000000000000     
     8.8646729999999998    0.1284920000000000    0.1066780000000000
     4.2975230000000000    7.6752539999999998    0.0726730000000000
     4.4441340000000000    2.5319050000000001    7.2188109999999996
   Ca   Na   V    Si   P    O 
     2     2     4     2     4    24
Direct
  0.5732055344121909  0.4974443378357169  0.4213418788601770
  0.0007563697355846  1.0000740638592960 -0.0024440454872457
  0.1185750353705953  0.7471720822627843  0.4047352952134755
  0.9009629635580545  0.2472661124353366  0.6043495707506592
  0.3630528898503734  0.3480999129640171  0.3458487178752804
  0.6352745878404343  0.6443941543267320  0.6516474567601459
  0.1537567435461380  0.1487787868923067  0.1337570007360428
  0.8491015903888379  0.8500815922542414  0.8586959614819988
  0.4562841720472767  0.7517481596002507  0.0367209745173747
  0.5449088969271504  0.2515309654131486  0.9490101004753791
  0.0325526046660303  0.4538427451703978  0.7498843404328219
  0.9747208957166780  0.5458988699416069  0.2406629194430158
  0.7487611536855265  0.0385241543150468  0.4646792468266187
  0.2566758239415152  0.9521609558691513  0.5295259357312133
  0.2200062071557001  0.4253541003946013  0.5830284884837437
  0.7876236570581476  0.5757755464266645  0.4089644564415371
  0.5820911449894189  0.2201256312320438  0.4360627878895287
  0.4295628009303870  0.7753391091921282  0.5414313040599359
  0.4282422399291277  0.5801785384007605  0.2351032240923922
  0.5715974196802168  0.4180902961228209  0.7462983940753790
  0.9196704004046538  0.0572593549496948  0.2773652318282823
  0.0884853344653788  0.9302748459816333  0.7193227634435025
  0.0473976514075802  0.2805272955675414  0.9272755321915245
  0.9566418017191252  0.7212906073375587  0.0682221936967319
  0.2605431310776949  0.9241658845862817  0.0586056034290416
  0.7416158624103446  0.0773758638618823  0.9317098772671856
  0.4976805928066325  0.3021268360269623  0.1279947639124665
  0.4964150637737214  0.7005777637990916  0.8617311183673955
  0.1319266850535288  0.5219016219276591  0.2861904482649487
  0.8717468316578273  0.4692068700151391  0.7119260020980869
  0.2796262055024635  0.1304300151007725  0.4954354382638274
  0.7201716135454912  0.8626006666930258  0.5047756214922690
  0.3658320158930657  0.2002544818902149 -0.0005925463037966
  0.6367382760926542  0.7870536281826079  1.0066727606965613
  0.2061085188517876  0.9777837917750173  0.3728084635551191
  0.7889421477233013  0.0253191409759256  0.6225471044360164
 -0.0079681551276623  0.3696728111723939  0.2255106431888744
  0.9956237921945453  0.6359223648011767  0.7677128932114854
 
             NaN             NaN             NaN
             NaN             NaN             NaN
             NaN             NaN             NaN
             NaN             NaN             NaN
             NaN             NaN             NaN
             NaN             NaN             NaN
             NaN             NaN             NaN
             NaN             NaN             NaN
             NaN             NaN             NaN
             NaN             NaN             NaN
             NaN             NaN             NaN
             NaN             NaN             NaN
             NaN             NaN             NaN
             NaN             NaN             NaN
             NaN             NaN             NaN
             NaN             NaN             NaN
             NaN             NaN             NaN
             NaN             NaN             NaN
             NaN             NaN             NaN
             NaN             NaN             NaN
             NaN             NaN             NaN
             NaN             NaN             NaN
             NaN             NaN             NaN
             NaN             NaN             NaN
             NaN             NaN             NaN
             NaN             NaN             NaN
             NaN             NaN             NaN
             NaN             NaN             NaN
             NaN             NaN             NaN
             NaN             NaN             NaN
             NaN             NaN             NaN
             NaN             NaN             NaN
             NaN             NaN             NaN
             NaN             NaN             NaN
             NaN             NaN             NaN
             NaN             NaN             NaN
             NaN             NaN             NaN
             NaN             NaN             NaN
