Na2 Ca2 V4 Si2 P4 O24
1.0
8.864673 0.128492 0.106678
4.297523 7.675254 0.072673
4.444134 2.531905 7.218811
Ca Na V Si P O
2 2 4 2 4 24
direct
0.529497 0.488690 0.453051 Ca
1.000673 0.997877 0.000320 Ca
0.140051 0.722075 0.418127 Na
0.893332 0.250398 0.599892 Na
0.360157 0.355258 0.345946 V
0.635887 0.646869 0.653549 V
0.154348 0.146186 0.138507 V
0.845677 0.854406 0.860162 V
0.454294 0.751705 0.042807 Si
0.543894 0.250623 0.956343 Si
0.031146 0.457113 0.752426 P
0.966580 0.544742 0.245937 P
0.744932 0.044770 0.466307 P
0.253245 0.956734 0.532427 P
0.219451 0.432927 0.585229 O
0.778423 0.567941 0.413963 O
0.575351 0.224047 0.444428 O
0.423082 0.778540 0.553928 O
0.431331 0.581906 0.242252 O
0.566761 0.419232 0.756136 O
0.912877 0.066278 0.276167 O
0.084183 0.938307 0.721398 O
0.049626 0.280936 0.926462 O
0.947791 0.720692 0.072679 O
0.257387 0.923086 0.063030 O
0.741197 0.079183 0.934685 O
0.500946 0.306574 0.129086 O
0.499263 0.695760 0.868851 O
0.123806 0.526839 0.288990 O
0.873493 0.473105 0.711075 O
0.279967 0.135270 0.490635 O
0.718782 0.866654 0.506895 O
0.367267 0.197498 0.004428 O
0.631956 0.801115 0.996771 O
0.206580 0.973016 0.377397 O
0.791177 0.028652 0.621580 O
0.002933 0.364566 0.225277 O
0.993862 0.636832 0.773998 O
