Ca1 Mn12 F42                            
   1.00000000000000     
     7.3315809999999999   -0.0385000000000000   -0.0743510000000000
    -3.6982689999999998    6.3788130000000001    0.0447980000000000
     0.0506000000000000    0.0128080000000000   17.4699810000000006
   Ca   Mn   F 
     1    12    42
Direct
  0.5022435515839226  0.3776616575400988  0.6663561623465351
  0.3005021840925300  0.0084041019772768  0.3285231180113241
  0.7023398125840415  0.7178665223812227  0.0043664603068460
 -0.0080672153791677  0.2934163870135898  0.6665947633255467
  0.3293177247327483  0.9921371002948234  0.8403034351702949
  0.6663870390386418  0.6545277129494440  0.4930472515855394
  1.0068709050187354  0.3648020631687619  0.1676332443874657
  0.6612990399130181  0.1503324724192802  0.4896517571602418
  0.5070230282145347  0.3652486474741544  0.1677348022980625
  0.8312408029067013  0.4900750915934273  0.8374454872637265
  0.3331323948397060  0.4981049917735136  0.8459912869598843
  0.1634959521657357  0.6511352798110430  0.4957412787208250
  0.5065589724483224  0.8652330632072174  0.1675292130995849
  0.5647950665320289  0.8302531973583758  0.0651087221370618
  0.2404449360725701  0.4298412445934165  0.7399599970542610
  0.2022056607490745  0.7696779069877582  0.3897030886962100
  0.4420945452725791  0.2664811195825977  0.2693123325081774
  0.7955717460347299  0.5803209297052379  0.9414293615632408
  0.7601421148511153  0.1771457909630081  0.5924072139259962
  0.8658246899907636  0.0650286809451483  0.7227593369744322
  0.1956728272329047  0.1175746702658907  0.3895592268678617
  0.9228493032045141  0.8248576874788378  0.0636593904370936
  0.1627664016458516  0.2139057105303258  0.6179315089105158
  0.0884053339329466  0.8955709842933623  0.2652647444997017
  0.7943636303772630  0.9283483386929298  0.9411228310082280
  0.1239717719090625  0.5442030557475914  0.6062553141205270
  0.4492639121237139  0.8988452367697343  0.2695966561671829
  0.4340547834117606  0.5700323628547683  0.9473811815987672
  0.8381006099234252  0.4068820720498392  0.7183803504035945
  0.5633152266798733  0.1370312782056936  0.3883572537047113
  0.5681739937867379  0.4599746801801873  0.0659958656978998
  0.3738647360429408  0.5715443337041877  0.4782562769155281
  0.2199843302551421  0.6568569268529582  0.1502585415740311
  0.4121744035269406  0.7802984417165522  0.8203543894982107
  0.6237611606914801  0.2063928246750660  0.8594803433196171
  0.5803698346173763  0.3641114811838897  0.5247240538747144
  0.7932180024608091  0.4409050915932830  0.1860732586610058
  0.6927383277271785  0.6061624149069367  0.3972625465098404
  0.9439657556782168  0.3359598790644336  0.0688842131235654
  0.3740485328942261  0.0815496201883049  0.7387985765838941
  0.2879638401182236  0.9145693661570050  0.9361236505751497
  0.6324085118724363  0.6814255571202947  0.5974826140024706
  0.0699428029845683  0.3939168552586048  0.2663694930772980
  0.9531554232229065  0.7317759444104160  0.5145488279796712
  0.7941755239648145  0.0724385100035080  0.1845817300840904
  0.2600007040662748  0.2128891392113245  0.8617578837625953
  0.0409360740392849  0.7740757969475074  0.8129821818733448
  0.7383272038257173  0.9350831254154158  0.4719720151880799
  0.2203014246939421  0.2885962549794766  0.1495561695258136
  0.6129413786667606  0.5354151856710246  0.7942915114995489
  0.9413033862830397  0.3811430567922274  0.4637622629830256
  0.4496067429343980  0.0996764882984200  0.1371897371789834
  0.3850951895789791  0.9282190531325321  0.5259667703408162
  0.5648826452926259  0.6305109359925071  0.1980833432473809
  0.0408358966738514  0.4359331936238359  0.8697577860841220
 
             NaN             NaN             NaN
             NaN             NaN             NaN
             NaN             NaN             NaN
             NaN             NaN             NaN
             NaN             NaN             NaN
             NaN             NaN             NaN
             NaN             NaN             NaN
             NaN             NaN             NaN
             NaN             NaN             NaN
             NaN             NaN             NaN
             NaN             NaN             NaN
             NaN             NaN             NaN
             NaN             NaN             NaN
             NaN             NaN             NaN
             NaN             NaN             NaN
             NaN             NaN             NaN
             NaN             NaN             NaN
             NaN             NaN             NaN
             NaN             NaN             NaN
             NaN             NaN             NaN
             NaN             NaN             NaN
             NaN             NaN             NaN
             NaN             NaN             NaN
             NaN             NaN             NaN
             NaN             NaN             NaN
             NaN             NaN             NaN
             NaN             NaN             NaN
             NaN             NaN             NaN
             NaN             NaN             NaN
             NaN             NaN             NaN
             NaN             NaN             NaN
             NaN             NaN             NaN
             NaN             NaN             NaN
             NaN             NaN             NaN
             NaN             NaN             NaN
             NaN             NaN             NaN
             NaN             NaN             NaN
             NaN             NaN             NaN
             NaN             NaN             NaN
             NaN             NaN             NaN
             NaN             NaN             NaN
             NaN             NaN             NaN
             NaN             NaN             NaN
             NaN             NaN             NaN
             NaN             NaN             NaN
             NaN             NaN             NaN
             NaN             NaN             NaN
             NaN             NaN             NaN
             NaN             NaN             NaN
             NaN             NaN             NaN
             NaN             NaN             NaN
             NaN             NaN             NaN
             NaN             NaN             NaN
             NaN             NaN             NaN
             NaN             NaN             NaN
