Ca1 Mn12 F42
1.0
7.331581 -0.038500 -0.074351
-3.698269 6.378813 0.044798
0.050600 0.012808 17.469981
Ca Mn F
1 12 42
direct
0.507125 0.424323 0.664648 Ca
0.292687 1.000429 0.329023 Mn
0.707622 0.711844 0.005001 Mn
0.000375 0.297018 0.666461 Mn
0.348558 0.998329 0.839592 Mn
0.652662 0.645706 0.494447 Mn
0.998658 0.352716 0.166823 Mn
0.649765 0.142706 0.491954 Mn
0.499968 0.354461 0.166514 Mn
0.850231 0.498139 0.837596 Mn
0.353358 0.504195 0.841243 Mn
0.150785 0.644070 0.495522 Mn
0.497382 0.853369 0.166871 Mn
0.561820 0.818249 0.064899 F
0.264009 0.443931 0.735601 F
0.188407 0.760159 0.391620 F
0.436631 0.254937 0.268539 F
0.811825 0.581437 0.941596 F
0.749038 0.178340 0.595781 F
0.878947 0.071309 0.724771 F
0.194260 0.115155 0.390582 F
0.921338 0.812951 0.067495 F
0.160755 0.212354 0.615182 F
0.076957 0.888670 0.267340 F
0.806850 0.928655 0.944356 F
0.122989 0.546921 0.605304 F
0.433683 0.884104 0.268987 F
0.447176 0.568167 0.943436 F
0.856589 0.415842 0.721231 F
0.554990 0.120781 0.389625 F
0.563449 0.450395 0.064298 F
0.361603 0.566428 0.478300 F
0.211467 0.644313 0.148014 F
0.434479 0.793644 0.818577 F
0.639234 0.210545 0.858240 F
0.565471 0.353673 0.522920 F
0.786621 0.431085 0.184993 F
0.681783 0.602993 0.398277 F
0.933515 0.320501 0.068192 F
0.390199 0.074663 0.736525 F
0.308447 0.925650 0.935886 F
0.618530 0.670960 0.598903 F
0.063745 0.384858 0.265434 F
0.939247 0.720356 0.516667 F
0.784371 0.061565 0.185368 F
0.274575 0.212810 0.855908 F
0.062352 0.785604 0.813807 F
0.729831 0.929679 0.477115 F
0.212178 0.276344 0.148705 F
0.629068 0.543925 0.795578 F
0.928762 0.371297 0.464787 F
0.442733 0.086915 0.136220 F
0.373743 0.921056 0.528666 F
0.555191 0.620250 0.197122 F
0.066750 0.444932 0.866035 F
