Ca8 Cr12 F42                            
   1.00000000000000     
     7.4504070000000002    0.0022340000000000   -0.5253740000000000
    -3.6046350000000000    6.7792089999999998    0.2434280000000000
     0.9007849999999999    0.2508600000000000   18.4594149999999999
   Ca   Cr   F 
     8    12    42
Direct
  0.9641378493863738  0.2694761551847689  0.3647334230200576
  0.5262959468848410  0.8261244200062517  0.6808179424004015
  0.5993843507108388  0.1242930928935080  0.0025566499591050
  0.0149840712755597  0.8013612636684729  0.6644360824613420
  0.1072949591142413  0.6816719854031700  1.0162208671441300
  0.8786413391107424  0.7665063471734266  0.1902068712695996
  0.8584484757561150  0.9084441881592545  0.8479929684201366
  0.2683661653512129  0.2251467154960692  0.5124229059655653
  0.3314358656896834  1.0291254733775248  0.3308455221895497
  0.0069435895485649  0.2942329961354405  0.6681361667598784
  0.6211789661007050  0.6584742154386801  0.9985814072878350
  0.3501838267817414  0.9803448247795232  0.8280423645191038
  0.9611713186293269  0.3225037914476853  0.1517867460024270
  0.6991193793006566  0.6748695366125539  0.4988667366868482
  0.4405611745852854  0.8311188128443477  0.1689778553213088
  0.1934543895205302  0.6730143434566940  0.4982301225310207
  0.3138110705007889  0.4699935317013321  0.8313919128717631
  0.8181937708156146  0.4642547391456148  0.8283697213462735
  0.6912594417662934  0.1639188341598744  0.5050228278558460
  0.4569454643586976  0.3266070537593889  0.1503147462439293
  0.7397609148908876  0.1208668023190665  0.6217803188636625
  0.8917910001255926  0.6746784681806572  0.9273587544818033
  0.4083165813488772  0.2351054342078593  0.2476533981042728
  0.1278038971180759  0.6025826527858589  0.3975562630051827
  0.4409271448048488  0.7853092548747839  0.0600126787757151
  0.2724547475373142  0.4723424885992701  0.7219197229431593
  0.7317572316779658  0.9336658065044114  0.9560002184120897
  1.0591509089083406  0.9030392865256358  0.2865867777176603
  0.1303732553196846  0.1389778452758738  0.6219161851912729
  0.8667238654578989  0.7559837873140426  0.0651534365380077
  0.8513981156680626  0.9474025433344495  0.7276034226044025
  0.2098855699384945  0.1658580461459689  0.3941236886872069
  0.5305904456311777  0.3915246558017089  0.0399610079394515
  0.6149224325932019  0.1547184641157635  0.3775836355484010
  0.8936901418328100  0.4666543883812331  0.6924539792722841
  0.3672181621656417  0.5478360576291226  0.9355883881696587
  0.2410892798223058  0.7073211615359806  0.6063721680456415
  0.4206414603342788  0.8728474260347677  0.2718158513945449
  0.7550891555937792  0.4201526878660902  0.1705933611714957
  0.6325298451788183  0.3925380607598446  0.5234906841074989
  0.6338157441346289  0.2393204673313883  0.8871291706636365
  0.5270610084674899  0.8570109580486078  0.8116261245145933
  0.3936771626697501  0.5624444076073274  0.4992348797818998
  0.1405657638890635  0.7012346773840871  0.1492483210597596
  1.0203344535000420  0.3327923068923206  0.2531181571513255
  0.6945810064755246  0.7133462105903016  0.6070135126383903
  0.3137747572678148  0.9245102728713483  0.9380829696801753
  0.3411735489618219  0.9794373901357435  0.7190666872019980
  0.7041038052171841  0.6280052199970414  0.4031590620088805
  0.9155336038738771  0.3514696358003003  0.0447516954840913
  0.1692371435279128  0.2430593230314423  0.1281016622130825
  0.7376289116164714  0.9402635228946928  0.4769928538310745
  0.0116778820947831  0.7323296536514942  0.7910812308718789
  0.1945020803227349  0.1259527102452433  0.8384760908437607
 -0.0039272442841796  0.7790660398435958  0.5175021459589361
  0.7421066651191061  0.9804631412029580  0.1717085078143890
  0.0180274564885495  0.3650530312985652  0.8437631931012564
  0.5184106433496652  0.5926799739452244  0.1800668815292971
  0.3973728887285112  0.0128271652345703  0.5117349146422365
  0.4283110394584624  0.0771960966242321  0.1129309420765989
  0.6094934950486931  0.5587484791523709  0.8137218266499128
 -0.0069973136551171  0.3023743654637574  0.4929691609543752
 
             NaN             NaN             NaN
             NaN             NaN             NaN
             NaN             NaN             NaN
             NaN             NaN             NaN
             NaN             NaN             NaN
             NaN             NaN             NaN
             NaN             NaN             NaN
             NaN             NaN             NaN
             NaN             NaN             NaN
             NaN             NaN             NaN
             NaN             NaN             NaN
             NaN             NaN             NaN
             NaN             NaN             NaN
             NaN             NaN             NaN
             NaN             NaN             NaN
             NaN             NaN             NaN
             NaN             NaN             NaN
             NaN             NaN             NaN
             NaN             NaN             NaN
             NaN             NaN             NaN
             NaN             NaN             NaN
             NaN             NaN             NaN
             NaN             NaN             NaN
             NaN             NaN             NaN
             NaN             NaN             NaN
             NaN             NaN             NaN
             NaN             NaN             NaN
             NaN             NaN             NaN
             NaN             NaN             NaN
             NaN             NaN             NaN
             NaN             NaN             NaN
             NaN             NaN             NaN
             NaN             NaN             NaN
             NaN             NaN             NaN
             NaN             NaN             NaN
             NaN             NaN             NaN
             NaN             NaN             NaN
             NaN             NaN             NaN
             NaN             NaN             NaN
             NaN             NaN             NaN
             NaN             NaN             NaN
             NaN             NaN             NaN
             NaN             NaN             NaN
             NaN             NaN             NaN
             NaN             NaN             NaN
             NaN             NaN             NaN
             NaN             NaN             NaN
             NaN             NaN             NaN
             NaN             NaN             NaN
             NaN             NaN             NaN
             NaN             NaN             NaN
             NaN             NaN             NaN
             NaN             NaN             NaN
             NaN             NaN             NaN
             NaN             NaN             NaN
             NaN             NaN             NaN
             NaN             NaN             NaN
             NaN             NaN             NaN
             NaN             NaN             NaN
             NaN             NaN             NaN
             NaN             NaN             NaN
             NaN             NaN             NaN
