Ca8 Cr12 F42
1.0
7.450407 0.002234 -0.525374
-3.604635 6.779209 0.243428
0.900785 0.250860 18.459415
Ca Cr F
8 12 42
direct
0.825042 0.238210 0.337670 Ca
0.531120 0.844240 0.679384 Ca
0.596144 0.113417 0.005270 Ca
0.017631 0.813686 0.662279 Ca
0.111076 0.640327 0.999067 Ca
0.891533 0.774071 0.175861 Ca
0.854337 0.909513 0.845953 Ca
0.248176 0.228529 0.501360 Ca
0.311931 0.983567 0.330976 Cr
0.010335 0.307898 0.661814 Cr
0.629773 0.647475 -0.002808 Cr
0.348555 0.984383 0.827511 Cr
0.955550 0.311802 0.160356 Cr
0.704933 0.684570 0.503745 Cr
0.440079 0.815722 0.166423 Cr
0.211889 0.698528 0.500473 Cr
0.313068 0.471354 0.830814 Cr
0.815419 0.464434 0.824935 Cr
0.707537 0.183414 0.504250 Cr
0.450684 0.311319 0.160843 Cr
0.738031 0.139119 0.612197 F
0.888814 0.669850 0.921121 F
0.443276 0.224186 0.271239 F
0.195017 0.733274 0.395818 F
0.424197 0.767485 0.058146 F
0.262336 0.469253 0.723246 F
0.731339 0.924878 0.956443 F
0.988663 0.830495 0.278104 F
0.130828 0.150743 0.616115 F
0.888694 0.736569 0.055935 F
0.854892 0.968370 0.725206 F
0.190845 0.109247 0.393851 F
0.535001 0.379059 0.035976 F
0.670846 0.185498 0.401464 F
0.891701 0.472213 0.690861 F
0.370037 0.545158 0.935945 F
0.246246 0.702454 0.608846 F
0.448244 0.868225 0.269936 F
0.751393 0.415356 0.173546 F
0.616271 0.392043 0.519543 F
0.642435 0.238201 0.886880 F
0.524176 0.858874 0.809250 F
0.402655 0.579303 0.492397 F
0.143855 0.677768 0.159266 F
0.973886 0.300693 0.262665 F
0.687336 0.712693 0.610624 F
0.316163 0.918262 0.935497 F
0.342483 0.991888 0.718430 F
0.725628 0.663114 0.403693 F
0.918825 0.331504 0.050059 F
0.156020 0.211907 0.145481 F
0.788505 0.972667 0.488706 F
0.005111 0.738442 0.787177 F
0.190725 0.128442 0.840542 F
0.001241 0.782077 0.528120 F
0.736889 0.973954 0.157358 F
0.028854 0.394016 0.852818 F
0.519989 0.589596 0.182011 F
0.407239 0.013127 0.512764 F
0.423195 0.062449 0.119518 F
0.603984 0.554130 0.808991 F
0.007733 0.367970 0.503643 F
