Ca1 Ni16 F48                            
   1.00000000000000     
    10.4532869999999996   -0.0000910000000000   -0.0275030000000000
    -0.0001790000000000    7.2694289999999997   -0.0058390000000000
    -0.0256540000000000    0.0133760000000000   10.0667550000000006
   Ca   Ni   F 
     1    16    48
Direct
  0.5082429384760476  0.1537122089957259  0.5065997509100878
 -0.0004288372177097  0.4990840330413839  0.2489249719073551
  0.0006000650893038  0.4991207784480327  0.7519844886170072
  0.5001608607380789  0.5023890943900295  0.2435034517688210
  0.5001305770527232  0.5011709828303762  0.7580549758920830
  0.2435054268083929  0.9969211532282232 -0.0027353358769689
  0.2332009188220525  0.9937811972225107  0.4948748810787422
  0.7566138847396723  0.0016886069812166  1.0019098208187325
  0.7671541680420348  0.9860854466636180  0.5040315057172452
 -0.0034573235172168 -0.0002928816238940  0.2444615639483137
  0.0027881350378624  0.9985655027859923  0.7560183065807795
  0.4962060506072733  0.9963982428544282  0.2284479824657877
  0.5038957489216942  0.9857286871844616  0.7715762210498207
  0.2475129613597941  0.4970360044355268 -0.0001666699343324
  0.2478672461808901  0.4995371272641514  0.5005250278631946
  0.7525958826915716  0.5018736158533672  1.0008490373639147
  0.7525234663743378  0.4976781432728282  0.5010079700382947
  0.4927352885982392  0.2509829809269616  0.1823672346658309
  0.4941501099653811  0.2449727983784105  0.7108248479877738
  0.9845182368324482  0.2463570400775584  0.1899718422209908
  0.9885567390111727  0.2441240509999258  0.6972979379372163
  0.2340949149172379  0.2497787997868164  0.0567292679617440
  0.2448007457755152  0.2500516970444654  0.5530017946893657
  0.7425877215869091  0.2553724341121887  0.0591770773660236
  0.7320332802796619  0.2441588002798357  0.5528408925215432
  0.0110597921109718  0.7543081340268448  0.3024494326906281
  0.0154067378070804  0.7519898480613703  0.8108190417969434
  0.5047878516558776  0.7538330139614904  0.2982569691010144
  0.5082481008674343  0.7405161033313052  0.8246476904048339
  0.2584436897052997  0.7434027600799444  0.4436812269614092
  0.2564607204967072  0.7437990881493106  0.9400912904065015
  0.7652778236848220  0.7407614731426135  0.4433268155969898
  0.7668296069423653  0.7480724017457504  0.9432790671215978
  0.3446311682682032  0.5542464529102386  0.1499276962793469
  0.3497400203234812  0.5529336935845472  0.6516088342594479
  0.8473291964821492  0.5585317841930815  0.1522890083803906
  0.8489858925757299  0.5520970989786912  0.6532028965919963
  0.0919495526986118  0.9416239141824164  0.0914234031343310
  0.0932012805796052  0.9362120845123365  0.6027436225740295
  0.6045759446852833  0.9381594358680557  0.0888493660032346
  0.6179112730038817  0.9292175378054361  0.6195018682174069
  0.1394529608525657  0.0593391681084509  0.3398312219509768
  0.1539378287440859  0.0594651704461545  0.8423170368564873
  0.6421785269854513  0.0467131219532006  0.3523660775673130
  0.6566971185158630  0.0609306405844632  0.8573805285364425
  0.4018680250332619  0.4388675200722976  0.4048562050035731
  0.3965626880752394  0.4382000330069859  0.9078603244459440
  0.9001318930493500  0.4429845893371758  0.4041282529706403
  0.9012112766061430  0.4448281975598386  0.9069789923161472
  0.1512682967613011  0.4439151550260176  0.3480456326412638
  0.1525117749145370  0.4399403376235737  0.8483787413817580
  0.6472315941710612  0.4394557905361995  0.3520202060202319
  0.6556417619284592  0.4442418666327533  0.8512858147507107
  0.3703211474744331  0.0579200270824917  0.3648995389320186
  0.3955019214997322  0.0570048694876782  0.9092460000971982
  0.9052528171916977  0.0596173681240103  0.3983609592856321
  0.9084112862066627  0.0583502434304356  0.9089189196767643
  0.3441183794289831  0.9310893922699454  0.1391091384805032
  0.3660895542568876  0.9526362734326875  0.6346013207472826
  0.8460524509730895  0.9399309108473910  0.1570265077539650
  0.8571018516441206  0.9379329470673196  0.6639367144748041
  0.0989706355694715  0.5536772854153664  0.0936893487545351
  0.0993533630952466  0.5522604567356745  0.5965780325313211
  0.6032356710002860  0.5612102477205079  0.0928500306925372
  0.5995434220548298  0.5442029764069459  0.5971377045101056
 
             NaN             NaN             NaN
             NaN             NaN             NaN
             NaN             NaN             NaN
             NaN             NaN             NaN
             NaN             NaN             NaN
             NaN             NaN             NaN
             NaN             NaN             NaN
             NaN             NaN             NaN
             NaN             NaN             NaN
             NaN             NaN             NaN
             NaN             NaN             NaN
             NaN             NaN             NaN
             NaN             NaN             NaN
             NaN             NaN             NaN
             NaN             NaN             NaN
             NaN             NaN             NaN
             NaN             NaN             NaN
             NaN             NaN             NaN
             NaN             NaN             NaN
             NaN             NaN             NaN
             NaN             NaN             NaN
             NaN             NaN             NaN
             NaN             NaN             NaN
             NaN             NaN             NaN
             NaN             NaN             NaN
             NaN             NaN             NaN
             NaN             NaN             NaN
             NaN             NaN             NaN
             NaN             NaN             NaN
             NaN             NaN             NaN
             NaN             NaN             NaN
             NaN             NaN             NaN
             NaN             NaN             NaN
             NaN             NaN             NaN
             NaN             NaN             NaN
             NaN             NaN             NaN
             NaN             NaN             NaN
             NaN             NaN             NaN
             NaN             NaN             NaN
             NaN             NaN             NaN
             NaN             NaN             NaN
             NaN             NaN             NaN
             NaN             NaN             NaN
             NaN             NaN             NaN
             NaN             NaN             NaN
             NaN             NaN             NaN
             NaN             NaN             NaN
             NaN             NaN             NaN
             NaN             NaN             NaN
             NaN             NaN             NaN
             NaN             NaN             NaN
             NaN             NaN             NaN
             NaN             NaN             NaN
             NaN             NaN             NaN
             NaN             NaN             NaN
             NaN             NaN             NaN
             NaN             NaN             NaN
             NaN             NaN             NaN
             NaN             NaN             NaN
             NaN             NaN             NaN
             NaN             NaN             NaN
             NaN             NaN             NaN
             NaN             NaN             NaN
             NaN             NaN             NaN
             NaN             NaN             NaN
