Ca1 Ni16 F48
1.0
10.453287 -0.000091 -0.027503
-0.000179 7.269429 -0.005839
-0.025654 0.013376 10.066755
Ca Ni F
1 16 48
direct
0.513640 0.124879 0.495949 Ca
0.000392 0.499963 0.247434 Ni
0.000359 0.500143 0.753239 Ni
0.500543 0.502560 0.237393 Ni
0.498379 0.503900 0.760633 Ni
0.246509 0.999418 1.000176 Ni
0.241883 0.998672 0.501397 Ni
0.753291 0.000325 0.999205 Ni
0.760211 0.995691 0.500099 Ni
0.000393 0.000328 0.247602 Ni
0.000233 0.999683 0.753177 Ni
0.500348 0.996945 0.238533 Ni
0.498441 0.997199 0.759948 Ni
0.246704 0.500297 1.000189 Ni
0.243016 0.501300 0.501115 Ni
0.753140 0.499878 0.998981 Ni
0.759229 0.503866 0.500044 Ni
0.484677 0.248358 0.192734 F
0.482407 0.249680 0.708098 F
0.987710 0.247986 0.192745 F
0.987709 0.247897 0.697702 F
0.235235 0.251845 0.055630 F
0.248043 0.251539 0.554206 F
0.739640 0.252600 0.054726 F
0.744152 0.250615 0.553144 F
0.012317 0.752271 0.301949 F
0.013830 0.751927 0.808428 F
0.516177 0.750682 0.293812 F
0.516045 0.751416 0.811251 F
0.253948 0.748676 0.446265 F
0.258293 0.747862 0.943645 F
0.760360 0.749103 0.443140 F
0.766797 0.747662 0.944307 F
0.343450 0.557579 0.150467 F
0.349248 0.557936 0.651902 F
0.846457 0.554125 0.153332 F
0.850561 0.557667 0.656652 F
0.095005 0.944859 0.094427 F
0.092989 0.945528 0.599274 F
0.600410 0.944889 0.089088 F
0.597959 0.963169 0.597695 F
0.149550 0.055731 0.343176 F
0.151793 0.055957 0.844895 F
0.647796 0.057852 0.348703 F
0.653324 0.054969 0.847232 F
0.398151 0.459748 0.399303 F
0.398994 0.446684 0.911723 F
0.906155 0.446930 0.402493 F
0.903624 0.443873 0.907256 F
0.150218 0.444065 0.346265 F
0.153122 0.443424 0.846718 F
0.648256 0.441691 0.349450 F
0.655825 0.445320 0.848018 F
0.398537 0.040213 0.398720 F
0.399754 0.052458 0.910277 F
0.907678 0.054991 0.401451 F
0.904862 0.055973 0.905575 F
0.345200 0.941908 0.151051 F
0.350140 0.942895 0.654210 F
0.848245 0.946399 0.155755 F
0.850638 0.942488 0.659059 F
0.096366 0.554889 0.092827 F
0.094989 0.552716 0.598200 F
0.601012 0.555912 0.086851 F
0.598769 0.536996 0.596983 F
