Rb16 V16 P16 O64 F16
1.0
  13.3211778894926685    0.0000000000000000    0.0000000000000008
   0.0000000000000017   11.1088418799573194    0.0000000000000007
   0.0000000000000000    0.0000000000000000   13.3671015340527646
Rb V P O F
15 16 16 64 16
direct
   0.1377775000000000    0.8009250000000000    0.1216439999999999 Rb
   0.1122225000000000    0.8009250000000000    0.6216440000000000 Rb
   0.6122225000000000    0.8009250000000000    0.6216440000000000 Rb
   0.3622224999999999    0.3009249999999999    0.8783560000000001 Rb
   0.8622224999999999    0.3009249999999999    0.8783560000000000 Rb
   0.3877774999999999    0.3009249999999999    0.3783560000000000 Rb
   0.8877775000000000    0.3009249999999999    0.3783560000000000 Rb
   0.3507359999999999    0.0600110000000000    0.1032520000000000 Rb
   0.8507359999999999    0.0600110000000000    0.1032520000000000 Rb
   0.1492640000000000    0.5600110000000000    0.8967480000000000 Rb
   0.6492640000000000    0.5600110000000000    0.8967480000000000 Rb
   0.3992640000000000    0.0600110000000000    0.6032520000000001 Rb
   0.8992639999999998    0.0600110000000000    0.6032520000000001 Rb
   0.1007359999999999    0.5600110000000000    0.3967480000000000 Rb
   0.6007359999999998    0.5600110000000000    0.3967480000000000 Rb
   0.2473500000000000    0.0031530000000000    0.3844660000000000 V
   0.7473499999999998    0.0031530000000000    0.3844660000000000 V
   0.2526500000000000    0.5031530000000000    0.6155340000000001 V
   0.7526499999999999    0.5031530000000000    0.6155340000000001 V
   0.0026500000000000    0.0031530000000000    0.8844660000000001 V
   0.5026499999999999    0.0031530000000000    0.8844660000000000 V
   0.4973500000000000    0.5031530000000000    0.1155340000000000 V
   0.9973499999999998    0.5031530000000000    0.1155340000000000 V
   0.1247675000000000    0.2521429999999999    0.2466630000000000 V
   0.6247675000000000    0.2521429999999999    0.2466630000000000 V
   0.3752324999999999    0.7521429999999999    0.7533370000000000 V
   0.8752324999999999    0.7521429999999999    0.7533369999999999 V
   0.1252325000000000    0.2521429999999999    0.7466630000000000 V
   0.6252325000000000    0.2521429999999999    0.7466630000000000 V
   0.3747674999999999    0.7521429999999999    0.2533370000000000 V
   0.8747674999999998    0.7521429999999999    0.2533370000000000 V
   0.1669665000000000    0.2541619999999999    0.4987610000000001 P
   0.6669665000000000    0.2541619999999999    0.4987610000000000 P
   0.3330335000000000    0.7541619999999999    0.5012390000000000 P
   0.8330335000000000    0.7541619999999999    0.5012390000000000 P
   0.0830335000000001    0.2541619999999999    0.9987610000000001 P
   0.5830335000000000    0.2541619999999999    0.9987610000000000 P
   0.4169664999999998    0.7541619999999999    0.0012390000000000 P
   0.9169664999999998    0.7541619999999999    0.0012390000000000 P
   0.2488124999999999    0.5041889999999999    0.1804500000000000 P
   0.7488124999999998    0.5041889999999999    0.1804500000000000 P
   0.2511875000000001    0.0041889999999998    0.8195500000000000 P
   0.7511875000000001    0.0041889999999998    0.8195500000000000 P
   0.0011875000000000    0.5041889999999999    0.6804500000000000 P
   0.5011874999999999    0.5041889999999999    0.6804500000000000 P
   0.4988124999999999    0.0041889999999998    0.3195500000000000 P
   0.9988125000000000    0.0041889999999998    0.3195500000000000 P
   0.2426949999999999    0.1440099999999999    0.4836630000000000 O
   0.7426949999999999    0.1440099999999999    0.4836630000000000 O
   0.2573050000000001    0.6440100000000000    0.5163370000000000 O
   0.7573049999999999    0.6440100000000000    0.5163370000000000 O
   0.0073050000000000    0.1440099999999999    0.9836630000000001 O
   0.5073050000000000    0.1440099999999999    0.9836630000000001 O
   0.4926949999999999    0.6440100000000000    0.0163370000000000 O
   0.9926949999999998    0.6440100000000000    0.0163370000000000 O
   0.2363924999999999    0.3705659999999999    0.5101860000000000 O
   0.7363924999999998    0.3705659999999999    0.5101860000000000 O
   0.2636075000000001    0.8705660000000000    0.4898140000000000 O
   0.7636075000000000    0.8705660000000000    0.4898140000000000 O
   0.0136075000000001    0.3705659999999999    0.0101860000000000 O
   0.5136075000000000    0.3705659999999999    0.0101860000000000 O
   0.4863924999999999    0.8705660000000000    0.9898140000000001 O
   0.9863924999999998    0.8705660000000000    0.9898140000000000 O
   0.0983569999999999    0.2728369999999999    0.4024110000000001 O
   0.5983569999999999    0.2728369999999999    0.4024110000000000 O
   0.4016430000000000    0.7728369999999999    0.5975889999999999 O
   0.9016430000000000    0.7728369999999999    0.5975889999999999 O
   0.1516430000000000    0.2728369999999999    0.9024110000000001 O
   0.6516430000000000    0.2728369999999999    0.9024110000000001 O
   0.3483569999999999    0.7728369999999999    0.0975890000000000 O
   0.8483569999999998    0.7728369999999999    0.0975890000000000 O
   0.0989284999999999    0.2316749999999999    0.5941460000000000 O
   0.5989284999999999    0.2316749999999999    0.5941460000000000 O
   0.4010715000000000    0.7316750000000001    0.4058540000000000 O
   0.9010714999999999    0.7316750000000001    0.4058540000000000 O
   0.1510715000000001    0.2316749999999999    0.0941459999999998 O
   0.6510715000000001    0.2316749999999999    0.0941459999999998 O
   0.3489284999999999    0.7316750000000001    0.9058540000000000 O
   0.8489284999999999    0.7316750000000001    0.9058540000000000 O
   0.1541800000000000    0.5302859999999999    0.1111540000000000 O
   0.6541799999999999    0.5302859999999999    0.1111540000000000 O
   0.3458200000000000    0.0302859999999998    0.8888460000000001 O
   0.8458199999999999    0.0302859999999998    0.8888460000000000 O
   0.0958200000000000    0.5302859999999999    0.6111540000000001 O
   0.5958200000000000    0.5302859999999999    0.6111540000000000 O
   0.4041800000000000    0.0302859999999998    0.3888460000000001 O
   0.9041799999999999    0.0302859999999998    0.3888460000000000 O
   0.3431730000000000    0.4781629999999999    0.1121810000000000 O
   0.8431729999999998    0.4781629999999999    0.1121810000000000 O
   0.1568270000000000    0.9781630000000000    0.8878190000000000 O
   0.6568269999999999    0.9781630000000000    0.8878190000000000 O
   0.4068269999999999    0.4781629999999999    0.6121810000000000 O
   0.9068269999999998    0.4781629999999999    0.6121810000000000 O
   0.0931729999999999    0.9781630000000000    0.3878190000000001 O
   0.5931730000000000    0.9781630000000000    0.3878190000000000 O
   0.2667005000000000    0.6193149999999999    0.2509290000000000 O
   0.7667004999999999    0.6193149999999999    0.2509290000000000 O
   0.2332995000000000    0.1193149999999998    0.7490710000000002 O
   0.7332994999999999    0.1193149999999998    0.7490710000000000 O
   0.4832995000000000    0.6193149999999999    0.7509290000000000 O
   0.9832994999999999    0.6193149999999999    0.7509290000000000 O
   0.0167005000000000    0.1193149999999998    0.2490710000000000 O
   0.5167004999999999    0.1193149999999998    0.2490710000000000 O
   0.2269099999999999    0.3927909999999999    0.2532700000000000 O
   0.7269099999999999    0.3927909999999999    0.2532700000000000 O
   0.2730900000000001    0.8927910000000000    0.7467300000000000 O
   0.7730899999999999    0.8927910000000000    0.7467300000000000 O
   0.0230900000000000    0.3927909999999999    0.7532700000000001 O
   0.5230900000000001    0.3927909999999999    0.7532700000000000 O
   0.4769099999999999    0.8927910000000000    0.2467300000000000 O
   0.9769099999999998    0.8927910000000000    0.2467300000000000 O
   0.2618114999999999    0.8810089999999999    0.2690050000000000 F
   0.7618114999999999    0.8810089999999999    0.2690050000000000 F
   0.2381885000000001    0.3810089999999999    0.7309950000000002 F
   0.7381885000000000    0.3810089999999999    0.7309950000000001 F
   0.4881885000000001    0.8810089999999999    0.7690049999999999 F
   0.9881884999999999    0.8810089999999999    0.7690049999999999 F
   0.0118114999999998    0.3810089999999999    0.2309950000000000 F
   0.5118114999999999    0.3810089999999999    0.2309950000000000 F
   0.2400164999999999    0.1299359999999999    0.2696970000000000 F
   0.7400164999999999    0.1299359999999999    0.2696970000000000 F
   0.2599835000000000    0.6299359999999999    0.7303030000000000 F
   0.7599834999999999    0.6299359999999999    0.7303030000000000 F
   0.0099835000000000    0.1299359999999999    0.7696970000000001 F
   0.5099835000000000    0.1299359999999999    0.7696970000000001 F
   0.4900165000000000    0.6299359999999999    0.2303030000000000 F
   0.9900164999999999    0.6299359999999999    0.2303030000000000 F
