Na2 Ca2 V4 P2 S4 O24                    
   1.00000000000000     
     8.9718380000000000    0.3710910000000000    0.1817640000000000
     4.2821490000000004    7.8961600000000001    0.1950570000000000
     4.1698800000000000    2.6034709999999999    7.4206089999999998
   Ca   Na   V    P    S    O 
     2     2     4     2     4    24
Direct
  0.5267917332049150  0.5023355156106192  0.4449292306258326
  0.0087097588768368  0.9923789706284124  0.0086072632512684
  0.4213668138856778  0.0868137769786465  0.7466753937041094
  0.5969076884666871  0.9120127100154549  0.2453090005704182
  0.3515818335785584  0.3473312500693371  0.3555366009537216
  0.6535017313402244  0.6553375609464264  0.6359209417194898
  0.1439148797952579  0.1531952573520196  0.1398288732457444
  0.8477665602600305  0.8434682781976488  0.8579027380255989
  0.7574110001353831  0.0381846008167019  0.4403529291196375
  0.4600140077437276  0.7489080761933264  0.0479239583895301
  0.0532220018318363  0.4531731310107663  0.7421812955239975
  0.9515464980771046  0.5451073329144724  0.2468267450736643
  0.2423545937223519  0.9587972272007702  0.5560200436088978
  0.5455484044042684  0.2523176615999883  0.9416204341073785
  0.2352972072634877  0.4363312533192502  0.5880955292416623
  0.7692613027241841  0.5695875965592224  0.4009093514419853
  0.5854313444890484  0.2233792998052982  0.4384599863307401
  0.4083535683760730  0.7830745213071134  0.5462488640465267
  0.4287149636327902  0.5773746989188576  0.2140026933056794
  0.5648066695113940  0.4160429111731486  0.7772151465876952
  0.9148189219842519  0.0775569409560461  0.2582121455308923
  0.0950150388986759  0.9189022950122199  0.7341407986687458
  0.0822368181308780  0.2650267110817038  0.8893819516802718
  0.9317352396196583  0.7314345221171887  0.0978119837603673
  0.2735132509051588  0.9163737903678765  0.0634989757692878
  0.7286750948087644  0.0937097631950675  0.9254178332881732
  0.4973836527258840  0.2748574165026558  0.1151311258772264
  0.5167607742992125  0.7385359693617851  0.8598487215501891
  0.0995817667145786  0.4969907986780381  0.3060393779803541
  0.9086904824977867  0.4881318863154998  0.6838724749536096
  0.2930447334875994  0.0950551044052498  0.5525836439892974
  0.7105970515364590  0.8948570769886250  0.4396998522829655
  0.4064500741044363  0.2008354867012774  0.9518557697588227
  0.6045623152355867  0.7828172977118956  0.0639763694634846
  0.1868457203595455  0.0265104145114554  0.3974697945512531
  0.7950152288883334  0.9803772976687440  0.6144425963950767
  0.9730285980011529  0.4096152731727167  0.1848449352241838
  0.0164617805839305  0.5913208277184221  0.8095234987401233
 
             NaN             NaN             NaN
             NaN             NaN             NaN
             NaN             NaN             NaN
             NaN             NaN             NaN
             NaN             NaN             NaN
             NaN             NaN             NaN
             NaN             NaN             NaN
             NaN             NaN             NaN
             NaN             NaN             NaN
             NaN             NaN             NaN
             NaN             NaN             NaN
             NaN             NaN             NaN
             NaN             NaN             NaN
             NaN             NaN             NaN
             NaN             NaN             NaN
             NaN             NaN             NaN
             NaN             NaN             NaN
             NaN             NaN             NaN
             NaN             NaN             NaN
             NaN             NaN             NaN
             NaN             NaN             NaN
             NaN             NaN             NaN
             NaN             NaN             NaN
             NaN             NaN             NaN
             NaN             NaN             NaN
             NaN             NaN             NaN
             NaN             NaN             NaN
             NaN             NaN             NaN
             NaN             NaN             NaN
             NaN             NaN             NaN
             NaN             NaN             NaN
             NaN             NaN             NaN
             NaN             NaN             NaN
             NaN             NaN             NaN
             NaN             NaN             NaN
             NaN             NaN             NaN
             NaN             NaN             NaN
             NaN             NaN             NaN
