Ca1 Ni4 S6 O24
1.0
7.413900 0.290502 4.446863
2.813517 6.762518 4.798531
0.648604 0.307736 8.809798
Ca Ni S O
1 4 6 24
direct
0.496088 0.499198 0.497100 Ca
0.643679 0.644129 0.643917 Ni
0.148094 0.150465 0.156185 Ni
0.847118 0.844017 0.838808 Ni
0.351421 0.350841 0.351008 Ni
0.946679 0.243499 0.545678 S
0.459402 0.034801 0.754471 S
0.535843 0.959972 0.240151 S
0.756251 0.453486 0.039523 S
0.238345 0.540906 0.955835 S
0.048171 0.751615 0.449004 S
0.365806 0.630218 0.746953 O
0.972654 0.323793 0.004208 O
0.738848 0.366966 0.641978 O
0.004281 0.971226 0.316461 O
0.626121 0.747144 0.372532 O
0.339637 0.999098 0.964232 O
0.655623 0.995450 0.030418 O
0.255505 0.628407 0.351760 O
0.021926 0.670577 0.990951 O
0.369595 0.248030 0.622207 O
0.990455 0.023887 0.678399 O
0.628921 0.364401 0.248600 O
0.947938 0.290124 0.354666 O
0.480862 0.894058 0.702462 O
0.331014 0.964962 0.296484 O
0.703558 0.474969 0.898568 O
0.283555 0.339069 0.972660 O
0.898697 0.701217 0.477931 O
0.095395 0.294173 0.517923 O
0.664782 0.028413 0.698371 O
0.513430 0.101694 0.291509 O
0.711407 0.655438 0.022131 O
0.290230 0.519274 0.097366 O
0.048601 0.704419 0.639507 O
