Ca1 Mn12 F42
1.0
7.335494 -0.041193 -0.080356
-3.702587 6.378415 0.054295
0.036716 0.030409 17.465856
Ca Mn F
1 12 42
direct
0.509960 0.362729 0.663922 Ca
0.291846 0.998972 0.328906 Mn
0.708197 0.713369 0.005078 Mn
0.000417 0.296618 0.666179 Mn
0.349158 0.999556 0.839901 Mn
0.652029 0.644392 0.494462 Mn
0.998628 0.352727 0.166823 Mn
0.649316 0.140426 0.492031 Mn
0.499972 0.354555 0.166514 Mn
0.850707 0.499401 0.837489 Mn
0.354313 0.506691 0.841177 Mn
0.150227 0.643036 0.495272 Mn
0.497332 0.853414 0.166831 Mn
0.561887 0.818820 0.064824 F
0.264013 0.444295 0.735545 F
0.187024 0.757173 0.391197 F
0.435849 0.253991 0.268562 F
0.811886 0.583871 0.941549 F
0.749134 0.176713 0.595881 F
0.885876 0.074041 0.725751 F
0.193057 0.112593 0.390609 F
0.921759 0.814173 0.067661 F
0.167168 0.215443 0.615953 F
0.076326 0.887598 0.267098 F
0.807428 0.930905 0.944598 F
0.119272 0.544120 0.603893 F
0.433387 0.883742 0.268908 F
0.447974 0.569522 0.943346 F
0.853727 0.414353 0.720004 F
0.554172 0.119539 0.389716 F
0.564044 0.451450 0.064282 F
0.360788 0.564672 0.478536 F
0.211474 0.644541 0.147932 F
0.434270 0.792574 0.820299 F
0.641455 0.213667 0.858372 F
0.564976 0.350998 0.524008 F
0.786553 0.430731 0.185140 F
0.679787 0.600919 0.398280 F
0.933167 0.321094 0.068192 F
0.390833 0.076407 0.736857 F
0.308317 0.929009 0.936494 F
0.618725 0.667419 0.599188 F
0.064052 0.384252 0.265428 F
0.938699 0.719731 0.516214 F
0.784260 0.061328 0.185397 F
0.277590 0.218299 0.855558 F
0.061459 0.785163 0.813984 F
0.728998 0.928748 0.477153 F
0.212212 0.276786 0.148576 F
0.630466 0.543777 0.793663 F
0.925398 0.369078 0.464893 F
0.442563 0.087622 0.136101 F
0.373886 0.922121 0.526858 F
0.555396 0.619776 0.197223 F
0.065794 0.446089 0.865763 F
