Ca16 V32 O64
1.0
  11.2648524788127684   -0.0000127755871323   -0.0000558311717289
  -0.0000130706893020   11.7235561732849636   -0.0000069991127408
  -0.0000716509150460   -0.0000023082326146   10.2436537213333043
Ca V O
15 32 64
direct
   0.5000000935852434    0.4999993109830110    0.4227222556179270 Ca
   0.5000000935852434    0.9999993109830110    0.4227222556179270 Ca
   0.5000000935852434    0.9999993109830110    0.9227222556179271 Ca
   0.5000000935852434    0.4999993109830110    0.9227222556179272 Ca
   0.9999770023740356    0.2500006511630383    0.0772653681494355 Ca
   0.9999770023740356    0.2500006511630383    0.5772653681494356 Ca
   0.9999770023740356    0.7500006511630384    0.0772653681494355 Ca
   0.9999770023740356    0.7500006511630385    0.5772653681494356 Ca
   0.9999867897876422    0.9999977086871034    0.2681164623876042 Ca
   0.9999867897876422    0.9999977086871034    0.7681164623876042 Ca
   0.9999867897876422    0.4999977086871034    0.2681164623876042 Ca
   0.9999867897876422    0.4999977086871034    0.7681164623876043 Ca
   0.5000341093564287    0.2500016124407616    0.7317929847768940 Ca
   0.5000341093564287    0.7500016124407617    0.2317929847768940 Ca
   0.5000341093564288    0.7500016124407618    0.7317929847768940 Ca
   0.2592245660981671    0.0000055702393220    0.2419656195787101 V
   0.2592245660981672    0.0000055702393220    0.7419656195787101 V
   0.2592245660981671    0.5000055702393220    0.2419656195787101 V
   0.2592245660981671    0.5000055702393220    0.7419656195787102 V
   0.7592016391714238    0.2499950409652011    0.2580284976740354 V
   0.7592016391714238    0.2499950409652011    0.7580284976740354 V
   0.7592016391714237    0.7499950409652012    0.2580284976740354 V
   0.7592016391714238    0.7499950409652011    0.7580284976740355 V
   0.7408061201272028    0.9999939949772809    0.2420091493060336 V
   0.7408061201272027    0.9999939949772809    0.7420091493060337 V
   0.7408061201272027    0.4999939949772810    0.2420091493060336 V
   0.7408061201272027    0.4999939949772810    0.7420091493060337 V
   0.2407746856654051    0.2500077393629113    0.2580479992931795 V
   0.2407746856654052    0.2500077393629113    0.7580479992931796 V
   0.2407746856654052    0.7500077393629114    0.2580479992931795 V
   0.2407746856654051    0.7500077393629113    0.7580479992931797 V
   0.2499895017300940    0.3750144471605002    0.9999906385123590 V
   0.2499895017300940    0.3750144471605002    0.4999906385123591 V
   0.2499895017300940    0.8750144471605003    0.9999906385123590 V
   0.2499895017300940    0.8750144471605001    0.4999906385123591 V
   0.2499942355987924    0.1249793464607163    0.0000018185050678 V
   0.2499942355987925    0.1249793464607163    0.5000018185050678 V
   0.2499942355987924    0.6249793464607163    0.0000018185050678 V
   0.2499942355987924    0.6249793464607163    0.5000018185050678 V
   0.7500024461814845    0.3750809257630560    0.9999922544215655 V
   0.7500024461814845    0.3750809257630560    0.4999922544215655 V
   0.7500024461814845    0.8750809257630560    0.9999922544215655 V
   0.7500024461814844    0.8750809257630561    0.4999922544215655 V
   0.7500058510854857    0.1249208931518980    0.9999848252694564 V
   0.7500058510854857    0.1249208931518980    0.4999848252694565 V
   0.7500058510854858    0.6249208931518980    0.9999848252694564 V
   0.7500058510854858    0.6249208931518980    0.4999848252694565 V
   0.1484941305769732    0.2499748809665468    0.4236961207728169 O
   0.1484941305769732    0.2499748809665468    0.9236961207728170 O
   0.1484941305769732    0.7499748809665469    0.4236961207728170 O
   0.1484941305769732    0.7499748809665470    0.9236961207728170 O
   0.6483636510009232    0.9999727859228581    0.0763925225698753 O
   0.6483636510009231    0.9999727859228581    0.5763925225698754 O
   0.6483636510009232    0.4999727859228580    0.0763925225698754 O
   0.6483636510009232    0.4999727859228580    0.5763925225698754 O
   0.8515288667026044    0.2500314190242781    0.4237212447140745 O
   0.8515288667026043    0.2500314190242781    0.9237212447140746 O
   0.8515288667026044    0.7500314190242781    0.4237212447140746 O
   0.8515288667026044    0.7500314190242782    0.9237212447140746 O
   0.3515401343952772    0.0000150433319827    0.0763688529092572 O
   0.3515401343952772    0.0000150433319827    0.5763688529092572 O
   0.3515401343952772    0.5000150433319828    0.0763688529092572 O
   0.3515401343952772    0.5000150433319827    0.5763688529092572 O
   0.3532111897397213    0.3739520405133681    0.3326475197929595 O
   0.3532111897397213    0.3739520405133681    0.8326475197929595 O
   0.3532111897397213    0.8739520405133683    0.3326475197929595 O
   0.3532111897397213    0.8739520405133681    0.8326475197929597 O
   0.3532025137258363    0.1260586952443364    0.3326865789285586 O
   0.3532025137258364    0.1260586952443365    0.8326865789285587 O
   0.3532025137258364    0.6260586952443365    0.3326865789285586 O
   0.3532025137258363    0.6260586952443364    0.8326865789285586 O
   0.8532569289985437    0.3760805578215772    0.1673322785245343 O
   0.8532569289985438    0.3760805578215772    0.6673322785245344 O
   0.8532569289985438    0.8760805578215772    0.1673322785245343 O
   0.8532569289985437    0.8760805578215773    0.6673322785245344 O
   0.6467174387976794    0.1260361586464826    0.3326353779468290 O
   0.6467174387976793    0.1260361586464826    0.8326353779468291 O
   0.6467174387976794    0.6260361586464827    0.3326353779468290 O
   0.6467174387976795    0.6260361586464827    0.8326353779468291 O
   0.1467977611165907    0.1239330718060050    0.1673202169005855 O
   0.1467977611165908    0.1239330718060050    0.6673202169005855 O
   0.1467977611165907    0.6239330718060050    0.1673202169005855 O
   0.1467977611165907    0.6239330718060050    0.6673202169005855 O
   0.6467073981705248    0.3739550467430407    0.3326798041035087 O
   0.6467073981705247    0.3739550467430407    0.8326798041035087 O
   0.6467073981705248    0.8739550467430408    0.3326798041035087 O
   0.6467073981705249    0.8739550467430407    0.8326798041035087 O
   0.8532472898544295    0.1239172168819307    0.1673560293662311 O
   0.8532472898544297    0.1239172168819307    0.6673560293662312 O
   0.8532472898544295    0.6239172168819307    0.1673560293662311 O
   0.8532472898544294    0.6239172168819307    0.6673560293662312 O
   0.1467900269100321    0.3760793295802700    0.1673349420776710 O
   0.1467900269100321    0.3760793295802700    0.6673349420776711 O
   0.1467900269100320    0.8760793295802700    0.1673349420776710 O
   0.1467900269100321    0.8760793295802700    0.6673349420776711 O
   0.1605640546014845    0.0000238341113643    0.4076576292163288 O
   0.1605640546014846    0.0000238341113643    0.9076576292163288 O
   0.1605640546014845    0.5000238341113643    0.4076576292163288 O
   0.1605640546014845    0.5000238341113642    0.9076576292163289 O
   0.6606295949772655    0.2500192937630722    0.0923037120713745 O
   0.6606295949772655    0.2500192937630722    0.5923037120713746 O
   0.6606295949772655    0.7500192937630723    0.0923037120713745 O
   0.6606295949772655    0.7500192937630722    0.5923037120713746 O
   0.8395681381516968    0.9999763590304173    0.4076471448946157 O
   0.8395681381516968    0.9999763590304173    0.9076471448946158 O
   0.8395681381516970    0.4999763590304173    0.4076471448946158 O
   0.8395681381516968    0.4999763590304172    0.9076471448946158 O
   0.3393838415190141    0.2499770252576699    0.0923021517185115 O
   0.3393838415190141    0.2499770252576699    0.5923021517185114 O
   0.3393838415190141    0.7499770252576700    0.0923021517185115 O
   0.3393838415190141    0.7499770252576700    0.5923021517185115 O
