Na16 Mn32 P32 O128
1.0
   9.8661037463260417   -0.0001604214290536   -0.0290058999483008
  -0.0001914566541370   13.5635949109716663    0.0009462511661516
   0.0518415703025614    0.0012188573317006   17.3382666976420801
Na Mn P O
1 32 32 128
direct
   0.5152317322981537    0.6250049846265456    0.4228978403792849 Na
   0.2493570075047492    0.4966530152622728    0.4982393721639719 Mn
   0.2493570075047492    0.4966530152622728    0.9982393721639718 Mn
   0.2493570075047492    0.9966530152622729    0.4982393721639719 Mn
   0.2493570075047492    0.9966530152622729    0.9982393721639720 Mn
   0.7493570075047491    0.4966530152622728    0.4982393721639718 Mn
   0.7493570075047492    0.4966530152622729    0.9982393721639717 Mn
   0.7493570075047491    0.9966530152622729    0.4982393721639718 Mn
   0.7493570075047492    0.9966530152622729    0.9982393721639718 Mn
   0.4950195822432091    0.4967728307431503    0.2427098511038417 Mn
   0.4950195822432091    0.4967728307431503    0.7427098511038417 Mn
   0.4950195822432091    0.9967728307431504    0.2427098511038417 Mn
   0.4950195822432091    0.9967728307431504    0.7427098511038417 Mn
   0.9950195822432091    0.4967728307431502    0.2427098511038417 Mn
   0.9950195822432093    0.4967728307431503    0.7427098511038417 Mn
   0.9950195822432092    0.9967728307431503    0.2427098511038417 Mn
   0.9950195822432092    0.9967728307431503    0.7427098511038416 Mn
   0.2493553811919638    0.2533596971542801    0.4982469868825107 Mn
   0.2493553811919637    0.2533596971542801    0.9982469868825107 Mn
   0.2493553811919637    0.7533596971542803    0.4982469868825107 Mn
   0.2493553811919638    0.7533596971542802    0.9982469868825108 Mn
   0.7493553811919638    0.2533596971542801    0.4982469868825107 Mn
   0.7493553811919638    0.2533596971542801    0.9982469868825107 Mn
   0.7493553811919638    0.7533596971542801    0.4982469868825107 Mn
   0.7493553811919638    0.7533596971542801    0.9982469868825108 Mn
   0.4950057816656271    0.2532281007030603    0.2426962256774713 Mn
   0.4950057816656271    0.2532281007030603    0.7426962256774713 Mn
   0.4950057816656270    0.7532281007030605    0.2426962256774713 Mn
   0.4950057816656270    0.7532281007030605    0.7426962256774714 Mn
   0.9950057816656269    0.2532281007030603    0.2426962256774713 Mn
   0.9950057816656271    0.2532281007030603    0.7426962256774713 Mn
   0.9950057816656269    0.7532281007030603    0.2426962256774713 Mn
   0.9950057816656271    0.7532281007030603    0.7426962256774714 Mn
   0.2712812903338963    0.1249817007528576    0.3326674718906705 P
   0.2712812903338963    0.1249817007528576    0.8326674718906705 P
   0.2712812903338962    0.6249817007528577    0.3326674718906705 P
   0.2712812903338963    0.6249817007528577    0.8326674718906705 P
   0.7712812903338963    0.1249817007528576    0.3326674718906705 P
   0.7712812903338964    0.1249817007528576    0.8326674718906705 P
   0.7712812903338961    0.6249817007528576    0.3326674718906705 P
   0.7712812903338963    0.6249817007528576    0.8326674718906705 P
   0.4762296098064768    0.1249966491587450    0.0870028582772546 P
   0.4762296098064768    0.1249966491587450    0.5870028582772546 P
   0.4762296098064767    0.6249966491587452    0.0870028582772546 P
   0.4762296098064768    0.6249966491587452    0.5870028582772546 P
   0.9762296098064768    0.1249966491587450    0.0870028582772546 P
   0.9762296098064769    0.1249966491587450    0.5870028582772545 P
   0.9762296098064767    0.6249966491587450    0.0870028582772546 P
   0.9762296098064767    0.6249966491587450    0.5870028582772545 P
   0.0188074908015315    0.3750061938971620    0.4059488952343739 P
   0.0188074908015314    0.3750061938971620    0.9059488952343739 P
   0.0188074908015315    0.8750061938971622    0.4059488952343739 P
   0.0188074908015314    0.8750061938971622    0.9059488952343739 P
   0.5188074908015314    0.3750061938971619    0.4059488952343739 P
   0.5188074908015315    0.3750061938971620    0.9059488952343739 P
   0.5188074908015314    0.8750061938971619    0.4059488952343740 P
   0.5188074908015315    0.8750061938971619    0.9059488952343739 P
   0.2260907080603767    0.3750091659620086    0.1580492360366738 P
   0.2260907080603767    0.3750091659620085    0.6580492360366739 P
   0.2260907080603768    0.8750091659620086    0.1580492360366738 P
   0.2260907080603767    0.8750091659620086    0.6580492360366739 P
   0.7260907080603767    0.3750091659620085    0.1580492360366738 P
   0.7260907080603768    0.3750091659620086    0.6580492360366738 P
   0.7260907080603768    0.8750091659620085    0.1580492360366738 P
   0.7260907080603767    0.8750091659620085    0.6580492360366738 P
   0.3496066261911926    0.0312316376135789    0.3093741364574894 O
   0.3496066261911926    0.0312316376135789    0.8093741364574893 O
   0.3496066261911927    0.5312316376135789    0.3093741364574894 O
   0.3496066261911926    0.5312316376135789    0.8093741364574895 O
   0.8496066261911926    0.0312316376135789    0.3093741364574894 O
   0.8496066261911928    0.0312316376135789    0.8093741364574893 O
   0.8496066261911925    0.5312316376135788    0.3093741364574894 O
   0.8496066261911926    0.5312316376135788    0.8093741364574895 O
   0.4029543601178804    0.0309780427751541    0.0589115808125606 O
   0.4029543601178804    0.0309780427751541    0.5589115808125606 O
   0.4029543601178805    0.5309780427751541    0.0589115808125607 O
   0.4029543601178804    0.5309780427751541    0.5589115808125606 O
   0.9029543601178804    0.0309780427751541    0.0589115808125607 O
   0.9029543601178807    0.0309780427751541    0.5589115808125606 O
   0.9029543601178804    0.5309780427751541    0.0589115808125606 O
   0.9029543601178804    0.5309780427751541    0.5589115808125606 O
   0.1236486717738003    0.1249930025195200    0.3059018121510401 O
   0.1236486717738003    0.1249930025195200    0.8059018121510402 O
   0.1236486717738003    0.6249930025195201    0.3059018121510401 O
   0.1236486717738003    0.6249930025195201    0.8059018121510401 O
   0.6236486717738003    0.1249930025195200    0.3059018121510401 O
   0.6236486717738003    0.1249930025195200    0.8059018121510402 O
   0.6236486717738003    0.6249930025195201    0.3059018121510401 O
   0.6236486717738003    0.6249930025195199    0.8059018121510401 O
   0.2778542177104791    0.1249683500797383    0.4257571340016708 O
   0.2778542177104791    0.1249683500797383    0.9257571340016707 O
   0.2778542177104792    0.6249683500797383    0.4257571340016708 O
   0.2778542177104792    0.6249683500797383    0.9257571340016708 O
   0.7778542177104792    0.1249683500797383    0.4257571340016708 O
   0.7778542177104791    0.1249683500797383    0.9257571340016707 O
   0.7778542177104791    0.6249683500797383    0.4257571340016708 O
   0.7778542177104791    0.6249683500797383    0.9257571340016707 O
   0.1217516408322667    0.1250080118646668    0.0539245683890656 O
   0.1217516408322667    0.1250080118646668    0.5539245683890657 O
   0.1217516408322667    0.6250080118646669    0.0539245683890656 O
   0.1217516408322667    0.6250080118646669    0.5539245683890657 O
   0.6217516408322666    0.1250080118646668    0.0539245683890656 O
   0.6217516408322666    0.1250080118646668    0.5539245683890657 O
   0.6217516408322665    0.6250080118646668    0.0539245683890656 O
   0.6217516408322666    0.6250080118646668    0.5539245683890657 O
   0.4687584449198919    0.1249792351908096    0.1782659599064068 O
   0.4687584449198919    0.1249792351908096    0.6782659599064069 O
   0.4687584449198918    0.6249792351908097    0.1782659599064068 O
   0.4687584449198919    0.6249792351908097    0.6782659599064068 O
   0.9687584449198918    0.1249792351908096    0.1782659599064068 O
   0.9687584449198920    0.1249792351908096    0.6782659599064069 O
   0.9687584449198919    0.6249792351908097    0.1782659599064068 O
   0.9687584449198918    0.6249792351908097    0.6782659599064068 O
   0.3496320720483332    0.2187341099960177    0.3093875107570904 O
   0.3496320720483332    0.2187341099960177    0.8093875107570904 O
   0.3496320720483332    0.7187341099960178    0.3093875107570904 O
   0.3496320720483332    0.7187341099960178    0.8093875107570904 O
   0.8496320720483332    0.2187341099960178    0.3093875107570904 O
   0.8496320720483334    0.2187341099960177    0.8093875107570904 O
   0.8496320720483332    0.7187341099960178    0.3093875107570904 O
   0.8496320720483332    0.7187341099960178    0.8093875107570904 O
   0.4029524840584827    0.2190383830183822    0.0589288520180447 O
   0.4029524840584826    0.2190383830183822    0.5589288520180448 O
   0.4029524840584827    0.7190383830183823    0.0589288520180447 O
   0.4029524840584826    0.7190383830183823    0.5589288520180448 O
   0.9029524840584826    0.2190383830183822    0.0589288520180447 O
   0.9029524840584827    0.2190383830183822    0.5589288520180447 O
   0.9029524840584826    0.7190383830183823    0.0589288520180447 O
   0.9029524840584826    0.7190383830183823    0.5589288520180447 O
   0.0951580214697654    0.2814659718003011    0.4329953850140834 O
   0.0951580214697654    0.2814659718003011    0.9329953850140833 O
   0.0951580214697654    0.7814659718003011    0.4329953850140834 O
   0.0951580214697654    0.7814659718003011    0.9329953850140834 O
   0.5951580214697654    0.2814659718003010    0.4329953850140834 O
   0.5951580214697654    0.2814659718003010    0.9329953850140833 O
   0.5951580214697654    0.7814659718003011    0.4329953850140834 O
   0.5951580214697654    0.7814659718003011    0.9329953850140834 O
   0.1516542255544713    0.2805302934071863    0.1837555434571701 O
   0.1516542255544713    0.2805302934071863    0.6837555434571702 O
   0.1516542255544713    0.7805302934071864    0.1837555434571701 O
   0.1516542255544713    0.7805302934071864    0.6837555434571702 O
   0.6516542255544713    0.2805302934071863    0.1837555434571701 O
   0.6516542255544713    0.2805302934071863    0.6837555434571700 O
   0.6516542255544713    0.7805302934071864    0.1837555434571701 O
   0.6516542255544712    0.7805302934071864    0.6837555434571700 O
   0.0284358093715696    0.3750213285937083    0.3141940960869546 O
   0.0284358093715696    0.3750213285937083    0.8141940960869547 O
   0.0284358093715696    0.8750213285937083    0.3141940960869546 O
   0.0284358093715696    0.8750213285937083    0.8141940960869547 O
   0.5284358093715695    0.3750213285937083    0.3141940960869546 O
   0.5284358093715695    0.3750213285937083    0.8141940960869546 O
   0.5284358093715695    0.8750213285937084    0.3141940960869546 O
   0.5284358093715695    0.8750213285937084    0.8141940960869546 O
   0.3720693953366989    0.3749926916144089    0.4356400288078141 O
   0.3720693953366989    0.3749926916144089    0.9356400288078142 O
   0.3720693953366990    0.8749926916144090    0.4356400288078141 O
   0.3720693953366990    0.8749926916144090    0.9356400288078141 O
   0.8720693953366990    0.3749926916144088    0.4356400288078141 O
   0.8720693953366989    0.3749926916144089    0.9356400288078141 O
   0.8720693953366989    0.8749926916144088    0.4356400288078141 O
   0.8720693953366989    0.8749926916144088    0.9356400288078139 O
   0.2182783240186197    0.3750311701086951    0.0661110774414417 O
   0.2182783240186197    0.3750311701086951    0.5661110774414416 O
   0.2182783240186197    0.8750311701086951    0.0661110774414417 O
   0.2182783240186197    0.8750311701086951    0.5661110774414416 O
   0.7182783240186197    0.3750311701086951    0.0661110774414417 O
   0.7182783240186198    0.3750311701086952    0.5661110774414416 O
   0.7182783240186196    0.8750311701086951    0.0661110774414417 O
   0.7182783240186198    0.8750311701086951    0.5661110774414416 O
   0.3740437129837542    0.3750007982033092    0.1866177746531742 O
   0.3740437129837541    0.3750007982033092    0.6866177746531742 O
   0.3740437129837541    0.8750007982033094    0.1866177746531742 O
   0.3740437129837542    0.8750007982033094    0.6866177746531742 O
   0.8740437129837541    0.3750007982033092    0.1866177746531742 O
   0.8740437129837542    0.3750007982033092    0.6866177746531742 O
   0.8740437129837541    0.8750007982033092    0.1866177746531742 O
   0.8740437129837543    0.8750007982033092    0.6866177746531742 O
   0.0951510671642572    0.4685330166162081    0.4330056587662751 O
   0.0951510671642572    0.4685330166162081    0.9330056587662752 O
   0.0951510671642572    0.9685330166162082    0.4330056587662751 O
   0.0951510671642572    0.9685330166162082    0.9330056587662751 O
   0.5951510671642573    0.4685330166162081    0.4330056587662751 O
   0.5951510671642571    0.4685330166162081    0.9330056587662752 O
   0.5951510671642571    0.9685330166162082    0.4330056587662751 O
   0.5951510671642571    0.9685330166162082    0.9330056587662751 O
   0.1516723425425533    0.4694816183382311    0.1837701436336651 O
   0.1516723425425533    0.4694816183382311    0.6837701436336651 O
   0.1516723425425533    0.9694816183382313    0.1837701436336651 O
   0.1516723425425533    0.9694816183382313    0.6837701436336652 O
   0.6516723425425532    0.4694816183382310    0.1837701436336651 O
   0.6516723425425534    0.4694816183382311    0.6837701436336650 O
   0.6516723425425532    0.9694816183382311    0.1837701436336651 O
   0.6516723425425534    0.9694816183382311    0.6837701436336651 O
