Ca16 Cr32 O64                           
   1.00000000000000     
    10.0272859279728088   -0.0292806410189223    0.0201855098390968
     1.8291656429023231   10.8462268927384748    2.9618137950777572
    -0.0231741103804944   -0.0234533114890392   11.5722284767315351
   Ca   Cr   O 
     1    32    64
Direct
   0.3626555270052062    0.3486402089077216    0.5387405105210504 Ca
  0.1570498124605644  0.0920600617333686  0.4828218405690906
  0.1554126070876891  0.1081063184300501  0.9689450522299435
  0.1544643604951344  0.5917515583230816  0.4767271662049683
  0.1542780368398699  0.5925080495266940  0.9799353460021274
  0.6594359262492985  0.0772723307346510  0.4834564518432589
  0.6503181910832279  0.1000601065554796  0.9776581921894516
  0.6549314292263867  0.5971990424963031  0.4776338551561889
  0.6548163325294831  0.5982050573880160  0.9762431612525373
  0.1564586841538849  0.0928714433817465  0.2246587104018963
  0.1555765537707245  0.1078716696443749  0.7308093290138257
  0.1505382546398195  0.6081393048000714  0.2242624848563579
  0.1573938239640912  0.5843157822263004  0.7303867168040067
  0.6593223878563842  0.0781436730518448  0.2316671822961917
  0.6504854573391863  0.0993556353801874  0.7262465119725531
  0.6451789010754260  0.6294486755616076  0.2189796631596147
  0.6546015533543167  0.5831388315385126  0.7306414367840423
  0.4100866336871533  0.0835684863596520  0.1075868522691219
  0.4103264398227016  0.0822337152552463  0.6046219459519468
  0.4001230711269198  0.5947492531071795  0.1028687123235541
  0.4035827520003007  0.6030124088254691  0.5999199492457175
  0.9084396458294077  0.0930035345993858  0.0995339320596453
  0.9087527013955351  0.0919762107193634  0.6082330172227018
  0.9050553374519623  0.5931704555151184  0.1035226436272530
  0.9041194601984116  0.6024971368968364  0.6011688525450989
  0.4024004825374593  0.0990904020794109  0.3519684874528725
  0.3981660544267879  0.1042157806371560  0.8507865271337984
  0.4000893255322202  0.5943782939188397  0.3527077355069321
  0.4035112496391138  0.6035261522532362  0.8512456961416635
  0.9119952654779977  0.0799044455422396  0.3571745331518683
  0.9006408581858013  0.0813440302488079  0.8565461712226862
  0.9050417278369024  0.5929013215825460  0.3526900377084348
  0.9040170834912907  0.6029014840709049  0.8501048836096552
  0.0011886175745387  0.5079723656482699  0.0008460244791186
  0.0012162665160666  0.5075549198636187  0.4986234173137757
  0.0056947476097949  0.0072336572158317 -0.0014614007989045
  0.0049024734209722  0.0035059494429031  0.5031108936010212
  0.5039680971435104  0.5114362352408403  0.0014665402232599
  0.5039307625798903  0.5109163833081573  0.4963756339766986
  0.5047702568505966  0.0068532426868089 -0.0005933880882246
  0.5050286977138119 -0.0003217799548615  0.5023189507600646
  0.0046943063753118  0.0041034309238933  0.2494191283588811
  0.0059270026538098  0.0066151397472830  0.7527492280057345
  0.0005314905045675  0.5080299857308799  0.2495766543652281
  0.0034931180576194  0.5075662118136428  0.7498760319692871
  0.5051337270978581  0.0003654703410076  0.2518696559351846
  0.5047363596204960  0.0064887907288165  0.7517312890916632
  0.5095985647210541  0.5102438629254606  0.2491151064932426
  0.5034038105211035  0.5068889519957103  0.7500790762775156
  0.0547388735529076  0.1862238258317227  0.0798809973958447
  0.0549930496608159  0.1853260496137794  0.5804450635366010
  0.0532576715515346  0.6869380229220050  0.0790688931805930
  0.0561029190216498  0.6805588836893287  0.5804144869610116
  0.5584542608298064  0.1800738236227131  0.0851275874045191
  0.5585054733092971  0.1790882024088356  0.5782176303496048
  0.5516761279895261  0.6935908645301144  0.0778592703312551
  0.5569476755293086  0.6826732231395992  0.5807551982087760
  0.0539359681174944  0.1764537355643626  0.3326871323395784
  0.0512305483771581  0.1895294423956095  0.8289719131063107
  0.0532859032194169  0.6866482167040686  0.3297609869613138
  0.0560817113876734  0.6808567146089046  0.8311421084115763
  0.5635083676872208  0.1804457656880724  0.3316721084388277
  0.5553146793409371  0.1878031482869676  0.8294208234955708
  0.5516885558421409  0.6933716464748529  0.3277482532740442
  0.5569145861035859  0.6829812682296649  0.8297532726337634
  0.2533777476819249  0.5074630406888546  0.1268228661254961
  0.2550093207665402  0.5066980778180984  0.6239156055624731
  0.2543995414871031  0.0082304394221134  0.1232211653036171
  0.2545159691563267  0.0073216099229722  0.6274277324279699
  0.7472646256595193  0.5102946079125784  0.1302767725754171
  0.7530660415340439  0.5068535576014619  0.6235361456840691
  0.7557176077513361  0.0053395443936615  0.1240525120795847
  0.7560276464604001  0.0046777171740086  0.6279092089416689
  0.2533778829316343  0.5070656539017721  0.3727577088628105
  0.2550293646366053  0.5070383892346090  0.8761452862604948
  0.2542764540432179  0.0107893734884499  0.3742825072722121
  0.2551839030229748  0.0089716212181996  0.8751073746804989
  0.7473243665927137  0.5098248189081522  0.3678888455515504
  0.7529618996510929  0.5072888528477388  0.8765062661217143
  0.7574453274214031  0.9946021808720080  0.3784743401245852
  0.7533633839751738  0.0058041905176448  0.8758996974631289
  0.3077617974482261  0.1809317166145822  0.4556591842212095
  0.3073545777746877  0.1876988911193689  0.9558474131659918
  0.3042218761393301  0.6835989035084069  0.4558350499312354
  0.3042638869914576  0.6838191614238877  0.9544420954527006
  0.8047054301872600  0.1792968244005551  0.4524804735556920
  0.8051518068064502  0.1812439473497561  0.9565366582605686
  0.8053537101071444  0.6841598696879866  0.4548466489262379
  0.8054600361461399  0.6846415236187867  0.9549910684576545
  0.3075871006490424  0.1814786141964918  0.2070653096278825
  0.3074201581689019  0.1871505577905156  0.7031072584410857
  0.3040629827297046  0.6886423503004141  0.2040299479650664
  0.3055446668455008  0.6836157030677974  0.7050463666217505
  0.8045939984492333  0.1798755874787106  0.2113229067415768
  0.8053171003048420  0.1808348695171727  0.7059667288784919
  0.8016911383316672  0.6906777305888234  0.2035246881031324
  0.8050882849672228  0.6829644103300176  0.7051623420179470
 
  0.00000000E+00  0.00000000E+00  0.00000000E+00
  0.00000000E+00  0.00000000E+00  0.00000000E+00
  0.00000000E+00  0.00000000E+00  0.00000000E+00
  0.00000000E+00  0.00000000E+00  0.00000000E+00
  0.00000000E+00  0.00000000E+00  0.00000000E+00
  0.00000000E+00  0.00000000E+00  0.00000000E+00
  0.00000000E+00  0.00000000E+00  0.00000000E+00
  0.00000000E+00  0.00000000E+00  0.00000000E+00
  0.00000000E+00  0.00000000E+00  0.00000000E+00
  0.00000000E+00  0.00000000E+00  0.00000000E+00
  0.00000000E+00  0.00000000E+00  0.00000000E+00
  0.00000000E+00  0.00000000E+00  0.00000000E+00
  0.00000000E+00  0.00000000E+00  0.00000000E+00
  0.00000000E+00  0.00000000E+00  0.00000000E+00
  0.00000000E+00  0.00000000E+00  0.00000000E+00
  0.00000000E+00  0.00000000E+00  0.00000000E+00
  0.00000000E+00  0.00000000E+00  0.00000000E+00
  0.00000000E+00  0.00000000E+00  0.00000000E+00
  0.00000000E+00  0.00000000E+00  0.00000000E+00
  0.00000000E+00  0.00000000E+00  0.00000000E+00
  0.00000000E+00  0.00000000E+00  0.00000000E+00
  0.00000000E+00  0.00000000E+00  0.00000000E+00
  0.00000000E+00  0.00000000E+00  0.00000000E+00
  0.00000000E+00  0.00000000E+00  0.00000000E+00
  0.00000000E+00  0.00000000E+00  0.00000000E+00
  0.00000000E+00  0.00000000E+00  0.00000000E+00
  0.00000000E+00  0.00000000E+00  0.00000000E+00
  0.00000000E+00  0.00000000E+00  0.00000000E+00
  0.00000000E+00  0.00000000E+00  0.00000000E+00
  0.00000000E+00  0.00000000E+00  0.00000000E+00
  0.00000000E+00  0.00000000E+00  0.00000000E+00
  0.00000000E+00  0.00000000E+00  0.00000000E+00
  0.00000000E+00  0.00000000E+00  0.00000000E+00
  0.00000000E+00  0.00000000E+00  0.00000000E+00
  0.00000000E+00  0.00000000E+00  0.00000000E+00
  0.00000000E+00  0.00000000E+00  0.00000000E+00
  0.00000000E+00  0.00000000E+00  0.00000000E+00
  0.00000000E+00  0.00000000E+00  0.00000000E+00
  0.00000000E+00  0.00000000E+00  0.00000000E+00
  0.00000000E+00  0.00000000E+00  0.00000000E+00
  0.00000000E+00  0.00000000E+00  0.00000000E+00
  0.00000000E+00  0.00000000E+00  0.00000000E+00
  0.00000000E+00  0.00000000E+00  0.00000000E+00
  0.00000000E+00  0.00000000E+00  0.00000000E+00
  0.00000000E+00  0.00000000E+00  0.00000000E+00
  0.00000000E+00  0.00000000E+00  0.00000000E+00
  0.00000000E+00  0.00000000E+00  0.00000000E+00
  0.00000000E+00  0.00000000E+00  0.00000000E+00
  0.00000000E+00  0.00000000E+00  0.00000000E+00
  0.00000000E+00  0.00000000E+00  0.00000000E+00
  0.00000000E+00  0.00000000E+00  0.00000000E+00
  0.00000000E+00  0.00000000E+00  0.00000000E+00
  0.00000000E+00  0.00000000E+00  0.00000000E+00
  0.00000000E+00  0.00000000E+00  0.00000000E+00
  0.00000000E+00  0.00000000E+00  0.00000000E+00
  0.00000000E+00  0.00000000E+00  0.00000000E+00
  0.00000000E+00  0.00000000E+00  0.00000000E+00
  0.00000000E+00  0.00000000E+00  0.00000000E+00
  0.00000000E+00  0.00000000E+00  0.00000000E+00
  0.00000000E+00  0.00000000E+00  0.00000000E+00
  0.00000000E+00  0.00000000E+00  0.00000000E+00
  0.00000000E+00  0.00000000E+00  0.00000000E+00
  0.00000000E+00  0.00000000E+00  0.00000000E+00
  0.00000000E+00  0.00000000E+00  0.00000000E+00
  0.00000000E+00  0.00000000E+00  0.00000000E+00
  0.00000000E+00  0.00000000E+00  0.00000000E+00
  0.00000000E+00  0.00000000E+00  0.00000000E+00
  0.00000000E+00  0.00000000E+00  0.00000000E+00
  0.00000000E+00  0.00000000E+00  0.00000000E+00
  0.00000000E+00  0.00000000E+00  0.00000000E+00
  0.00000000E+00  0.00000000E+00  0.00000000E+00
  0.00000000E+00  0.00000000E+00  0.00000000E+00
  0.00000000E+00  0.00000000E+00  0.00000000E+00
  0.00000000E+00  0.00000000E+00  0.00000000E+00
  0.00000000E+00  0.00000000E+00  0.00000000E+00
  0.00000000E+00  0.00000000E+00  0.00000000E+00
  0.00000000E+00  0.00000000E+00  0.00000000E+00
  0.00000000E+00  0.00000000E+00  0.00000000E+00
  0.00000000E+00  0.00000000E+00  0.00000000E+00
  0.00000000E+00  0.00000000E+00  0.00000000E+00
  0.00000000E+00  0.00000000E+00  0.00000000E+00
  0.00000000E+00  0.00000000E+00  0.00000000E+00
  0.00000000E+00  0.00000000E+00  0.00000000E+00
  0.00000000E+00  0.00000000E+00  0.00000000E+00
  0.00000000E+00  0.00000000E+00  0.00000000E+00
  0.00000000E+00  0.00000000E+00  0.00000000E+00
  0.00000000E+00  0.00000000E+00  0.00000000E+00
  0.00000000E+00  0.00000000E+00  0.00000000E+00
  0.00000000E+00  0.00000000E+00  0.00000000E+00
  0.00000000E+00  0.00000000E+00  0.00000000E+00
  0.00000000E+00  0.00000000E+00  0.00000000E+00
  0.00000000E+00  0.00000000E+00  0.00000000E+00
  0.00000000E+00  0.00000000E+00  0.00000000E+00
  0.00000000E+00  0.00000000E+00  0.00000000E+00
  0.00000000E+00  0.00000000E+00  0.00000000E+00
  0.00000000E+00  0.00000000E+00  0.00000000E+00
  0.00000000E+00  0.00000000E+00  0.00000000E+00
