Li28 P12 O44
1.0
  10.0758300317140872   -0.0350246576660852    0.1025729780704486
  -2.1486959862788999    9.3978302757775953    0.1373430974644305
  -2.3005799824519948   -3.2846329796498437    9.1786184330144849
Li P O
27 12 44
direct
   0.7693372982917192    0.6541980924015247    0.0474026960619757 Li
   0.2693372982917192    0.6541980924015247    0.0474026960619757 Li
   0.2306626081005783    0.3458023616294061    0.9525971510520045 Li
   0.1071096190842851    0.0185675477404174    0.7966866879117414 Li
   0.6071096190842851    0.0185675477404174    0.7966866879117412 Li
   0.3465903436523575    0.3060968077469127    0.4947455788867940 Li
   0.8465903436523574    0.3060968077469127    0.4947455788867940 Li
   0.2841766352939559    0.8561378088935211    0.8677227851369762 Li
   0.7841766352939560    0.8561378088935211    0.8677227851369761 Li
   0.3281785377644204    0.0539655795131240    0.6396591485430625 Li
   0.8281785377644204    0.0539655795131240    0.6396591485430624 Li
   0.1718215114096019    0.9460342115982217    0.3603409473043814 Li
   0.6718215114096020    0.9460342115982217    0.3603409473043814 Li
   0.3928903864308955    0.9814321649019233    0.2033134774408501 Li
   0.8928903864308956    0.9814321649019233    0.2033134774408502 Li
   0.4944086537338372    0.5252774089764550    0.1330114157470606 Li
   0.9944086537338371    0.5252774089764550    0.1330114157470606 Li
   0.0172757701568965    0.6941390878238770    0.7080852060396504 Li
   0.5172757701568965    0.6941390878238770    0.7080852060396503 Li
   0.0055912811370370    0.4747226276535046    0.8669886436012096 Li
   0.5055912811370370    0.4747226276535046    0.8669886436012096 Li
   0.2158233832051754    0.1438620440779276    0.1322772874046945 Li
   0.7158233832051754    0.1438620440779276    0.1322772874046945 Li
   0.1534095684118541    0.6939033299896827    0.5052543531454965 Li
   0.6534095684118542    0.6939033299896827    0.5052543531454964 Li
   0.4827242770706160    0.3058608003758072    0.2919147960977452 Li
   0.9827242770706162    0.3058608003758073    0.2919147960977452 Li
   0.2644708935158490    0.4865828580182284    0.2866919393087082 P
   0.7644708935158490    0.4865828580182284    0.2866919393087082 P
   0.4250782114757977    0.8072659673850794    0.4623541834290689 P
   0.9250782114757978    0.8072659673850794    0.4623541834290689 P
   0.4402896031715622    0.1800539910591076    0.9666468268693799 P
   0.9402896031715622    0.1800539910591076    0.9666468268693799 P
   0.0597103685208900    0.8199459590677451    0.0333532923923718 P
   0.5597103685208900    0.8199459590677451    0.0333532923923718 P
   0.2355290566003386    0.5134172390994881    0.7133078196815548 P
   0.7355290566003386    0.5134172390994881    0.7133078196815547 P
   0.0749218031535622    0.1927339439405548    0.5376458899209046 P
   0.5749218031535621    0.1927339439405548    0.5376458899209046 P
   0.4745767098025388    0.8453678661174910    0.3402244695105164 O
   0.9745767098025387    0.8453678661174912    0.3402244695105164 O
   0.1179007559944225    0.4992785438173917    0.2998353049153755 O
   0.6179007559944225    0.4992785438173917    0.2998353049153755 O
   0.3816685643711888    0.6208957741586822    0.4234298072775129 O
   0.8816685643711889    0.6208957741586822    0.4234298072775129 O
   0.2085952560079556    0.1479639276381358    0.5193039468085473 O
   0.7085952560079556    0.1479639276381358    0.5193039468085472 O
   0.2955982443896856    0.5093749830943560    0.1494753238935810 O
   0.7955982443896856    0.5093749830943560    0.1494753238935810 O
   0.2044016481109721    0.4906254182807331    0.8505249155638284 O
   0.7044016481109722    0.4906254182807331    0.8505249155638284 O
   0.2914045520657735    0.8520360855712258    0.4806960102328023 O
   0.7914045520657735    0.8520360855712257    0.4806960102328023 O
   0.0429604635798990    0.8451876239302808    0.6035904294604159 O
   0.5429604635798990    0.8451876239302807    0.6035904294604159 O
   0.1710788585956872    0.9477882757613700    0.1671605351595530 O
   0.6710788585956872    0.9477882757613700    0.1671605351595530 O
   0.0946197817456850    0.1756841932788405    0.9695432077801835 O
   0.5946197817456850    0.1756841932788404    0.9695432077801834 O
   0.2932965318847005    0.3438965985819135    0.3112416690716199 O
   0.7932965318847005    0.3438965985819136    0.3112416690716199 O
   0.4570396326620105    0.1548124016667115    0.3964097658461764 O
   0.9570396326620104    0.1548124016667116    0.3964097658461765 O
   0.1183310915059732    0.3791038048367469    0.5765698563007474 O
   0.6183310915059732    0.3791038048367469    0.5765698563007474 O
   0.4092171660022155    0.1579121678704365    0.1063673333021062 O
   0.9092171660022155    0.1579121678704365    0.1063673333021062 O
   0.3289211777358573    0.0522115461294551    0.8328395333476455 O
   0.8289211777358573    0.0522115461294551    0.8328395333476455 O
   0.4053802761641778    0.8243159651223434    0.0304568972135144 O
   0.9053802761641778    0.8243159651223434    0.0304568972135144 O
   0.0254233641239097    0.1546322745126147    0.6597755327575917 O
   0.5254233641239098    0.1546322745126147    0.6597755327575916 O
   0.4259911009526298    0.3359234901359806    0.9585294919881971 O
   0.9259911009526298    0.3359234901359806    0.9585294919881971 O
   0.3820998001943797    0.5007213900922766    0.7001646535815643 O
   0.8820998001943797    0.5007213900922766    0.7001646535815643 O
   0.2067035881799565    0.6561037967938731    0.6887578859626744 O
   0.7067035881799566    0.6561037967938731    0.6887578859626744 O
   0.0907828758188008    0.8420876337367132    0.8936327128979642 O
   0.5907828758188007    0.8420876337367131    0.8936327128979642 O
   0.0740087499303571    0.6640764069799231    0.0414705911522731 O
   0.5740087499303572    0.6640764069799232    0.0414705911522731 O
