Li16 Mg16 P16 O64
1.0
   9.4786043168000003    0.0000000000000000    0.0000000000000000
   0.0000000000000000   11.9444198608000001    0.0000000000000000
   0.0000000000000000    0.0000000000000000   10.2546749115000004
Li Mg P O
15 16 16 64
direct
   0.4999999999999999    0.7500000000000001    0.0000000000000000 Li
   0.0000000000000000    0.0000000000000000    0.0000000000000000 Li
   0.0000000000000000    0.5000000000000000    0.0000000000000000 Li
   0.4999999999999999    0.0000000000000000    0.0000000000000000 Li
   0.0000000000000000    0.2500000000000000    0.0000000000000000 Li
   0.0000000000000000    0.7500000000000001    0.0000000000000000 Li
   0.4999999999999999    0.2500000000000000    0.0000000000000000 Li
   0.2500000000000000    0.0000000000000000    0.5000000000000000 Li
   0.2500000000000000    0.5000000000000000    0.5000000000000000 Li
   0.7499999999999999    0.0000000000000000    0.5000000000000000 Li
   0.7499999999999999    0.5000000000000000    0.5000000000000000 Li
   0.2500000000000000    0.2500000000000000    0.5000000000000000 Li
   0.2500000000000000    0.7500000000000001    0.5000000000000000 Li
   0.7499999999999999    0.2500000000000000    0.5000000000000000 Li
   0.7499999999999999    0.7500000000000001    0.5000000000000000 Li
   0.0086850000000000    0.3750000000000001    0.7218930130000000 Mg
   0.0086850000000000    0.8750000000000001    0.7218930130000000 Mg
   0.5086849999999999    0.3750000000000001    0.7218930130000000 Mg
   0.5086849999999999    0.8750000000000001    0.7218930130000000 Mg
   0.4913150070000000    0.1250000000000000    0.2781069870000000 Mg
   0.4913150070000000    0.6250000000000000    0.2781069870000000 Mg
   0.9913150070000000    0.1250000000000000    0.2781069870000000 Mg
   0.9913150070000000    0.6250000000000000    0.2781069870000000 Mg
   0.2413150070000000    0.3750000000000001    0.2218929980000000 Mg
   0.2413150070000000    0.8750000000000001    0.2218929980000000 Mg
   0.7413150070000000    0.3750000000000001    0.2218929980000000 Mg
   0.7413150070000000    0.8750000000000001    0.2218929980000000 Mg
   0.2586849930000000    0.1250000000000000    0.7781069870000000 Mg
   0.2586849930000000    0.6250000000000000    0.7781069870000000 Mg
   0.7586849929999999    0.1250000000000000    0.7781069870000000 Mg
   0.7586849929999999    0.6250000000000000    0.7781069870000000 Mg
   0.0411885010000000    0.1250000000000000    0.5950530170000000 P
   0.0411885010000000    0.6250000000000000    0.5950530170000000 P
   0.5411885009999999    0.1250000000000000    0.5950530170000000 P
   0.5411885009999999    0.6250000000000000    0.5950530170000000 P
   0.2088115065000000    0.1250000000000000    0.0950530020000000 P
   0.2088115065000000    0.6250000000000000    0.0950530020000000 P
   0.7088115064999999    0.1250000000000000    0.0950530020000000 P
   0.7088115064999999    0.6250000000000000    0.0950530020000000 P
   0.4588114915000000    0.3750000000000001    0.4049470130000000 P
   0.4588114915000000    0.8750000000000001    0.4049470130000000 P
   0.9588114914999999    0.3750000000000001    0.4049470130000000 P
   0.9588114914999999    0.8750000000000001    0.4049470130000000 P
   0.2911885084999999    0.3750000000000001    0.9049469830000001 P
   0.2911885084999999    0.8750000000000001    0.9049469830000001 P
   0.7911885085000000    0.3750000000000001    0.9049469830000001 P
   0.7911885085000000    0.8750000000000001    0.9049469830000001 P
   0.3901824950000000    0.2721329925000000    0.3337599930000000 O
   0.3901824950000000    0.7721329925000000    0.3337599930000000 O
   0.8901824949999999    0.2721329925000000    0.3337599930000000 O
   0.8901824949999999    0.7721329925000000    0.3337599930000000 O
   0.1098174975000000    0.2278670075000000    0.6662399770000000 O
   0.1098174975000000    0.7278670075000000    0.6662399770000000 O
   0.6098174974999999    0.2278670075000000    0.6662399770000000 O
   0.6098174974999999    0.7278670075000000    0.6662399770000000 O
   0.3598175049999999    0.2721329925000000    0.8337600230000000 O
   0.3598175049999999    0.7721329925000000    0.8337600230000000 O
   0.8598175049999999    0.2721329925000000    0.8337600230000000 O
   0.8598175049999999    0.7721329925000000    0.8337600230000000 O
   0.3901824950000000    0.4778670075000001    0.3337599930000000 O
   0.3901824950000000    0.9778670075000001    0.3337599930000000 O
   0.8901824949999999    0.4778670075000001    0.3337599930000000 O
   0.8901824949999999    0.9778670075000001    0.3337599930000000 O
   0.1401824950000000    0.0221330000000000    0.1662400070000000 O
   0.1401824950000000    0.5221330000000001    0.1662400070000000 O
   0.6401824949999999    0.0221330000000000    0.1662400070000000 O
   0.6401824949999999    0.5221330000000001    0.1662400070000000 O
   0.3708840014999999    0.1250000000000000    0.1015999990000000 O
   0.3708840014999999    0.6250000000000000    0.1015999990000000 O
   0.8708840014999999    0.1250000000000000    0.1015999990000000 O
   0.8708840014999999    0.6250000000000000    0.1015999990000000 O
   0.1401824950000000    0.2278670075000000    0.1662400070000000 O
   0.1401824950000000    0.7278670075000000    0.1662400070000000 O
   0.6401824949999999    0.2278670075000000    0.1662400070000000 O
   0.6401824949999999    0.7278670075000000    0.1662400070000000 O
   0.1098174975000000    0.0221330000000000    0.6662399770000000 O
   0.1098174975000000    0.5221330000000001    0.6662399770000000 O
   0.6098174974999999    0.0221330000000000    0.6662399770000000 O
   0.6098174974999999    0.5221330000000001    0.6662399770000000 O
   0.1291159985000000    0.3750000000000001    0.8984000090000002 O
   0.1291159985000000    0.8750000000000001    0.8984000090000002 O
   0.6291159985000000    0.3750000000000001    0.8984000090000002 O
   0.6291159985000000    0.8750000000000001    0.8984000090000002 O
   0.3791159985000000    0.1250000000000000    0.6015999909999999 O
   0.3791159985000000    0.6250000000000000    0.6015999909999999 O
   0.8791159984999999    0.1250000000000000    0.6015999909999999 O
   0.8791159984999999    0.6250000000000000    0.6015999909999999 O
   0.4007399975000000    0.3750000000000001    0.5465649960000000 O
   0.4007399975000000    0.8750000000000001    0.5465649960000000 O
   0.9007399975000000    0.3750000000000001    0.5465649960000000 O
   0.9007399975000000    0.8750000000000001    0.5465649960000000 O
   0.1208840015000000    0.3750000000000001    0.3984000090000001 O
   0.1208840015000000    0.8750000000000001    0.3984000090000001 O
   0.6208840015000000    0.3750000000000001    0.3984000090000001 O
   0.6208840015000000    0.8750000000000001    0.3984000090000001 O
   0.3492600024999999    0.3750000000000001    0.0465650000000000 O
   0.3492600024999999    0.8750000000000001    0.0465650000000000 O
   0.8492600025000000    0.3750000000000001    0.0465650000000000 O
   0.8492600025000000    0.8750000000000001    0.0465650000000000 O
   0.1507399975000000    0.1250000000000000    0.9534350040000000 O
   0.1507399975000000    0.6250000000000000    0.9534350040000000 O
   0.6507399975000000    0.1250000000000000    0.9534350040000000 O
   0.6507399975000000    0.6250000000000000    0.9534350040000000 O
   0.0992600025000000    0.1250000000000000    0.4534350040000000 O
   0.0992600025000000    0.6250000000000000    0.4534350040000000 O
   0.5992600025000000    0.1250000000000000    0.4534350040000000 O
   0.5992600025000000    0.6250000000000000    0.4534350040000000 O
   0.3598175049999999    0.4778670075000001    0.8337600230000000 O
   0.3598175049999999    0.9778670075000001    0.8337600230000000 O
   0.8598175049999999    0.4778670075000001    0.8337600230000000 O
   0.8598175049999999    0.9778670075000001    0.8337600230000000 O
