Ca8 Ni12 F42
1.0
7.274754 -0.004387 -0.008465
-3.665243 6.299806 0.003562
-0.013855 -0.002118 18.170799
Ca Ni F
8 12 42
direct
0.967081 0.848347 0.698590 Ca
0.488355 0.846364 0.652816 Ca
0.171261 0.658719 0.973912 Ca
0.347906 0.510758 0.310959 Ca
0.839627 0.008172 0.348558 Ca
0.132998 0.150296 0.000430 Ca
0.995507 0.799960 0.172282 Ca
0.206776 0.191526 0.511294 Ca
0.344324 0.008402 0.333805 Ni
0.986681 0.334397 0.670644 Ni
0.661113 0.652627 -0.002501 Ni
0.331497 0.006662 0.830517 Ni
0.993666 0.312939 0.159412 Ni
0.688259 0.683619 0.498252 Ni
0.498513 0.818819 0.160443 Ni
0.179915 0.677912 0.496830 Ni
0.331235 0.502397 0.827241 Ni
0.817225 0.493327 0.830912 Ni
0.690343 0.188871 0.496364 Ni
0.494993 0.311146 0.158771 Ni
0.738887 0.188548 0.603181 F
0.812081 0.545220 0.937551 F
0.437487 0.257363 0.267793 F
0.259572 0.734905 0.388219 F
0.469431 0.734303 0.055068 F
0.267361 0.522137 0.721712 F
0.807355 0.931167 0.956388 F
0.046124 0.878630 0.290417 F
0.115788 0.169786 0.626193 F
0.977295 0.788955 0.050806 F
0.807448 0.041468 0.720963 F
0.211879 0.187150 0.387538 F
0.518345 0.378629 0.052699 F
0.622591 0.147013 0.387735 F
0.863522 0.484482 0.722798 F
0.374626 0.486804 0.939658 F
0.120728 0.626407 0.607774 F
0.517202 0.885220 0.274685 F
0.800280 0.426039 0.170894 F
0.576744 0.377804 0.506629 F
0.621540 0.201902 0.838552 F
0.403115 0.790182 0.849844 F
0.379910 0.575081 0.517791 F
0.198422 0.617082 0.188042 F
0.011392 0.277879 0.270259 F
0.715466 0.735279 0.608058 F
0.288840 0.998100 0.940962 F
0.323445 -0.024337 0.718821 F
0.634363 0.663103 0.385845 F
0.025830 0.371500 0.050075 F
0.187595 0.199272 0.140041 F
0.800587 0.991682 0.479140 F
0.031104 0.796782 0.821433 F
0.236061 0.206186 0.817708 F
0.999236 0.803476 0.485554 F
0.804077 -0.000624 0.149782 F
0.046831 0.433721 0.865892 F
0.582684 0.610412 0.198025 F
0.389103 0.974861 0.532013 F
0.381234 0.002687 0.138027 F
0.620678 0.589844 0.797060 F
0.993982 0.379374 0.468526 F
