Ho16 Mg8 S32
1.0
       11.0863618851         0.0000000000         0.0000000000
        0.0000000000        11.0863618851         0.0000000000
        0.0000000000         0.0000000000        11.0863618851
Mg   Ho   Mg    S
1   16    6   32
Direct
   0.5000000000000000    0.5000000000000000    0.0000000000000000 Mg
     0.875000000         0.125000000         0.375000000
     0.375000000         0.875000000         0.125000000
     0.125000000         0.875000000         0.375000000
     0.625000000         0.125000000         0.125000000
     0.875000000         0.625000000         0.875000000
     0.375000000         0.375000000         0.625000000
     0.125000000         0.375000000         0.875000000
     0.625000000         0.625000000         0.625000000
     0.375000000         0.125000000         0.875000000
     0.875000000         0.875000000         0.625000000
     0.625000000         0.875000000         0.875000000
     0.125000000         0.125000000         0.625000000
     0.375000000         0.625000000         0.375000000
     0.875000000         0.375000000         0.125000000
     0.625000000         0.375000000         0.375000000
     0.125000000         0.625000000         0.125000000
     0.000000000         0.000000000         0.000000000
     0.250000000         0.250000000         0.250000000
     0.000000000         0.500000000         0.500000000
     0.250000000         0.750000000         0.750000000
     0.500000000         0.000000000         0.500000000
     0.750000000         0.250000000         0.750000000
     0.879903734         0.879903734         0.379903704
     0.379903704         0.120096289         0.120096289
     0.620096266         0.879903734         0.120096289
     0.120096289         0.120096289         0.379903704
     0.129903704         0.629903734         0.370096296
     0.129903704         0.870096266         0.129903704
     0.370096296         0.629903734         0.129903704
     0.370096296         0.870096266         0.370096296
     0.879903734         0.379903704         0.879903734
     0.379903704         0.620096266         0.620096266
     0.620096266         0.379903704         0.620096266
     0.120096289         0.620096266         0.879903734
     0.129903704         0.129903704         0.870096266
     0.129903704         0.370096296         0.629903734
     0.370096296         0.129903704         0.629903734
     0.370096296         0.370096296         0.870096266
     0.379903704         0.879903734         0.879903734
     0.879903734         0.120096289         0.620096266
     0.120096289         0.879903734         0.620096266
     0.620096266         0.120096289         0.879903734
     0.629903734         0.629903734         0.870096266
     0.629903734         0.870096266         0.629903734
     0.870096266         0.629903734         0.629903734
     0.870096266         0.870096266         0.870096266
     0.379903704         0.379903704         0.379903704
     0.879903734         0.620096266         0.120096289
     0.120096289         0.379903704         0.120096289
     0.620096266         0.620096266         0.379903704
     0.629903734         0.129903704         0.370096296
     0.629903734         0.370096296         0.129903704
     0.870096266         0.129903704         0.129903704
     0.870096266         0.370096296         0.370096296
