Cr16 S32                                
   1.00000000000000     
     9.5315214454903145   -0.0005603713572789   -0.0008218771262866
    -0.0005603680627486    9.5315268601171859   -0.0005881895476781
    -0.0008218687141736   -0.0005881868238169    9.5315700075595124
Mg   Cr   S 
1    16    32
Direct
   0.5000000000000000    0.5000000000000000    0.5000000000000000 Mg
  0.8750017136549531  0.6250002190355701  0.3749983216043660
  0.8750007500828758  0.8749964480832304  0.1250043444045730
  0.6250073807624545  0.8750000161905120  0.3749995092840805
  0.6250053349666658  0.6250015406337610  0.1250034470873516
  0.8749973679180059  0.1249993179312199  0.8749983753668005
  0.8749980264790338  0.3750000149179016  0.6249948362730535
  0.6250008501720288  0.3749981204910355  0.8749963473166247
  0.6250030816521033  0.1250027318917262  0.6249988092661525
  0.3749984408542488  0.6249993791517170  0.8750005283268010
  0.3750021891383497  0.8750018527412564  0.6250000412420107
  0.1249976568938678  0.8749980044929870  0.8750027574287031
  0.1249960202266678  0.6249979821307292  0.6249967151329727
  0.3750001716872546  0.1250038962938547  0.3750003350288367
  0.3749973411078997  0.3749995088126639  0.1250026273407343
  0.1249969432746951  0.3750018574852731  0.3749990649776294
  0.1249982241754779  0.1250004130894240  0.1250035374562302
  0.1217841939478319  0.3782227918673584  0.6217819819930952
  0.1282201847014264  0.1282160125238434  0.3717762627023902
  0.8717808962562330  0.8717854352126437  0.3717843256449953
  0.8717760032943858  0.1282154421216646  0.6282180377242028
  0.3782192491328615  0.3782172086342968  0.8782181738746928
  0.3782216216544896  0.1217814923470257  0.6217815813760907
  0.1282231941183269  0.8717766041592583  0.6282183561041563
  0.1217829163754800  0.1217831298385192  0.8782217550236879
  0.1217856847214875  0.8782225813847049  0.1217829795742418
  0.1282233968726985  0.6282196991914262  0.8717771588664860
  0.8717784093110268  0.3717796219988614  0.8717843606265774
  0.8717757323780404  0.6282145955129437  0.1282162493717962
  0.3782162043143273  0.8782201919017751  0.3782211485598239
  0.3782208584513285  0.6217805614550542  0.1217813989461050
  0.1282215631430148  0.3717778488545775  0.1282174334667161
  0.1217845754525300  0.6217830317914164  0.3782222333716732
  0.6217804803982645  0.3782218140222824  0.1217827573290009
  0.6282164097246081  0.1282182020438185  0.8717781426796520
  0.3717830913208999  0.8717800203557076  0.8717776380217899
  0.3717795426326731  0.1282194600309836  0.1282182774186538
  0.8782167538475889  0.3782148648666066  0.3782181238280629
  0.8782226555916282  0.1217864432353508  0.1217817486036097
  0.6282134112550892  0.8717765279834211  0.1282172697684913
  0.6217807180576429  0.1217843891060610  0.3782231192348249
  0.6217793635421600  0.8782226192320763  0.6217833025708259
  0.6282137795819054  0.6282159497824438  0.3717760960468510
  0.3717859897649163  0.3717793970298899  0.3717800423966224
  0.3717779278526265  0.6282209545882012  0.6282217109000214
  0.8782169322933058  0.8782205933855280  0.8782139150592130
  0.8782228824469271  0.6217828582192269  0.6217838001135618
  0.6282139491981837  0.3717768155234893  0.6282186665631713
  0.6217799353195019  0.6217815384267027  0.8782223547019825
 
  0.00000000E+00  0.00000000E+00  0.00000000E+00
  0.00000000E+00  0.00000000E+00  0.00000000E+00
  0.00000000E+00  0.00000000E+00  0.00000000E+00
  0.00000000E+00  0.00000000E+00  0.00000000E+00
  0.00000000E+00  0.00000000E+00  0.00000000E+00
  0.00000000E+00  0.00000000E+00  0.00000000E+00
  0.00000000E+00  0.00000000E+00  0.00000000E+00
  0.00000000E+00  0.00000000E+00  0.00000000E+00
  0.00000000E+00  0.00000000E+00  0.00000000E+00
  0.00000000E+00  0.00000000E+00  0.00000000E+00
  0.00000000E+00  0.00000000E+00  0.00000000E+00
  0.00000000E+00  0.00000000E+00  0.00000000E+00
  0.00000000E+00  0.00000000E+00  0.00000000E+00
  0.00000000E+00  0.00000000E+00  0.00000000E+00
  0.00000000E+00  0.00000000E+00  0.00000000E+00
  0.00000000E+00  0.00000000E+00  0.00000000E+00
  0.00000000E+00  0.00000000E+00  0.00000000E+00
  0.00000000E+00  0.00000000E+00  0.00000000E+00
  0.00000000E+00  0.00000000E+00  0.00000000E+00
  0.00000000E+00  0.00000000E+00  0.00000000E+00
  0.00000000E+00  0.00000000E+00  0.00000000E+00
  0.00000000E+00  0.00000000E+00  0.00000000E+00
  0.00000000E+00  0.00000000E+00  0.00000000E+00
  0.00000000E+00  0.00000000E+00  0.00000000E+00
  0.00000000E+00  0.00000000E+00  0.00000000E+00
  0.00000000E+00  0.00000000E+00  0.00000000E+00
  0.00000000E+00  0.00000000E+00  0.00000000E+00
  0.00000000E+00  0.00000000E+00  0.00000000E+00
  0.00000000E+00  0.00000000E+00  0.00000000E+00
  0.00000000E+00  0.00000000E+00  0.00000000E+00
  0.00000000E+00  0.00000000E+00  0.00000000E+00
  0.00000000E+00  0.00000000E+00  0.00000000E+00
  0.00000000E+00  0.00000000E+00  0.00000000E+00
  0.00000000E+00  0.00000000E+00  0.00000000E+00
  0.00000000E+00  0.00000000E+00  0.00000000E+00
  0.00000000E+00  0.00000000E+00  0.00000000E+00
  0.00000000E+00  0.00000000E+00  0.00000000E+00
  0.00000000E+00  0.00000000E+00  0.00000000E+00
  0.00000000E+00  0.00000000E+00  0.00000000E+00
  0.00000000E+00  0.00000000E+00  0.00000000E+00
  0.00000000E+00  0.00000000E+00  0.00000000E+00
  0.00000000E+00  0.00000000E+00  0.00000000E+00
  0.00000000E+00  0.00000000E+00  0.00000000E+00
  0.00000000E+00  0.00000000E+00  0.00000000E+00
  0.00000000E+00  0.00000000E+00  0.00000000E+00
  0.00000000E+00  0.00000000E+00  0.00000000E+00
  0.00000000E+00  0.00000000E+00  0.00000000E+00
  0.00000000E+00  0.00000000E+00  0.00000000E+00
