Ca1 Ni16 F48
1.0
10.452881 -0.000083 -0.027444
-0.000172 7.269225 -0.005913
-0.025595 0.013286 10.065775
Ca Ni F
1 16 48
direct
0.472801 -0.249758 0.508069 Ca
-0.000741 0.499855 0.246406 Ni
-0.000785 0.500016 0.752206 Ni
0.502162 0.492871 0.240336 Ni
0.500003 0.494160 0.763521 Ni
0.246824 0.999787 1.001117 Ni
0.238764 1.007143 0.499197 Ni
0.753564 0.000718 1.000123 Ni
0.757037 1.004173 0.497910 Ni
-0.000563 0.000317 0.246448 Ni
-0.000707 0.999670 0.752028 Ni
0.502151 1.005746 0.240810 Ni
0.500248 1.005970 0.762279 Ni
0.246922 0.500059 1.001369 Ni
0.239618 0.493492 0.499381 Ni
0.753354 0.499646 1.000186 Ni
0.755872 0.496096 0.498314 Ni
0.483594 0.248742 0.186812 F
0.484507 0.249160 0.705167 F
0.985431 0.248232 0.190969 F
0.987693 0.247727 0.698212 F
0.232161 0.252514 0.055659 F
0.235447 0.250524 0.558189 F
0.742814 0.251850 0.057134 F
0.746990 0.251638 0.554114 F
0.012324 0.751951 0.302469 F
0.011531 0.752011 0.806663 F
0.518296 0.750101 0.290911 F
0.514971 0.751618 0.805395 F
0.256810 0.749803 0.447229 F
0.261419 0.747227 0.946010 F
0.747731 0.748198 0.447124 F
0.763729 0.748493 0.944320 F
0.344579 0.553241 0.152715 F
0.353010 0.558537 0.649888 F
0.847107 0.557873 0.153252 F
0.849367 0.555147 0.652313 F
0.095217 0.943592 0.094396 F
0.092028 0.944798 0.598198 F
0.600218 0.948789 0.090047 F
0.603208 0.958097 0.603144 F
0.149240 0.058402 0.339918 F
0.151796 0.052442 0.843959 F
0.650916 0.056720 0.344470 F
0.655549 0.059682 0.849779 F
0.402828 0.464554 0.404882 F
0.398991 0.442763 0.913745 F
0.904451 0.447419 0.401409 F
0.903648 0.445710 0.907081 F
0.149050 0.441555 0.341839 F
0.153723 0.447076 0.846566 F
0.652026 0.442312 0.347387 F
0.656874 0.440934 0.850222 F
0.403760 0.035188 0.404157 F
0.399563 0.056408 0.911311 F
0.906592 0.054211 0.400415 F
0.905043 0.054741 0.905622 F
0.347344 0.946504 0.153593 F
0.353259 0.941705 0.649919 F
0.848175 0.942819 0.154747 F
0.850272 0.945105 0.655686 F
0.096344 0.556812 0.092701 F
0.093261 0.553284 0.597177 F
0.600955 0.552001 0.088958 F
0.603385 0.541829 0.602576 F
