Li32 Mn16 O48
1.0
   9.8079767227999994    0.0000000000000000    0.0000000000000000
   0.0000000000000000    8.4804944992000006    0.0000000000000000
  -3.3174381361999998    0.0000000000000000    9.4001269119999993
Li Mn O
31 16 48
direct
   0.2500000000000000    0.8387458919999999    0.7500000000000000 Li
   0.2500000000000000    0.0000000000000000    0.0000000000000000 Li
   0.2500000000000000    0.0000000000000000    0.5000000000000000 Li
   0.7500000000000000    0.0000000000000000    0.0000000000000000 Li
   0.7499999999999999    0.0000000000000000    0.5000000000000000 Li
   0.2500000000000000    0.4999999999999999    0.2500000000000000 Li
   0.2500000000000000    0.4999999999999999    0.7500000000000000 Li
   0.7499999999999999    0.4999999999999999    0.2500000000000000 Li
   0.7500000000000000    0.4999999999999999    0.7500000000000000 Li
   0.2500000000000000    0.8387458919999999    0.2500000000000000 Li
   0.7499999999999999    0.8387458919999999    0.2500000000000000 Li
   0.7500000000000000    0.8387458919999999    0.7500000000000000 Li
   0.2500000000000000    0.1612541080000000    0.2500000000000000 Li
   0.2500000000000000    0.1612541080000000    0.7500000000000000 Li
   0.7499999999999999    0.1612541080000000    0.2500000000000000 Li
   0.7500000000000000    0.1612541080000000    0.7500000000000000 Li
   0.0000000000000000    0.4999999999999999    0.0000000000000000 Li
   0.0000000000000000    0.4999999999999999    0.5000000000000000 Li
   0.5000000000000000    0.4999999999999999    0.0000000000000000 Li
   0.5000000000000000    0.4999999999999999    0.5000000000000000 Li
   0.0000000000000000    0.0000000000000000    0.2500000000000000 Li
   0.0000000000000000    0.0000000000000000    0.7500000000000000 Li
   0.4999999999999999    0.0000000000000000    0.2500000000000000 Li
   0.0000000000000000    0.3387458919999999    0.2500000000000000 Li
   0.0000000000000000    0.3387458919999999    0.7500000000000000 Li
   0.4999999999999999    0.3387458919999999    0.2500000000000000 Li
   0.4999999999999999    0.3387458919999999    0.7500000000000000 Li
   0.0000000000000000    0.6612541080000000    0.2500000000000000 Li
   0.0000000000000000    0.6612541080000000    0.7500000000000000 Li
   0.4999999999999999    0.6612541080000000    0.2500000000000000 Li
   0.4999999999999999    0.6612541080000000    0.7500000000000000 Li
   0.2500000000000000    0.3328929540000000    0.0000000000000000 Mn
   0.2500000000000000    0.3328929540000000    0.5000000000000000 Mn
   0.7500000000000000    0.3328929540000000    0.0000000000000000 Mn
   0.7499999999999999    0.3328929540000000    0.5000000000000000 Mn
   0.2500000000000000    0.6671070459999999    0.0000000000000000 Mn
   0.2500000000000000    0.6671070459999999    0.5000000000000000 Mn
   0.7500000000000000    0.6671070459999999    0.0000000000000000 Mn
   0.7499999999999999    0.6671070459999999    0.5000000000000000 Mn
   0.0000000000000000    0.8328929540000000    0.0000000000000000 Mn
   0.0000000000000000    0.8328929540000000    0.5000000000000000 Mn
   0.5000000000000000    0.8328929540000000    0.0000000000000000 Mn
   0.5000000000000000    0.8328929540000000    0.5000000000000000 Mn
   0.0000000000000000    0.1671070460000000    0.0000000000000000 Mn
   0.0000000000000000    0.1671070460000000    0.5000000000000000 Mn
   0.5000000000000000    0.1671070460000000    0.0000000000000000 Mn
   0.5000000000000000    0.1671070460000000    0.5000000000000000 Mn
   0.3898710610000000    0.0000000000000000    0.3861671685000000 O
   0.3898710609999999    0.0000000000000000    0.8861671684999999 O
   0.8898710609999999    0.0000000000000000    0.3861671685000000 O
   0.8898710609999999    0.0000000000000000    0.8861671684999999 O
   0.1101289390000000    0.0000000000000000    0.1138328240000000 O
   0.1101289390000000    0.0000000000000000    0.6138328239999999 O
   0.6101289390000000    0.0000000000000000    0.1138328240000000 O
   0.6101289390000000    0.0000000000000000    0.6138328239999999 O
   0.1230979040000000    0.1781141760000000    0.3876930474999999 O
   0.1230979039999999    0.1781141760000000    0.8876930474999999 O
   0.6230979040000000    0.1781141760000000    0.3876930474999999 O
   0.6230979039999999    0.1781141760000000    0.8876930474999999 O
   0.3769021034999999    0.1781141760000000    0.1123069675000000 O
   0.3769021034999999    0.1781141760000000    0.6123069675000000 O
   0.8769021034999999    0.1781141760000000    0.1123069675000000 O
   0.8769021034999999    0.1781141760000000    0.6123069675000000 O
   0.3769021034999999    0.8218858240000000    0.1123069675000000 O
   0.3769021034999999    0.8218858240000000    0.6123069675000000 O
   0.8769021034999999    0.8218858240000000    0.1123069675000000 O
   0.8769021034999999    0.8218858240000000    0.6123069675000000 O
   0.1230979040000000    0.8218858240000000    0.3876930474999999 O
   0.1230979039999999    0.8218858240000000    0.8876930474999999 O
   0.6230979040000000    0.8218858240000000    0.3876930474999999 O
   0.6230979039999999    0.8218858240000000    0.8876930474999999 O
   0.1398710610000000    0.4999999999999999    0.3861671685000000 O
   0.1398710609999999    0.4999999999999999    0.8861671684999999 O
   0.6398710609999999    0.4999999999999999    0.3861671685000000 O
   0.6398710609999999    0.4999999999999999    0.8861671684999999 O
   0.3601289390000000    0.4999999999999999    0.1138328240000000 O
   0.3601289389999999    0.4999999999999999    0.6138328239999999 O
   0.8601289390000001    0.4999999999999999    0.1138328240000000 O
   0.8601289389999999    0.4999999999999999    0.6138328239999999 O
   0.3730978965000000    0.6781141759999999    0.3876930474999999 O
   0.3730978964999999    0.6781141759999999    0.8876930474999999 O
   0.8730978965000000    0.6781141759999999    0.3876930474999999 O
   0.8730978964999999    0.6781141759999999    0.8876930474999999 O
   0.1269020885000000    0.6781141759999999    0.1123069675000000 O
   0.1269020885000000    0.6781141759999999    0.6123069675000000 O
   0.6269020885000000    0.6781141759999999    0.1123069675000000 O
   0.6269020885000000    0.6781141759999999    0.6123069675000000 O
   0.1269020885000000    0.3218858240000000    0.1123069675000000 O
   0.1269020885000000    0.3218858240000000    0.6123069675000000 O
   0.6269020885000000    0.3218858240000000    0.1123069675000000 O
   0.6269020885000000    0.3218858240000000    0.6123069675000000 O
   0.3730978965000000    0.3218858240000000    0.3876930474999999 O
   0.3730978964999999    0.3218858240000000    0.8876930474999999 O
   0.8730978965000000    0.3218858240000000    0.3876930474999999 O
   0.8730978964999999    0.3218858240000000    0.8876930474999999 O
