Na64 Ir32 O96
1.0
10.953281 0.000000 0.000000
0.000000 18.939062 0.000000
-3.724053 0.000000 10.420772
Na Ir O
63 32 96
direct
0.250000 0.500000 0.750000 Na
0.000000 0.000000 0.000000 Na
1.000000 0.000000 0.500000 Na
0.000000 0.500000 0.000000 Na
1.000000 0.500000 0.500000 Na
0.500000 0.000000 0.000000 Na
0.500000 0.000000 0.500000 Na
0.500000 0.500000 0.000000 Na
0.500000 0.500000 0.500000 Na
0.250000 0.000000 0.250000 Na
0.250000 0.000000 0.750000 Na
0.250000 0.500000 0.250000 Na
0.750000 0.000000 0.250000 Na
0.750000 0.000000 0.750000 Na
0.750000 0.500000 0.250000 Na
0.750000 0.500000 0.750000 Na
0.250000 0.329768 0.250000 Na
0.250000 0.329768 0.750000 Na
0.250000 0.829768 0.250000 Na
0.250000 0.829768 0.750000 Na
0.750000 0.329768 0.250000 Na
0.750000 0.329768 0.750000 Na
0.750000 0.829768 0.250000 Na
0.750000 0.829768 0.750000 Na
0.250000 0.170232 0.250000 Na
0.250000 0.170232 0.750000 Na
0.250000 0.670232 0.250000 Na
0.750000 0.170232 0.250000 Na
0.750000 0.170232 0.750000 Na
0.750000 0.670232 0.250000 Na
0.750000 0.670232 0.750000 Na
0.250000 0.250000 0.000000 Na
0.250000 0.250000 0.500000 Na
0.250000 0.750000 0.000000 Na
0.250000 0.750000 0.500000 Na
0.750000 0.250000 0.000000 Na
0.750000 0.250000 0.500000 Na
0.750000 0.750000 0.000000 Na
0.750000 0.750000 0.500000 Na
1.000000 0.250000 0.250000 Na
0.000000 0.250000 0.750000 Na
1.000000 0.750000 0.250000 Na
0.000000 0.750000 0.750000 Na
0.500000 0.250000 0.250000 Na
0.500000 0.250000 0.750000 Na
0.500000 0.750000 0.250000 Na
0.500000 0.750000 0.750000 Na
1.000000 0.079768 0.250000 Na
0.000000 0.079768 0.750000 Na
1.000000 0.579768 0.250000 Na
0.000000 0.579768 0.750000 Na
0.500000 0.079768 0.250000 Na
0.500000 0.079768 0.750000 Na
0.500000 0.579768 0.250000 Na
0.500000 0.579768 0.750000 Na
1.000000 0.420232 0.250000 Na
0.000000 0.420232 0.750000 Na
1.000000 0.920232 0.250000 Na
0.000000 0.920232 0.750000 Na
0.500000 0.420232 0.250000 Na
0.500000 0.420232 0.750000 Na
0.500000 0.920232 0.250000 Na
0.500000 0.920232 0.750000 Na
0.250000 0.416530 0.000000 Ir
0.250000 0.416530 0.500000 Ir
0.250000 0.916530 0.000000 Ir
0.250000 0.916530 0.500000 Ir
0.750000 0.416530 0.000000 Ir
0.750000 0.416530 0.500000 Ir
0.750000 0.916530 0.000000 Ir
0.750000 0.916530 0.500000 Ir
0.250000 0.083470 0.000000 Ir
0.250000 0.083470 0.500000 Ir
0.250000 0.583470 0.000000 Ir
0.250000 0.583470 0.500000 Ir
0.750000 0.083470 0.000000 Ir
0.750000 0.083470 0.500000 Ir
0.750000 0.583470 0.000000 Ir
0.750000 0.583470 0.500000 Ir
0.000000 0.166530 0.000000 Ir
1.000000 0.166530 0.500000 Ir
0.000000 0.666530 0.000000 Ir
1.000000 0.666530 0.500000 Ir
0.500000 0.166530 0.000000 Ir
0.500000 0.166530 0.500000 Ir
0.500000 0.666530 0.000000 Ir
0.500000 0.666530 0.500000 Ir
0.000000 0.333470 0.000000 Ir
1.000000 0.333470 0.500000 Ir
0.000000 0.833470 0.000000 Ir
1.000000 0.833470 0.500000 Ir
0.500000 0.333470 0.000000 Ir
0.500000 0.333470 0.500000 Ir
0.500000 0.833470 0.000000 Ir
0.500000 0.833470 0.500000 Ir
0.372644 0.407843 0.396416 O
0.372644 0.407843 0.896416 O
0.372644 0.907843 0.396416 O
0.372644 0.907843 0.896416 O
0.872644 0.407843 0.396416 O
0.872644 0.407843 0.896416 O
0.872644 0.907843 0.396416 O
0.872644 0.907843 0.896416 O
0.372644 0.092157 0.396416 O
0.372644 0.092157 0.896416 O
0.372644 0.592157 0.396416 O
0.372644 0.592157 0.896416 O
0.872644 0.092157 0.396416 O
0.872644 0.092157 0.896416 O
0.872644 0.592157 0.396416 O
0.872644 0.592157 0.896416 O
0.127356 0.092157 0.103584 O
0.127356 0.092157 0.603584 O
0.127356 0.592157 0.103584 O
0.127356 0.592157 0.603584 O
0.627356 0.092157 0.103584 O
0.627356 0.092157 0.603584 O
0.627356 0.592157 0.103584 O
0.627356 0.592157 0.603584 O
0.127356 0.407843 0.103584 O
0.127356 0.407843 0.603584 O
0.127356 0.907843 0.103584 O
0.127356 0.907843 0.603584 O
0.627356 0.407843 0.103584 O
0.627356 0.407843 0.603584 O
0.627356 0.907843 0.103584 O
0.627356 0.907843 0.603584 O
0.352024 0.000000 0.104497 O
0.352024 0.000000 0.604497 O
0.352024 0.500000 0.104497 O
0.352024 0.500000 0.604497 O
0.852024 0.000000 0.104497 O
0.852024 0.000000 0.604497 O
0.852024 0.500000 0.104497 O
0.852024 0.500000 0.604497 O
0.147976 0.000000 0.395503 O
0.147976 0.000000 0.895503 O
0.147976 0.500000 0.395503 O
0.147976 0.500000 0.895503 O
0.647976 0.000000 0.395503 O
0.647976 0.000000 0.895503 O
0.647976 0.500000 0.395503 O
0.647976 0.500000 0.895503 O
0.122644 0.157843 0.396416 O
0.122644 0.157843 0.896416 O
0.122644 0.657843 0.396416 O
0.122644 0.657843 0.896416 O
0.622644 0.157843 0.396416 O
0.622644 0.157843 0.896416 O
0.622644 0.657843 0.396416 O
0.622644 0.657843 0.896416 O
0.122644 0.342157 0.396416 O
0.122644 0.342157 0.896416 O
0.122644 0.842157 0.396416 O
0.122644 0.842157 0.896416 O
0.622644 0.342157 0.396416 O
0.622644 0.342157 0.896416 O
0.622644 0.842157 0.396416 O
0.622644 0.842157 0.896416 O
0.377356 0.342157 0.103584 O
0.377356 0.342157 0.603584 O
0.377356 0.842157 0.103584 O
0.377356 0.842157 0.603584 O
0.877356 0.342157 0.103584 O
0.877356 0.342157 0.603584 O
0.877356 0.842157 0.103584 O
0.877356 0.842157 0.603584 O
0.377356 0.157843 0.103584 O
0.377356 0.157843 0.603584 O
0.377356 0.657843 0.103584 O
0.377356 0.657843 0.603584 O
0.877356 0.157843 0.103584 O
0.877356 0.157843 0.603584 O
0.877356 0.657843 0.103584 O
0.877356 0.657843 0.603584 O
0.102024 0.250000 0.104497 O
0.102024 0.250000 0.604497 O
0.102024 0.750000 0.104497 O
0.102024 0.750000 0.604497 O
0.602024 0.250000 0.104497 O
0.602024 0.250000 0.604497 O
0.602024 0.750000 0.104497 O
0.602024 0.750000 0.604497 O
0.397976 0.250000 0.395503 O
0.397976 0.250000 0.895503 O
0.397976 0.750000 0.395503 O
0.397976 0.750000 0.895503 O
0.897976 0.250000 0.395503 O
0.897976 0.250000 0.895503 O
0.897976 0.750000 0.395503 O
0.897976 0.750000 0.895503 O
