Mg16 Co16 Si16 O64
1.0
   9.6329342911888975   -0.0003950009908772    0.0209980704960660
  -0.0005917404779799   10.2783214978119339    0.0010182615271932
   0.0260351021869912    0.0011628086490010   12.1341467201890971
Mg Co Si O
15 16 16 64
direct
   0.2502710680437588    0.5002770394395810    0.5001126543490741 Mg
   0.2499329681778484    0.4998718105698856    0.2497483132773723 Mg
   0.7499329681778484    0.4998718105698856    0.2497483132773723 Mg
   0.7499329681778484    0.4998718105698856    0.7497483132773722 Mg
   0.2502710680437587    0.5002770394395810    0.0001126543490742 Mg
   0.7502710680437589    0.5002770394395809    0.0001126543490742 Mg
   0.7502710680437589    0.5002770394395809    0.5001126543490741 Mg
   0.0003774506983980    0.9997659086371654    0.2501610626733530 Mg
   0.0003774506983980    0.9997659086371655    0.7501610626733530 Mg
   0.5003774506983980    0.9997659086371654    0.2501610626733530 Mg
   0.5003774506983981    0.9997659086371655    0.7501610626733530 Mg
   0.0000240461147740    0.9999749706433931    0.4998095835908707 Mg
   0.0000240461147740    0.9999749706433932    0.9998095835908706 Mg
   0.5000240461147740    0.9999749706433930    0.4998095835908707 Mg
   0.5000240461147740    0.9999749706433931    0.9998095835908707 Mg
   0.4953352636892918    0.2771850475110398    0.1243561742702539 Co
   0.4953352636892918    0.2771850475110398    0.6243561742702539 Co
   0.9953352636892919    0.2771850475110398    0.1243561742702539 Co
   0.9953352636892916    0.2771850475110398    0.6243561742702539 Co
   0.2453628956118336    0.2227292997061240    0.3743125023847895 Co
   0.2453628956118336    0.2227292997061240    0.8743125023847895 Co
   0.7453628956118336    0.2227292997061241    0.3743125023847896 Co
   0.7453628956118337    0.2227292997061241    0.8743125023847895 Co
   0.0056927015605268    0.7200860368261957    0.3750159108315181 Co
   0.0056927015605268    0.7200860368261957    0.8750159108315180 Co
   0.5056927015605268    0.7200860368261955    0.3750159108315181 Co
   0.5056927015605268    0.7200860368261955    0.8750159108315182 Co
   0.2556590788620454    0.7798729329920420    0.1250940907123699 Co
   0.2556590788620454    0.7798729329920420    0.6250940907123699 Co
   0.7556590788620452    0.7798729329920419    0.1250940907123699 Co
   0.7556590788620453    0.7798729329920420    0.6250940907123699 Co
   0.0351285842797644    0.5952584082129561    0.1249831582124265 Si
   0.0351285842797644    0.5952584082129561    0.6249831582124266 Si
   0.5351285842797644    0.5952584082129561    0.1249831582124265 Si
   0.5351285842797644    0.5952584082129561    0.6249831582124266 Si
   0.2143268811463308    0.0956560243665692    0.1250769580991183 Si
   0.2143268811463308    0.0956560243665692    0.6250769580991182 Si
   0.7143268811463308    0.0956560243665692    0.1250769580991183 Si
   0.7143268811463309    0.0956560243665692    0.6250769580991182 Si
   0.4642408901106237    0.4044089091552294    0.3751381668940609 Si
   0.4642408901106237    0.4044089091552294    0.8751381668940610 Si
   0.9642408901106235    0.4044089091552294    0.3751381668940610 Si
   0.9642408901106237    0.4044089091552294    0.8751381668940610 Si
   0.2852208228758642    0.9047029544167202    0.3750297721136313 Si
   0.2852208228758642    0.9047029544167203    0.8750297721136314 Si
   0.7852208228758643    0.9047029544167202    0.3750297721136313 Si
   0.7852208228758643    0.9047029544167203    0.8750297721136312 Si
   0.3663129763266078    0.5885003162625891    0.1250158711125806 O
   0.3663129763266078    0.5885003162625891    0.6250158711125806 O
   0.8663129763266078    0.5885003162625891    0.1250158711125806 O
   0.8663129763266079    0.5885003162625891    0.6250158711125806 O
   0.3833791703283609    0.0883996103459452    0.1248055345699015 O
   0.3833791703283609    0.0883996103459452    0.6248055345699014 O
   0.8833791703283610    0.0883996103459452    0.1248055345699015 O
   0.8833791703283609    0.0883996103459452    0.6248055345699015 O
   0.1332813513430615    0.4116446788897363    0.3747989830307361 O
   0.1332813513430615    0.4116446788897363    0.8747989830307360 O
   0.6332813513430615    0.4116446788897363    0.3747989830307361 O
   0.6332813513430615    0.4116446788897363    0.8747989830307362 O
   0.1164057460803960    0.9115174837451930    0.3750260456132644 O
   0.1164057460803960    0.9115174837451931    0.8750260456132644 O
   0.6164057460803960    0.9115174837451931    0.3750260456132644 O
   0.6164057460803960    0.9115174837451931    0.8750260456132644 O
   0.1376419849483561    0.9492085529673560    0.1244882569476431 O
   0.1376419849483561    0.9492085529673561    0.6244882569476431 O
   0.6376419849483561    0.9492085529673560    0.1244882569476431 O
   0.6376419849483561    0.9492085529673561    0.6244882569476431 O
   0.1118765279051317    0.4487550485244823    0.1253733281821532 O
   0.1118765279051317    0.4487550485244823    0.6253733281821532 O
   0.6118765279051317    0.4487550485244823    0.1253733281821532 O
   0.6118765279051318    0.4487550485244823    0.6253733281821532 O
   0.3620062462569607    0.0512040876283493    0.3754194128444475 O
   0.3620062462569608    0.0512040876283493    0.8754194128444475 O
   0.8620062462569608    0.0512040876283493    0.3754194128444475 O
   0.8620062462569608    0.0512040876283493    0.8754194128444475 O
   0.3875507817268940    0.5508284263763699    0.3744126278191579 O
   0.3875507817268940    0.5508284263763699    0.8744126278191579 O
   0.8875507817268941    0.5508284263763699    0.3744126278191580 O
   0.8875507817268939    0.5508284263763699    0.8744126278191580 O
   0.1097152475944974    0.6641256261217805    0.0159722134760969 O
   0.1097152475944974    0.6641256261217805    0.5159722134760969 O
   0.6097152475944975    0.6641256261217804    0.0159722134760969 O
   0.6097152475944974    0.6641256261217804    0.5159722134760969 O
   0.1410371179893631    0.1639362025349129    0.2345586359070211 O
   0.1410371179893631    0.1639362025349129    0.7345586359070212 O
   0.6410371179893630    0.1639362025349129    0.2345586359070211 O
   0.6410371179893630    0.1639362025349129    0.7345586359070210 O
   0.3895674987485619    0.3347664458562746    0.2669255556654129 O
   0.3895674987485619    0.3347664458562746    0.7669255556654129 O
   0.8895674987485621    0.3347664458562746    0.2669255556654129 O
   0.8895674987485619    0.3347664458562746    0.7669255556654129 O
   0.3595807523782000    0.8352756704757596    0.4834739664171649 O
   0.3595807523781999    0.8352756704757596    0.9834739664171649 O
   0.8595807523782000    0.8352756704757596    0.4834739664171649 O
   0.8595807523782000    0.8352756704757597    0.9834739664171649 O
   0.3910168431734640    0.3362433857314072    0.4847102948153150 O
   0.3910168431734640    0.3362433857314072    0.9847102948153149 O
   0.8910168431734640    0.3362433857314073    0.4847102948153150 O
   0.8910168431734640    0.3362433857314073    0.9847102948153150 O
   0.3597935720815535    0.8359204311308729    0.2660065560201872 O
   0.3597935720815535    0.8359204311308730    0.7660065560201872 O
   0.8597935720815534    0.8359204311308729    0.2660065560201872 O
   0.8597935720815535    0.8359204311308730    0.7660065560201872 O
   0.1095645549803841    0.6646801685853559    0.2333876720314904 O
   0.1095645549803841    0.6646801685853559    0.7333876720314904 O
   0.6095645549803841    0.6646801685853559    0.2333876720314905 O
   0.6095645549803841    0.6646801685853559    0.7333876720314904 O
   0.1396969769671515    0.1652045223467127    0.0167866981385884 O
   0.1396969769671514    0.1652045223467127    0.5167866981385885 O
   0.6396969769671514    0.1652045223467127    0.0167866981385884 O
   0.6396969769671513    0.1652045223467127    0.5167866981385885 O
