Ca8 V12 F42
1.0
7.572067 0.002305 0.059309
-3.790394 6.446316 -0.127386
-0.471780 0.398272 18.478321
Ca V F
8 12 42
direct
0.851927 0.467374 0.337429 Ca
0.486122 0.837644 0.665855 Ca
0.616664 0.151726 0.997357 Ca
0.984070 0.815838 0.661512 Ca
0.144834 0.638337 0.005998 Ca
0.953982 0.833764 0.167387 Ca
0.858597 0.010926 0.838915 Ca
0.151347 0.184789 0.491592 Ca
0.332553 0.980799 0.329960 V
0.999073 0.317683 0.668089 V
0.656461 0.666106 0.996694 V
0.330120 0.994193 0.826179 V
0.989076 0.330331 0.164080 V
0.668653 0.653937 0.502832 V
0.483005 0.825940 0.165017 V
0.167992 0.662467 0.501866 V
0.334807 0.504789 0.831139 V
0.828904 0.495749 0.829601 V
0.661412 0.154618 0.501006 V
0.489604 0.324436 0.162434 V
0.731762 0.167661 0.609570 F
0.807963 0.518850 0.942476 F
0.488348 0.245427 0.268460 F
0.184530 0.724241 0.394569 F
0.506807 0.794431 0.053880 F
0.280056 0.482033 0.721583 F
0.762532 0.959411 0.950822 F
0.055891 0.801582 0.274857 F
0.103509 0.149914 0.612276 F
0.941447 0.773915 0.049295 F
0.838758 0.014656 0.718822 F
0.209737 0.104556 0.388720 F
0.533717 0.386650 0.050932 F
0.597418 0.140791 0.392208 F
0.875528 0.481675 0.719780 F
0.371949 0.554476 0.942301 F
0.140585 0.604354 0.614057 F
0.453698 0.857256 0.268955 F
0.799870 0.450957 0.172487 F
0.543577 0.340657 0.516679 F
0.634817 0.186912 0.857359 F
0.461966 0.818655 0.803013 F
0.356676 0.543632 0.492372 F
0.180336 0.640102 0.138084 F
0.013384 0.354869 0.270324 F
0.659564 0.701900 0.613932 F
0.313193 0.934105 0.940027 F
0.310204 0.982279 0.711100 F
0.721057 0.614582 0.402231 F
0.931428 0.317361 0.050995 F
0.179015 0.204504 0.156859 F
0.781028 0.966175 0.488838 F
0.017921 0.809907 0.806678 F
0.219814 0.190178 0.847107 F
0.983163 0.781897 0.528890 F
0.788784 0.021137 0.169652 F
0.027533 0.389868 0.850053 F
0.586724 0.625975 0.187869 F
0.393702 0.930242 0.544830 F
0.425263 0.044574 0.121058 F
0.638708 0.612527 0.819871 F
0.951286 0.370427 0.464045 F
