Ca64 Fe64 O160
1.0
10.837498 0.000000 0.000000
0.000000 11.166096 0.000000
0.000000 0.000000 29.424179
Ca Fe O
63 64 160
direct
   0.5114950000000000    0.7608830000000000    0.6959470000000000 Ca
0.261495 0.489117 0.054053 Ca
0.261495 0.489117 0.554053 Ca
0.261495 0.989117 0.054053 Ca
0.261495 0.989117 0.554053 Ca
0.761495 0.489117 0.054053 Ca
0.761495 0.489117 0.554053 Ca
0.761495 0.989117 0.054053 Ca
0.761495 0.989117 0.554053 Ca
0.011495 0.260883 0.195947 Ca
0.011495 0.260883 0.695947 Ca
0.011495 0.760883 0.195947 Ca
0.011495 0.760883 0.695947 Ca
0.511495 0.260883 0.195947 Ca
0.511495 0.260883 0.695947 Ca
0.511495 0.760883 0.195947 Ca
0.488505 0.239117 0.445947 Ca
0.488505 0.239117 0.945947 Ca
0.488505 0.739117 0.445947 Ca
0.488505 0.739117 0.945947 Ca
0.988505 0.239117 0.445947 Ca
0.988505 0.239117 0.945947 Ca
0.988505 0.739117 0.445947 Ca
0.988505 0.739117 0.945947 Ca
0.238505 0.010883 0.304053 Ca
0.238505 0.010883 0.804053 Ca
0.238505 0.510883 0.304053 Ca
0.238505 0.510883 0.804053 Ca
0.738505 0.010883 0.304053 Ca
0.738505 0.010883 0.804053 Ca
0.738505 0.510883 0.304053 Ca
0.738505 0.510883 0.804053 Ca
0.238505 0.010883 0.445947 Ca
0.238505 0.010883 0.945947 Ca
0.238505 0.510883 0.445947 Ca
0.238505 0.510883 0.945947 Ca
0.738505 0.010883 0.445947 Ca
0.738505 0.010883 0.945947 Ca
0.738505 0.510883 0.445947 Ca
0.738505 0.510883 0.945947 Ca
0.488505 0.239117 0.304053 Ca
0.488505 0.239117 0.804053 Ca
0.488505 0.739117 0.304053 Ca
0.488505 0.739117 0.804053 Ca
0.988505 0.239117 0.304053 Ca
0.988505 0.239117 0.804053 Ca
0.988505 0.739117 0.304053 Ca
0.988505 0.739117 0.804053 Ca
0.011495 0.260883 0.054053 Ca
0.011495 0.260883 0.554053 Ca
0.011495 0.760883 0.054053 Ca
0.011495 0.760883 0.554053 Ca
0.511495 0.260883 0.054053 Ca
0.511495 0.260883 0.554053 Ca
0.511495 0.760883 0.054053 Ca
0.511495 0.760883 0.554053 Ca
0.261495 0.489117 0.195947 Ca
0.261495 0.489117 0.695947 Ca
0.261495 0.989117 0.195947 Ca
0.261495 0.989117 0.695947 Ca
0.761495 0.489117 0.195947 Ca
0.761495 0.489117 0.695947 Ca
0.761495 0.989117 0.195947 Ca
0.250000 0.250000 0.250000 Fe
0.250000 0.250000 0.750000 Fe
0.250000 0.750000 0.250000 Fe
0.250000 0.750000 0.750000 Fe
0.750000 0.250000 0.250000 Fe
0.750000 0.250000 0.750000 Fe
0.750000 0.750000 0.250000 Fe
0.750000 0.750000 0.750000 Fe
0.250000 0.250000 0.000000 Fe
0.250000 0.250000 0.500000 Fe
0.250000 0.750000 0.000000 Fe
0.250000 0.750000 0.500000 Fe
0.750000 0.250000 0.000000 Fe
0.750000 0.250000 0.500000 Fe
0.750000 0.750000 0.000000 Fe
0.750000 0.750000 0.500000 Fe
0.026932 0.032708 0.125000 Fe
0.026932 0.032708 0.625000 Fe
0.026932 0.532708 0.125000 Fe
0.026932 0.532708 0.625000 Fe
0.526932 0.032708 0.125000 Fe
0.526932 0.032708 0.625000 Fe
0.526932 0.532708 0.125000 Fe
0.526932 0.532708 0.625000 Fe
0.473068 0.467292 0.375000 Fe
0.473068 0.467292 0.875000 Fe
0.473068 0.967292 0.375000 Fe
0.473068 0.967292 0.875000 Fe
0.973068 0.467292 0.375000 Fe
0.973068 0.467292 0.875000 Fe
0.973068 0.967292 0.375000 Fe
0.973068 0.967292 0.875000 Fe
0.000000 0.000000 0.000000 Fe
0.000000 0.000000 0.500000 Fe
0.000000 0.500000 0.000000 Fe
0.000000 0.500000 0.500000 Fe
0.500000 0.000000 0.000000 Fe
0.500000 0.000000 0.500000 Fe
0.500000 0.500000 0.000000 Fe
0.500000 0.500000 0.500000 Fe
0.000000 0.000000 0.250000 Fe
0.000000 0.000000 0.750000 Fe
0.000000 0.500000 0.250000 Fe
0.000000 0.500000 0.750000 Fe
0.500000 0.000000 0.250000 Fe
0.500000 0.000000 0.750000 Fe
0.500000 0.500000 0.250000 Fe
0.500000 0.500000 0.750000 Fe
0.276932 0.217292 0.125000 Fe
0.276932 0.217292 0.625000 Fe
0.276932 0.717292 0.125000 Fe
0.276932 0.717292 0.625000 Fe
0.776932 0.217292 0.125000 Fe
0.776932 0.217292 0.625000 Fe
0.776932 0.717292 0.125000 Fe
0.776932 0.717292 0.625000 Fe
0.223068 0.282708 0.375000 Fe
0.223068 0.282708 0.875000 Fe
0.223068 0.782708 0.375000 Fe
0.223068 0.782708 0.875000 Fe
0.723068 0.282708 0.375000 Fe
0.723068 0.282708 0.875000 Fe
0.723068 0.782708 0.375000 Fe
0.723068 0.782708 0.875000 Fe
0.300430 0.436036 0.375000 O
0.300430 0.436036 0.875000 O
0.300430 0.936036 0.375000 O
0.300430 0.936036 0.875000 O
0.800430 0.436036 0.375000 O
0.800430 0.436036 0.875000 O
0.800430 0.936036 0.375000 O
0.800430 0.936036 0.875000 O
0.050430 0.313964 0.375000 O
0.050430 0.313964 0.875000 O
0.050430 0.813964 0.375000 O
0.050430 0.813964 0.875000 O
0.550430 0.313964 0.375000 O
0.550430 0.313964 0.875000 O
0.550430 0.813964 0.375000 O
0.550430 0.813964 0.875000 O
0.449570 0.186036 0.125000 O
0.449570 0.186036 0.625000 O
0.449570 0.686036 0.125000 O
0.449570 0.686036 0.625000 O
0.949570 0.186036 0.125000 O
0.949570 0.186036 0.625000 O
0.949570 0.686036 0.125000 O
0.949570 0.686036 0.625000 O
0.199570 0.063964 0.125000 O
0.199570 0.063964 0.625000 O
0.199570 0.563964 0.125000 O
0.199570 0.563964 0.625000 O
0.699570 0.063964 0.125000 O
0.699570 0.063964 0.625000 O
0.699570 0.563964 0.125000 O
0.699570 0.563964 0.625000 O
0.487059 0.463569 0.179829 O
0.487059 0.463569 0.679829 O
0.487059 0.963569 0.179829 O
0.487059 0.963569 0.679829 O
0.987059 0.463569 0.179829 O
0.987059 0.463569 0.679829 O
0.987059 0.963569 0.179829 O
0.987059 0.963569 0.679829 O
0.237059 0.286431 0.070171 O
0.237059 0.286431 0.570171 O
0.237059 0.786431 0.070171 O
0.237059 0.786431 0.570171 O
0.737059 0.286431 0.070171 O
0.737059 0.286431 0.570171 O
0.737059 0.786431 0.070171 O
0.737059 0.786431 0.570171 O
0.262941 0.213569 0.320171 O
0.262941 0.213569 0.820171 O
0.262941 0.713569 0.320171 O
0.262941 0.713569 0.820171 O
0.762941 0.213569 0.320171 O
0.762941 0.213569 0.820171 O
0.762941 0.713569 0.320171 O
0.762941 0.713569 0.820171 O
0.012941 0.036431 0.429829 O
0.012941 0.036431 0.929829 O
0.012941 0.536431 0.429829 O
0.012941 0.536431 0.929829 O
0.512941 0.036431 0.429829 O
0.512941 0.036431 0.929829 O
0.512941 0.536431 0.429829 O
0.512941 0.536431 0.929829 O
0.012941 0.036431 0.320171 O
0.012941 0.036431 0.820171 O
0.012941 0.536431 0.320171 O
0.012941 0.536431 0.820171 O
0.512941 0.036431 0.320171 O
0.512941 0.036431 0.820171 O
0.512941 0.536431 0.320171 O
0.512941 0.536431 0.820171 O
0.262941 0.213569 0.429829 O
0.262941 0.213569 0.929829 O
0.262941 0.713569 0.429829 O
0.262941 0.713569 0.929829 O
0.762941 0.213569 0.429829 O
0.762941 0.213569 0.929829 O
0.762941 0.713569 0.429829 O
0.762941 0.713569 0.929829 O
0.237059 0.286431 0.179829 O
0.237059 0.286431 0.679829 O
0.237059 0.786431 0.179829 O
0.237059 0.786431 0.679829 O
0.737059 0.286431 0.179829 O
0.737059 0.286431 0.679829 O
0.737059 0.786431 0.179829 O
0.737059 0.786431 0.679829 O
0.487059 0.463569 0.070171 O
0.487059 0.463569 0.570171 O
0.487059 0.963569 0.070171 O
0.487059 0.963569 0.570171 O
0.987059 0.463569 0.070171 O
0.987059 0.463569 0.570171 O
0.987059 0.963569 0.070171 O
0.987059 0.963569 0.570171 O
0.366793 0.383039 0.258294 O
0.366793 0.383039 0.758294 O
0.366793 0.883039 0.258294 O
0.366793 0.883039 0.758294 O
0.866793 0.383039 0.258294 O
0.866793 0.383039 0.758294 O
0.866793 0.883039 0.258294 O
0.866793 0.883039 0.758294 O
0.116793 0.366961 0.491706 O
0.116793 0.366961 0.991706 O
0.116793 0.866961 0.491706 O
0.116793 0.866961 0.991706 O
0.616793 0.366961 0.491706 O
0.616793 0.366961 0.991706 O
0.616793 0.866961 0.491706 O
0.616793 0.866961 0.991706 O
0.383207 0.133039 0.241706 O
0.383207 0.133039 0.741706 O
0.383207 0.633039 0.241706 O
0.383207 0.633039 0.741706 O
0.883207 0.133039 0.241706 O
0.883207 0.133039 0.741706 O
0.883207 0.633039 0.241706 O
0.883207 0.633039 0.741706 O
0.133207 0.116961 0.008294 O
0.133207 0.116961 0.508294 O
0.133207 0.616961 0.008294 O
0.133207 0.616961 0.508294 O
0.633207 0.116961 0.008294 O
0.633207 0.116961 0.508294 O
0.633207 0.616961 0.008294 O
0.633207 0.616961 0.508294 O
0.366793 0.383039 0.491706 O
0.366793 0.383039 0.991706 O
0.366793 0.883039 0.491706 O
0.366793 0.883039 0.991706 O
0.866793 0.383039 0.491706 O
0.866793 0.383039 0.991706 O
0.866793 0.883039 0.491706 O
0.866793 0.883039 0.991706 O
0.116793 0.366961 0.258294 O
0.116793 0.366961 0.758294 O
0.116793 0.866961 0.258294 O
0.116793 0.866961 0.758294 O
0.616793 0.366961 0.258294 O
0.616793 0.366961 0.758294 O
0.616793 0.866961 0.258294 O
0.616793 0.866961 0.758294 O
0.383207 0.133039 0.008294 O
0.383207 0.133039 0.508294 O
0.383207 0.633039 0.008294 O
0.383207 0.633039 0.508294 O
0.883207 0.133039 0.008294 O
0.883207 0.133039 0.508294 O
0.883207 0.633039 0.008294 O
0.883207 0.633039 0.508294 O
0.133207 0.116961 0.241706 O
0.133207 0.116961 0.741706 O
0.133207 0.616961 0.241706 O
0.133207 0.616961 0.741706 O
0.633207 0.116961 0.241706 O
0.633207 0.116961 0.741706 O
0.633207 0.616961 0.241706 O
0.633207 0.616961 0.741706 O
