Ca8 Cr12 F42                            
   1.00000000000000     
     7.4086759999999998    0.0219770000000000   -0.5085130000000000
    -3.5647519999999999    6.8824810000000003    0.2751750000000000
     0.9249520000000000    0.3701370000000000   18.2743919999999989
   Ca   Cr   F 
     8    12    42
Direct
  0.8361496717015443  0.0188843714080173  0.3456234644468537
  0.5365903818249388  0.8563362336856180  0.6777957317595753
  0.5993117227509265  0.1158940540913211  0.0046682339119310
  0.0196855071536873  0.8175492992919037  0.6613637853632979
  0.1145671289060915  0.6499717236248416  1.0086264059198622
  0.8749075113809081  0.7346148870640913  0.1831942679572697
  0.8548363272404471  0.9031217163033912  0.8466213439341677
  0.2606810284810548  0.2532658817668699  0.5026956043738449
  0.3198355452306575  1.0052628990262940  0.3327400310009397
  0.0131760927321448  0.3147209423142758  0.6625084752314322
  0.6227922661022427  0.6442550462745648 -0.0015809753530155
  0.3483540087709891  0.9835333192404663  0.8286175397252606
  0.9520116803758135  0.2969135993594282  0.1609836977626775
  0.7093470580087892  0.7036113682305293  0.4990634130832295
  0.4454575976465756  0.8143817865120152  0.1703417144424015
  0.2179047582322053  0.7160856738610906  0.5000201956651924
  0.3101206454153100  0.4695837645594810  0.8311638185702594
  0.8143382526764238  0.4650357144229524  0.8260002716769711
  0.7049528148292041  0.1982677666590180  0.5002634393683612
  0.4503688266872237  0.3051295534419511  0.1570158400504342
  0.7468996555953291  0.1502060378182969  0.6129334662387603
  0.8951373295512366  0.6661751142388416  0.9242645155825707
  0.4048103394193376  0.2178662681792014  0.2612523665038738
  0.2185272674154613  0.7679305254762123  0.3957488460794144
  0.4345653761887720  0.7679707989634996  0.0607662912704433
  0.2674955336096687  0.4712283016049004  0.7222917685276116
  0.7280918630387655  0.9195467882639009  0.9570207189733829
  1.0128209927924470  0.8926026393236500  0.2807890369717614
  0.1330554640988047  0.1587735430157398  0.6160620471333755
  0.8769028182294839  0.7305872071701282  0.0604952900179683
  0.8552329479951170  0.9634544376248247  0.7248422839546661
  0.1736824470347129  0.1219191549929459  0.3939407895958217
  0.5294531907370758  0.3805594525824767  0.0416765393740814
  0.6179226295313986  0.1455169888390858  0.3925939325870323
  0.8937164930920964  0.4799120867225242  0.6891590347305619
  0.3598562728396312  0.5446267789235669  0.9376463388592141
  0.2470065612810532  0.7097986749966935  0.6092093469130119
  0.4716623155511056  0.8913633717314136  0.2753733268762013
  0.7483457101478791  0.3986652220061075  0.1753303264160879
  0.6290382619261420  0.4151105217680934  0.5100771351404387
  0.6343091325530120  0.2417439165018381  0.8877170570400513
  0.5268182303973730  0.8621597539272643  0.8094695442758817
  0.4037653120917044  0.5935250880330811  0.4915001074029336
  0.1464666204532620  0.6783831750173072  0.1588725625844903
  0.9648113191835552  0.2636715510192136  0.2648972361074253
  0.6900711782343936  0.7217631732922759  0.6071767870484228
  0.3174534853449566  0.9193827372724012  0.9383100000835883
  0.3412372550525369  0.9942906561038292  0.7185317737299263
  0.7283750918470677  0.7111434116635867  0.3957373080605667
  0.9164326873784905  0.3354836753390654  0.0506572616448015
  0.1638321847986638  0.2216817576942226  0.1363956966336302
  0.7825416706090526  0.9869637908218618  0.4827503464436156
  0.0069525168509112  0.7344894882618541  0.7878938415054193
  0.1876919620256102  0.1236543927471824  0.8413705325338455
  0.0052647839699548  0.7976547697399879  0.5243403380656670
  0.7434476552756442  0.9532707348778704  0.1656057728825444
  0.0185152886784351  0.3735768746895062  0.8470939954198698
  0.5128879139823128  0.5719514530446602  0.1838588525866928
  0.4112457570613176  0.0456799685944086  0.5202419725854625
  0.4296601794020042  0.0625231315646451  0.1167224410519543
  0.6057950507348887  0.5609151823187554  0.8132526946314080
  0.0012102343925203  0.3626660365139753  0.4936124226583813
 
             NaN             NaN             NaN
             NaN             NaN             NaN
             NaN             NaN             NaN
             NaN             NaN             NaN
             NaN             NaN             NaN
             NaN             NaN             NaN
             NaN             NaN             NaN
             NaN             NaN             NaN
             NaN             NaN             NaN
             NaN             NaN             NaN
             NaN             NaN             NaN
             NaN             NaN             NaN
             NaN             NaN             NaN
             NaN             NaN             NaN
             NaN             NaN             NaN
             NaN             NaN             NaN
             NaN             NaN             NaN
             NaN             NaN             NaN
             NaN             NaN             NaN
             NaN             NaN             NaN
             NaN             NaN             NaN
             NaN             NaN             NaN
             NaN             NaN             NaN
             NaN             NaN             NaN
             NaN             NaN             NaN
             NaN             NaN             NaN
             NaN             NaN             NaN
             NaN             NaN             NaN
             NaN             NaN             NaN
             NaN             NaN             NaN
             NaN             NaN             NaN
             NaN             NaN             NaN
             NaN             NaN             NaN
             NaN             NaN             NaN
             NaN             NaN             NaN
             NaN             NaN             NaN
             NaN             NaN             NaN
             NaN             NaN             NaN
             NaN             NaN             NaN
             NaN             NaN             NaN
             NaN             NaN             NaN
             NaN             NaN             NaN
             NaN             NaN             NaN
             NaN             NaN             NaN
             NaN             NaN             NaN
             NaN             NaN             NaN
             NaN             NaN             NaN
             NaN             NaN             NaN
             NaN             NaN             NaN
             NaN             NaN             NaN
             NaN             NaN             NaN
             NaN             NaN             NaN
             NaN             NaN             NaN
             NaN             NaN             NaN
             NaN             NaN             NaN
             NaN             NaN             NaN
             NaN             NaN             NaN
             NaN             NaN             NaN
             NaN             NaN             NaN
             NaN             NaN             NaN
             NaN             NaN             NaN
             NaN             NaN             NaN
