Ca8 Cr12 F42
1.0
7.408676 0.021977 -0.508513
-3.564752 6.882481 0.275175
0.924952 0.370137 18.274392
Ca Cr F
8 12 42
direct
0.829832 0.068943 0.343936 Ca
0.533743 0.853913 0.677860 Ca
0.592319 0.103338 0.006507 Ca
0.017444 0.816644 0.661391 Ca
0.112872 0.622190 0.992464 Ca
0.883735 0.740066 0.179823 Ca
0.847765 0.899090 0.846655 Ca
0.257745 0.243599 0.501397 Ca
0.315546 0.993697 0.330557 Cr
0.008464 0.310637 0.661984 Cr
0.635643 0.643097 0.002742 Cr
0.345066 0.985023 0.827221 Cr
0.952348 0.296008 0.159379 Cr
0.706744 0.694990 0.501615 Cr
0.444750 0.808118 0.169214 Cr
0.216070 0.708855 0.500354 Cr
0.315847 0.469790 0.832294 Cr
0.816441 0.463712 0.824482 Cr
0.707252 0.192193 0.502287 Cr
0.450903 0.302321 0.158758 Cr
0.739779 0.147662 0.612138 F
0.881422 0.664989 0.920786 F
0.411707 0.219068 0.263834 F
0.217618 0.756420 0.395328 F
0.408625 0.751713 0.059519 F
0.253863 0.463308 0.724971 F
0.731492 0.916848 0.960065 F
0.994754 0.873530 0.278648 F
0.130003 0.155111 0.615745 F
0.897378 0.718282 0.058225 F
0.852877 0.967110 0.725295 F
0.175151 0.111204 0.393789 F
0.532210 0.375128 0.043765 F
0.653710 0.169849 0.397510 F
0.888748 0.474192 0.691378 F
0.382521 0.544677 0.937843 F
0.245122 0.706410 0.610212 F
0.482155 0.892601 0.273717 F
0.748192 0.396994 0.174831 F
0.624348 0.405910 0.514138 F
0.642649 0.236004 0.886654 F
0.519948 0.856701 0.809375 F
0.402799 0.586764 0.493167 F
0.151021 0.670201 0.174373 F
0.962871 0.262820 0.262465 F
0.687958 0.716932 0.610026 F
0.314921 0.914982 0.935351 F
0.341657 0.996976 0.717569 F
0.724670 0.695144 0.399107 F
0.913913 0.325698 0.048534 F
0.164710 0.218666 0.137230 F
0.785522 0.979948 0.486740 F
0.006756 0.737309 0.787166 F
0.180947 0.124082 0.841123 F
0.003055 0.789591 0.526153 F
0.739322 0.950617 0.152346 F
0.041857 0.418342 0.863937 F
0.516755 0.575397 0.182549 F
0.410610 0.032898 0.517072 F
0.427158 0.053705 0.120318 F
0.602585 0.549159 0.804838 F
0.004917 0.363516 0.499714 F
