V24 Zn11 O60
1.0
11.416761 -0.000024 0.000054
0.000046 10.706578 1.888979
-0.000045 1.754273 10.701493
Zn V O
11 24 60
direct
   0.2500000000000000    0.5308720000000000    0.1512100000000000 Zn
0.250001 0.863778 0.151139 Zn
0.249999 0.192373 0.659993 Zn
0.249997 0.529081 0.652605 Zn
0.250001 0.860662 0.651163 Zn
0.749999 0.131305 0.346727 Zn
0.749999 0.462362 0.344875 Zn
0.750003 0.795535 0.344716 Zn
0.749998 0.134783 0.850200 Zn
0.750002 0.468556 0.843994 Zn
0.750000 0.801131 0.843104 Zn
0.098490 0.097265 0.458500 V
0.098640 0.419695 0.459073 V
0.098323 0.760697 0.450233 V
0.101057 0.099219 0.960636 V
0.101666 0.431687 0.958852 V
0.100609 0.765074 0.952501 V
0.901784 0.236618 0.045215 V
0.901663 0.570634 0.042494 V
0.900085 0.902237 0.042518 V
0.900367 0.229186 0.548457 V
0.902470 0.563893 0.542429 V
0.902250 0.898017 0.540669 V
0.401508 0.097269 0.458495 V
0.401362 0.419695 0.459075 V
0.401678 0.760698 0.450232 V
0.398941 0.099218 0.960640 V
0.398333 0.431690 0.958843 V
0.399393 0.765079 0.952493 V
0.598215 0.236621 0.045211 V
0.598336 0.570633 0.042490 V
0.599917 0.902236 0.042517 V
0.599632 0.229185 0.548455 V
0.597531 0.563894 0.542429 V
0.597749 0.898019 0.540665 V
0.132172 0.176414 0.304452 O
0.131761 0.442486 0.304832 O
0.128902 0.811831 0.292226 O
0.128053 0.152844 0.802344 O
0.130237 0.483105 0.800536 O
0.126889 0.816583 0.793432 O
0.871647 0.184914 0.203190 O
0.871544 0.518714 0.200626 O
0.870901 0.847327 0.200667 O
0.869300 0.177681 0.705886 O
0.871724 0.513203 0.700334 O
0.871173 0.844467 0.698326 O
0.367824 0.176418 0.304448 O
0.368239 0.442490 0.304833 O
0.371101 0.811834 0.292226 O
0.371944 0.152842 0.802337 O
0.369761 0.483108 0.800537 O
0.373115 0.816585 0.793440 O
0.628352 0.184918 0.203187 O
0.628456 0.518712 0.200626 O
0.629105 0.847321 0.200665 O
0.630697 0.177673 0.705885 O
0.628279 0.513208 0.700334 O
0.628828 0.844474 0.698323 O
0.926592 0.085607 0.482426 O
0.927026 0.416027 0.482420 O
0.927622 0.751217 0.478711 O
0.926614 0.089010 0.986888 O
0.928800 0.423303 0.983526 O
0.925981 0.757148 0.979368 O
0.070245 0.247989 0.013550 O
0.070279 0.581415 0.009625 O
0.066989 0.913104 0.010644 O
0.072182 0.233822 0.533063 O
0.073617 0.573043 0.512484 O
0.073008 0.909236 0.508864 O
0.573407 0.085610 0.482420 O
0.572975 0.416027 0.482423 O
0.572379 0.751218 0.478710 O
0.573387 0.089009 0.986887 O
0.571198 0.423304 0.983523 O
0.574019 0.757148 0.979366 O
0.429754 0.247992 0.013544 O
0.429723 0.581416 0.009624 O
0.433011 0.913100 0.010648 O
0.427819 0.233821 0.533061 O
0.426385 0.573045 0.512482 O
0.426992 0.909239 0.508864 O
0.250001 0.054251 0.039552 O
0.250001 0.403949 0.040140 O
0.250000 0.756946 0.030111 O
0.250001 0.059510 0.560145 O
0.250000 0.391345 0.560661 O
0.250000 0.727321 0.553306 O
0.750000 0.264830 0.444516 O
0.750000 0.597141 0.442674 O
0.750001 0.931717 0.440735 O
0.749999 0.270951 0.943947 O
0.750001 0.601883 0.941206 O
0.750001 0.936032 0.940582 O
