Li32 Mn16 Si16 O64
1.0
  10.0974435806000002    0.0000000000000000    0.0000000000000000
   0.0000000000000000   10.8829097747999999    0.0000000000000000
   0.0000000000000000    0.0000000000000000   12.7541151046000003
Li Mn Si O
31 16 16 64
direct
   0.7216385005000000    0.8344273864999999    0.8745432495000000 Li
   0.2216385005000000    0.3344273864999999    0.1254567505000000 Li
   0.2216385005000000    0.3344273864999999    0.6254567505000000 Li
   0.2216385005000000    0.8344273864999999    0.1254567505000000 Li
   0.2216385005000000    0.8344273864999999    0.6254567505000000 Li
   0.7216385005000000    0.3344273864999999    0.1254567505000000 Li
   0.7216385005000000    0.3344273864999999    0.6254567505000000 Li
   0.7216385005000000    0.8344273864999999    0.1254567505000000 Li
   0.2216385005000000    0.3344273864999999    0.3745432495000000 Li
   0.2216385005000000    0.3344273864999999    0.8745432495000000 Li
   0.2216385005000000    0.8344273864999999    0.3745432495000000 Li
   0.2216385005000000    0.8344273864999999    0.8745432495000000 Li
   0.7216385005000000    0.3344273864999999    0.3745432495000000 Li
   0.7216385005000000    0.3344273864999999    0.8745432495000000 Li
   0.7216385005000000    0.8344273864999999    0.3745432495000000 Li
   0.4716385004999999    0.1655726285000000    0.3754567505000000 Li
   0.4716385004999999    0.1655726285000000    0.8754567505000000 Li
   0.4716385004999999    0.6655726285000000    0.3754567505000000 Li
   0.4716385004999999    0.6655726285000000    0.8754567505000000 Li
   0.9716385004999999    0.1655726285000000    0.3754567505000000 Li
   0.9716385004999999    0.1655726285000000    0.8754567505000000 Li
   0.9716385004999999    0.6655726285000000    0.3754567505000000 Li
   0.9716385004999999    0.6655726285000000    0.8754567505000000 Li
   0.4716385004999999    0.1655726285000000    0.1245432495000000 Li
   0.4716385004999999    0.1655726285000000    0.6245432495000000 Li
   0.4716385004999999    0.6655726285000000    0.1245432495000000 Li
   0.4716385004999999    0.6655726285000000    0.6245432495000000 Li
   0.9716385004999999    0.1655726285000000    0.1245432495000000 Li
   0.9716385004999999    0.1655726285000000    0.6245432495000000 Li
   0.9716385004999999    0.6655726285000000    0.1245432495000000 Li
   0.9716385004999999    0.6655726285000000    0.6245432495000000 Li
   0.2203460040000000    0.0830366240000000    0.0000000000000000 Mn
   0.2203460040000000    0.0830366240000000    0.5000000000000000 Mn
   0.2203460040000000    0.5830366240000000    0.0000000000000000 Mn
   0.2203460040000000    0.5830366240000000    0.5000000000000000 Mn
   0.7203460040000000    0.0830366240000000    0.0000000000000000 Mn
   0.7203460040000000    0.0830366240000000    0.5000000000000000 Mn
   0.7203460040000000    0.5830366240000000    0.0000000000000000 Mn
   0.7203460040000000    0.5830366240000000    0.5000000000000000 Mn
   0.4703460039999999    0.4169633685000000    0.2500000000000000 Mn
   0.4703460039999999    0.4169633685000000    0.7499999999999999 Mn
   0.4703460039999999    0.9169633684999999    0.2500000000000000 Mn
   0.4703460039999999    0.9169633684999999    0.7499999999999999 Mn
   0.9703460040000000    0.4169633685000000    0.2500000000000000 Mn
   0.9703460040000000    0.4169633685000000    0.7499999999999999 Mn
   0.9703460040000000    0.9169633684999999    0.2500000000000000 Mn
   0.9703460040000000    0.9169633684999999    0.7499999999999999 Mn
   0.4750437440000000    0.4102471174999999    0.0000000000000000 Si
   0.4750437440000000    0.4102471174999999    0.5000000000000000 Si
   0.4750437440000000    0.9102471175000000    0.0000000000000000 Si
   0.4750437440000000    0.9102471175000000    0.5000000000000000 Si
   0.9750437439999999    0.4102471174999999    0.0000000000000000 Si
   0.9750437439999999    0.4102471174999999    0.5000000000000000 Si
   0.9750437439999999    0.9102471175000000    0.0000000000000000 Si
   0.9750437439999999    0.9102471175000000    0.5000000000000000 Si
   0.2250437440000000    0.0897528755000000    0.2500000000000000 Si
   0.2250437440000000    0.0897528755000000    0.7499999999999999 Si
   0.2250437440000000    0.5897528755000000    0.2500000000000000 Si
   0.2250437440000000    0.5897528755000000    0.7499999999999999 Si
   0.7250437439999999    0.0897528755000000    0.2500000000000000 Si
   0.7250437439999999    0.0897528755000000    0.7499999999999999 Si
   0.7250437439999999    0.5897528755000000    0.2500000000000000 Si
   0.7250437439999999    0.5897528755000000    0.7499999999999999 Si
   0.1386932435000000    0.4060358705000000    0.0000000000000000 O
   0.1386932435000000    0.4060358705000000    0.5000000000000000 O
   0.1386932435000000    0.9060358705000000    0.0000000000000000 O
   0.1386932435000000    0.9060358705000000    0.5000000000000000 O
   0.6386932435000000    0.4060358705000000    0.0000000000000000 O
   0.6386932435000000    0.4060358705000000    0.5000000000000000 O
   0.6386932435000000    0.9060358705000000    0.0000000000000000 O
   0.6386932435000000    0.9060358705000000    0.5000000000000000 O
   0.3886932435000000    0.0939641220000000    0.2500000000000000 O
   0.3886932435000000    0.0939641220000000    0.7499999999999999 O
   0.3886932435000000    0.5939641219999999    0.2500000000000000 O
   0.3886932435000000    0.5939641219999999    0.7499999999999999 O
   0.8886932434999999    0.0939641220000000    0.2500000000000000 O
   0.8886932434999999    0.0939641220000000    0.7499999999999999 O
   0.8886932434999999    0.5939641219999999    0.2500000000000000 O
   0.8886932434999999    0.5939641219999999    0.7499999999999999 O
   0.4278739989999999    0.0566936245000000    0.0000000000000000 O
   0.4278739989999999    0.0566936245000000    0.5000000000000000 O
   0.4278739989999999    0.5566936245000000    0.0000000000000000 O
   0.4278739989999999    0.5566936245000000    0.5000000000000000 O
   0.9278739989999998    0.0566936245000000    0.0000000000000000 O
   0.9278739989999998    0.0566936245000000    0.5000000000000000 O
   0.9278739989999998    0.5566936245000000    0.0000000000000000 O
   0.9278739989999998    0.5566936245000000    0.5000000000000000 O
   0.1778739990000000    0.4433063864999999    0.2500000000000000 O
   0.1778739990000000    0.4433063864999999    0.7499999999999999 O
   0.1778739990000000    0.9433063864999998    0.2500000000000000 O
   0.1778739990000000    0.9433063864999998    0.7499999999999999 O
   0.6778739990000000    0.4433063864999999    0.2500000000000000 O
   0.6778739990000000    0.4433063864999999    0.7499999999999999 O
   0.6778739990000000    0.9433063864999998    0.2500000000000000 O
   0.6778739990000000    0.9433063864999998    0.7499999999999999 O
   0.4186455009999999    0.3396761120000000    0.1059112475000000 O
   0.4186455009999999    0.3396761120000000    0.6059112475000000 O
   0.4186455009999999    0.8396761119999999    0.1059112475000000 O
   0.4186455009999999    0.8396761119999999    0.6059112475000000 O
   0.9186455010000000    0.3396761120000000    0.1059112475000000 O
   0.9186455010000000    0.3396761120000000    0.6059112475000000 O
   0.9186455010000000    0.8396761119999999    0.1059112475000000 O
   0.9186455010000000    0.8396761119999999    0.6059112475000000 O
   0.1686455010000000    0.1603238730000000    0.3559112550000000 O
   0.1686455010000000    0.1603238730000000    0.8559112550000000 O
   0.1686455010000000    0.6603238730000000    0.3559112550000000 O
   0.1686455010000000    0.6603238730000000    0.8559112550000000 O
   0.6686455010000000    0.1603238730000000    0.3559112550000000 O
   0.6686455010000000    0.1603238730000000    0.8559112550000000 O
   0.6686455010000000    0.6603238730000000    0.3559112550000000 O
   0.6686455010000000    0.6603238730000000    0.8559112550000000 O
   0.1686455010000000    0.1603238730000000    0.1440887450000000 O
   0.1686455010000000    0.1603238730000000    0.6440887450000000 O
   0.1686455010000000    0.6603238730000000    0.1440887450000000 O
   0.1686455010000000    0.6603238730000000    0.6440887450000000 O
   0.6686455010000000    0.1603238730000000    0.1440887450000000 O
   0.6686455010000000    0.1603238730000000    0.6440887450000000 O
   0.6686455010000000    0.6603238730000000    0.1440887450000000 O
   0.6686455010000000    0.6603238730000000    0.6440887450000000 O
   0.4186455009999999    0.3396761120000000    0.3940887450000000 O
   0.4186455009999999    0.3396761120000000    0.8940887450000001 O
   0.4186455009999999    0.8396761119999999    0.3940887450000000 O
   0.4186455009999999    0.8396761119999999    0.8940887450000001 O
   0.9186455010000000    0.3396761120000000    0.3940887450000000 O
   0.9186455010000000    0.3396761120000000    0.8940887450000001 O
   0.9186455010000000    0.8396761119999999    0.3940887450000000 O
   0.9186455010000000    0.8396761119999999    0.8940887450000001 O
