Ca48 Ru32 O112
1.0
  10.7538270800000006    0.0000000000000000    0.0000000000000006
  -0.0000000000000012   19.5200128600000014    0.0000000000000012
   0.0000000000000000    0.0000000000000000   11.1119951999999991
Ca Ru O
47 32 112
direct
   0.3781181575000001    0.3115868650000000    0.5969633499999996 Ca
   0.1218818425000000    0.6884131350000000    0.3469633500000000 Ca
   0.1218818425000000    0.6884131350000000    0.8469633500000000 Ca
   0.6218818425000000    0.6884131350000000    0.3469633500000000 Ca
   0.6218818425000000    0.6884131350000000    0.8469633500000000 Ca
   0.1281181575000000    0.8115868650000001    0.0969633499999995 Ca
   0.1281181575000000    0.8115868650000001    0.5969633499999996 Ca
   0.6281181575000000    0.8115868650000001    0.0969633499999995 Ca
   0.6281181575000000    0.8115868650000001    0.5969633499999996 Ca
   0.3781181575000000    0.6884131350000000    0.0969633499999995 Ca
   0.3781181575000000    0.6884131350000000    0.5969633499999996 Ca
   0.8781181575000000    0.6884131350000000    0.0969633499999995 Ca
   0.8781181575000000    0.6884131350000000    0.5969633499999996 Ca
   0.3718818425000001    0.8115868650000001    0.3469633500000000 Ca
   0.3718818425000001    0.8115868650000001    0.8469633500000000 Ca
   0.8718818425000000    0.8115868650000001    0.3469633500000001 Ca
   0.8718818425000000    0.8115868650000001    0.8469633499999999 Ca
   0.1330541400000000    0.0000000000000000    0.1543778500000000 Ca
   0.1330541400000000    0.0000000000000000    0.6543778500000000 Ca
   0.6330541399999999    0.0000000000000000    0.1543778500000000 Ca
   0.6330541399999999    0.0000000000000000    0.6543778499999999 Ca
   0.3669458599999995    0.0000000000000000    0.4043778500000005 Ca
   0.3669458599999995    0.0000000000000000    0.9043778500000006 Ca
   0.8669458599999995    0.0000000000000000    0.4043778500000005 Ca
   0.8669458599999995    0.0000000000000000    0.9043778500000005 Ca
   0.3718818424999999    0.1884131350000000    0.3469633500000000 Ca
   0.3718818424999999    0.1884131350000000    0.8469633500000000 Ca
   0.8718818424999999    0.1884131350000000    0.3469633500000000 Ca
   0.8718818424999999    0.1884131350000000    0.8469633500000000 Ca
   0.3781181575000001    0.3115868650000000    0.0969633499999995 Ca
   0.8781181574999999    0.3115868650000000    0.0969633499999995 Ca
   0.8781181574999999    0.3115868650000000    0.5969633499999994 Ca
   0.1281181575000000    0.1884131350000000    0.0969633499999995 Ca
   0.1281181575000000    0.1884131350000000    0.5969633499999994 Ca
   0.6281181574999999    0.1884131350000000    0.0969633499999995 Ca
   0.1218818425000000    0.3115868650000000    0.3469633500000000 Ca
   0.1218818425000000    0.3115868650000000    0.8469633500000000 Ca
   0.6218818425000000    0.3115868650000000    0.3469633500000000 Ca
   0.6218818425000000    0.3115868650000000    0.8469633500000000 Ca
   0.3830541400000000    0.5000000000000000    0.1543778500000000 Ca
   0.3830541400000000    0.5000000000000000    0.6543778500000000 Ca
   0.8830541400000000    0.5000000000000000    0.1543778500000000 Ca
   0.8830541400000000    0.5000000000000000    0.6543778499999999 Ca
   0.1169458599999995    0.5000000000000000    0.4043778500000006 Ca
   0.1169458599999995    0.5000000000000000    0.9043778500000007 Ca
   0.6169458599999996    0.5000000000000000    0.4043778500000005 Ca
   0.6169458599999996    0.5000000000000000    0.9043778500000006 Ca
   0.1262782725000000    0.5987083450000001    0.1246902000000000 Ru
   0.1262782725000000    0.5987083450000001    0.6246902000000001 Ru
   0.6262782725000001    0.5987083450000001    0.1246902000000000 Ru
   0.6262782725000001    0.5987083450000001    0.6246902000000000 Ru
   0.1237217274999995    0.9012916550000001    0.3746902000000006 Ru
   0.1237217274999995    0.9012916550000001    0.8746902000000005 Ru
   0.6237217274999994    0.9012916550000001    0.3746902000000005 Ru
   0.6237217274999994    0.9012916550000001    0.8746902000000005 Ru
   0.3737217275000000    0.5987083450000001    0.3746902000000005 Ru
   0.3737217275000000    0.5987083450000001    0.8746902000000006 Ru
   0.8737217275000001    0.5987083450000001    0.3746902000000005 Ru
   0.8737217275000001    0.5987083450000001    0.8746902000000005 Ru
   0.3762782725000001    0.9012916550000001    0.1246902000000000 Ru
   0.3762782725000001    0.9012916550000001    0.6246902000000000 Ru
   0.8762782725000000    0.9012916550000001    0.1246902000000000 Ru
   0.8762782725000000    0.9012916550000001    0.6246902000000000 Ru
   0.3762782725000001    0.0987083449999990    0.1246902000000000 Ru
   0.3762782725000001    0.0987083449999990    0.6246902000000000 Ru
   0.8762782725000000    0.0987083449999990    0.1246902000000000 Ru
   0.8762782725000000    0.0987083449999990    0.6246902000000000 Ru
   0.3737217275000000    0.4012916550000000    0.3746902000000005 Ru
   0.3737217275000000    0.4012916550000000    0.8746902000000006 Ru
   0.8737217275000000    0.4012916550000000    0.3746902000000005 Ru
   0.8737217275000000    0.4012916550000000    0.8746902000000006 Ru
   0.1237217274999995    0.0987083449999990    0.3746902000000006 Ru
   0.1237217274999995    0.0987083449999990    0.8746902000000006 Ru
   0.6237217274999994    0.0987083449999990    0.3746902000000005 Ru
   0.6237217274999994    0.0987083449999990    0.8746902000000006 Ru
   0.1262782725000000    0.4012916550000000    0.1246902000000000 Ru
   0.1262782725000000    0.4012916550000000    0.6246902000000001 Ru
   0.6262782725000000    0.4012916550000000    0.1246902000000000 Ru
   0.6262782725000000    0.4012916550000000    0.6246902000000001 Ru
   0.4752111025000000    0.8833765350000001    0.4774601800000000 O
   0.4752111025000000    0.8833765350000001    0.9774601800000001 O
   0.9752111025000000    0.8833765350000001    0.4774601800000000 O
   0.9752111025000000    0.8833765350000001    0.9774601800000001 O
   0.2747888975000000    0.6166234650000001    0.2274601800000000 O
   0.2747888975000000    0.6166234650000001    0.7274601800000001 O
   0.7747888975000000    0.6166234650000001    0.2274601800000000 O
   0.7747888975000000    0.6166234650000001    0.7274601800000000 O
   0.0247888975000000    0.8833765350000001    0.2274601800000000 O
   0.0247888975000000    0.8833765350000001    0.7274601800000000 O
   0.5247888975000000    0.8833765350000001    0.2274601800000000 O
   0.5247888975000000    0.8833765350000001    0.7274601800000000 O
   0.2252111024999995    0.6166234650000001    0.4774601800000001 O
   0.2252111024999995    0.6166234650000001    0.9774601800000001 O
   0.7252111024999995    0.6166234650000001    0.4774601800000000 O
   0.7252111024999995    0.6166234650000001    0.9774601800000001 O
   0.2240098425000000    0.9193290650000001    0.0243313099999995 O
   0.2240098425000000    0.9193290650000001    0.5243313099999996 O
   0.7240098425000000    0.9193290650000001    0.0243313099999995 O
   0.7240098425000000    0.9193290650000001    0.5243313099999994 O
   0.0259901575000000    0.5806709350000000    0.2743313100000000 O
   0.0259901575000000    0.5806709350000000    0.7743313100000000 O
   0.5259901575000000    0.5806709350000000    0.2743313100000000 O
   0.5259901575000000    0.5806709350000000    0.7743313100000000 O
   0.2759901575000000    0.9193290650000001    0.2743313100000000 O
   0.2759901575000000    0.9193290650000001    0.7743313100000001 O
   0.7759901575000000    0.9193290650000001    0.2743313100000000 O
   0.7759901575000000    0.9193290650000001    0.7743313100000001 O
   0.4740098425000001    0.5806709350000000    0.0243313099999995 O
   0.4740098425000001    0.5806709350000000    0.5243313099999996 O
   0.9740098425000002    0.5806709350000000    0.0243313099999995 O
   0.9740098425000002    0.5806709350000000    0.5243313099999996 O
   0.0815062200000000    0.0000000000000000    0.3647130050000000 O
   0.0815062200000000    0.0000000000000000    0.8647130050000001 O
   0.5815062200000001    0.0000000000000000    0.3647130050000000 O
   0.5815062200000001    0.0000000000000000    0.8647130050000001 O
   0.4184937800000000    0.0000000000000000    0.1147130050000000 O
   0.4184937800000000    0.0000000000000000    0.6147130050000000 O
   0.9184937800000000    0.0000000000000000    0.1147130050000000 O
   0.9184937800000000    0.0000000000000000    0.6147130050000000 O
   0.4096602049999999    0.6985575900000001    0.3849845400000000 O
   0.4096602049999999    0.6985575900000001    0.8849845400000000 O
   0.9096602050000000    0.6985575900000001    0.3849845400000000 O
   0.9096602050000000    0.6985575900000001    0.8849845400000000 O
   0.3403397950000001    0.8014424100000002    0.1349845400000000 O
   0.3403397950000001    0.8014424100000002    0.6349845400000000 O
   0.8403397950000000    0.8014424100000002    0.1349845400000000 O
   0.8403397950000000    0.8014424100000002    0.6349845399999999 O
   0.0903397950000000    0.6985575900000001    0.1349845400000000 O
   0.0903397950000000    0.6985575900000001    0.6349845399999999 O
   0.5903397950000000    0.6985575900000001    0.1349845400000000 O
   0.5903397950000000    0.6985575900000001    0.6349845399999999 O
   0.1596602050000000    0.8014424100000002    0.3849845400000000 O
   0.1596602050000000    0.8014424100000002    0.8849845400000000 O
   0.6596602050000000    0.8014424100000002    0.3849845400000000 O
   0.6596602050000000    0.8014424100000002    0.8849845400000000 O
   0.2252111024999995    0.3833765350000000    0.4774601800000000 O
   0.2252111024999995    0.3833765350000000    0.9774601800000000 O
   0.7252111024999994    0.3833765350000000    0.4774601800000000 O
   0.7252111024999994    0.3833765350000000    0.9774601800000000 O
   0.0247888975000000    0.1166234649999990    0.2274601800000000 O
   0.0247888975000000    0.1166234649999990    0.7274601800000000 O
   0.5247888975000000    0.1166234649999990    0.2274601800000000 O
   0.5247888975000000    0.1166234649999990    0.7274601799999999 O
   0.2747888975000000    0.3833765350000000    0.2274601800000000 O
   0.2747888975000000    0.3833765350000000    0.7274601799999999 O
   0.7747888975000000    0.3833765350000000    0.2274601800000000 O
   0.7747888975000000    0.3833765350000000    0.7274601799999999 O
   0.4752111025000000    0.1166234649999990    0.4774601800000000 O
   0.4752111025000000    0.1166234649999990    0.9774601800000000 O
   0.9752111025000001    0.1166234649999990    0.4774601800000000 O
   0.9752111025000001    0.1166234649999990    0.9774601800000000 O
   0.4740098425000001    0.4193290649999992    0.0243313099999995 O
   0.4740098425000001    0.4193290649999992    0.5243313099999996 O
   0.9740098425000001    0.4193290649999992    0.0243313099999995 O
   0.9740098425000001    0.4193290649999992    0.5243313099999996 O
   0.2759901575000000    0.0806709350000000    0.2743313100000000 O
   0.2759901575000000    0.0806709350000000    0.7743313100000000 O
   0.7759901575000001    0.0806709350000000    0.2743313100000000 O
   0.7759901575000001    0.0806709350000000    0.7743313100000000 O
   0.0259901575000000    0.4193290649999992    0.2743313100000000 O
   0.0259901575000000    0.4193290649999992    0.7743313100000000 O
   0.5259901574999999    0.4193290649999992    0.2743313100000001 O
   0.5259901574999999    0.4193290649999992    0.7743313100000000 O
   0.2240098425000000    0.0806709350000000    0.0243313099999995 O
   0.2240098425000000    0.0806709350000000    0.5243313099999996 O
   0.7240098425000000    0.0806709350000000    0.0243313099999995 O
   0.7240098425000000    0.0806709350000000    0.5243313099999996 O
   0.3315062200000000    0.5000000000000000    0.3647130050000000 O
   0.3315062200000000    0.5000000000000000    0.8647130050000000 O
   0.8315062200000001    0.5000000000000000    0.3647130050000000 O
   0.8315062200000001    0.5000000000000000    0.8647130050000000 O
   0.1684937799999995    0.5000000000000000    0.1147130050000000 O
   0.1684937799999995    0.5000000000000000    0.6147130050000000 O
   0.6684937799999996    0.5000000000000000    0.1147130050000000 O
   0.6684937799999996    0.5000000000000000    0.6147130049999999 O
   0.1596602050000000    0.1985575900000000    0.3849845400000000 O
   0.1596602050000000    0.1985575900000000    0.8849845400000000 O
   0.6596602050000000    0.1985575900000000    0.3849845400000000 O
   0.6596602050000000    0.1985575900000000    0.8849845400000000 O
   0.0903397950000000    0.3014424099999991    0.1349845400000000 O
   0.0903397950000000    0.3014424099999991    0.6349845400000000 O
   0.5903397949999999    0.3014424099999991    0.1349845400000000 O
   0.5903397949999999    0.3014424099999991    0.6349845399999999 O
   0.3403397949999999    0.1985575900000000    0.1349845400000000 O
   0.3403397949999999    0.1985575900000000    0.6349845400000000 O
   0.8403397949999999    0.1985575900000000    0.1349845400000000 O
   0.8403397949999999    0.1985575900000000    0.6349845399999999 O
   0.4096602050000001    0.3014424099999991    0.3849845400000000 O
   0.4096602050000001    0.3014424099999991    0.8849845400000000 O
   0.9096602050000001    0.3014424099999991    0.3849845399999999 O
   0.9096602050000001    0.3014424099999991    0.8849845400000000 O
