Na27 Cr27 O54
1.0
   8.9240999222999999    0.0000000000000000    0.0000000000000000
  -4.4620499610000000    7.7284972386000002    0.0000000000000000
   0.0000000000000000    0.0000000000000000   15.9538002014000000
Na Cr O
26 27 54
direct
   0.4444444476666667    0.5555555623333334    0.6666666870000000 Na
   0.0000000000000000    0.0000000000000000    0.0000000000000000 Na
   0.0000000000000000    0.3333333333333333    0.0000000000000000 Na
   0.0000000000000000    0.6666666666666666    0.0000000000000000 Na
   0.3333333333333333    0.0000000000000000    0.0000000000000000 Na
   0.3333333333333333    0.3333333333333333    0.0000000000000000 Na
   0.3333333333333333    0.6666666666666666    0.0000000000000000 Na
   0.6666666666666666    0.0000000000000000    0.0000000000000000 Na
   0.6666666666666666    0.3333333333333333    0.0000000000000000 Na
   0.6666666666666666    0.6666666666666666    0.0000000000000000 Na
   0.2222222290000000    0.1111111143333333    0.3333333430000001 Na
   0.2222222290000000    0.4444444476666667    0.3333333430000001 Na
   0.2222222289999999    0.7777777809999999    0.3333333430000001 Na
   0.5555555623333334    0.1111111143333333    0.3333333430000001 Na
   0.5555555623333333    0.4444444476666667    0.3333333430000001 Na
   0.5555555623333333    0.7777777809999999    0.3333333430000001 Na
   0.8888888956666667    0.1111111143333333    0.3333333430000001 Na
   0.8888888956666666    0.4444444476666667    0.3333333430000001 Na
   0.8888888956666665    0.7777777809999999    0.3333333430000001 Na
   0.1111111143333333    0.2222222290000000    0.6666666870000000 Na
   0.1111111143333333    0.5555555623333334    0.6666666870000000 Na
   0.1111111143333333    0.8888888956666667    0.6666666870000000 Na
   0.4444444476666666    0.8888888956666667    0.6666666870000000 Na
   0.7777777809999999    0.2222222290000000    0.6666666870000000 Na
   0.7777777809999999    0.5555555623333334    0.6666666870000000 Na
   0.7777777809999999    0.8888888956666667    0.6666666870000000 Na
   0.0000000000000000    0.0000000000000000    0.5000000000000000 Cr
   0.0000000000000000    0.3333333333333333    0.5000000000000000 Cr
   0.0000000000000000    0.6666666666666666    0.5000000000000000 Cr
   0.3333333333333333    0.0000000000000000    0.5000000000000000 Cr
   0.3333333333333333    0.3333333333333333    0.5000000000000000 Cr
   0.3333333333333333    0.6666666666666666    0.5000000000000000 Cr
   0.6666666666666666    0.0000000000000000    0.5000000000000000 Cr
   0.6666666666666666    0.3333333333333333    0.5000000000000000 Cr
   0.6666666666666666    0.6666666666666666    0.5000000000000000 Cr
   0.2222222290000000    0.1111111143333333    0.8333333130000001 Cr
   0.2222222290000000    0.4444444476666667    0.8333333130000001 Cr
   0.2222222289999999    0.7777777809999999    0.8333333130000001 Cr
   0.5555555623333334    0.1111111143333333    0.8333333130000001 Cr
   0.5555555623333333    0.4444444476666667    0.8333333130000001 Cr
   0.5555555623333333    0.7777777809999999    0.8333333130000001 Cr
   0.8888888956666667    0.1111111143333333    0.8333333130000001 Cr
   0.8888888956666666    0.4444444476666667    0.8333333130000001 Cr
   0.8888888956666665    0.7777777809999999    0.8333333130000001 Cr
   0.1111111143333333    0.2222222290000000    0.1666666720000000 Cr
   0.1111111143333333    0.5555555623333334    0.1666666720000000 Cr
   0.1111111143333333    0.8888888956666667    0.1666666720000000 Cr
   0.4444444476666666    0.2222222290000000    0.1666666720000000 Cr
   0.4444444476666667    0.5555555623333334    0.1666666720000000 Cr
   0.4444444476666666    0.8888888956666667    0.1666666720000000 Cr
   0.7777777809999999    0.2222222290000000    0.1666666720000000 Cr
   0.7777777809999999    0.5555555623333334    0.1666666720000000 Cr
   0.7777777809999999    0.8888888956666667    0.1666666720000000 Cr
   0.0000000000000000    0.0000000000000000    0.2325000020000000 O
   0.0000000000000000    0.3333333333333333    0.2325000020000000 O
   0.0000000000000000    0.6666666666666666    0.2325000020000000 O
   0.3333333333333333    0.0000000000000000    0.2325000020000000 O
   0.3333333333333333    0.3333333333333333    0.2325000020000000 O
   0.3333333333333333    0.6666666666666666    0.2325000020000000 O
   0.6666666666666666    0.0000000000000000    0.2325000020000000 O
   0.6666666666666666    0.3333333333333333    0.2325000020000000 O
   0.6666666666666666    0.6666666666666666    0.2325000020000000 O
   0.0000000000000000    0.0000000000000000    0.7674999830000001 O
   0.0000000000000000    0.3333333333333333    0.7674999830000001 O
   0.0000000000000000    0.6666666666666666    0.7674999830000001 O
   0.3333333333333333    0.0000000000000000    0.7674999830000001 O
   0.3333333333333333    0.3333333333333333    0.7674999830000001 O
   0.3333333333333333    0.6666666666666666    0.7674999830000001 O
   0.6666666666666666    0.0000000000000000    0.7674999830000001 O
   0.6666666666666666    0.3333333333333333    0.7674999830000001 O
   0.6666666666666666    0.6666666666666666    0.7674999830000001 O
   0.2222222290000000    0.1111111143333333    0.5658333300000001 O
   0.2222222290000000    0.4444444476666667    0.5658333300000001 O
   0.2222222289999999    0.7777777809999999    0.5658333300000001 O
   0.5555555623333334    0.1111111143333333    0.5658333300000001 O
   0.5555555623333333    0.4444444476666667    0.5658333300000001 O
   0.5555555623333333    0.7777777809999999    0.5658333300000001 O
   0.8888888956666667    0.1111111143333333    0.5658333300000001 O
   0.8888888956666666    0.4444444476666667    0.5658333300000001 O
   0.8888888956666665    0.7777777809999999    0.5658333300000001 O
   0.2222222290000000    0.1111111143333333    0.1008333340000000 O
   0.2222222290000000    0.4444444476666667    0.1008333340000000 O
   0.2222222289999999    0.7777777809999999    0.1008333340000000 O
   0.5555555623333334    0.1111111143333333    0.1008333340000000 O
   0.5555555623333333    0.4444444476666667    0.1008333340000000 O
   0.5555555623333333    0.7777777809999999    0.1008333340000000 O
   0.8888888956666667    0.1111111143333333    0.1008333340000000 O
   0.8888888956666666    0.4444444476666667    0.1008333340000000 O
   0.8888888956666665    0.7777777809999999    0.1008333340000000 O
   0.1111111143333333    0.2222222290000000    0.8991666440000001 O
   0.1111111143333333    0.5555555623333334    0.8991666440000001 O
   0.1111111143333333    0.8888888956666667    0.8991666440000001 O
   0.4444444476666666    0.2222222290000000    0.8991666440000001 O
   0.4444444476666667    0.5555555623333334    0.8991666440000001 O
   0.4444444476666666    0.8888888956666667    0.8991666440000001 O
   0.7777777809999999    0.2222222290000000    0.8991666440000001 O
   0.7777777809999999    0.5555555623333334    0.8991666440000001 O
   0.7777777809999999    0.8888888956666667    0.8991666440000001 O
   0.1111111143333333    0.2222222290000000    0.4341666700000000 O
   0.1111111143333333    0.5555555623333334    0.4341666700000000 O
   0.1111111143333333    0.8888888956666667    0.4341666700000000 O
   0.4444444476666666    0.2222222290000000    0.4341666700000000 O
   0.4444444476666667    0.5555555623333334    0.4341666700000000 O
   0.4444444476666666    0.8888888956666667    0.4341666700000000 O
   0.7777777809999999    0.2222222290000000    0.4341666700000000 O
   0.7777777809999999    0.5555555623333334    0.4341666700000000 O
   0.7777777809999999    0.8888888956666667    0.4341666700000000 O
