Na2 Ca2 V4 Si4 P2 O24                   
   1.00000000000000     
     8.8475269999999995    0.1775850000000000    0.0085320000000000
     4.3178450000000002    7.6879540000000004    0.0335740000000000
     4.3793670000000002    2.5608849999999999    7.2146540000000003
   Ca   Na   V    Si   P    O 
     2     2     4     4     2    24
Direct
  0.3913459454319122  0.1463982268403990  0.7408108529171766
  0.9848057641474529  0.9976047712360068  0.0148422243835127
  0.4064601759478896  0.6119473428766187  0.4724997301436948
  0.8575136951749937  0.2576058451312015  0.5930525266514152
  0.3573899238712689  0.3720734791234213  0.3388245897189500
  0.6428740813353394  0.6495848976403582  0.6367141518773810
  0.1386193498045894  0.1541342108199896  0.1406079771726912
  0.8400722901162635  0.8566588315879836  0.8576398473905713
  0.0250819870961201  0.4709787523731347  0.7413347141684319
  0.7524697432108278  0.0377020611758269  0.4534425081383816
  0.4596497555139540  0.7510028527049619  0.0327032600325480
  0.5325780145573129  0.2627048288907031  0.9505594080975800
  0.9585128786913391  0.5491374141291157  0.2430983220998804
  0.2445598254605717  0.9789653648227628  0.5381851657900316
  0.2279030708535038  0.4390471854197767  0.5746912610641851
  0.7706995202745990  0.5716495770173495  0.4048951669463126
  0.5684597681676925  0.2249957837517327  0.4276748286344249
  0.4137270452181387  0.8004200640998507  0.5605279693954118
  0.4272427306699309  0.5820099677172507  0.2243471423400524
  0.5561732498719423  0.4352848072823380  0.7544634274817237
  0.9333481900310825  0.0609758084728310  0.2687090970210296
  0.0706403772751300  0.9595853998799282  0.7174001556978835
  0.0617275395097740  0.2747215998027129  0.9149958412620611
  0.9438389061956500  0.7280118990531703  0.0701323119676194
  0.2713532470507289  0.9370101232987474  0.0331895624671711
  0.7306487071845625  0.0869704609510727  0.9329278667998560
  0.4793407553600388  0.3071557889786042  0.1350416094659092
  0.5113452088488259  0.7114774965074296  0.8473542903505754
  0.1185754507527616  0.5189561119881687  0.2923083491539610
  0.8581079183050890  0.4869245265411024  0.6979797180812748
  0.2754818534468992  0.1473142575951618  0.5182173833951659
  0.7214437509966863  0.8516076570661061  0.4925208103633583
  0.3618998190543669  0.2093847526932474  0.9850482814085928
  0.6282999699258920  0.8022754080515736  0.0050160527465863
  0.2075954456749237  0.0102072735087107  0.3695231281411478
  0.7546783817646361  0.0234192256870227  0.6463164238970538
  0.9969086732866806  0.3765746032503088  0.2065402689090901
  0.9800786021528379  0.6581074766296833  0.7776503562101650
 
             NaN             NaN             NaN
             NaN             NaN             NaN
             NaN             NaN             NaN
             NaN             NaN             NaN
             NaN             NaN             NaN
             NaN             NaN             NaN
             NaN             NaN             NaN
             NaN             NaN             NaN
             NaN             NaN             NaN
             NaN             NaN             NaN
             NaN             NaN             NaN
             NaN             NaN             NaN
             NaN             NaN             NaN
             NaN             NaN             NaN
             NaN             NaN             NaN
             NaN             NaN             NaN
             NaN             NaN             NaN
             NaN             NaN             NaN
             NaN             NaN             NaN
             NaN             NaN             NaN
             NaN             NaN             NaN
             NaN             NaN             NaN
             NaN             NaN             NaN
             NaN             NaN             NaN
             NaN             NaN             NaN
             NaN             NaN             NaN
             NaN             NaN             NaN
             NaN             NaN             NaN
             NaN             NaN             NaN
             NaN             NaN             NaN
             NaN             NaN             NaN
             NaN             NaN             NaN
             NaN             NaN             NaN
             NaN             NaN             NaN
             NaN             NaN             NaN
             NaN             NaN             NaN
             NaN             NaN             NaN
             NaN             NaN             NaN
