Na2 Ca2 V4 Si4 P2 O24
1.0
8.847527 0.177585 0.008532
4.317845 7.687954 0.033574
4.379367 2.560885 7.214654
Ca Na V Si P O
2 2 4 4 2 24
direct
0.397398 0.174382 0.714102 Ca
-0.020765 0.994606 0.023143 Ca
0.427662 0.578282 0.458837 Na
0.866096 0.251066 0.606457 Na
0.354263 0.364622 0.345283 V
0.639811 0.650731 0.639549 V
0.138093 0.151560 0.140733 V
0.838241 0.852151 0.861793 V
0.026296 0.466309 0.745238 Si
0.748695 0.036511 0.457941 Si
0.457057 0.749131 0.037517 Si
0.529147 0.257249 0.954823 Si
0.956863 0.544394 0.245287 P
0.244552 0.968691 0.540008 P
0.227023 0.436673 0.576228 O
0.770518 0.556949 0.410187 O
0.565090 0.225202 0.436191 O
0.414620 0.788978 0.553877 O
0.431557 0.572863 0.222750 O
0.554382 0.435207 0.764286 O
0.927010 0.065026 0.272169 O
0.072665 0.947780 0.721410 O
0.059199 0.267378 0.916772 O
0.937963 0.727856 0.078199 O
0.263455 0.929166 0.051598 O
0.730042 0.085428 0.933783 O
0.470993 0.294967 0.145322 O
0.503530 0.730605 0.841878 O
0.113967 0.511656 0.300101 O
0.855023 0.492109 0.700325 O
0.276741 0.134613 0.524483 O
0.719695 0.852998 0.486700 O
0.362349 0.204378 -0.018920 O
0.626019 0.799249 1.011452 O
0.199876 1.014703 0.370923 O
0.758986 0.013966 0.649878 O
-0.000206 0.379387 0.194439 O
0.978248 0.649549 0.789291 O
