Ca1 Ni12 F42                            
   1.00000000000000     
     7.0463839999999998   -0.0013700000000000    0.0203780000000000
    -3.5210370000000002    6.0634499999999996   -0.0039540000000000
    -0.0686740000000000    0.0493140000000000   16.9154729999999986
   Ca   Ni   F 
     1    12    42
Direct
  0.8122434753467167  0.8583602343802397  0.3143087330060609
  0.3148364945593510  0.9844668487848710  0.3312220991362445
  0.6978638494776683  0.6955411401018282  0.9957101134769252
 -0.0165013633909209  0.2935789377637862  0.6716707903049454
  0.3361808288914731 -0.0039038720388008  0.8338149026404277
  0.6328404298340163  0.6394498465508353  0.5061240397291351
  1.0180456153929833  0.3477900942025695  0.1638836274424729
  0.6347214251185778  0.1430137780038520  0.5080744729325076
  0.5152809407890326  0.3443680240111445  0.1630909875909835
  0.8370255859925542  0.4946587836675779  0.8340544289123920
  0.3384218938042240  0.4973384973188464  0.8333664800889115
  0.1351760224405841  0.6400600787958795  0.5049084510333589
  0.5123407447843161  0.8453391089177401  0.1618331725727716
  0.5799993761680681  0.8309820432599847  0.0526079816451823
  0.2492861868498255  0.4372046397032398  0.7272454566965691
  0.1733404967589012  0.7261992650437783  0.3983523040519454
  0.4617073346342526  0.2482846012746155  0.2671402189530563
  0.8162549794557475  0.5507985007596858  0.9404029714951130
  0.7258474862605843  0.1572205232902819  0.6152517243232346
  0.8797301125168525  0.0709598985574015  0.7370847022219111
  0.1426754655260952  0.0777061080526002  0.3756167401144653
  0.9260683998401374  0.8058929186756512  0.0581893280183175
  0.0978373791280749  0.1813919440834666  0.6088075953231834
  0.0979244945421435  0.8441772141557552  0.2594008406605554
  0.8163722584273152  0.9191249652293503  0.9306207812609895
  0.0972195247530622  0.5568272399812162  0.6111255969674600
  0.4803887009690885  0.8769652464357964  0.2815600869068410
  0.4300177265897294  0.5616584974634594  0.9384860983205301
  0.8556122471337141  0.4319551757013477  0.7290505439375382
  0.5448918574998055  0.1365260843359584  0.3997936998661641
  0.5543466460613914  0.4339907224982416  0.0572008373053655
  0.3386695787907169  0.5428959595947331  0.4868437677052594
  0.2186246864965831  0.6361435849297740  0.1375232325481942
  0.4284721803234723  0.7891167956249699  0.8097639458401197
  0.6371180180003754  0.2023013772117277  0.8568731121498072
  0.5517059830142317  0.3562853329507121  0.5367371209157284
  0.8136265945752315  0.4401883101044901  0.1823599396356485
  0.6603462732247100  0.5849173589759291  0.4013316976694955
  0.9400693433468713  0.2974454554378304  0.0636836810539379
  0.3728841421848872  0.0742494644781011  0.7340313235206127
  0.2990960873082344  0.9184297086160188  0.9336740885611561
  0.6097256433209765  0.7008699471773001  0.6047772539295311
  0.0887287954094883  0.3876550648452621  0.2662672152409674
  0.9300852204819938  0.7389908213916445  0.5205602352585067
  0.8129868208658226  0.0514331992079405  0.1916482841111874
  0.2475419038105177  0.2055924880086903  0.8575799963605052
  0.0363205411404254  0.7873321587708680  0.8108833781032311
  0.7110100152735622  0.9239358199666784  0.4716450571314247
  0.2157217591171144  0.2483489786562676  0.1472696094517750
  0.6130991568078737  0.5548017386455540  0.8005351148102430
  0.9201187068094906  0.3628084486137415  0.4721442859893537
  0.4527816305897597  0.0675927404324028  0.1280476994322872
  0.3459908434491120  0.9185595794586185  0.5383361466917828
  0.5826117442362235  0.6280099140078824  0.2019740652857440
  0.0632663835080168  0.4380026710339062  0.8668074727379155
 
             NaN             NaN             NaN
             NaN             NaN             NaN
             NaN             NaN             NaN
             NaN             NaN             NaN
             NaN             NaN             NaN
             NaN             NaN             NaN
             NaN             NaN             NaN
             NaN             NaN             NaN
             NaN             NaN             NaN
             NaN             NaN             NaN
             NaN             NaN             NaN
             NaN             NaN             NaN
             NaN             NaN             NaN
             NaN             NaN             NaN
             NaN             NaN             NaN
             NaN             NaN             NaN
             NaN             NaN             NaN
             NaN             NaN             NaN
             NaN             NaN             NaN
             NaN             NaN             NaN
             NaN             NaN             NaN
             NaN             NaN             NaN
             NaN             NaN             NaN
             NaN             NaN             NaN
             NaN             NaN             NaN
             NaN             NaN             NaN
             NaN             NaN             NaN
             NaN             NaN             NaN
             NaN             NaN             NaN
             NaN             NaN             NaN
             NaN             NaN             NaN
             NaN             NaN             NaN
             NaN             NaN             NaN
             NaN             NaN             NaN
             NaN             NaN             NaN
             NaN             NaN             NaN
             NaN             NaN             NaN
             NaN             NaN             NaN
             NaN             NaN             NaN
             NaN             NaN             NaN
             NaN             NaN             NaN
             NaN             NaN             NaN
             NaN             NaN             NaN
             NaN             NaN             NaN
             NaN             NaN             NaN
             NaN             NaN             NaN
             NaN             NaN             NaN
             NaN             NaN             NaN
             NaN             NaN             NaN
             NaN             NaN             NaN
             NaN             NaN             NaN
             NaN             NaN             NaN
             NaN             NaN             NaN
             NaN             NaN             NaN
             NaN             NaN             NaN
