Ca1 Ni12 F42
1.0
7.046384 -0.001370 0.020378
-3.521037 6.063450 -0.003954
-0.068674 0.049314 16.915473
Ca Ni F
1 12 42
direct
0.668601 0.497797 0.331100 Ca
0.308528 -0.000563 0.332847 Ni
0.697615 0.698090 0.996671 Ni
0.000056 0.301690 0.670490 Ni
0.347465 0.000081 0.833546 Ni
0.655479 0.659204 0.506785 Ni
0.996920 0.339817 0.159598 Ni
0.654190 0.156629 0.505115 Ni
0.493960 0.341622 0.158672 Ni
0.848193 0.499926 0.834438 Ni
0.348098 0.500087 0.832654 Ni
0.153984 0.658120 0.508054 Ni
0.496590 0.842987 0.161294 Ni
0.564443 0.822424 0.053818 F
0.263786 0.434698 0.727128 F
0.187506 0.743039 0.398005 F
0.446480 0.257439 0.268103 F
0.828284 0.565611 0.940669 F
0.744977 0.178119 0.612444 F
0.889490 0.070370 0.732344 F
0.198863 0.129621 0.391796 F
0.916968 0.804679 0.063061 F
0.115290 0.194547 0.605319 F
0.064804 0.862781 0.274700 F
0.820191 0.928986 0.934804 F
0.123110 0.569573 0.614072 F
0.431907 0.862859 0.273384 F
0.434793 0.566439 0.937113 F
0.869045 0.432657 0.729194 F
0.570757 0.139322 0.392048 F
0.549773 0.428974 0.052788 F
0.361574 0.565245 0.483490 F
0.201365 0.632431 0.136449 F
0.436096 0.792344 0.808416 F
0.643211 0.204477 0.858850 F
0.569358 0.367692 0.530098 F
0.796125 0.434122 0.183311 F
0.686848 0.614106 0.401965 F
0.917384 0.296597 0.059988 F
0.390490 0.083426 0.734008 F
0.304326 0.916952 0.933053 F
0.619628 0.702881 0.606321 F
0.072442 0.385613 0.264671 F
0.948870 0.755011 0.526037 F
0.789504 0.052138 0.187679 F
0.259213 0.208030 0.857625 F
0.051819 0.795205 0.809276 F
0.737615 0.947153 0.478901 F
0.192341 0.242539 0.140594 F
0.627206 0.562046 0.800842 F
0.930466 0.379793 0.467035 F
0.431261 0.059711 0.128111 F
0.374565 0.943576 0.538610 F
0.553209 0.618934 0.197478 F
0.069903 0.437919 0.866250 F
