Ca9 V12 F42                             
   1.00000000000000     
     7.5343280000000004    0.0275950000000000    0.0289430000000000
    -3.7493059999999998    6.4516169999999997   -0.0903780000000000
    -0.5401460000000000    0.4588070000000000   18.4755900000000004
   Ca   V    F 
     9    12    42
Direct
  0.2492134237729161  0.5229673475244464  0.3532572033297257
  0.4994093963676413  0.8501674950508741  0.6665561409865347
  0.6155478849964670  0.1323407243442829  0.9885043951978395
  0.9825464272316705  0.8121882310241937  0.6671833906237952
  0.8164951236809552 -0.0114746854108932  0.3320818628528627
  0.1368713262024533  0.6143887859817446  0.0043594970314572
  0.9698505130503073  0.8035930934143161  0.1667086436034394
  0.8602651570462752  0.0022338626048954  0.8392019264166739
  0.2119883656375868  0.1680178782813937  0.5059915247560501
  0.3306995149582462  0.0325082346587048  0.3308012194806164
  1.0077525649964605  0.3233869485770410  0.6686061039808054
  0.6481352493364980  0.6421234761446786 -0.0004708829699290
  0.3303999926118512  0.9879042489288090  0.8246460977109961
  0.9627388575758961  0.2953188322402743  0.1638137150630377
  0.6781209861047311  0.6815532104685187  0.4972131193136857
  0.4676797507436364  0.8009969881305801  0.1677528374024932
  0.1742911875402366  0.6761851240187794  0.5071033543408234
  0.3359300984133667  0.4990554042726942  0.8317597956866861
  0.8289237101882888  0.4892418709230711  0.8290344818345079
  0.6895545494483529  0.1785810787253203  0.4939774355967044
  0.4685187357850792  0.3043604605952623  0.1599575338955554
  0.7468833777548587  0.1779950858201698  0.6052061980895611
  0.8028571261644309  0.5070484466666718  0.9410208741993217
  0.4267025045716296  0.2891391130442077  0.2687086211830390
  0.2172735341178929  0.7836147777316648  0.4028817433606008
  0.4992997307822953  0.8077488869297580  0.0545324354753571
  0.2891362471099037  0.4807143374784685  0.7213503865885205
  0.7583101334071070  0.9322433287170176  0.9499046522327022
  0.0344665175521164  0.8735500559669063  0.2851681205480094
  0.1162303807870180  0.1532692094733550  0.6166281698368981
  0.9381550952854367  0.7512723278674911  0.0485185312879727
  0.8409200668419928  0.0166076891591719  0.7184505703708254
  0.1770404025910880  0.1764661291562659  0.3848926963985678
  0.5243197710210511  0.3427832463674241  0.0468133748565080
  0.6177749027009048  0.1283179770097765  0.3820988660304926
  0.8717472164463085  0.4758152138860948  0.7186580759877247
  0.3673369329550626  0.5379672928328243  0.9449975550097199
  0.1535449120467631  0.6195417272791134  0.6180510221156318
  0.4259028348115156  0.8171001820507088  0.2821006577549329
  0.7835588897569310  0.4249673583493345  0.1785076660754182
  0.5624610273850280  0.3647483370168089  0.5087122079211316
  0.6355355340378999  0.1777754731560599  0.8569842961039077
  0.4638977337474631  0.8144511537196104  0.8009848297275020
  0.3546017397645158  0.5463309813673056  0.4826724738191474
  0.1659138744800655  0.6017473240679052  0.1345791057748237
  0.0075038324775214  0.3162753080569533  0.2775450379199666
  0.6686229280549381  0.7125537073602162  0.6103836538481120
  0.3028847740296010  0.9120166581827679  0.9363978554611957
  0.3184654714357222  0.9902756024249750  0.7093342580094898
  0.6453864101301414  0.6741300416541653  0.3850703974901927
  0.9144581017491419  0.2917770425150732  0.0495687352939994
  0.1492233492346081  0.1760267406747299  0.1446842881016565
  0.8251096174967546  1.0003430142282470  0.4746316610332513
  0.0192728818157656  0.8038896992301392  0.8018417690250957
  0.2190659918517671  0.1819220289772523  0.8469284636793007
  0.9910669298874685  0.7992972742048644  0.5304196392905117
  0.7719971078789097 -0.0107651079575632  0.2011563175077586
  0.0254764580598967  0.3787912168755245  0.8520276922655413
  0.5951705955080656  0.6194987142914471  0.1615882975833809
  0.4004943990002972  0.9629094967426995  0.5413021240420788
  0.3443507235948390 -0.0132060259970265  0.1587801786182492
  0.6430138154775413  0.6129270474267718  0.8187764960584460
  0.9711496969334774  0.4053296760620627  0.4558179591439918
 
             NaN             NaN             NaN
             NaN             NaN             NaN
             NaN             NaN             NaN
             NaN             NaN             NaN
             NaN             NaN             NaN
             NaN             NaN             NaN
             NaN             NaN             NaN
             NaN             NaN             NaN
             NaN             NaN             NaN
             NaN             NaN             NaN
             NaN             NaN             NaN
             NaN             NaN             NaN
             NaN             NaN             NaN
             NaN             NaN             NaN
             NaN             NaN             NaN
             NaN             NaN             NaN
             NaN             NaN             NaN
             NaN             NaN             NaN
             NaN             NaN             NaN
             NaN             NaN             NaN
             NaN             NaN             NaN
             NaN             NaN             NaN
             NaN             NaN             NaN
             NaN             NaN             NaN
             NaN             NaN             NaN
             NaN             NaN             NaN
             NaN             NaN             NaN
             NaN             NaN             NaN
             NaN             NaN             NaN
             NaN             NaN             NaN
             NaN             NaN             NaN
             NaN             NaN             NaN
             NaN             NaN             NaN
             NaN             NaN             NaN
             NaN             NaN             NaN
             NaN             NaN             NaN
             NaN             NaN             NaN
             NaN             NaN             NaN
             NaN             NaN             NaN
             NaN             NaN             NaN
             NaN             NaN             NaN
             NaN             NaN             NaN
             NaN             NaN             NaN
             NaN             NaN             NaN
             NaN             NaN             NaN
             NaN             NaN             NaN
             NaN             NaN             NaN
             NaN             NaN             NaN
             NaN             NaN             NaN
             NaN             NaN             NaN
             NaN             NaN             NaN
             NaN             NaN             NaN
             NaN             NaN             NaN
             NaN             NaN             NaN
             NaN             NaN             NaN
             NaN             NaN             NaN
             NaN             NaN             NaN
             NaN             NaN             NaN
             NaN             NaN             NaN
             NaN             NaN             NaN
             NaN             NaN             NaN
             NaN             NaN             NaN
             NaN             NaN             NaN
