Ca9 V12 F42
1.0
7.534328 0.027595 0.028943
-3.749306 6.451617 -0.090378
-0.540146 0.458807 18.475590
Ca V F
9 12 42
direct
1.212420 0.502838 0.339106 Ca
0.487187 0.826939 0.667822 Ca
0.624236 0.145227 0.989335 Ca
0.978733 0.802731 0.663701 Ca
0.830166 1.007812 0.334491 Ca
0.144205 0.624083 0.005137 Ca
0.985984 0.829342 0.165492 Ca
0.857511 1.001099 0.838114 Ca
0.203436 0.171635 0.505682 Ca
0.326296 1.005189 0.331480 V
0.994263 0.312545 0.667031 V
0.653909 0.651928 1.000068 V
0.328563 0.986567 0.824572 V
0.982517 0.320472 0.167831 V
0.677884 0.670565 0.496039 V
0.485461 0.823445 0.167391 V
0.170800 0.663178 0.499009 V
0.332780 0.496920 0.831951 V
0.827590 0.488792 0.828889 V
0.677678 0.161414 0.496601 V
0.485933 0.323823 0.165060 V
0.724779 0.153971 0.607804 F
0.804275 0.510893 0.941523 F
0.443537 0.290237 0.276380 F
0.205442 0.730209 0.390141 F
0.509455 0.815978 0.054370 F
0.276487 0.477094 0.721067 F
0.764032 0.941788 0.950056 F
0.031736 0.876877 0.283386 F
0.104618 0.141571 0.617002 F
0.944415 0.762202 0.048546 F
0.833562 0.006857 0.718211 F
0.180364 0.145681 0.387258 F
0.537520 0.359143 0.051586 F
0.613664 0.125641 0.383928 F
0.868024 0.472514 0.718111 F
0.372157 0.543466 0.945209 F
0.146047 0.608090 0.612722 F
0.459828 0.838938 0.279443 F
0.800899 0.446780 0.186375 F
0.558924 0.354962 0.509928 F
0.633936 0.178596 0.856678 F
0.461754 0.811932 0.802619 F
0.360424 0.539700 0.479241 F
0.180439 0.625392 0.135589 F
1.027769 0.329690 0.281583 F
0.662537 0.700159 0.609095 F
0.309756 0.922426 0.937870 F
0.311258 0.975769 0.708707 F
0.678055 0.677012 0.382187 F
0.920345 0.306703 0.053699 F
0.170567 0.203117 0.147367 F
0.812646 0.984053 0.472977 F
0.017377 0.801923 0.802968 F
0.216180 0.180603 0.845587 F
0.986839 0.786876 0.526460 F
0.791494 0.014180 0.198862 F
0.024524 0.379919 0.854103 F
0.610187 0.638046 0.169064 F
0.382095 0.955674 0.531390 F
0.360546 0.008574 0.158857 F
0.638272 0.607866 0.816070 F
0.967176 0.372138 0.467525 F
