Ca8 V12 F42                             
   1.00000000000000     
     7.5634569999999997    0.0061700000000000    0.0595800000000000
    -3.7827500000000001    6.4531980000000004   -0.1182360000000000
    -0.4698470000000000    0.4255190000000000   18.4760269999999984
   Ca   V    F 
     8    12    42
Direct
  0.8863547621809845  0.4617823662424794  0.3446986063108894
  0.4884679391565482  0.8332909720891927  0.6684399002753270
  0.6073128613504987  0.1448487768688864  0.9969201907070049
  0.9842886380005267  0.8126176549045002  0.6632677489384623
  0.1359709047756880  0.6337287954241002  0.0055197662909774
  0.9395930727699892  0.8178899114456875  0.1693627910531536
  0.8556242363250373  0.0082304384922788  0.8398761547857290
  0.1855163422830105  0.1818606627356252  0.4974640317314552
  0.3331115444323033  0.9823998902586223  0.3296587346100802
  0.9995309153224535  0.3148528834350564  0.6682974636960795
  0.6496353979089147  0.6611731248979491  0.9966042568540368
  0.3266123145136312  0.9905926972547554  0.8260488436212529
  0.9810770100778948  0.3214369529978386  0.1611652194113695
  0.6820106796191698  0.6566810980477475  0.5026066760202075
  0.4739050125764717  0.8191131781884323  0.1641238148541615
  0.1784338174410069  0.6614170285034172  0.5032250530847090
  0.3308847725179254  0.4999736160899202  0.8316073482881392
  0.8250233657085005  0.4919473945434307  0.8289931628267542
  0.6720420010359534  0.1526648271777530  0.5006638159332145
  0.4777967510210961  0.3150599509183836  0.1607509911254690
  0.7316209758189665  0.1576444855250545  0.6097889860871190
  0.8027801995336437  0.5182265186867228  0.9413798469784147
  0.4629124239627741  0.2337882801605255  0.2655468138537807
  0.2007019550453116  0.7255727939728707  0.3954598686687035
  0.4970962327621011  0.7858667422190687  0.0534188620401091
  0.2797498825542964  0.4771223042372508  0.7220970025802574
  0.7552045170526233  0.9544097958288025  0.9511246163741849
  0.0574992863612551  0.7984609606261863  0.2758922483138293
  0.1072089409312077  0.1469112777478400  0.6149536493559500
  0.9318448696634694  0.7666590207912415  0.0503759394681084
  0.8377043122490537  0.0126943197754668  0.7200156374662710
  0.2079262729088434  0.1016923604125127  0.3897202383209450
  0.5272825659909146  0.3808331700572154  0.0497860348761100
  0.6051136513970862  0.1444558446248349  0.3912249292057358
  0.8736981506463191  0.4778743887072324  0.7190002809045972
  0.3658481874823182  0.5498221863551330  0.9423077508890407
  0.1512222362935983  0.6060550246611323  0.6152398665723831
  0.4544543254945733  0.8609300517255675  0.2680799288322244
  0.7881181518599947  0.4383233474949557  0.1724924666348100
  0.5613657152804173  0.3457144903483341  0.5195849373652944
  0.6306311716978332  0.1836222230476127  0.8574582905568767
  0.4587949584720691  0.8144266914514635  0.8038136541595141
  0.3694551535261202  0.5435512327736864  0.4924507957502472
  0.1702616021642997  0.6340436111086246  0.1369076053553303
  0.0241539312660382  0.3522795036987859  0.2666651924799820
  0.6631175589695423  0.7040530203671721  0.6134672570415511
  0.3047586079109311  0.9292129995288911  0.9395417466471093
  0.3121407057135423  0.9804111731983042  0.7110909083041665
  0.7419199251992992  0.6048689030059361  0.4044690771055692
  0.9217332671015124  0.3115608014918353  0.0488036795819260
  0.1687200106223034  0.1942012999679148  0.1512005924993147
  0.7901104891471379  0.9641629679720534  0.4872962775301157
  0.0147616797274754  0.8061098576345072  0.8054482684808727
  0.2150303479040290  0.1852589911518018  0.8471233157289858
  0.9914304368937025  0.7799857535809176  0.5313078558479035
  0.7805963069297104  0.0121687731707588  0.1689816945106464
  0.0233328740015402  0.3858627960909408  0.8508924145232014
  0.5727479911624663  0.6152737430558887  0.1868024912688336
  0.3900612969272077  0.9440053362354565  0.5398438738086387
  0.4215806243302764  0.0397391258103829  0.1188794680572446
  0.6342424604708515  0.6074558154366271  0.8174638377800180
  0.9676910939063341  0.3656584392805940  0.4667186948376041
 
             NaN             NaN             NaN
             NaN             NaN             NaN
             NaN             NaN             NaN
             NaN             NaN             NaN
             NaN             NaN             NaN
             NaN             NaN             NaN
             NaN             NaN             NaN
             NaN             NaN             NaN
             NaN             NaN             NaN
             NaN             NaN             NaN
             NaN             NaN             NaN
             NaN             NaN             NaN
             NaN             NaN             NaN
             NaN             NaN             NaN
             NaN             NaN             NaN
             NaN             NaN             NaN
             NaN             NaN             NaN
             NaN             NaN             NaN
             NaN             NaN             NaN
             NaN             NaN             NaN
             NaN             NaN             NaN
             NaN             NaN             NaN
             NaN             NaN             NaN
             NaN             NaN             NaN
             NaN             NaN             NaN
             NaN             NaN             NaN
             NaN             NaN             NaN
             NaN             NaN             NaN
             NaN             NaN             NaN
             NaN             NaN             NaN
             NaN             NaN             NaN
             NaN             NaN             NaN
             NaN             NaN             NaN
             NaN             NaN             NaN
             NaN             NaN             NaN
             NaN             NaN             NaN
             NaN             NaN             NaN
             NaN             NaN             NaN
             NaN             NaN             NaN
             NaN             NaN             NaN
             NaN             NaN             NaN
             NaN             NaN             NaN
             NaN             NaN             NaN
             NaN             NaN             NaN
             NaN             NaN             NaN
             NaN             NaN             NaN
             NaN             NaN             NaN
             NaN             NaN             NaN
             NaN             NaN             NaN
             NaN             NaN             NaN
             NaN             NaN             NaN
             NaN             NaN             NaN
             NaN             NaN             NaN
             NaN             NaN             NaN
             NaN             NaN             NaN
             NaN             NaN             NaN
             NaN             NaN             NaN
             NaN             NaN             NaN
             NaN             NaN             NaN
             NaN             NaN             NaN
             NaN             NaN             NaN
             NaN             NaN             NaN
