Ca8 V12 F42
1.0
7.563457 0.006170 0.059580
-3.782750 6.453198 -0.118236
-0.469847 0.425519 18.476027
Ca V F
8 12 42
direct
0.848674 0.408736 0.337163 Ca
0.487509 0.839117 0.665912 Ca
0.615591 0.149207 0.997534 Ca
0.985284 0.817102 0.661716 Ca
0.144135 0.636116 0.005950 Ca
0.951821 0.825786 0.167611 Ca
0.858471 0.010616 0.838990 Ca
0.156964 0.189606 0.492413 Ca
0.331488 0.982535 0.330237 V
0.999896 0.319185 0.668019 V
0.655631 0.663925 0.996669 V
0.330248 0.993704 0.826262 V
0.987451 0.326061 0.163957 V
0.670956 0.657947 0.502618 V
0.481877 0.823173 0.165197 V
0.169549 0.665469 0.501889 V
0.334816 0.504116 0.831042 V
0.828927 0.495239 0.829573 V
0.663685 0.157653 0.500824 V
0.487329 0.321113 0.162126 V
0.732420 0.169518 0.609561 F
0.807618 0.517634 0.942359 F
0.482036 0.243763 0.267956 F
0.186872 0.727873 0.395018 F
0.504688 0.790788 0.053999 F
0.280702 0.482663 0.721487 F
0.761624 0.957432 0.950921 F
0.054896 0.811297 0.275119 F
0.105105 0.151444 0.612598 F
0.940305 0.771058 0.049292 F
0.839285 0.015797 0.718858 F
0.204282 0.105032 0.388787 F
0.532939 0.384193 0.050705 F
0.597595 0.136884 0.392143 F
0.875977 0.482535 0.719715 F
0.371461 0.552798 0.942204 F
0.142428 0.606983 0.614174 F
0.456801 0.860102 0.269511 F
0.797025 0.445391 0.172210 F
0.545784 0.344355 0.515523 F
0.634922 0.186261 0.857291 F
0.462144 0.818140 0.803093 F
0.359473 0.548089 0.493009 F
0.178072 0.637315 0.138703 F
0.011068 0.346258 0.270199 F
0.661393 0.703563 0.613992 F
0.312669 0.932515 0.940074 F
0.311224 0.983232 0.711172 F
0.719688 0.625243 0.401295 F
0.930531 0.315257 0.050880 F
0.177913 0.202256 0.155483 F
0.784482 0.970066 0.488677 F
0.018085 0.809514 0.806727 F
0.219659 0.189546 0.846966 F
0.984350 0.784033 0.528845 F
0.788474 0.016408 0.170414 F
0.027480 0.389066 0.850115 F
0.584721 0.622140 0.187775 F
0.394085 0.934443 0.544136 F
0.424576 0.042105 0.120854 F
0.638682 0.611950 0.819493 F
0.955348 0.372268 0.465966 F
