Ca1 V4 P6 O24                           
   1.00000000000000     
     2.6157539999999999    7.1260079999999997    4.5038970000000003
     0.1960880000000000    0.1270810000000000    8.8334659999999996
     7.5737949999999996    0.1233830000000000    4.5242170000000002
   Ca   V    P    O 
     1     4     6    24
Direct
  0.2536703142846269  0.8529199812128434  0.6046432000115903
  0.6583650901012762  0.6293299238413204  0.6393884118195952
  0.1370886152485030  0.1407213795693830  0.1382490160143571
  0.8424834928555623  0.8444702180501795  0.8612144039506239
  0.3663029626231877  0.3444164304800934  0.3545347417134797
  0.2545581176886288  0.5180719417160927  0.9655414897494454
  0.0382538226782462  0.7404376865969321  0.4645693200229263
  0.9666286605637148  0.2469118456087641  0.5193619653247304
  0.4581620667973528  0.0202002817792943  0.7484570221481125
  0.5418800746591398  0.9657344710904505  0.2405472775822071
  0.7498484586979434  0.4559488381241982  0.0384026461629630
  0.5755087241688722  0.7767492291625522  0.4113178041252888
  0.2927897868855867  0.0435736355741553  0.9316976868508884
  0.4245071439296875  0.5553796376837644  0.7776908884130042
  0.9307847086755514  0.2789074833628004  0.0472064520682677
  0.7956487476483031  0.4202220496519883  0.5675383403981932
  0.0620432636774169  0.9276368535919302  0.2961496484526802
  0.9414683362096909  0.0612628609353483  0.6891925310124732
  0.5765281302783636  0.4295903214271434  0.2184011058778742
  0.7041312118511224  0.9456779592058895  0.0528269011013868
  0.2134485623757907  0.5713245025031747  0.4210461841240075
  0.0829622373625765  0.7044235614613117  0.9306944305770164
  0.4230710955093717  0.2088661735945618  0.5773484534641878
  0.2295468073864323  0.3453486652431740  0.9900049115430487
  0.8552062599353725  0.7308424335450435  0.4939167126837712
  0.9751709966458221  0.2500706940641268  0.3395262807932529
  0.4696136199949519  0.8612368640280600  0.7102650435069270
  0.3476232484040198 -0.0030050091259689  0.2483776921483858
  0.7128889361232962  0.5038568580064525  0.8630564692517573
  0.2872095160925874  0.4813502530663130  0.1382173042327237
  0.0249200331657071  0.7490510451876353  0.6428021733839367
  0.1544202670135954  0.2417754952866876  0.4969764413130310
  0.6467532498365598  0.9771443488424113  0.7579138083177061
  0.5323800137973237  0.1278192805287886  0.2688186270471967
  0.7804271481598175  0.6259328212807678  0.0135088775497204
 
             NaN             NaN             NaN
             NaN             NaN             NaN
             NaN             NaN             NaN
             NaN             NaN             NaN
             NaN             NaN             NaN
             NaN             NaN             NaN
             NaN             NaN             NaN
             NaN             NaN             NaN
             NaN             NaN             NaN
             NaN             NaN             NaN
             NaN             NaN             NaN
             NaN             NaN             NaN
             NaN             NaN             NaN
             NaN             NaN             NaN
             NaN             NaN             NaN
             NaN             NaN             NaN
             NaN             NaN             NaN
             NaN             NaN             NaN
             NaN             NaN             NaN
             NaN             NaN             NaN
             NaN             NaN             NaN
             NaN             NaN             NaN
             NaN             NaN             NaN
             NaN             NaN             NaN
             NaN             NaN             NaN
             NaN             NaN             NaN
             NaN             NaN             NaN
             NaN             NaN             NaN
             NaN             NaN             NaN
             NaN             NaN             NaN
             NaN             NaN             NaN
             NaN             NaN             NaN
             NaN             NaN             NaN
             NaN             NaN             NaN
             NaN             NaN             NaN
