Ca1 V4 P6 O24
1.0
2.615754 7.126008 4.503897
0.196088 0.127081 8.833466
7.573795 0.123383 4.524217
Ca V P O
1 4 6 24
direct
0.278802 0.828634 0.601542 Ca
0.651486 0.637603 0.644256 V
0.134708 0.143851 0.141226 V
0.843160 0.851102 0.858605 V
0.359327 0.352613 0.352651 V
0.248001 0.527995 0.965185 P
0.036111 0.747195 0.466528 P
0.959978 0.253173 0.522299 P
0.458238 0.028998 0.748196 P
0.534576 0.972165 0.242704 P
0.746698 0.458845 0.038786 P
0.570284 0.787277 0.415980 O
0.296279 0.053300 0.933288 O
0.416585 0.565586 0.775926 O
0.925976 0.281538 0.050749 O
0.793393 0.431005 0.558992 O
0.062531 0.925304 0.288639 O
0.932647 0.072820 0.699395 O
0.573928 0.434788 0.221234 O
0.695065 0.948196 0.057225 O
0.204203 0.569402 0.430082 O
0.074137 0.713183 0.936312 O
0.422090 0.214756 0.578115 O
0.219051 0.356306 0.994516 O
0.849592 0.733800 0.510996 O
0.970975 0.242150 0.348345 O
0.465023 0.866381 0.719927 O
0.339584 0.002299 0.253485 O
0.704640 0.499364 0.868710 O
0.285011 0.493400 0.134499 O
0.030756 0.763221 0.636120 O
0.150432 0.249025 0.493637 O
0.649583 0.983351 0.754208 O
0.522585 0.138504 0.266989 O
0.779822 0.631627 0.003670 O
