Ca7 Mn16 F48                            
   1.00000000000000     
    11.5064659999999996    0.0000090000000000   -0.0000670000000000
     0.0000140000000000    8.2088830000000002   -0.0000090000000000
    -0.0000840000000000   -0.0000120000000000   11.1466239999999992
   Ca   Mn   F 
     7    16    48
Direct
  0.5992709038919035  0.7500054659146476  0.6157777854109225
  0.2204520880183664  0.7499988901369284  0.2513931706624396
  0.2189975316014367  0.7499980039185188  0.7400982013673116
  0.7128789208593050  0.7500012230693869  0.2454808070645204
  0.4672238513207982  0.7500047346796451  0.0032701589221275
  0.9573954093888455  0.7499991701614301  0.0014498748618625
  0.9673434803869045  0.7500022380244802  0.5084003597316638
  0.4961513720433693  0.4862114412694036  0.2561426375062824
  0.4891743596311527  0.4612995421219916  0.7587000906328814
  1.0000604691398076  0.4845838117401800  0.2474413814102463
  0.9921888819089623  0.4865682729075823  0.7500614894065972
  0.2564539513118661  0.0120270465214682  0.4992660897745679
  0.2429897789439057  0.0175523087606516  0.9970390746376216
  0.7537333596343109  0.0334232789824377  0.4961805474676976
  0.7416779592775280  0.0144543916319941  0.9932642394169711
  0.4961581491150728  0.0137934626692696  0.2561455485636955
  0.4891776973809224  0.0386919768996410  0.7587045554524289
  1.0000566669595103  0.0154135253642489  0.2474455440993224
  0.9921832482162830  0.0134265935156722  0.7500613041372040
  0.2564592791246111  0.4879708160834472  0.4992662872995510
  0.2429959847051669  0.4824516498481869  0.9970402982712555
  0.7537291050992824  0.4666240718888727  0.4961762185699128
  0.7416843864745489  0.4855422039629310  0.9932677984503271
  0.4937231447964439  0.2499999245082462  0.2141494061473373
  0.4186292088226768  0.2499945600339632  0.7165770401572170
  0.9777227208345100  0.2500001293927515  0.2141675716278458
  0.9892315926802107  0.2499978887825082  0.7215725342362832
  0.2241521426107803  0.2500031232193961  0.0434120456258424
  0.2308274577988343  0.2499977896670068  0.5262931742951386
  0.7421442502450544  0.2499966841223037  0.0361139431843167
  0.7896341037135037  0.2500603882867206  0.5579112511088624
  0.0187451011845520  0.7499971750602692  0.2975339655038317
  0.0161690411048905  0.7499996690616948  0.7949266432497549
  0.5141568608477900  0.7500040123164010  0.2916924053731849
  0.5191503651488372  0.7500027264913485  0.7955162100411027
  0.2622224225642301  0.7500003795532976  0.4540600733000423
  0.2687507239232862  0.7499965238013317  0.9441105162454073
  0.7376939080625499  0.7499757736351450  0.4681983828766099
  0.7530934601579545  0.7499948222015077  0.9674393592932936
  0.3511413465756946  0.5809426165178060  0.1465817730546173
  0.3553277076302264  0.5737763523620181  0.6561208638920111
  0.8512156393863191  0.5778754699560966  0.1475964245585021
  0.8607007586155068  0.5747875140018815  0.6367162352447832
  0.1006716837781124  0.9170867494304533  0.0979285296461398
  0.1084064919623946  0.9228660298671559  0.5982268302796219
  0.5989083462078020  0.9259362542179574  0.1065827758784625
  0.5999511848852618  1.0127603514368642  0.6004907700031944
  0.1613671502339833  0.0020817209947874  0.3338478173266003
  0.1574215436482273  0.0019668537416061  0.8336736657402920
  0.6655771261075710  0.0053917909154751  0.3356561032051849
  0.6414993298312790  0.0408944665172164  0.8478744125586892
  0.4016822872665562  0.4641555330032153  0.4026785941250625
  0.4096336510254240  0.4945535921442446  0.9210874353023392
  0.9064588818029459  0.5134908041493375  0.4053322794429378
  0.9077326609598014  0.5006861525228331  0.9148580699341965
  0.1613706868042598  0.4979162710034170  0.3338471860303570
  0.1574217612218299  0.4980327581793698  0.8336702680801218
  0.6655673546866280  0.4946076000550363  0.3356464848655163
  0.6414987887885464  0.4590928200790453  0.8478866994503980
  0.4016765156720756  0.0358396074440992  0.4026806138279820
  0.4096423300875780  0.0054382844017479  0.9210928595613256
  0.9064597907982959 -0.0135016101303342  0.4053391653904650
  0.9077240634114726 -0.0006897029856845  0.9148610492165286
  0.3511412608008734  0.9190573664533068  0.1465860070812624
  0.3553201952370419  0.9262174557829752  0.6561178927163744
  0.8512161107647854  0.9221169539331543  0.1475996045859504
  0.8606928299518436  0.9252387467107149  0.6367066235560689
  0.1006730947376069  0.5829081160493818  0.0979267860129219
  0.1084131026381238  0.5771256359855546  0.5982245786871732
  0.5989067334319188  0.5740611920182731  0.1065803722055346
  0.5999425665003913  0.4872205516011324  0.6004979548970633
 
             NaN             NaN             NaN
             NaN             NaN             NaN
             NaN             NaN             NaN
             NaN             NaN             NaN
             NaN             NaN             NaN
             NaN             NaN             NaN
             NaN             NaN             NaN
             NaN             NaN             NaN
             NaN             NaN             NaN
             NaN             NaN             NaN
             NaN             NaN             NaN
             NaN             NaN             NaN
             NaN             NaN             NaN
             NaN             NaN             NaN
             NaN             NaN             NaN
             NaN             NaN             NaN
             NaN             NaN             NaN
             NaN             NaN             NaN
             NaN             NaN             NaN
             NaN             NaN             NaN
             NaN             NaN             NaN
             NaN             NaN             NaN
             NaN             NaN             NaN
             NaN             NaN             NaN
             NaN             NaN             NaN
             NaN             NaN             NaN
             NaN             NaN             NaN
             NaN             NaN             NaN
             NaN             NaN             NaN
             NaN             NaN             NaN
             NaN             NaN             NaN
             NaN             NaN             NaN
             NaN             NaN             NaN
             NaN             NaN             NaN
             NaN             NaN             NaN
             NaN             NaN             NaN
             NaN             NaN             NaN
             NaN             NaN             NaN
             NaN             NaN             NaN
             NaN             NaN             NaN
             NaN             NaN             NaN
             NaN             NaN             NaN
             NaN             NaN             NaN
             NaN             NaN             NaN
             NaN             NaN             NaN
             NaN             NaN             NaN
             NaN             NaN             NaN
             NaN             NaN             NaN
             NaN             NaN             NaN
             NaN             NaN             NaN
             NaN             NaN             NaN
             NaN             NaN             NaN
             NaN             NaN             NaN
             NaN             NaN             NaN
             NaN             NaN             NaN
             NaN             NaN             NaN
             NaN             NaN             NaN
             NaN             NaN             NaN
             NaN             NaN             NaN
             NaN             NaN             NaN
             NaN             NaN             NaN
             NaN             NaN             NaN
             NaN             NaN             NaN
             NaN             NaN             NaN
             NaN             NaN             NaN
             NaN             NaN             NaN
             NaN             NaN             NaN
             NaN             NaN             NaN
             NaN             NaN             NaN
             NaN             NaN             NaN
             NaN             NaN             NaN
