Ca7 Mn16 F48
1.0
11.506466 0.000009 -0.000067
0.000014 8.208883 -0.000009
-0.000084 -0.000012 11.146624
Ca Mn F
7 16 48
direct
0.589139 0.749998 0.624913 Ca
0.216135 0.750002 0.247243 Ca
0.217191 0.750000 0.742095 Ca
0.712095 0.750001 0.245178 Ca
0.465542 0.750000 1.002236 Ca
0.962653 0.750002 0.005463 Ca
0.964088 0.750000 0.507961 Ca
0.495742 0.484257 0.254167 Mn
0.499328 0.487911 0.748159 Mn
0.995324 0.481479 0.253017 Mn
0.994630 0.483538 0.752792 Mn
0.250142 0.015033 0.498108 Mn
0.246063 0.018696 0.996483 Mn
0.743773 0.013572 0.500935 Mn
0.744992 0.015558 0.996310 Mn
0.495741 0.015743 0.254166 Mn
0.499326 0.012087 0.748160 Mn
0.995321 0.018518 0.253019 Mn
0.994628 0.016456 0.752793 Mn
0.250142 0.484966 0.498109 Mn
0.246064 0.481303 0.996483 Mn
0.743775 0.486427 0.500934 Mn
0.744995 0.484439 0.996312 Mn
0.483861 0.249999 0.211248 F
0.484087 0.249998 0.716596 F
0.976254 0.249999 0.207431 F
0.978859 0.249997 0.713805 F
0.224591 0.250002 0.042740 F
0.228842 0.250000 0.536279 F
0.735640 0.249998 0.038633 F
0.734081 0.250001 0.533411 F
0.014529 0.749999 0.302437 F
0.018009 0.750001 0.800824 F
0.511824 0.750008 0.292539 F
0.508773 0.750004 0.795875 F
0.262288 0.750002 0.451566 F
0.264560 0.749999 0.946294 F
0.764401 0.750001 0.451672 F
0.761748 0.750002 0.958787 F
0.351023 0.580457 0.145673 F
0.347737 0.567533 0.653930 F
0.851452 0.579284 0.148804 F
0.860787 0.573771 0.644685 F
0.102233 0.918069 0.102467 F
0.105265 0.919712 0.600557 F
0.600240 0.922264 0.103068 F
0.603185 0.939032 0.600786 F
0.160015 0.004031 0.334366 F
0.158427 0.007345 0.834301 F
0.662730 0.002671 0.332703 F
0.652742 0.019302 0.843895 F
0.403563 0.478095 0.407224 F
0.410401 0.496521 0.914057 F
0.907581 0.495251 0.414546 F
0.912295 0.496942 0.918853 F
0.160017 0.495969 0.334363 F
0.158428 0.492655 0.834298 F
0.662728 0.497329 0.332702 F
0.652746 0.480700 0.843896 F
0.403562 0.021903 0.407223 F
0.410399 0.003478 0.914057 F
0.907581 0.004753 0.414551 F
0.912290 0.003060 0.918856 F
0.351018 0.919543 0.145670 F
0.347737 0.932470 0.653931 F
0.851451 0.920715 0.148807 F
0.860786 0.926223 0.644685 F
0.102234 0.581932 0.102465 F
0.105266 0.580289 0.600552 F
0.600242 0.577739 0.103071 F
0.603184 0.560966 0.600786 F
