Li32 V32 P32 O160
1.0
12.735858 0.000000 0.000000
0.000000 14.588844 0.000000
0.000000 0.000000 15.107958
Li V P O
31 32 32 160
direct
0.500000 0.750000 0.250000 Li
0.000000 0.250000 0.250000 Li
0.000000 0.250000 0.750000 Li
0.000000 0.750000 0.250000 Li
0.000000 0.750000 0.750000 Li
0.500000 0.250000 0.250000 Li
0.500000 0.250000 0.750000 Li
0.500000 0.750000 0.750000 Li
0.250000 0.000000 0.000000 Li
0.250000 0.000000 0.500000 Li
0.250000 0.500000 0.000000 Li
0.250000 0.500000 0.500000 Li
0.750000 0.000000 0.000000 Li
0.750000 0.000000 0.500000 Li
0.750000 0.500000 0.000000 Li
0.750000 0.500000 0.500000 Li
0.250000 0.250000 0.250000 Li
0.250000 0.250000 0.750000 Li
0.250000 0.750000 0.250000 Li
0.250000 0.750000 0.750000 Li
0.750000 0.250000 0.250000 Li
0.750000 0.250000 0.750000 Li
0.750000 0.750000 0.750000 Li
0.000000 0.000000 0.000000 Li
0.000000 0.000000 0.500000 Li
0.000000 0.500000 0.000000 Li
0.000000 0.500000 0.500000 Li
0.500000 0.000000 0.000000 Li
0.500000 0.000000 0.500000 Li
0.500000 0.500000 0.000000 Li
0.500000 0.500000 0.500000 Li
0.125000 0.109716 0.335524 V
0.125000 0.109716 0.835524 V
0.125000 0.609716 0.335524 V
0.125000 0.609716 0.835524 V
0.625000 0.109716 0.335524 V
0.625000 0.109716 0.835524 V
0.625000 0.609716 0.335524 V
0.625000 0.609716 0.835524 V
0.125000 0.140283 0.085524 V
0.125000 0.140283 0.585524 V
0.125000 0.640283 0.085524 V
0.125000 0.640283 0.585524 V
0.625000 0.140283 0.085524 V
0.625000 0.140283 0.585524 V
0.625000 0.640283 0.085524 V
0.625000 0.640283 0.585524 V
0.375000 0.390283 0.164476 V
0.375000 0.390283 0.664476 V
0.375000 0.890283 0.164476 V
0.375000 0.890283 0.664476 V
0.875000 0.390283 0.164476 V
0.875000 0.390283 0.664476 V
0.875000 0.890283 0.164476 V
0.875000 0.890283 0.664476 V
0.375000 0.359717 0.414476 V
0.375000 0.359717 0.914476 V
0.375000 0.859717 0.414476 V
0.375000 0.859717 0.914476 V
0.875000 0.359717 0.414476 V
0.875000 0.359717 0.914476 V
0.875000 0.859717 0.414476 V
0.875000 0.859717 0.914476 V
0.125000 0.311874 0.437248 P
0.125000 0.311874 0.937248 P
0.125000 0.811874 0.437248 P
0.125000 0.811874 0.937248 P
0.625000 0.311874 0.437248 P
0.625000 0.311874 0.937248 P
0.625000 0.811874 0.437248 P
0.625000 0.811874 0.937248 P
0.125000 0.438126 0.187248 P
0.125000 0.438126 0.687248 P
0.125000 0.938126 0.187248 P
0.125000 0.938126 0.687248 P
0.625000 0.438126 0.187248 P
0.625000 0.438126 0.687248 P
0.625000 0.938126 0.187248 P
0.625000 0.938126 0.687248 P
0.375000 0.188126 0.062752 P
0.375000 0.188126 0.562752 P
0.375000 0.688126 0.062752 P
0.375000 0.688126 0.562752 P
0.875000 0.188126 0.062752 P
0.875000 0.188126 0.562752 P
0.875000 0.688126 0.062752 P
0.875000 0.688126 0.562752 P
0.375000 0.061874 0.312752 P
0.375000 0.061874 0.812752 P
0.375000 0.561874 0.312752 P
0.375000 0.561874 0.812752 P
0.875000 0.061874 0.312752 P
0.875000 0.061874 0.812752 P
0.875000 0.561874 0.312752 P
0.875000 0.561874 0.812752 P
0.125000 0.495089 0.272090 O
0.125000 0.495089 0.772090 O
0.125000 0.995089 0.272090 O
0.125000 0.995089 0.772090 O
0.625000 0.495089 0.272090 O
0.625000 0.495089 0.772090 O
0.625000 0.995089 0.272090 O
0.625000 0.995089 0.772090 O
0.125000 0.254911 0.022090 O
0.125000 0.254911 0.522090 O
0.125000 0.754911 0.022090 O
0.125000 0.754911 0.522090 O
0.625000 0.254911 0.022090 O
0.625000 0.254911 0.522090 O
0.625000 0.754911 0.022090 O
0.625000 0.754911 0.522090 O
0.375000 0.004911 0.227911 O
0.375000 0.004911 0.727911 O
0.375000 0.504911 0.227911 O
0.375000 0.504911 0.727911 O
0.875000 0.004911 0.227911 O
0.875000 0.004911 0.727911 O
0.875000 0.504911 0.227911 O
0.875000 0.504911 0.727911 O
0.375000 0.245089 0.477910 O
0.375000 0.245089 0.977910 O
0.375000 0.745089 0.477910 O
0.375000 0.745089 0.977910 O
0.875000 0.245089 0.477910 O
0.875000 0.245089 0.977910 O
0.875000 0.745089 0.477910 O
0.875000 0.745089 0.977910 O
0.278191 0.126575 0.314381 O
0.278191 0.126575 0.814381 O
0.278191 0.626575 0.314381 O
0.278191 0.626575 0.814381 O
0.778191 0.126575 0.314381 O
0.778191 0.126575 0.814381 O
0.778191 0.626575 0.314381 O
0.778191 0.626575 0.814381 O
0.471809 0.123425 0.064381 O
0.471809 0.123425 0.564381 O
0.471809 0.623425 0.064381 O
0.471809 0.623425 0.564381 O
0.971809 0.123425 0.064381 O
0.971809 0.123425 0.564381 O
0.971809 0.623425 0.064381 O
0.971809 0.623425 0.564381 O
0.028191 0.373426 0.185619 O
0.028191 0.373426 0.685619 O
0.028191 0.873426 0.185619 O
0.028191 0.873426 0.685619 O
0.528191 0.373426 0.185619 O
0.528191 0.373426 0.685619 O
0.528191 0.873426 0.185619 O
0.528191 0.873426 0.685619 O
0.221809 0.376574 0.435619 O
0.221809 0.376574 0.935619 O
0.221809 0.876574 0.435619 O
0.221809 0.876574 0.935619 O
0.721809 0.376574 0.435619 O
0.721809 0.376574 0.935619 O
0.721809 0.876574 0.435619 O
0.721809 0.876574 0.935619 O
0.221809 0.373426 0.185619 O
0.221809 0.373426 0.685619 O
0.221809 0.873426 0.185619 O
0.221809 0.873426 0.685619 O
0.721809 0.373426 0.185619 O
0.721809 0.373426 0.685619 O
0.721809 0.873426 0.185619 O
0.721809 0.873426 0.685619 O
0.028191 0.376574 0.435619 O
0.028191 0.376574 0.935619 O
0.028191 0.876574 0.435619 O
0.028191 0.876574 0.935619 O
0.528191 0.376574 0.435619 O
0.528191 0.376574 0.935619 O
0.528191 0.876574 0.435619 O
0.528191 0.876574 0.935619 O
0.471809 0.126575 0.314381 O
0.471809 0.126575 0.814381 O
0.471809 0.626575 0.314381 O
0.471809 0.626575 0.814381 O
0.971809 0.126575 0.314381 O
0.971809 0.126575 0.814381 O
0.971809 0.626575 0.314381 O
0.971809 0.626575 0.814381 O
0.278191 0.123425 0.064381 O
0.278191 0.123425 0.564381 O
0.278191 0.623425 0.064381 O
0.278191 0.623425 0.564381 O
0.778191 0.123425 0.064381 O
0.778191 0.123425 0.564381 O
0.778191 0.623425 0.064381 O
0.778191 0.623425 0.564381 O
0.125000 0.249527 0.353546 O
0.125000 0.249527 0.853546 O
0.125000 0.749527 0.353546 O
0.125000 0.749527 0.853546 O
0.625000 0.249527 0.353546 O
0.625000 0.249527 0.853546 O
0.625000 0.749527 0.353546 O
0.625000 0.749527 0.853546 O
0.125000 0.000473 0.103546 O
0.125000 0.000473 0.603546 O
0.125000 0.500473 0.103546 O
0.125000 0.500473 0.603546 O
0.625000 0.000473 0.103546 O
0.625000 0.000473 0.603546 O
0.625000 0.500473 0.103546 O
0.625000 0.500473 0.603546 O
0.375000 0.250473 0.146454 O
0.375000 0.250473 0.646454 O
0.375000 0.750473 0.146454 O
0.375000 0.750473 0.646454 O
0.875000 0.250473 0.146454 O
0.875000 0.250473 0.646454 O
0.875000 0.750473 0.146454 O
0.875000 0.750473 0.646454 O
0.375000 0.499527 0.396454 O
0.375000 0.499527 0.896454 O
0.375000 0.999527 0.396454 O
0.375000 0.999527 0.896454 O
0.875000 0.499527 0.396454 O
0.875000 0.499527 0.896454 O
0.875000 0.999527 0.396454 O
0.875000 0.999527 0.896454 O
0.125000 0.076969 0.443334 O
0.125000 0.076969 0.943334 O
0.125000 0.576969 0.443334 O
0.125000 0.576969 0.943334 O
0.625000 0.076969 0.443334 O
0.625000 0.076969 0.943334 O
0.625000 0.576969 0.443334 O
0.625000 0.576969 0.943334 O
0.125000 0.173031 0.193334 O
0.125000 0.173031 0.693334 O
0.125000 0.673031 0.193334 O
0.125000 0.673031 0.693334 O
0.625000 0.173031 0.193334 O
0.625000 0.173031 0.693334 O
0.625000 0.673031 0.193334 O
0.625000 0.673031 0.693334 O
0.375000 0.423031 0.056667 O
0.375000 0.423031 0.556667 O
0.375000 0.923031 0.056667 O
0.375000 0.923031 0.556667 O
0.875000 0.423031 0.056667 O
0.875000 0.423031 0.556667 O
0.875000 0.923031 0.056667 O
0.875000 0.923031 0.556667 O
0.375000 0.326969 0.306666 O
0.375000 0.326969 0.806666 O
0.375000 0.826969 0.306666 O
0.375000 0.826969 0.806666 O
0.875000 0.326969 0.306666 O
0.875000 0.326969 0.806666 O
0.875000 0.826969 0.306666 O
0.875000 0.826969 0.806666 O
