Ca64 Ru32 O128
1.0
  10.7708896999999997    0.0000000000000000    0.0000000000000006
  -0.0000000000000006   10.8452762000000025    0.0000000000000006
   0.0000000000000000    0.0000000000000000   24.1850415400000003
Ca Ru O
63 32 128
direct
   0.7446439499999995    0.4778159850000000    0.4246362650000000 Ca
   0.2446439499999996    0.4778159850000000    0.4246362650000000 Ca
   0.2446439499999996    0.4778159850000000    0.9246362650000001 Ca
   0.2446439499999995    0.9778159850000000    0.4246362650000000 Ca
   0.2446439499999995    0.9778159850000000    0.9246362650000001 Ca
   0.7446439499999995    0.4778159850000000    0.9246362650000001 Ca
   0.7446439499999995    0.9778159850000000    0.4246362650000000 Ca
   0.7446439499999995    0.9778159850000000    0.9246362650000001 Ca
   0.2553560500000000    0.2278159850000000    0.3253637350000000 Ca
   0.2553560500000000    0.2278159850000000    0.8253637350000000 Ca
   0.2553560500000000    0.7278159850000000    0.3253637350000000 Ca
   0.2553560500000000    0.7278159850000000    0.8253637349999999 Ca
   0.7553560499999999    0.2278159850000000    0.8253637349999999 Ca
   0.7553560499999999    0.7278159850000000    0.3253637350000000 Ca
   0.7553560499999999    0.7278159850000000    0.8253637349999999 Ca
   0.2553560500000000    0.0221840150000000    0.0753637350000000 Ca
   0.2553560500000000    0.0221840150000000    0.5753637350000000 Ca
   0.2553560500000000    0.5221840150000000    0.0753637350000000 Ca
   0.2553560500000000    0.5221840150000000    0.5753637350000000 Ca
   0.7553560499999999    0.0221840150000000    0.0753637350000000 Ca
   0.7553560499999999    0.0221840150000000    0.5753637350000000 Ca
   0.7553560499999999    0.5221840150000000    0.0753637350000000 Ca
   0.7553560499999999    0.5221840150000000    0.5753637350000000 Ca
   0.0053560500000000    0.2278159850000000    0.4246362650000001 Ca
   0.0053560500000000    0.2278159850000000    0.9246362650000001 Ca
   0.0053560500000000    0.7278159850000000    0.4246362650000000 Ca
   0.0053560500000000    0.7278159850000000    0.9246362650000001 Ca
   0.5053560499999999    0.2278159850000000    0.4246362650000000 Ca
   0.5053560499999999    0.2278159850000000    0.9246362650000001 Ca
   0.5053560499999999    0.7278159850000000    0.4246362650000000 Ca
   0.5053560499999999    0.7278159850000000    0.9246362650000001 Ca
   0.2446439499999996    0.2721840150000000    0.1746362650000000 Ca
   0.2446439499999996    0.2721840150000000    0.6746362650000001 Ca
   0.2446439499999996    0.7721840150000001    0.1746362650000000 Ca
   0.2446439499999996    0.7721840150000001    0.6746362650000001 Ca
   0.7446439499999995    0.2721840150000000    0.1746362650000000 Ca
   0.7446439499999995    0.2721840150000000    0.6746362650000001 Ca
   0.7446439499999995    0.7721840150000001    0.1746362650000000 Ca
   0.7446439499999995    0.7721840150000001    0.6746362650000001 Ca
   0.4946439499999995    0.4778159850000000    0.3253637350000000 Ca
   0.4946439499999995    0.4778159850000000    0.8253637349999999 Ca
   0.4946439499999996    0.9778159850000000    0.3253637350000000 Ca
   0.4946439499999996    0.9778159850000000    0.8253637349999999 Ca
   0.9946439499999995    0.4778159850000000    0.3253637350000000 Ca
   0.9946439499999995    0.4778159850000000    0.8253637349999999 Ca
   0.9946439499999995    0.9778159850000000    0.3253637350000000 Ca
   0.9946439499999995    0.9778159850000000    0.8253637349999999 Ca
   0.4946439499999995    0.2721840150000000    0.0753637350000000 Ca
   0.4946439499999995    0.2721840150000000    0.5753637350000000 Ca
   0.4946439499999996    0.7721840150000001    0.0753637350000000 Ca
   0.4946439499999996    0.7721840150000001    0.5753637350000000 Ca
   0.9946439499999995    0.2721840150000000    0.0753637350000000 Ca
   0.9946439499999995    0.2721840150000000    0.5753637350000000 Ca
   0.9946439499999995    0.7721840150000001    0.0753637350000000 Ca
   0.9946439499999995    0.7721840150000001    0.5753637350000000 Ca
   0.0053560500000000    0.0221840150000000    0.1746362650000000 Ca
   0.0053560500000000    0.0221840150000000    0.6746362650000001 Ca
   0.0053560500000000    0.5221840150000000    0.1746362650000000 Ca
   0.0053560500000000    0.5221840150000000    0.6746362650000001 Ca
   0.5053560499999999    0.0221840150000000    0.1746362650000000 Ca
   0.5053560499999999    0.0221840150000000    0.6746362650000001 Ca
   0.5053560499999999    0.5221840150000000    0.1746362650000000 Ca
   0.5053560499999999    0.5221840150000000    0.6746362650000001 Ca
   0.2500000000000000    0.0000000000000000    0.2500000000000000 Ru
   0.2500000000000000    0.0000000000000000    0.7500000000000000 Ru
   0.2500000000000000    0.5000000000000000    0.2500000000000000 Ru
   0.2500000000000000    0.5000000000000000    0.7500000000000000 Ru
   0.7500000000000000    0.0000000000000000    0.2500000000000000 Ru
   0.7500000000000000    0.0000000000000000    0.7500000000000000 Ru
   0.7500000000000000    0.5000000000000000    0.2500000000000000 Ru
   0.7500000000000000    0.5000000000000000    0.7500000000000000 Ru
   0.0000000000000000    0.2500000000000000    0.2500000000000000 Ru
   0.0000000000000000    0.2500000000000000    0.7500000000000000 Ru
   0.0000000000000000    0.7500000000000000    0.2500000000000000 Ru
   0.0000000000000000    0.7500000000000000    0.7500000000000000 Ru
   0.5000000000000000    0.2500000000000000    0.2500000000000000 Ru
   0.5000000000000000    0.2500000000000000    0.7500000000000000 Ru
   0.5000000000000000    0.7500000000000000    0.2500000000000000 Ru
   0.5000000000000000    0.7500000000000000    0.7500000000000000 Ru
   0.2500000000000000    0.2500000000000000    0.0000000000000000 Ru
   0.2500000000000000    0.2500000000000000    0.5000000000000000 Ru
   0.2500000000000000    0.7500000000000000    0.0000000000000000 Ru
   0.2500000000000000    0.7500000000000000    0.5000000000000000 Ru
   0.7500000000000000    0.2500000000000000    0.0000000000000000 Ru
   0.7500000000000000    0.2500000000000000    0.5000000000000000 Ru
   0.7500000000000000    0.7500000000000000    0.0000000000000000 Ru
   0.7500000000000000    0.7500000000000000    0.5000000000000000 Ru
   0.0000000000000000    0.0000000000000000    0.0000000000000000 Ru
   0.0000000000000000    0.0000000000000000    0.5000000000000000 Ru
   0.0000000000000000    0.5000000000000000    0.0000000000000000 Ru
   0.0000000000000000    0.5000000000000000    0.5000000000000000 Ru
   0.5000000000000000    0.0000000000000000    0.0000000000000000 Ru
   0.5000000000000000    0.0000000000000000    0.5000000000000000 Ru
   0.5000000000000000    0.5000000000000000    0.0000000000000000 Ru
   0.5000000000000000    0.5000000000000000    0.5000000000000000 Ru
   0.3492210150000000    0.1501480850000000    0.2388763950000000 O
   0.3492210150000000    0.1501480850000000    0.7388763949999999 O
   0.3492210150000000    0.6501480850000000    0.2388763950000000 O
   0.3492210150000000    0.6501480850000000    0.7388763949999999 O
   0.8492210150000000    0.1501480850000000    0.2388763950000000 O
   0.8492210150000000    0.1501480850000000    0.7388763949999999 O
   0.8492210150000000    0.6501480850000000    0.2388763950000000 O
   0.8492210150000000    0.6501480850000000    0.7388763949999999 O
   0.0992210150000000    0.0998519149999995    0.2611236050000000 O
   0.0992210150000000    0.0998519149999995    0.7611236050000001 O
   0.0992210150000000    0.5998519149999996    0.2611236050000000 O
   0.0992210150000000    0.5998519149999996    0.7611236050000001 O
   0.5992210149999999    0.0998519149999995    0.2611236050000000 O
   0.5992210149999999    0.0998519149999995    0.7611236050000001 O
   0.5992210149999999    0.5998519149999996    0.2611236050000000 O
   0.5992210149999999    0.5998519149999996    0.7611236050000001 O
   0.1507789849999995    0.4001480850000000    0.0111236050000000 O
   0.1507789849999995    0.4001480850000000    0.5111236050000000 O
   0.1507789849999995    0.9001480850000002    0.0111236050000000 O
   0.1507789849999995    0.9001480850000002    0.5111236050000000 O
   0.6507789849999994    0.4001480850000000    0.0111236050000000 O
   0.6507789849999994    0.4001480850000000    0.5111236050000000 O
   0.6507789849999994    0.9001480850000002    0.0111236050000000 O
   0.6507789849999994    0.9001480850000002    0.5111236050000000 O
   0.4007789849999995    0.3498519149999995    0.4888763950000000 O
   0.4007789849999995    0.3498519149999995    0.9888763950000001 O
   0.4007789849999996    0.8498519149999996    0.4888763950000000 O
   0.4007789849999996    0.8498519149999996    0.9888763950000001 O
   0.9007789849999995    0.3498519149999995    0.4888763950000000 O
   0.9007789849999995    0.3498519149999995    0.9888763950000001 O
   0.9007789849999995    0.8498519149999996    0.4888763950000000 O
   0.9007789849999995    0.8498519149999996    0.9888763950000001 O
   0.1507789849999995    0.3498519149999995    0.2611236050000000 O
   0.1507789849999995    0.3498519149999995    0.7611236050000001 O
   0.1507789849999995    0.8498519149999996    0.2611236050000000 O
   0.1507789849999995    0.8498519149999996    0.7611236050000001 O
   0.6507789849999994    0.3498519149999995    0.2611236050000000 O
   0.6507789849999994    0.3498519149999995    0.7611236050000001 O
   0.6507789849999994    0.8498519149999996    0.2611236050000000 O
   0.6507789849999994    0.8498519149999996    0.7611236050000001 O
   0.4007789849999995    0.4001480850000000    0.2388763950000000 O
   0.4007789849999995    0.4001480850000000    0.7388763949999999 O
   0.4007789849999996    0.9001480850000002    0.2388763950000000 O
   0.4007789849999996    0.9001480850000002    0.7388763949999999 O
   0.9007789849999995    0.4001480850000000    0.2388763950000000 O
   0.9007789849999995    0.4001480850000000    0.7388763949999999 O
   0.9007789849999995    0.9001480850000002    0.2388763950000000 O
   0.9007789849999995    0.9001480850000002    0.7388763949999999 O
   0.3492210150000000    0.0998519149999995    0.4888763950000000 O
   0.3492210150000000    0.0998519149999995    0.9888763950000001 O
   0.3492210150000000    0.5998519149999996    0.4888763950000000 O
   0.3492210150000000    0.5998519149999996    0.9888763950000001 O
   0.8492210150000000    0.0998519149999995    0.4888763950000000 O
   0.8492210150000000    0.0998519149999995    0.9888763950000001 O
   0.8492210150000000    0.5998519149999996    0.4888763950000000 O
   0.8492210150000000    0.5998519149999996    0.9888763950000001 O
   0.0992210150000000    0.1501480850000000    0.0111236050000000 O
   0.0992210150000000    0.1501480850000000    0.5111236050000000 O
   0.0992210150000000    0.6501480850000000    0.0111236050000000 O
   0.0992210150000000    0.6501480850000000    0.5111236050000000 O
   0.5992210149999999    0.1501480850000000    0.0111236050000000 O
   0.5992210149999999    0.1501480850000000    0.5111236050000000 O
   0.5992210149999999    0.6501480850000000    0.0111236050000000 O
   0.5992210149999999    0.6501480850000000    0.5111236050000000 O
   0.2210862499999995    0.4921644150000000    0.1669599150000000 O
   0.2210862499999995    0.4921644150000000    0.6669599150000001 O
   0.2210862499999995    0.9921644150000000    0.1669599150000000 O
   0.2210862499999995    0.9921644150000000    0.6669599150000001 O
   0.7210862499999995    0.4921644150000000    0.1669599150000000 O
   0.7210862499999995    0.4921644150000000    0.6669599150000001 O
   0.7210862499999995    0.9921644150000000    0.1669599150000000 O
   0.7210862499999995    0.9921644150000000    0.6669599150000000 O
   0.4710862499999995    0.2578355850000000    0.3330400850000000 O
   0.4710862499999995    0.2578355850000000    0.8330400850000000 O
   0.4710862499999996    0.7578355849999999    0.3330400850000000 O
   0.4710862499999996    0.7578355849999999    0.8330400849999999 O
   0.9710862499999996    0.2578355850000000    0.3330400850000000 O
   0.9710862499999996    0.2578355850000000    0.8330400849999999 O
   0.9710862499999996    0.7578355849999999    0.3330400849999999 O
   0.9710862499999996    0.7578355849999999    0.8330400849999999 O
   0.2789137500000000    0.2421644149999995    0.0830400849999995 O
   0.2789137500000000    0.2421644149999995    0.5830400849999996 O
   0.2789137500000000    0.7421644149999995    0.0830400849999995 O
   0.2789137500000000    0.7421644149999995    0.5830400849999995 O
   0.7789137500000000    0.2421644149999995    0.0830400849999995 O
   0.7789137500000000    0.2421644149999995    0.5830400849999995 O
   0.7789137500000000    0.7421644149999995    0.0830400849999995 O
   0.7789137500000000    0.7421644149999995    0.5830400849999995 O
   0.0289137500000000    0.0078355849999995    0.4169599150000000 O
   0.0289137500000000    0.0078355849999995    0.9169599150000001 O
   0.0289137500000000    0.5078355849999995    0.4169599150000000 O
   0.0289137500000000    0.5078355849999995    0.9169599150000001 O
   0.5289137500000000    0.0078355849999995    0.4169599150000000 O
   0.5289137500000000    0.0078355849999995    0.9169599150000001 O
   0.5289137500000000    0.5078355849999995    0.4169599150000000 O
   0.5289137500000000    0.5078355849999995    0.9169599150000001 O
   0.2789137500000000    0.0078355849999995    0.3330400850000000 O
   0.2789137500000000    0.0078355849999995    0.8330400850000000 O
   0.2789137500000000    0.5078355849999995    0.3330400850000000 O
   0.2789137500000000    0.5078355849999995    0.8330400850000000 O
   0.7789137500000000    0.0078355849999995    0.3330400850000000 O
   0.7789137500000000    0.0078355849999995    0.8330400850000000 O
   0.7789137500000000    0.5078355849999995    0.3330400850000000 O
   0.7789137500000000    0.5078355849999995    0.8330400849999999 O
   0.0289137500000000    0.2421644149999995    0.1669599150000000 O
   0.0289137500000000    0.2421644149999995    0.6669599150000001 O
   0.0289137500000000    0.7421644149999995    0.1669599150000000 O
   0.0289137500000000    0.7421644149999995    0.6669599150000001 O
   0.5289137500000000    0.2421644149999995    0.1669599150000000 O
   0.5289137500000000    0.2421644149999995    0.6669599150000001 O
   0.5289137500000000    0.7421644149999995    0.1669599150000000 O
   0.5289137500000000    0.7421644149999995    0.6669599150000001 O
   0.2210862499999995    0.2578355850000000    0.4169599150000000 O
   0.2210862499999995    0.2578355850000000    0.9169599150000001 O
   0.2210862499999995    0.7578355849999999    0.4169599150000000 O
   0.2210862499999995    0.7578355849999999    0.9169599150000001 O
   0.7210862499999995    0.2578355850000000    0.4169599150000000 O
   0.7210862499999995    0.2578355850000000    0.9169599150000001 O
   0.7210862499999995    0.7578355849999999    0.4169599150000000 O
   0.7210862499999995    0.7578355849999999    0.9169599150000001 O
   0.4710862499999995    0.4921644150000000    0.0830400849999995 O
   0.4710862499999995    0.4921644150000000    0.5830400849999995 O
   0.4710862499999996    0.9921644150000000    0.0830400849999995 O
   0.4710862499999996    0.9921644150000000    0.5830400849999995 O
   0.9710862499999996    0.4921644150000000    0.0830400849999995 O
   0.9710862499999996    0.4921644150000000    0.5830400849999995 O
   0.9710862499999996    0.9921644150000000    0.0830400849999995 O
   0.9710862499999996    0.9921644150000000    0.5830400849999995 O
