Ca16 Ti32 O64
1.0
  11.3954123008501398    0.0000243002710175    0.0000823442367690
   0.0000256706361144   11.8078757547743365    0.0000884964132704
   0.0000676916877106    0.0000756829956292   10.2221134126913515
Ca Ti O
15 32 64
direct
   0.4999690236573037    0.2500007242695057    0.2285949117093138 Ca
   0.4999721040405195    0.9999978307195994    0.4189959050156614 Ca
   0.4999721040405196    0.9999978307195994    0.9189959050156614 Ca
   0.4999721040405196    0.4999978307195994    0.9189959050156615 Ca
   0.0000309987951933    0.2500031687528020    0.0810482029099803 Ca
   0.0000309987951933    0.2500031687528020    0.5810482029099804 Ca
   0.0000309987951933    0.7500031687528022    0.0810482029099803 Ca
   0.0000309987951933    0.7500031687528020    0.5810482029099804 Ca
   0.0000280524058740    0.0000013719422303    0.2713747962254064 Ca
   0.0000280524058740    0.0000013719422303    0.7713747962254065 Ca
   0.0000280524058740    0.5000013719422304    0.2713747962254064 Ca
   0.0000280524058740    0.5000013719422303    0.7713747962254065 Ca
   0.4999690236573037    0.2500007242695057    0.7285949117093138 Ca
   0.4999690236573036    0.7500007242695056    0.2285949117093138 Ca
   0.4999690236573037    0.7500007242695056    0.7285949117093140 Ca
   0.2601557853608026    0.0000070919324283    0.2363091395428359 Ti
   0.2601557853608026    0.0000070919324283    0.7363091395428359 Ti
   0.2601557853608026    0.5000070919324282    0.2363091395428359 Ti
   0.2601557853608026    0.5000070919324282    0.7363091395428361 Ti
   0.7602547257807774    0.2499911235455501    0.2636908566769319 Ti
   0.7602547257807775    0.2499911235455500    0.7636908566769319 Ti
   0.7602547257807774    0.7499911235455501    0.2636908566769319 Ti
   0.7602547257807775    0.7499911235455501    0.7636908566769319 Ti
   0.7398380167116697    0.0000082986101309    0.2363104010537312 Ti
   0.7398380167116698    0.0000082986101309    0.7363104010537312 Ti
   0.7398380167116697    0.5000082986101310    0.2363104010537312 Ti
   0.7398380167116697    0.5000082986101310    0.7363104010537314 Ti
   0.2397594239225760    0.2499930982287615    0.2636911965161846 Ti
   0.2397594239225760    0.2499930982287615    0.7636911965161847 Ti
   0.2397594239225760    0.7499930982287616    0.2636911965161846 Ti
   0.2397594239225760    0.7499930982287615    0.7636911965161848 Ti
   0.2499398475515997    0.3750088925779939    0.0000029736333563 Ti
   0.2499398475515997    0.3750088925779939    0.5000029736333563 Ti
   0.2499398475515997    0.8750088925779939    0.0000029736333563 Ti
   0.2499398475515997    0.8750088925779939    0.5000029736333564 Ti
   0.2499407265862510    0.1249927118608942    0.0000025267788565 Ti
   0.2499407265862510    0.1249927118608942    0.5000025267788566 Ti
   0.2499407265862510    0.6249927118608942    0.0000025267788564 Ti
   0.2499407265862510    0.6249927118608942    0.5000025267788566 Ti
   0.7500653484589362    0.3750017592956913    0.9999997042903136 Ti
   0.7500653484589362    0.3750017592956913    0.4999997042903137 Ti
   0.7500653484589361    0.8750017592956912    0.9999997042903136 Ti
   0.7500653484589362    0.8750017592956911    0.4999997042903137 Ti
   0.7500666129437318    0.1249951079485990    0.0000026202344597 Ti
   0.7500666129437318    0.1249951079485990    0.5000026202344597 Ti
   0.7500666129437317    0.6249951079485989    0.0000026202344597 Ti
   0.7500666129437317    0.6249951079485989    0.5000026202344597 Ti
   0.1424177647365127    0.2500043349676511    0.4232987383735298 O
   0.1424177647365127    0.2500043349676510    0.9232987383735299 O
   0.1424177647365127    0.7500043349676511    0.4232987383735299 O
   0.1424177647365127    0.7500043349676511    0.9232987383735298 O
   0.6424992062088505    0.9999917042699425    0.0766779888013811 O
   0.6424992062088506    0.9999917042699425    0.5766779888013812 O
   0.6424992062088506    0.4999917042699425    0.0766779888013811 O
   0.6424992062088506    0.4999917042699425    0.5766779888013812 O
   0.8576138951182389    0.2500028431258715    0.4232991592678001 O
   0.8576138951182389    0.2500028431258715    0.9232991592678002 O
   0.8576138951182388    0.7500028431258715    0.4232991592678002 O
   0.8576138951182389    0.7500028431258714    0.9232991592678003 O
   0.3574613839632820    0.9999967609001894    0.0766783793837828 O
   0.3574613839632820    0.9999967609001894    0.5766783793837829 O
   0.3574613839632821    0.4999967609001895    0.0766783793837827 O
   0.3574613839632820    0.4999967609001894    0.5766783793837829 O
   0.3559039670414866    0.3732344394107270    0.3301689859854672 O
   0.3559039670414866    0.3732344394107270    0.8301689859854673 O
   0.3559039670414866    0.8732344394107270    0.3301689859854672 O
   0.3559039670414866    0.8732344394107270    0.8301689859854674 O
   0.3559070735133533    0.1267596102644592    0.3301695421587400 O
   0.3559070735133534    0.1267596102644592    0.8301695421587401 O
   0.3559070735133534    0.6267596102644593    0.3301695421587400 O
   0.3559070735133533    0.6267596102644591    0.8301695421587402 O
   0.8560075325929001    0.3767790946081355    0.1698238677555168 O
   0.8560075325929001    0.3767790946081355    0.6698238677555169 O
   0.8560075325929001    0.8767790946081355    0.1698238677555168 O
   0.8560075325929001    0.8767790946081355    0.6698238677555168 O
   0.6440722952371224    0.1267574059123963    0.3301678069760206 O
   0.6440722952371225    0.1267574059123962    0.8301678069760207 O
   0.6440722952371225    0.6267574059123963    0.3301678069760206 O
   0.6440722952371224    0.6267574059123961    0.8301678069760208 O
   0.1440027831413385    0.1232270374464743    0.1698275989940292 O
   0.1440027831413385    0.1232270374464744    0.6698275989940292 O
   0.1440027831413385    0.6232270374464743    0.1698275989940292 O
   0.1440027831413385    0.6232270374464743    0.6698275989940292 O
   0.6440751935165794    0.3732392149347836    0.3301717976539539 O
   0.6440751935165794    0.3732392149347835    0.8301717976539539 O
   0.6440751935165794    0.8732392149347835    0.3301717976539539 O
   0.6440751935165795    0.8732392149347835    0.8301717976539540 O
   0.8560124537307039    0.1232251611973180    0.1698339098397583 O
   0.8560124537307038    0.1232251611973180    0.6698339098397583 O
   0.8560124537307037    0.6232251611973180    0.1698339098397583 O
   0.8560124537307038    0.6232251611973180    0.6698339098397584 O
   0.1440085932552451    0.3767817833189628    0.1698309776975180 O
   0.1440085932552451    0.3767817833189628    0.6698309776975181 O
   0.1440085932552451    0.8767817833189628    0.1698309776975180 O
   0.1440085932552451    0.8767817833189628    0.6698309776975182 O
   0.1602797988885174    0.9999985559090487    0.4129051028398329 O
   0.1602797988885174    0.9999985559090487    0.9129051028398331 O
   0.1602797988885174    0.4999985559090486    0.4129051028398329 O
   0.1602797988885174    0.4999985559090486    0.9129051028398329 O
   0.6604024421154132    0.2500010061065498    0.0871196813649819 O
   0.6604024421154132    0.2500010061065498    0.5871196813649819 O
   0.6604024421154132    0.7500010061065500    0.0871196813649819 O
   0.6604024421154132    0.7500010061065499    0.5871196813649819 O
   0.8397360196644353    0.9999970339018387    0.4128933687853054 O
   0.8397360196644355    0.9999970339018387    0.9128933687853055 O
   0.8397360196644353    0.4999970339018387    0.4128933687853055 O
   0.8397360196644353    0.4999970339018386    0.9128933687853055 O
   0.3395789310607853    0.2500028340414651    0.0871098595353506 O
   0.3395789310607853    0.2500028340414651    0.5871098595353506 O
   0.3395789310607854    0.7500028340414651    0.0871098595353506 O
   0.3395789310607854    0.7500028340414651    0.5871098595353507 O
