Ca2 Co4 S6 O24
1.0
7.586959 0.048826 4.492159
2.586277 7.064257 4.477657
0.129527 0.024903 8.796320
Ca Co S O
2 4 6 24
direct
0.498076 0.497226 0.497705 Ca
0.997733 0.997369 0.997864 Ca
0.644710 0.646526 0.645169 Co
0.145036 0.146833 0.144569 Co
0.849704 0.849127 0.850728 Co
0.350476 0.349153 0.349865 Co
0.952480 0.247915 0.543134 S
0.452041 0.043326 0.748044 S
0.542929 0.951830 0.247101 S
0.747523 0.451107 0.043998 S
0.247599 0.544006 0.950956 S
0.042726 0.747147 0.452109 S
0.407426 0.564637 0.767544 O
0.906385 0.267431 0.063625 O
0.769272 0.407831 0.562663 O
0.063817 0.906642 0.269060 O
0.562301 0.768405 0.405819 O
0.268242 0.063269 0.907462 O
0.726576 0.932273 0.087321 O
0.225818 0.587072 0.433332 O
0.088604 0.727505 0.931688 O
0.433354 0.226515 0.588986 O
0.932120 0.088328 0.726117 O
0.587638 0.430764 0.227449 O
0.987262 0.194658 0.393411 O
0.485301 0.894079 0.694044 O
0.393985 0.987732 0.194153 O
0.696161 0.486866 0.893708 O
0.195334 0.394922 0.981837 O
0.894318 0.694387 0.484415 O
0.101221 0.300825 0.509728 O
0.600769 0.007323 0.801325 O
0.509769 0.100990 0.301098 O
0.800002 0.600197 0.012591 O
0.298859 0.507715 0.101520 O
0.006833 0.800469 0.602261 O
