Ca8 Ni12 F42
1.0
7.283673 -0.024154 0.024840
-3.687073 6.380454 -0.003470
0.069929 0.027534 18.263931
Ca Ni F
8 12 42
direct
0.818371 0.982635 0.834137 Ca
0.484334 0.856741 0.653429 Ca
0.157896 0.649248 0.979098 Ca
0.347773 0.507732 0.332393 Ca
0.841261 0.018010 0.344645 Ca
0.174076 0.165172 0.010661 Ca
0.978610 0.785744 0.174037 Ca
0.199458 0.150585 0.515452 Ca
0.336291 0.007677 0.332707 Ni
0.990504 0.347807 0.668044 Ni
0.666487 0.660392 0.000673 Ni
0.329744 0.009017 0.830993 Ni
0.997702 0.315275 0.162848 Ni
0.677107 0.670532 0.492045 Ni
0.497087 0.819188 0.163002 Ni
0.171620 0.659522 0.493142 Ni
0.325301 0.502409 0.829762 Ni
0.823699 0.501697 0.827014 Ni
0.686847 0.179463 0.494436 Ni
0.493847 0.312301 0.164297 Ni
0.742414 0.195342 0.599694 F
0.812097 0.552614 0.937621 F
0.439667 0.266388 0.272548 F
0.233020 0.736628 0.385581 F
0.484044 0.752120 0.055704 F
0.260940 0.526574 0.727595 F
0.835685 0.951378 0.955408 F
0.049293 0.892989 0.286197 F
0.131953 0.221890 0.620558 F
0.975054 0.793352 0.052734 F
0.807227 0.067171 0.721066 F
0.202272 0.165593 0.390420 F
0.525284 0.385258 0.056182 F
0.608288 0.128413 0.386975 F
0.856038 0.472190 0.723429 F
0.376156 0.495875 0.943861 F
0.150460 0.602425 0.600333 F
0.500611 0.867903 0.276156 F
0.796908 0.418888 0.175654 F
0.568272 0.364263 0.503020 F
0.634679 0.203690 0.843769 F
0.433417 0.805001 0.850475 F
0.363040 0.543730 0.474513 F
0.190666 0.623289 0.175487 F
0.032674 0.303306 0.273591 F
0.639766 0.711385 0.592540 F
0.287149 0.987056 0.942843 F
0.358506 0.002973 0.727693 F
0.675692 0.674524 0.378826 F
0.024410 0.359176 0.051538 F
0.189392 0.201424 0.142286 F
0.803451 0.986724 0.474687 F
0.022541 0.806459 0.825061 F
0.202880 0.197713 0.832748 F
0.987370 0.781885 0.499029 F
0.805363 0.004473 0.162295 F
0.040750 0.433143 0.868890 F
0.585783 0.612013 0.195005 F
0.389834 0.956108 0.529715 F
0.388143 0.010828 0.141569 F
0.625788 0.610178 0.806047 F
0.969173 0.378908 0.456511 F
