Y16 Mg8 Te32                            
   1.00000000000000     
    12.5760306968059705   -0.0000005986795058   -0.0000001942171930
     0.0000004088022565   12.5760281298411165    0.0000014564100249
     0.0000008027452991   -0.0000015124581606   12.5760293544264918
   Mg    Y   Te
    7     16    32
Direct
  0.5000000080603186  0.5000000020918591  0.0000000080008320
  0.2500000126767432  0.2499999935375499  0.2500000037455976
  0.5000000067264452  0.9999999957846555  0.5000000003950262
  0.7499999606849315  0.2499999559793693  0.7500000671287950
  0.9999999965402111  0.0000000004830056  0.0000000114920198
  0.7499999992107291  0.7499999969526172  0.2500000044976787
  0.9999999938852326  0.4999999994446753  0.5000000023468161
  0.1250208686297327  0.8749791373278910  0.3749791267594418
  0.3749791439742296  0.1250208638813106  0.8749791693042468
  0.3749791548998118  0.3749791415150483  0.6250208639725514
  0.1250208603499843  0.1250208675855546  0.6250208685755041
  0.1250208714087861  0.3749791367538649  0.8749791445794060
  0.3749791651317622  0.6250208637255810  0.3749791441842376
  0.3749791519584775  0.8749791418555262  0.1250208753092821
  0.1250208703593927  0.6250208686135466  0.1250208647837425
  0.6250208755357320  0.8749791350051552  0.8749791601092980
  0.8749791383249104  0.1250208683850573  0.3749791316716014
  0.8749791403595424  0.3749791278549566  0.1250208713964511
  0.6250208609455044  0.1250208483542323  0.1250211349512895
  0.6250208741611232  0.3749791390998567  0.3749791376281451
  0.8749791311723314  0.6250208643174346  0.8749791362985277
  0.8749791298754701  0.8749791265281601  0.6250208712595651
  0.6250211329712201  0.6250208495630858  0.6250208582063266
  0.3795427377606799  0.1204572302976743  0.1204572502721319
  0.6204572667055643  0.3795427245109124  0.6204572427608852
  0.6204573099948689  0.1204572983430054  0.8795429056798980
  0.3795427616467038  0.3795427670607694  0.3795427882976696
  0.3704565357967056  0.1295434923937009  0.6295435190615848
  0.1295434903524466  0.8704565036140863  0.1295435063867814
  0.1295434956869741  0.1295434887609304  0.8704565034653271
  0.3704565154256443  0.8704565065475620  0.3704565086122287
  0.3795428939551329  0.6204572981998169  0.6204572948721321
  0.6204572382510349  0.8795427346873836  0.1204572474070105
  0.6204572615113761  0.6204572248262963  0.3795427605835187
  0.3795427680544279  0.8795427627642880  0.8795427664530351
  0.3704565154988728  0.6295434869535868  0.1295435106706861
  0.1295435111500538  0.3704565240286115  0.6295435018935365
  0.1295435079296396  0.6295434882256785  0.3704565197905652
  0.3704565172590577  0.3704565095284238  0.8704564943788782
  0.8795427692472160  0.1204572369012737  0.6204572417586576
  0.1204572422485128  0.3795427742978674  0.1204572288776120
  0.1204572365511609  0.1204572311090359  0.3795427982738957
  0.8795427698273031  0.3795427622535499  0.8795427815841208
  0.8704565365511812  0.1295434953982237  0.1295435257588835
  0.6295435057488064  0.8704565445630763  0.6295435266729612
  0.6295434972717686  0.1295435005175491  0.3704565708855085
  0.8704565165048805  0.8704565141801339  0.8704565004059717
  0.8795427854627746  0.6204572299056963  0.1204572277176510
  0.1204572579883276  0.8795427602194721  0.6204572324172517
  0.1204572603957317  0.6204572361519354  0.8795427722799545
  0.8795427715515771  0.8795427690822493  0.3795427880580746
  0.8704565815253318  0.6295434951950725  0.6295435089481742
  0.6295434974409559  0.3704565267901572  0.1295435261042499
  0.6295435060357732  0.6295434975836613  0.8704565233314696
  0.8704565138839229  0.3704565073208599  0.3704565061320153
 
  0.00000000E+00  0.00000000E+00  0.00000000E+00
  0.00000000E+00  0.00000000E+00  0.00000000E+00
  0.00000000E+00  0.00000000E+00  0.00000000E+00
  0.00000000E+00  0.00000000E+00  0.00000000E+00
  0.00000000E+00  0.00000000E+00  0.00000000E+00
  0.00000000E+00  0.00000000E+00  0.00000000E+00
  0.00000000E+00  0.00000000E+00  0.00000000E+00
  0.00000000E+00  0.00000000E+00  0.00000000E+00
  0.00000000E+00  0.00000000E+00  0.00000000E+00
  0.00000000E+00  0.00000000E+00  0.00000000E+00
  0.00000000E+00  0.00000000E+00  0.00000000E+00
  0.00000000E+00  0.00000000E+00  0.00000000E+00
  0.00000000E+00  0.00000000E+00  0.00000000E+00
  0.00000000E+00  0.00000000E+00  0.00000000E+00
  0.00000000E+00  0.00000000E+00  0.00000000E+00
  0.00000000E+00  0.00000000E+00  0.00000000E+00
  0.00000000E+00  0.00000000E+00  0.00000000E+00
  0.00000000E+00  0.00000000E+00  0.00000000E+00
  0.00000000E+00  0.00000000E+00  0.00000000E+00
  0.00000000E+00  0.00000000E+00  0.00000000E+00
  0.00000000E+00  0.00000000E+00  0.00000000E+00
  0.00000000E+00  0.00000000E+00  0.00000000E+00
  0.00000000E+00  0.00000000E+00  0.00000000E+00
  0.00000000E+00  0.00000000E+00  0.00000000E+00
  0.00000000E+00  0.00000000E+00  0.00000000E+00
  0.00000000E+00  0.00000000E+00  0.00000000E+00
  0.00000000E+00  0.00000000E+00  0.00000000E+00
  0.00000000E+00  0.00000000E+00  0.00000000E+00
  0.00000000E+00  0.00000000E+00  0.00000000E+00
  0.00000000E+00  0.00000000E+00  0.00000000E+00
  0.00000000E+00  0.00000000E+00  0.00000000E+00
  0.00000000E+00  0.00000000E+00  0.00000000E+00
  0.00000000E+00  0.00000000E+00  0.00000000E+00
  0.00000000E+00  0.00000000E+00  0.00000000E+00
  0.00000000E+00  0.00000000E+00  0.00000000E+00
  0.00000000E+00  0.00000000E+00  0.00000000E+00
  0.00000000E+00  0.00000000E+00  0.00000000E+00
  0.00000000E+00  0.00000000E+00  0.00000000E+00
  0.00000000E+00  0.00000000E+00  0.00000000E+00
  0.00000000E+00  0.00000000E+00  0.00000000E+00
  0.00000000E+00  0.00000000E+00  0.00000000E+00
  0.00000000E+00  0.00000000E+00  0.00000000E+00
  0.00000000E+00  0.00000000E+00  0.00000000E+00
  0.00000000E+00  0.00000000E+00  0.00000000E+00
  0.00000000E+00  0.00000000E+00  0.00000000E+00
  0.00000000E+00  0.00000000E+00  0.00000000E+00
  0.00000000E+00  0.00000000E+00  0.00000000E+00
  0.00000000E+00  0.00000000E+00  0.00000000E+00
  0.00000000E+00  0.00000000E+00  0.00000000E+00
  0.00000000E+00  0.00000000E+00  0.00000000E+00
  0.00000000E+00  0.00000000E+00  0.00000000E+00
  0.00000000E+00  0.00000000E+00  0.00000000E+00
  0.00000000E+00  0.00000000E+00  0.00000000E+00
  0.00000000E+00  0.00000000E+00  0.00000000E+00
  0.00000000E+00  0.00000000E+00  0.00000000E+00
  0.00000000E+00  0.00000000E+00  0.00000000E+00
