Ca1 Mn12 F42                            
   1.00000000000000     
     7.3086739999999999   -0.0261820000000000   -0.0515930000000000
    -3.6758860000000002    6.3989050000000001   -0.0145200000000000
     0.1023530000000000   -0.1166270000000000   17.4501799999999996
   Ca   Mn   F 
     1    12    42
Direct
  0.5291994072833266  0.8440776174371827  0.6856460055405902
  0.2964706841703842  0.0040678012629243  0.3305877075797169
  0.7038369919484051  0.6932284925621756  0.0069114351008681
  0.0145719911155618  0.3163792686153066  0.6664015353252691
  0.3497244677591733  0.9971020997579819  0.8415100030575707
  0.6540088761918079  0.6563724933806087  0.4933745844234060
  1.0013622049484294  0.3449284027199070  0.1691454661234113
  0.6490305565547451  0.1565590670970924  0.4955410983865073
  0.5032489740923203  0.3474602858903588  0.1691371808118061
  0.8532348850460783  0.4955922164930876  0.8388191210788567
  0.3559172728064494  0.4964904462253664  0.8434910743324310
  0.1529888912667910  0.6569736906076378  0.4972817221907598
  0.4995534553898635  0.8460627031841722  0.1693830105041441
  0.5562139780134112  0.7992876438440177  0.0665191002848820
  0.2823253588421934  0.4790428082088121  0.7361150819107029
  0.1912506339071455  0.7678451155544669  0.3918124557962946
  0.4399063301882949  0.2566859912139066  0.2715275557577725
  0.8156917672017345  0.5628902521581518  0.9449293735398886
  0.7391612988356283  0.1769970449423140  0.5997892800239916
  0.8704053498089719  0.0692605802363627  0.7209321519687074
  0.1929820611866477  0.1183549159228507  0.3911262555487278
  0.9214150272995224  0.8060868246146443  0.0677151550618329
  0.1387177242034658  0.2183261404224727  0.6068579425042528
  0.0851966130848619  0.8916259299683282  0.2667591194901240
  0.7926069436499331  0.9007634638635496  0.9435989474590138
  0.1470914214977165  0.5782225250862717  0.6119986920503070
  0.4433464255715265  0.8890802745529187  0.2721576006658090
  0.4387691741495570  0.5366585371754931  0.9473605176111055
  0.8841724086230583  0.4318240074412003  0.7296548202965057
  0.5571542895270156  0.1276459077781031  0.3930063793940074
  0.5709982256065338  0.4377062871678960  0.0672924393866688
  0.3628621113751258  0.5778706550025234  0.4782803622786322
  0.2128895080420909  0.6373789545955755  0.1533704753085691
  0.4528831152620686  0.7983549999415267  0.8262999083974830
  0.6404255636713707  0.2103017247511383  0.8552314602632058
  0.5750032242085780  0.3694495620191292  0.5148608657758474
  0.7886088448790131  0.4230233278600142  0.1888960290519184
  0.6862172987777320  0.6233205107360182  0.3963062251836099
  0.9384440371290059  0.3162791122753199  0.0701175087591245
  0.3888093583320097  0.0274443212845346  0.7354766785749616
  0.3164283762686089  0.9525414063977675  0.9398271060034190
  0.6209845231292909  0.6929698021430557  0.5973379049086539
  0.0642320420742110  0.3734220467264603  0.2680110372206375
  0.9422481346990188  0.7362882461908778  0.5164226519362020
  0.7877427879706693  0.0533859390289344  0.1846770479914452
  0.2665652988904408  0.2024081177722013  0.8450360082383473
  0.0657973623143206  0.7818052591145819  0.8203138495562597
  0.7259394924235122  0.9442874270236019  0.4784658564857090
  0.2170100726270150  0.2704095632651894  0.1495957897962907
  0.6359082789920752  0.5597408780971060  0.8075152291943234
  0.9340164829828334  0.3833783018250031  0.4716309827118764
  0.4445210788846697  0.0802100518431349  0.1387834318152084
  0.3738748336687808  0.9289909559871063  0.5339278758829371
  0.5591361927658171  0.6130662037479059  0.1995038076496636
  0.0750295536309689  0.4425427913551183  0.8677382562000548
 
             NaN             NaN             NaN
             NaN             NaN             NaN
             NaN             NaN             NaN
             NaN             NaN             NaN
             NaN             NaN             NaN
             NaN             NaN             NaN
             NaN             NaN             NaN
             NaN             NaN             NaN
             NaN             NaN             NaN
             NaN             NaN             NaN
             NaN             NaN             NaN
             NaN             NaN             NaN
             NaN             NaN             NaN
             NaN             NaN             NaN
             NaN             NaN             NaN
             NaN             NaN             NaN
             NaN             NaN             NaN
             NaN             NaN             NaN
             NaN             NaN             NaN
             NaN             NaN             NaN
             NaN             NaN             NaN
             NaN             NaN             NaN
             NaN             NaN             NaN
             NaN             NaN             NaN
             NaN             NaN             NaN
             NaN             NaN             NaN
             NaN             NaN             NaN
             NaN             NaN             NaN
             NaN             NaN             NaN
             NaN             NaN             NaN
             NaN             NaN             NaN
             NaN             NaN             NaN
             NaN             NaN             NaN
             NaN             NaN             NaN
             NaN             NaN             NaN
             NaN             NaN             NaN
             NaN             NaN             NaN
             NaN             NaN             NaN
             NaN             NaN             NaN
             NaN             NaN             NaN
             NaN             NaN             NaN
             NaN             NaN             NaN
             NaN             NaN             NaN
             NaN             NaN             NaN
             NaN             NaN             NaN
             NaN             NaN             NaN
             NaN             NaN             NaN
             NaN             NaN             NaN
             NaN             NaN             NaN
             NaN             NaN             NaN
             NaN             NaN             NaN
             NaN             NaN             NaN
             NaN             NaN             NaN
             NaN             NaN             NaN
             NaN             NaN             NaN
