Ca1 Mn12 F42
1.0
7.308674 -0.026182 -0.051593
-3.675886 6.398905 -0.014520
0.102353 -0.116627 17.450180
Ca Mn F
1 12 42
direct
0.540120 -0.130008 0.690729 Ca
0.290109 1.003536 0.329405 Mn
0.706267 0.702173 0.005869 Mn
0.004250 0.301653 0.666130 Mn
0.351651 -0.004008 0.838376 Mn
0.652872 0.651705 0.493741 Mn
0.996996 0.350136 0.167304 Mn
0.648135 0.153139 0.492485 Mn
0.498175 0.351746 0.167204 Mn
0.853452 0.496087 0.837725 Mn
0.354750 0.495384 0.840239 Mn
0.151548 0.650006 0.496163 Mn
0.495559 0.850780 0.167501 Mn
0.560589 0.812415 0.065582 F
0.257343 0.438530 0.735782 F
0.188697 0.770400 0.393155 F
0.434084 0.255352 0.268883 F
0.814325 0.568876 0.942207 F
0.741467 0.182768 0.597617 F
0.845268 0.056058 0.718272 F
0.192836 0.122459 0.390613 F
0.919940 0.805779 0.068746 F
0.119209 0.193834 0.606758 F
0.074978 0.890197 0.267233 F
0.807456 0.917479 0.944586 F
0.144695 0.563158 0.611089 F
0.431305 0.884416 0.269940 F
0.446917 0.562332 0.943607 F
0.885632 0.430617 0.729067 F
0.552824 0.122248 0.390266 F
0.562691 0.444086 0.065029 F
0.360172 0.573402 0.475387 F
0.215517 0.652332 0.147654 F
0.442784 0.791025 0.812712 F
0.644711 0.206274 0.853755 F
0.569718 0.360256 0.513200 F
0.777627 0.434241 0.187381 F
0.691130 0.620700 0.396782 F
0.930405 0.315060 0.068628 F
0.383923 0.046052 0.733940 F
0.324356 0.932461 0.935474 F
0.613555 0.687504 0.596369 F
0.063813 0.385450 0.265890 F
0.941312 0.725408 0.518920 F
0.776552 0.048570 0.186854 F
0.270466 0.202734 0.853186 F
0.062514 0.785882 0.818046 F
0.724856 0.941645 0.477486 F
0.217988 0.268059 0.147186 F
0.632204 0.555726 0.806298 F
0.933964 0.378785 0.467231 F
0.447277 0.079804 0.137220 F
0.374594 0.918753 0.538109 F
0.546603 0.621669 0.197178 F
0.076313 0.442958 0.867554 F
