Ca8 Mn12 F42                            
   1.00000000000000     
     7.5756560000000004   -0.0535290000000000    0.0429750000000000
    -3.8387840000000000    6.6716309999999996    0.0373670000000000
     0.1227010000000000    0.1827510000000000   18.6708859999999994
   Ca   Mn   F 
     8    12    42
Direct
  0.5578817442388335  0.8622017487607199  0.7046399436639830
  0.1603890995873070  0.6443163753350196  0.9895481078970936
  0.3316794749049326  0.4972714278737792  0.3450502097087599
  0.5306896880683757  0.3694086835834043  0.6645624882524305
  0.8302743085908350  0.9921948632088951  0.3416006579776559
  0.1909957641750201  0.1798762007488690  0.9939712147075194
  0.9703972437318992  0.7740237267009696  0.1709837608943000
  0.1679553794952745  0.1303446482448144  0.5120659074728429
  0.3347466065033228  0.0195933253749757  0.3202921131244252
 -0.0000050143395196  0.3367126881166259  0.6647064362981003
  0.6675816370881282  0.6817180860528633  0.0044910028345721
  0.3307770876841373  0.0208523253282568  0.8319162234678434
  0.0064007535125669  0.3150882625822067  0.1677454150475220
  0.6494822373812026  0.6667959796732853  0.5039533052143957
  0.5051570257361432  0.8164101159569785  0.1688383635421548
  0.1515894769958153  0.6600399371228147  0.4894877799039815
  0.3167190979512665  0.5083074512485946  0.8329866410777340
  0.8284625332881328  0.5329088069353797  0.8233920665579053
  0.6609729756870262  0.1681996482163527  0.4927199414929667
  0.4840980977995388  0.3024152541065689  0.1596969686941369
  0.7264171159076630  0.1727077875592929  0.6052514627534480
  0.7819487970964901  0.6052821120501102  0.9194957239532408
  0.4222328839131987  0.3133356832142497  0.2734470034211496
  0.2308939355778853  0.7401988912401696  0.3839227951477301
  0.4692842990064010  0.7711636603806803  0.0579662730124116
  0.2481797452904204  0.5273993657384147  0.7240993781154509
  0.8579540409840090  0.9683473282340335  0.9857379886970570
  0.0304510558284426  0.8845638437566979  0.2838896895330753
  0.1982837210141760  0.2375175582543675  0.6230522728127788
  0.9504245988986448  0.7090147440110441  0.0550694593853032
  0.8734280233189561  0.0989558330879207  0.7265810471457493
  0.1878525894869216  0.1482713936684292  0.3925699729949104
  0.5133036941015160  0.3870720726025406  0.0471609480683878
  0.5984548689424023  0.1068790279429526  0.3802348352978032
  0.8380932100678535  0.4572446931090831  0.7188792393658747
  0.3774395602092492  0.5325960577353881  0.9442882517623661
  0.1028385263476595  0.5505861813643087  0.5899781339589681
  0.5285451116403791  0.7904553423666252  0.2826560962400873
  0.7898744321913471  0.3996981500439693  0.1736297382895869
  0.5427665988175181  0.3530825437084863  0.5339269935684990
  0.6113623274529694  0.2570134478459173  0.8423976251624282
  0.4425331245993386  0.8232399681485976  0.8225712146237163
  0.3211876154357728  0.4998101396580311  0.4750953072194507
  0.1886306000092782  0.6280343523823712  0.1776079444029888
  0.0348518930294155  0.2980422883756481  0.2815372410141809
  0.5999729556579548  0.6827479748951002  0.6138788112364183
  0.2783466055936893  0.9579896909870609  0.9453285483405218
  0.4153900645212061  0.0648414910718597  0.7175444404325663
  0.6602999646034403  0.6705954995663179  0.3939925060298279
  0.0729978592533135  0.3640346634921685  0.0584142116208879
  0.1898312868843981  0.1053178491830068  0.1217638108306655
  0.8145743665350389  0.0040119656059487  0.4773148490615512
  0.0506001228675554  0.8065480966926152  0.8051571699347819
  0.2280214730502656  0.2146929014090776  0.8571322161844200
  0.9634443210404684  0.7818311422782992  0.5153478526365792
  0.8202160863757594  0.0107186336761812  0.1761555427336291
  0.0521588947891375  0.4898728347074478  0.8783093615731964
  0.6148845987660521  0.6170568753273104  0.1654867362665710
  0.3620981990666908  0.9530662525835700  0.5157321857908062
  0.4193651888836278  0.0187409808980998  0.2068448392706864
  0.5857814835758822  0.5722098298688336  0.7682282484196181
  0.9234483318262559  0.3998437387575233  0.4562551593971263
 
             NaN             NaN             NaN
             NaN             NaN             NaN
             NaN             NaN             NaN
             NaN             NaN             NaN
             NaN             NaN             NaN
             NaN             NaN             NaN
             NaN             NaN             NaN
             NaN             NaN             NaN
             NaN             NaN             NaN
             NaN             NaN             NaN
             NaN             NaN             NaN
             NaN             NaN             NaN
             NaN             NaN             NaN
             NaN             NaN             NaN
             NaN             NaN             NaN
             NaN             NaN             NaN
             NaN             NaN             NaN
             NaN             NaN             NaN
             NaN             NaN             NaN
             NaN             NaN             NaN
             NaN             NaN             NaN
             NaN             NaN             NaN
             NaN             NaN             NaN
             NaN             NaN             NaN
             NaN             NaN             NaN
             NaN             NaN             NaN
             NaN             NaN             NaN
             NaN             NaN             NaN
             NaN             NaN             NaN
             NaN             NaN             NaN
             NaN             NaN             NaN
             NaN             NaN             NaN
             NaN             NaN             NaN
             NaN             NaN             NaN
             NaN             NaN             NaN
             NaN             NaN             NaN
             NaN             NaN             NaN
             NaN             NaN             NaN
             NaN             NaN             NaN
             NaN             NaN             NaN
             NaN             NaN             NaN
             NaN             NaN             NaN
             NaN             NaN             NaN
             NaN             NaN             NaN
             NaN             NaN             NaN
             NaN             NaN             NaN
             NaN             NaN             NaN
             NaN             NaN             NaN
             NaN             NaN             NaN
             NaN             NaN             NaN
             NaN             NaN             NaN
             NaN             NaN             NaN
             NaN             NaN             NaN
             NaN             NaN             NaN
             NaN             NaN             NaN
             NaN             NaN             NaN
             NaN             NaN             NaN
             NaN             NaN             NaN
             NaN             NaN             NaN
             NaN             NaN             NaN
             NaN             NaN             NaN
             NaN             NaN             NaN
