Ca8 Mn12 F42                            
   1.00000000000000     
     7.5756560000000004   -0.0535290000000000    0.0429750000000000
    -3.8387840000000000    6.6716309999999996    0.0373670000000000
     0.1227010000000000    0.1827510000000000   18.6708859999999994
   Ca   Mn   F 
     8    12    42
Direct
  0.5559033293564387  0.8521751781551646  0.7071148819485685
  0.1616671949628616  0.6433038571072434  0.9905858898346460
  0.3327947877807796  0.4985165555655794  0.3453892081446244
  0.5370504590409473  0.3642215412205861  0.6629993017619957
  0.8321164279754601  0.9930817359666730  0.3411718611787034
  0.1909660589229707  0.1782115815413239  0.9948670579126613
  0.9698258756493661  0.7733863364335342  0.1711116442093046
  0.1692223361210617  0.1329888602686306  0.5120773659202811
  0.3359222195058292  0.0203999016050350  0.3205335029654413
  0.0025815686447655  0.3384640699824449  0.6647263728275060
  0.6663437621236671  0.6798793358036106  0.0051656693997111
  0.3305397569034158  0.0179201409161232  0.8323844587451766
  0.0058783042548661  0.3144175500691552  0.1685681133155714
  0.6509597241890160  0.6695534536779283  0.5047231797989379
  0.5069490998745082  0.8174612748617092  0.1691927111775624
  0.1546966480653234  0.6642403010058358  0.4892628830338601
  0.3145417213577161  0.5056993131294651  0.8340521652565182
  0.8283875440415378  0.5323424092593322  0.8241430576458674
  0.6629435970792729  0.1727286342956696  0.4915429034575796
  0.4839626602222256  0.3019740186693221  0.1598367800211844
  0.7295688456191911  0.1903633258905653  0.6043641351511109
  0.7789473743012656  0.6056188174280626  0.9189462640294713
  0.4228890247083477  0.3141529805387575  0.2736659636303674
  0.2330357280699837  0.7430027345922923  0.3842791043928155
  0.4696932840588177  0.7709178863538758  0.0583735310251573
  0.2431560798565657  0.5258727252825394  0.7262640211316460
  0.8576203722941038  0.9676533275822670  0.9867587762016908
  0.0317617618409446  0.8849706968619780  0.2837977849496888
  0.2031461273658878  0.2399797324503712  0.6234524842248991
  0.9487988108138283  0.7063120972945267  0.0551838139315594
  0.8715493036698848  0.0950609887252325  0.7238327915747860
  0.1878353298266163  0.1490238143238745  0.3927174907111254
  0.5138933481543904  0.3861835488580502  0.0476132493752864
  0.6014889305639879  0.1091144906306921  0.3798713875757182
  0.8404647089168500  0.4576743437800238  0.7200837312953356
  0.3761612264716767  0.5295643012159656  0.9454027320654776
  0.1101946034765973  0.5560831239850592  0.5909280243804467
  0.5298853603318741  0.7901882213184143  0.2827732039367677
  0.7900762871380841  0.4001752844734789  0.1742013805185006
  0.5413428379051284  0.3547971368565378  0.5315525646926046
  0.6103809341964613  0.2569753896620289  0.8427865590179410
  0.4423762579531863  0.8200678721671684  0.8247950797414036
  0.3222251715519928  0.5026196733184134  0.4748311522304876
  0.1892418279758774  0.6296896564921086  0.1778559339507869
  0.0363668726065781  0.2996897789903376  0.2818603046875383
  0.6013742338693433  0.6802263880807420  0.6143915436833677
  0.2778806327684292  0.9564222957912646  0.9459205515865277
  0.4179867758563775  0.0600751485797034  0.7179355814787231
  0.6624635495007777  0.6730697231722306  0.3942322889776695
  0.0739253246183149  0.3628726017330950  0.0594792379524767
  0.1911976281689259  0.1016502771404798  0.1216196195082678
  0.8151140174417988  1.0063582690655497  0.4785487662780107
  0.0521620394080500  0.8051226455305029  0.8059662302599745
  0.2252387982606349  0.2103898844234981  0.8583183099576736
  0.9651669340849826  0.7845302493395334  0.5156449502508419
  0.8222486778356779  0.0115221003509756  0.1769572945386137
  0.0505242906171722  0.4886975192613068  0.8798746506336127
  0.6145682467624524  0.6166544618787956  0.1654237960331465
  0.3649508246611139  0.9561666270641446  0.5157580899470930
  0.4226135677641620  0.0200201072029361  0.2074992155795879
  0.5837646959877221  0.5698515963943033  0.7676447621517045
  0.9260087313762134  0.4032266243338620  0.4566910788321832
 
             NaN             NaN             NaN
             NaN             NaN             NaN
             NaN             NaN             NaN
             NaN             NaN             NaN
             NaN             NaN             NaN
             NaN             NaN             NaN
             NaN             NaN             NaN
             NaN             NaN             NaN
             NaN             NaN             NaN
             NaN             NaN             NaN
             NaN             NaN             NaN
             NaN             NaN             NaN
             NaN             NaN             NaN
             NaN             NaN             NaN
             NaN             NaN             NaN
             NaN             NaN             NaN
             NaN             NaN             NaN
             NaN             NaN             NaN
             NaN             NaN             NaN
             NaN             NaN             NaN
             NaN             NaN             NaN
             NaN             NaN             NaN
             NaN             NaN             NaN
             NaN             NaN             NaN
             NaN             NaN             NaN
             NaN             NaN             NaN
             NaN             NaN             NaN
             NaN             NaN             NaN
             NaN             NaN             NaN
             NaN             NaN             NaN
             NaN             NaN             NaN
             NaN             NaN             NaN
             NaN             NaN             NaN
             NaN             NaN             NaN
             NaN             NaN             NaN
             NaN             NaN             NaN
             NaN             NaN             NaN
             NaN             NaN             NaN
             NaN             NaN             NaN
             NaN             NaN             NaN
             NaN             NaN             NaN
             NaN             NaN             NaN
             NaN             NaN             NaN
             NaN             NaN             NaN
             NaN             NaN             NaN
             NaN             NaN             NaN
             NaN             NaN             NaN
             NaN             NaN             NaN
             NaN             NaN             NaN
             NaN             NaN             NaN
             NaN             NaN             NaN
             NaN             NaN             NaN
             NaN             NaN             NaN
             NaN             NaN             NaN
             NaN             NaN             NaN
             NaN             NaN             NaN
             NaN             NaN             NaN
             NaN             NaN             NaN
             NaN             NaN             NaN
             NaN             NaN             NaN
             NaN             NaN             NaN
             NaN             NaN             NaN
