Ca7 Mn16 F48
1.0
11.506844 0.000027 0.029183
0.000028 8.208456 -0.000024
0.028322 -0.000033 11.147400
Ca Mn F
7 16 48
direct
0.711048 0.749997 0.740550 Ca
0.217501 0.750003 0.251321 Ca
0.217335 0.749999 0.740722 Ca
0.710552 0.750002 0.246030 Ca
0.463688 0.750000 1.005825 Ca
0.964828 0.750003 0.006875 Ca
0.967124 0.750000 0.506560 Ca
0.495038 0.486995 0.254980 Mn
0.494547 0.487316 0.745293 Mn
0.995657 0.481083 0.253674 Mn
0.996224 0.481487 0.752763 Mn
0.254136 0.011554 0.499000 Mn
0.246455 0.018507 0.996587 Mn
0.743052 0.014440 0.497221 Mn
0.744973 0.018125 0.997619 Mn
0.495035 0.013010 0.254978 Mn
0.494546 0.012677 0.745296 Mn
0.995651 0.018913 0.253679 Mn
0.996221 0.018509 0.752763 Mn
0.254138 0.488444 0.499002 Mn
0.246459 0.481487 0.996588 Mn
0.743056 0.485556 0.497218 Mn
0.744975 0.481880 0.997616 Mn
0.492149 0.250000 0.214982 F
0.484833 0.249994 0.714093 F
0.973591 0.249998 0.207064 F
0.974507 0.249999 0.708432 F
0.225588 0.249999 0.042504 F
0.233166 0.249999 0.530977 F
0.728801 0.250003 0.042198 F
0.733066 0.249999 0.530952 F
0.013628 0.749999 0.302349 F
0.018371 0.749999 0.802596 F
0.508153 0.750011 0.280004 F
0.511225 0.750004 0.797713 F
0.256091 0.750006 0.455875 F
0.265479 0.750000 0.945043 F
0.767593 0.750000 0.450979 F
0.765464 0.750001 0.947561 F
0.349377 0.579017 0.144851 F
0.341806 0.557756 0.659279 F
0.851770 0.582003 0.148577 F
0.856796 0.583240 0.650275 F
0.102619 0.918272 0.103454 F
0.103682 0.922754 0.601367 F
0.601117 0.923593 0.100999 F
0.614631 0.935676 0.610885 F
0.158321 0.002851 0.337195 F
0.158413 0.008379 0.836171 F
0.662888 0.001143 0.330787 F
0.656783 0.003179 0.838399 F
0.398811 0.464594 0.400736 F
0.412580 0.495693 0.915310 F
0.908436 0.493629 0.417600 F
0.911761 0.494702 0.918474 F
0.158323 0.497152 0.337191 F
0.158417 0.491622 0.836169 F
0.662886 0.498857 0.330783 F
0.656788 0.496818 0.838394 F
0.398808 0.035409 0.400735 F
0.412578 0.004305 0.915312 F
0.908434 0.006375 0.417608 F
0.911755 0.005302 0.918475 F
0.349371 0.920979 0.144848 F
0.341805 0.942239 0.659280 F
0.851768 0.917999 0.148581 F
0.856795 0.916751 0.650277 F
0.102622 0.581729 0.103453 F
0.103685 0.577250 0.601360 F
0.601119 0.576419 0.101003 F
0.614631 0.564317 0.610882 F
