Ca8 Ni12 F42
1.0
7.282359 -0.025178 0.021866
-3.687161 6.383170 -0.001916
0.062430 0.027492 18.257543
Ca Ni F
8 12 42
direct
0.483632 0.856242 0.653563 Ca
0.156888 0.649412 0.979179 Ca
0.347940 0.507800 0.332742 Ca
0.841451 0.018666 0.344587 Ca
0.175026 0.166184 0.010496 Ca
0.978327 0.786265 0.174005 Ca
0.818854 0.982838 0.834026 Ca
0.200503 0.150020 0.515453 Ca
0.335816 0.007596 0.332770 Ni
0.990630 0.347085 0.667933 Ni
0.666194 0.661703 0.000690 Ni
0.329811 0.009726 0.830781 Ni
0.997530 0.315796 0.162725 Ni
0.677152 0.670528 0.492153 Ni
0.496916 0.819749 0.163161 Ni
0.171445 0.658994 0.493030 Ni
0.325571 0.503445 0.829677 Ni
0.823586 0.502153 0.827389 Ni
0.686991 0.179130 0.494454 Ni
0.493704 0.312922 0.164435 Ni
0.742593 0.195925 0.599797 F
0.812110 0.554250 0.937691 F
0.439093 0.266531 0.272662 F
0.232199 0.736358 0.385556 F
0.484413 0.753481 0.055810 F
0.262228 0.527159 0.727273 F
0.836193 0.952697 0.955382 F
0.048994 0.893421 0.286174 F
0.131745 0.221178 0.620297 F
0.974886 0.793665 0.052762 F
0.806761 0.065924 0.720834 F
0.202095 0.165044 0.390542 F
0.525781 0.386626 0.056266 F
0.608064 0.128388 0.386952 F
0.857077 0.471144 0.723955 F
0.375924 0.497365 0.943919 F
0.149607 0.601823 0.600261 F
0.499788 0.867740 0.276223 F
0.796765 0.419287 0.175862 F
0.568427 0.364188 0.503017 F
0.634469 0.204794 0.844359 F
0.435298 0.806426 0.849496 F
0.363200 0.543510 0.474234 F
0.190310 0.623801 0.174875 F
0.033218 0.304419 0.273609 F
0.638653 0.710653 0.592620 F
0.287508 0.987069 0.942729 F
0.358467 0.004558 0.727421 F
0.676471 0.675164 0.378925 F
0.023848 0.359048 0.051334 F
0.189211 0.202014 0.142126 F
0.803219 0.986250 0.474694 F
0.022451 0.806800 0.824944 F
0.201988 0.198297 0.832870 F
0.987437 0.781806 0.499332 F
0.805318 0.005129 0.162922 F
0.040982 0.433938 0.869174 F
0.585414 0.612387 0.195074 F
0.390033 0.955753 0.529480 F
0.388365 0.011747 0.141637 F
0.626325 0.610728 0.805917 F
0.969267 0.378172 0.456412 F
