Na32 Fe32 P32 O128
1.0
  10.0024688400000006    0.0000000000000000    0.0000000000000006
   0.0000000000000022   13.6388571600000006    0.0000000000000008
   0.0000000000000000    0.0000000000000000   17.8727356200000003
Na Fe P O
31 32 32 128
direct
   0.4826702649999999    0.1250000000000000    0.8253641350000001 Na
   0.2326702650000000    0.3750000000000000    0.4246358650000001 Na
   0.2326702650000000    0.3750000000000000    0.9246358650000001 Na
   0.2326702650000000    0.8750000000000000    0.4246358650000000 Na
   0.2326702650000000    0.8750000000000000    0.9246358650000001 Na
   0.7326702649999999    0.3750000000000000    0.4246358650000000 Na
   0.7326702649999999    0.3750000000000000    0.9246358650000001 Na
   0.7326702650000000    0.8750000000000000    0.4246358650000001 Na
   0.7326702650000000    0.8750000000000000    0.9246358650000001 Na
   0.4826702649999999    0.1250000000000000    0.3253641350000000 Na
   0.4826702649999999    0.6250000000000000    0.3253641350000000 Na
   0.4826702649999999    0.6250000000000000    0.8253641349999999 Na
   0.9826702650000000    0.1250000000000000    0.3253641350000000 Na
   0.9826702650000000    0.1250000000000000    0.8253641350000001 Na
   0.9826702650000000    0.6250000000000000    0.3253641350000000 Na
   0.9826702650000000    0.6250000000000000    0.8253641349999999 Na
   0.2673297350000001    0.1250000000000000    0.0753641350000000 Na
   0.2673297350000001    0.1250000000000000    0.5753641350000001 Na
   0.2673297350000001    0.6250000000000000    0.0753641350000000 Na
   0.2673297350000001    0.6250000000000000    0.5753641349999999 Na
   0.7673297350000000    0.1250000000000000    0.0753641350000000 Na
   0.7673297350000000    0.1250000000000000    0.5753641349999999 Na
   0.7673297350000000    0.6250000000000000    0.0753641350000000 Na
   0.7673297350000000    0.6250000000000000    0.5753641349999999 Na
   0.0173297350000000    0.3750000000000000    0.1746358650000000 Na
   0.0173297350000000    0.3750000000000000    0.6746358650000001 Na
   0.0173297350000000    0.8750000000000000    0.1746358650000000 Na
   0.0173297350000000    0.8750000000000000    0.6746358649999999 Na
   0.5173297350000000    0.3750000000000000    0.1746358650000000 Na
   0.5173297350000000    0.8750000000000000    0.1746358650000000 Na
   0.5173297350000000    0.8750000000000000    0.6746358649999999 Na
   0.2500000000000000    0.2500000000000000    0.2500000000000000 Fe
   0.2500000000000000    0.2500000000000000    0.7500000000000000 Fe
   0.2499999999999999    0.7500000000000000    0.2500000000000000 Fe
   0.2499999999999999    0.7500000000000000    0.7500000000000000 Fe
   0.7500000000000000    0.2500000000000000    0.2500000000000000 Fe
   0.7500000000000000    0.2500000000000000    0.7500000000000000 Fe
   0.7500000000000000    0.7500000000000000    0.2500000000000000 Fe
   0.7500000000000000    0.7500000000000000    0.7500000000000000 Fe
   0.0000000000000000    0.2500000000000000    0.0000000000000000 Fe
   0.0000000000000000    0.2500000000000000    0.5000000000000000 Fe
   0.0000000000000000    0.7500000000000000    0.0000000000000000 Fe
   0.0000000000000000    0.7500000000000000    0.5000000000000000 Fe
   0.5000000000000001    0.2500000000000000    0.0000000000000000 Fe
   0.5000000000000001    0.2500000000000000    0.5000000000000000 Fe
   0.4999999999999999    0.7500000000000000    0.0000000000000000 Fe
   0.4999999999999999    0.7500000000000000    0.4999999999999999 Fe
   0.2500000000000000    0.0000000000000000    0.2500000000000000 Fe
   0.2500000000000000    0.0000000000000000    0.7500000000000000 Fe
   0.2499999999999999    0.5000000000000000    0.2500000000000000 Fe
   0.2499999999999999    0.5000000000000000    0.7500000000000000 Fe
   0.7500000000000000    0.0000000000000000    0.2500000000000000 Fe
   0.7500000000000000    0.0000000000000000    0.7500000000000000 Fe
   0.7499999999999999    0.5000000000000000    0.2500000000000000 Fe
   0.7499999999999999    0.5000000000000000    0.7500000000000000 Fe
   0.0000000000000000    0.0000000000000000    0.0000000000000000 Fe
   0.0000000000000000    0.0000000000000000    0.5000000000000000 Fe
   0.0000000000000000    0.5000000000000000    0.0000000000000000 Fe
   0.0000000000000000    0.5000000000000000    0.5000000000000000 Fe
   0.5000000000000000    0.0000000000000000    0.0000000000000000 Fe
   0.5000000000000000    0.0000000000000000    0.5000000000000000 Fe
   0.5000000000000000    0.5000000000000000    0.0000000000000000 Fe
   0.5000000000000000    0.5000000000000000    0.5000000000000000 Fe
   0.4820440350000000    0.3750000000000000    0.3375230300000001 P
   0.4820440350000000    0.3750000000000000    0.8375230300000002 P
   0.4820440350000000    0.8750000000000000    0.3375230300000000 P
   0.4820440350000000    0.8750000000000000    0.8375230300000001 P
   0.9820440349999998    0.3750000000000000    0.3375230300000001 P
   0.9820440349999998    0.3750000000000000    0.8375230300000001 P
   0.9820440349999999    0.8750000000000000    0.3375230300000001 P
   0.9820440349999999    0.8750000000000000    0.8375230300000001 P
   0.2320440350000000    0.1250000000000000    0.4124769699999999 P
   0.2320440350000000    0.1250000000000000    0.9124769699999999 P
   0.2320440350000000    0.6250000000000000    0.4124769699999999 P
   0.2320440350000000    0.6250000000000000    0.9124769699999998 P
   0.7320440350000000    0.1250000000000000    0.4124769699999999 P
   0.7320440350000000    0.1250000000000000    0.9124769699999999 P
   0.7320440349999999    0.6250000000000000    0.4124769699999999 P
   0.7320440349999999    0.6250000000000000    0.9124769699999998 P
   0.0179559650000000    0.1250000000000000    0.1624769700000000 P
   0.0179559650000000    0.1250000000000000    0.6624769700000001 P
   0.0179559650000000    0.6250000000000000    0.1624769700000000 P
   0.0179559650000000    0.6250000000000000    0.6624769699999999 P
   0.5179559650000000    0.1250000000000000    0.1624769700000000 P
   0.5179559650000000    0.1250000000000000    0.6624769699999999 P
   0.5179559650000000    0.6250000000000000    0.1624769700000000 P
   0.5179559650000000    0.6250000000000000    0.6624769699999999 P
   0.2679559650000001    0.3750000000000000    0.0875230300000000 P
   0.2679559650000001    0.3750000000000000    0.5875230300000002 P
   0.2679559650000000    0.8750000000000000    0.0875230300000000 P
   0.2679559650000000    0.8750000000000000    0.5875230300000001 P
   0.7679559650000000    0.3750000000000000    0.0875230300000000 P
   0.7679559650000000    0.3750000000000000    0.5875230300000001 P
   0.7679559650000000    0.8750000000000000    0.0875230300000000 P
   0.7679559650000000    0.8750000000000000    0.5875230300000001 P
   0.1259641800000000    0.3750000000000000    0.3071430600000000 O
   0.1259641800000000    0.3750000000000000    0.8071430600000000 O
   0.1259641800000000    0.8750000000000000    0.3071430600000000 O
   0.1259641800000000    0.8750000000000000    0.8071430599999999 O
   0.6259641799999999    0.3750000000000000    0.3071430600000000 O
   0.6259641799999999    0.3750000000000000    0.8071430599999999 O
   0.6259641800000000    0.8750000000000000    0.3071430600000000 O
   0.6259641800000000    0.8750000000000000    0.8071430599999999 O
   0.3759641800000000    0.1250000000000000    0.4428569400000000 O
   0.3759641800000000    0.1250000000000000    0.9428569400000001 O
   0.3759641800000000    0.6250000000000000    0.4428569400000000 O
   0.3759641800000000    0.6250000000000000    0.9428569400000000 O
   0.8759641800000000    0.1250000000000000    0.4428569400000000 O
   0.8759641800000000    0.1250000000000000    0.9428569400000001 O
   0.8759641800000001    0.6250000000000000    0.4428569400000000 O
   0.8759641800000001    0.6250000000000000    0.9428569400000000 O
   0.3740358200000001    0.1250000000000000    0.1928569400000000 O
   0.3740358200000001    0.1250000000000000    0.6928569400000001 O
   0.3740358200000000    0.6250000000000000    0.1928569400000000 O
   0.3740358200000000    0.6250000000000000    0.6928569400000000 O
   0.8740358200000000    0.1250000000000000    0.1928569400000000 O
   0.8740358200000000    0.1250000000000000    0.6928569400000000 O
   0.8740358200000000    0.6250000000000000    0.1928569400000000 O
   0.8740358200000000    0.6250000000000000    0.6928569400000000 O
   0.1240358200000000    0.3750000000000000    0.0571430600000000 O
   0.1240358200000000    0.3750000000000000    0.5571430600000000 O
   0.1240358200000000    0.8750000000000000    0.0571430600000000 O
   0.1240358200000000    0.8750000000000000    0.5571430599999999 O
   0.6240358199999999    0.3750000000000000    0.0571430600000000 O
   0.6240358199999999    0.3750000000000000    0.5571430599999999 O
   0.6240358199999999    0.8750000000000000    0.0571430600000000 O
   0.6240358199999999    0.8750000000000000    0.5571430599999999 O
   0.4773293150000000    0.3750000000000000    0.4241269550000000 O
   0.4773293150000000    0.3750000000000000    0.9241269550000000 O
   0.4773293150000000    0.8750000000000000    0.4241269550000000 O
   0.4773293150000000    0.8750000000000000    0.9241269550000000 O
   0.9773293150000000    0.3750000000000000    0.4241269550000000 O
   0.9773293150000000    0.3750000000000000    0.9241269550000000 O
   0.9773293149999999    0.8750000000000000    0.4241269550000000 O
   0.9773293149999999    0.8750000000000000    0.9241269550000000 O
   0.2273293150000000    0.1250000000000000    0.3258730450000000 O
   0.2273293150000000    0.1250000000000000    0.8258730450000000 O
   0.2273293150000000    0.6250000000000000    0.3258730450000000 O
   0.2273293150000000    0.6250000000000000    0.8258730450000000 O
   0.7273293150000000    0.1250000000000000    0.3258730450000000 O
   0.7273293150000000    0.1250000000000000    0.8258730450000000 O
   0.7273293150000000    0.6250000000000000    0.3258730450000000 O
   0.7273293150000000    0.6250000000000000    0.8258730450000000 O
   0.0226706850000000    0.1250000000000000    0.0758730450000001 O
   0.0226706850000000    0.1250000000000000    0.5758730450000000 O
   0.0226706850000000    0.6250000000000000    0.0758730450000001 O
   0.0226706850000000    0.6250000000000000    0.5758730450000000 O
   0.5226706850000000    0.1250000000000000    0.0758730450000001 O
   0.5226706850000000    0.1250000000000000    0.5758730450000000 O
   0.5226706849999999    0.6250000000000000    0.0758730450000001 O
   0.5226706849999999    0.6250000000000000    0.5758730450000000 O
   0.2726706850000001    0.3750000000000000    0.1741269549999999 O
   0.2726706850000001    0.3750000000000000    0.6741269550000000 O
   0.2726706850000000    0.8750000000000000    0.1741269549999999 O
   0.2726706850000000    0.8750000000000000    0.6741269550000000 O
   0.7726706850000000    0.3750000000000000    0.1741269549999999 O
   0.7726706850000000    0.3750000000000000    0.6741269550000000 O
   0.7726706849999999    0.8750000000000000    0.1741269549999999 O
   0.7726706849999999    0.8750000000000000    0.6741269550000000 O
   0.0917536150000000    0.2164719300000000    0.1898937250000000 O
   0.0917536150000000    0.2164719300000000    0.6898937250000001 O
   0.0917536150000000    0.7164719300000001    0.1898937250000000 O
   0.0917536150000000    0.7164719300000001    0.6898937250000000 O
   0.5917536150000000    0.2164719300000000    0.1898937250000000 O
   0.5917536150000000    0.2164719300000000    0.6898937250000000 O
   0.5917536150000000    0.7164719300000001    0.1898937250000000 O
   0.5917536150000000    0.7164719300000001    0.6898937250000000 O
   0.3417536150000000    0.2835280700000000    0.0601062750000000 O
   0.3417536150000000    0.2835280700000000    0.5601062750000001 O
   0.3417536150000000    0.7835280700000000    0.0601062750000000 O
   0.3417536150000000    0.7835280700000000    0.5601062750000000 O
   0.8417536149999999    0.2835280700000000    0.0601062750000000 O
   0.8417536149999999    0.2835280700000000    0.5601062750000000 O
   0.8417536149999999    0.7835280700000000    0.0601062750000000 O
   0.8417536149999999    0.7835280700000000    0.5601062750000000 O
   0.4082463849999999    0.4664719300000000    0.3101062750000000 O
   0.4082463849999999    0.4664719300000000    0.8101062750000001 O
   0.4082463849999999    0.9664719300000000    0.3101062750000000 O
   0.4082463849999999    0.9664719300000000    0.8101062750000000 O
   0.9082463849999999    0.4664719300000000    0.3101062750000000 O
   0.9082463849999999    0.4664719300000000    0.8101062750000000 O
   0.9082463849999998    0.9664719300000000    0.3101062750000000 O
   0.9082463849999998    0.9664719300000000    0.8101062750000000 O
   0.1582463850000000    0.0335280700000000    0.4398937250000000 O
   0.1582463850000000    0.0335280700000000    0.9398937250000001 O
   0.1582463850000000    0.5335280700000000    0.4398937250000000 O
   0.1582463850000000    0.5335280700000000    0.9398937250000000 O
   0.6582463850000000    0.0335280700000000    0.4398937250000000 O
   0.6582463850000000    0.0335280700000000    0.9398937250000001 O
   0.6582463850000000    0.5335280700000000    0.4398937250000000 O
   0.6582463850000000    0.5335280700000000    0.9398937250000000 O
   0.3417536150000000    0.4664719300000000    0.0601062750000000 O
   0.3417536150000000    0.4664719300000000    0.5601062750000000 O
   0.3417536150000000    0.9664719300000000    0.0601062750000000 O
   0.3417536150000000    0.9664719300000000    0.5601062750000000 O
   0.8417536150000000    0.4664719300000000    0.0601062750000000 O
   0.8417536150000000    0.4664719300000000    0.5601062750000000 O
   0.8417536149999999    0.9664719300000000    0.0601062750000000 O
   0.8417536149999999    0.9664719300000000    0.5601062750000000 O
   0.0917536150000000    0.0335280700000000    0.1898937250000000 O
   0.0917536150000000    0.0335280700000000    0.6898937250000001 O
   0.0917536150000000    0.5335280700000000    0.1898937250000000 O
   0.0917536150000000    0.5335280700000000    0.6898937250000000 O
   0.5917536150000000    0.0335280700000000    0.1898937250000000 O
   0.5917536150000000    0.0335280700000000    0.6898937250000000 O
   0.5917536150000000    0.5335280700000000    0.1898937250000000 O
   0.5917536150000000    0.5335280700000000    0.6898937250000000 O
   0.1582463850000000    0.2164719300000000    0.4398937250000000 O
   0.1582463850000000    0.2164719300000000    0.9398937250000001 O
   0.1582463850000000    0.7164719300000001    0.4398937250000000 O
   0.1582463850000000    0.7164719300000001    0.9398937250000000 O
   0.6582463850000000    0.2164719300000000    0.4398937250000000 O
   0.6582463850000000    0.2164719300000000    0.9398937250000000 O
   0.6582463850000000    0.7164719300000001    0.4398937250000000 O
   0.6582463850000000    0.7164719300000001    0.9398937250000000 O
   0.4082463850000000    0.2835280700000000    0.3101062750000000 O
   0.4082463850000000    0.2835280700000000    0.8101062750000000 O
   0.4082463849999999    0.7835280700000000    0.3101062750000000 O
   0.4082463849999999    0.7835280700000000    0.8101062749999999 O
   0.9082463849999999    0.2835280700000000    0.3101062750000000 O
   0.9082463849999999    0.2835280700000000    0.8101062750000000 O
   0.9082463849999998    0.7835280700000000    0.3101062750000000 O
   0.9082463849999998    0.7835280700000000    0.8101062749999999 O
