K8 V8 P16 O56
1.0
  15.0039081573999997    0.0000000000000000    0.0000000000000000
   0.0000000000000000   10.2586269379000008    0.0000000000000000
  -2.4219750001999998    0.0000000000000000    7.9799889002000004
K V P O
7 8 16 56
direct
   0.4117679895000000    0.8234369749999999    0.4412350059999999 K
   0.9117679894999998    0.8234369749999999    0.4412350059999999 K
   0.0882320030000000    0.1765629950000000    0.5587649939999999 K
   0.5882320029999999    0.1765629950000000    0.5587649939999999 K
   0.9117679894999999    0.6765630250000000    0.9412350060000000 K
   0.0882320030000000    0.3234370050000000    0.0587650020000000 K
   0.5882320029999999    0.3234370050000000    0.0587650020000000 K
   0.3815574945000000    0.3995200099999999    0.2398799960000000 V
   0.8815574944999999    0.3995200099999999    0.2398799960000000 V
   0.1184424980000000    0.8995199800000000    0.2601200040000000 V
   0.6184424980000000    0.8995199800000000    0.2601200040000000 V
   0.1184424980000000    0.6004800200000000    0.7601199749999998 V
   0.6184424979999998    0.6004800200000000    0.7601199749999998 V
   0.3815574945000000    0.1004799980000000    0.7398800250000001 V
   0.8815574944999999    0.1004799980000000    0.7398800250000001 V
   0.4342440069999999    0.0987069980000000    0.1711959990000000 P
   0.9342440069999999    0.0987069980000000    0.1711959990000000 P
   0.4342440069999999    0.4012930100000000    0.6711959839999999 P
   0.9342440069999999    0.4012930100000000    0.6711959839999999 P
   0.0657560005000000    0.9012929799999999    0.8288040160000000 P
   0.5657560005000000    0.9012929799999999    0.8288040160000000 P
   0.0657560005000000    0.5987070200000000    0.3288039860000000 P
   0.5657560005000000    0.5987070200000000    0.3288039860000000 P
   0.2797020080000000    0.1363220070000000    0.3079909980000000 P
   0.7797020080000000    0.1363220070000000    0.3079909980000000 P
   0.2797020079999999    0.3636780080000000    0.8079910279999999 P
   0.7797020079999999    0.3636780080000000    0.8079910279999999 P
   0.2202980069999999    0.8636779790000000    0.6920089720000000 P
   0.7202980069999998    0.8636779790000000    0.6920089720000000 P
   0.2202980069999999    0.6363220210000000    0.1920090020000000 P
   0.7202980069999999    0.6363220210000000    0.1920090020000000 P
   0.3315114975000000    0.0617359990000000    0.1863400040000000 O
   0.8315114974999999    0.0617359990000000    0.1863400040000000 O
   0.1684885025000000    0.5617359879999999    0.3136599960000000 O
   0.6684885024999998    0.5617359879999999    0.3136599960000000 O
   0.1684885025000000    0.9382640120000000    0.8136600260000000 O
   0.6684885024999999    0.9382640120000000    0.8136600260000000 O
   0.3315114975000000    0.4382640120000000    0.6863399740000000 O
   0.8315114975000000    0.4382640120000000    0.6863399740000000 O
   0.4597949980000000    0.2357130050000000    0.2466019990000000 O
   0.9597949980000000    0.2357130050000000    0.2466019990000000 O
   0.0402050020000000    0.7357130050000000    0.2533980009999999 O
   0.5402050020000000    0.7357130050000000    0.2533980009999999 O
   0.0402050020000000    0.7642869950000000    0.7533980010000000 O
   0.5402050020000000    0.7642869950000000    0.7533980010000000 O
   0.4597949979999999    0.2642869950000000    0.7466019989999999 O
   0.9597949979999999    0.2642869950000000    0.7466019989999999 O
   0.3178114890000000    0.5762730240000000    0.2350900020000000 O
   0.8178114889999999    0.5762730240000000    0.2350900020000000 O
   0.1821884960000000    0.0762730020000000    0.2649100120000000 O
   0.6821884960000000    0.0762730020000000    0.2649100120000000 O
   0.1821884960000000    0.4237270060000000    0.7649099829999999 O
   0.6821884959999999    0.4237270060000000    0.7649099829999999 O
   0.3178114890000000    0.9237269759999999    0.7350900170000000 O
   0.8178114889999999    0.9237269759999999    0.7350900170000000 O
   0.2722915115000000    0.2808479960000000    0.2586590050000000 O
   0.7722915115000000    0.2808479960000000    0.2586590050000000 O
   0.2277085034999999    0.7808480260000000    0.2413409950000000 O
   0.7277085034999999    0.7808480260000000    0.2413409950000000 O
   0.2277085035000000    0.7191519740000000    0.7413409949999998 O
   0.7277085034999998    0.7191519740000000    0.7413409949999998 O
   0.2722915115000000    0.2191520040000000    0.7586590050000001 O
   0.7722915115000000    0.2191520040000000    0.7586590050000001 O
   0.4293385149999999    0.0944420020000000    0.9879040119999999 O
   0.9293385149999999    0.0944420020000000    0.9879040119999999 O
   0.0706615000000000    0.5944420100000000    0.5120959880000000 O
   0.5706614999999999    0.5944420100000000    0.5120959880000000 O
   0.0706615000000000    0.9055579900000000    0.0120960000000000 O
   0.5706614999999999    0.9055579900000000    0.0120960000000000 O
   0.4293385150000000    0.4055579899999999    0.4879040119999999 O
   0.9293385149999999    0.4055579899999999    0.4879040119999999 O
   0.3397560119999999    0.1076780040000000    0.4861840009999999 O
   0.8397560119999998    0.1076780040000000    0.4861840009999999 O
   0.1602440030000000    0.6076779960000001    0.0138160000000000 O
   0.6602440030000001    0.6076779960000001    0.0138160000000000 O
   0.1602440030000000    0.8923220039999998    0.5138159989999999 O
   0.6602440029999999    0.8923220039999998    0.5138159989999999 O
   0.3397560119999999    0.3923220040000000    0.9861840010000000 O
   0.8397560119999999    0.3923220040000000    0.9861840010000000 O
   0.4995839895000000    0.0020390000000000    0.7213400009999998 O
   0.9995839894999999    0.0020390000000000    0.7213400009999998 O
   0.0004160000000000    0.5020390150000000    0.7786599990000000 O
   0.5004160000000000    0.5020390150000000    0.7786599990000000 O
   0.0004160000000000    0.9979609849999999    0.2786599989999999 O
   0.5004160000000000    0.9979609849999999    0.2786599989999999 O
   0.4995839894999999    0.4979610150000000    0.2213400010000000 O
   0.9995839894999998    0.4979610150000000    0.2213400010000000 O
