V16 O40                                 
   1.00000000000000     
     7.1547485491359959   -0.0000942033343862   -0.0000024671225135
    -0.0001428522195304   10.6778625138143042    0.0000005717770797
    -0.0000048431473569    0.0000007920739801   11.4503228646325557
   Mg   V    O 
     1    16    40
Direct
  0.2499991319039096  0.6005155186040863  0.7500028766724832
  0.0013294164366306  0.2108829564891823  0.1016617355772137
  0.4986558107574343  0.2108884623351978  0.1016596913708919
  0.2499982039288489  0.3078394346893312  0.8960067463374983
  0.7500005209166967  0.3021111191528402  0.8961475736165254
  0.2499996165873988  0.3078404308292320  0.6039949079366144
  0.7500026578447858  0.3021136835445863  0.6038532700332050
  0.0013332080203760  0.2108860959626519  0.3983404336527541
  0.4986598767488422  0.2108899255617900  0.3983394497544913
  0.2499975631558164  0.6995529512893780  0.1034367254244616
  0.7499985282199464  0.7026526093766740  0.1029492535306685
  0.9987402321295527  0.7863775667886699  0.8987455956659062
  0.5012644679818534  0.7863798683818928  0.8987461770755543
  0.9987423856339754  0.7863754218043368  0.6012524437431215
  0.5012663697091956  0.7863763193964799  0.6012528822447718
  0.2500019359740457  0.6995511540459030  0.3965607100813940
  0.7500015647546574  0.7026465975083587  0.3970503560959584
  0.2499984566366147  0.2490271059111098  0.7500008230043056
  0.7499981802941477  0.2421233990221813  0.7499999381448325
  0.9993476292895515  0.2651845244599836  0.2500005040379822
  0.5006445480460343  0.2651834111807505  0.2499995793678876
  0.0027593279411473  0.2599305885540720  0.5711527972948852
  0.4972387462991406  0.2599367665062230  0.5711516104340881
  0.2499978528961208  0.2617382613386534  0.4324732835084780
  0.7499987771685042  0.2523118947065938  0.4331692789289366
  0.2499959938107547  0.2617378160857867  0.0675287755968396
  0.7499976217367439  0.2523022146691610  0.0668301700950273
  0.0027586776567311  0.2599303380459313  0.9288497335786401
  0.4972361666628119  0.2599320164002240  0.9288491929076654
  0.0079456733718233  0.0626507096432004  0.1099044846068312
  0.4920343325206290  0.0626552459373924  0.1099009764374960
  0.2500044779816539  0.4595408461908034  0.8716194905977287
  0.7500097092355167  0.4503395133835773  0.8814944897413384
  0.0079442563870908  0.0626546602483339  0.3900981883622535
  0.4920393993266535  0.0626572345361780  0.3901012707031602
  0.2500019459045029  0.4595408259049293  0.6283837727677456
  0.7500185965536816  0.4503428991670935  0.6185133317266279
  0.0184959395354274  0.7157356910587540  0.7499993524351469
  0.4815079148393054  0.7157377101824924  0.7499996983712777
  0.2500034971108095  0.7584711899908230  0.2499998871216743
  0.7500016821993036  0.7599978899917689  0.2500012869647637
  0.2500020769640081  0.7283243028948642  0.5742713579345473
  0.7500020810492606  0.7408812983370130  0.5753806714899096
  0.0008222483435564  0.7499748381483743  0.4310322139247323
  0.4991853257469822  0.7499767957387476  0.4310323562552298
  0.0008203339891345  0.7499839167925393  0.0689673014517856
  0.4991818175786735  0.7499831947098017  0.0689674899403777
  0.2500001810874791  0.7283241401509105  0.9257268231652089
  0.7500004209564011  0.7408852178367641  0.9246179140615745
  0.2499928243222798  0.5517875942706935  0.1181159917948543
  0.7499950762387534  0.5548512863004768  0.1166741706326905
  0.0027426205393322  0.9333616876969607  0.8803286170654678
  0.4972731871804498  0.9333630620664888  0.8803284853107843
  0.2499972779221910  0.5517840431671910  0.3818827908992115
  0.7499947911944082  0.5548434323275437  0.3833244690154752
  0.0027442518441796  0.9333606593198285  0.6196619941986306
  0.4972745909342256  0.9333615433651632  0.6196646073104379
 
  0.00000000E+00  0.00000000E+00  0.00000000E+00
  0.00000000E+00  0.00000000E+00  0.00000000E+00
  0.00000000E+00  0.00000000E+00  0.00000000E+00
  0.00000000E+00  0.00000000E+00  0.00000000E+00
  0.00000000E+00  0.00000000E+00  0.00000000E+00
  0.00000000E+00  0.00000000E+00  0.00000000E+00
  0.00000000E+00  0.00000000E+00  0.00000000E+00
  0.00000000E+00  0.00000000E+00  0.00000000E+00
  0.00000000E+00  0.00000000E+00  0.00000000E+00
  0.00000000E+00  0.00000000E+00  0.00000000E+00
  0.00000000E+00  0.00000000E+00  0.00000000E+00
  0.00000000E+00  0.00000000E+00  0.00000000E+00
  0.00000000E+00  0.00000000E+00  0.00000000E+00
  0.00000000E+00  0.00000000E+00  0.00000000E+00
  0.00000000E+00  0.00000000E+00  0.00000000E+00
  0.00000000E+00  0.00000000E+00  0.00000000E+00
  0.00000000E+00  0.00000000E+00  0.00000000E+00
  0.00000000E+00  0.00000000E+00  0.00000000E+00
  0.00000000E+00  0.00000000E+00  0.00000000E+00
  0.00000000E+00  0.00000000E+00  0.00000000E+00
  0.00000000E+00  0.00000000E+00  0.00000000E+00
  0.00000000E+00  0.00000000E+00  0.00000000E+00
  0.00000000E+00  0.00000000E+00  0.00000000E+00
  0.00000000E+00  0.00000000E+00  0.00000000E+00
  0.00000000E+00  0.00000000E+00  0.00000000E+00
  0.00000000E+00  0.00000000E+00  0.00000000E+00
  0.00000000E+00  0.00000000E+00  0.00000000E+00
  0.00000000E+00  0.00000000E+00  0.00000000E+00
  0.00000000E+00  0.00000000E+00  0.00000000E+00
  0.00000000E+00  0.00000000E+00  0.00000000E+00
  0.00000000E+00  0.00000000E+00  0.00000000E+00
  0.00000000E+00  0.00000000E+00  0.00000000E+00
  0.00000000E+00  0.00000000E+00  0.00000000E+00
  0.00000000E+00  0.00000000E+00  0.00000000E+00
  0.00000000E+00  0.00000000E+00  0.00000000E+00
  0.00000000E+00  0.00000000E+00  0.00000000E+00
  0.00000000E+00  0.00000000E+00  0.00000000E+00
  0.00000000E+00  0.00000000E+00  0.00000000E+00
  0.00000000E+00  0.00000000E+00  0.00000000E+00
  0.00000000E+00  0.00000000E+00  0.00000000E+00
  0.00000000E+00  0.00000000E+00  0.00000000E+00
  0.00000000E+00  0.00000000E+00  0.00000000E+00
  0.00000000E+00  0.00000000E+00  0.00000000E+00
  0.00000000E+00  0.00000000E+00  0.00000000E+00
  0.00000000E+00  0.00000000E+00  0.00000000E+00
  0.00000000E+00  0.00000000E+00  0.00000000E+00
  0.00000000E+00  0.00000000E+00  0.00000000E+00
  0.00000000E+00  0.00000000E+00  0.00000000E+00
  0.00000000E+00  0.00000000E+00  0.00000000E+00
  0.00000000E+00  0.00000000E+00  0.00000000E+00
  0.00000000E+00  0.00000000E+00  0.00000000E+00
  0.00000000E+00  0.00000000E+00  0.00000000E+00
  0.00000000E+00  0.00000000E+00  0.00000000E+00
  0.00000000E+00  0.00000000E+00  0.00000000E+00
  0.00000000E+00  0.00000000E+00  0.00000000E+00
  0.00000000E+00  0.00000000E+00  0.00000000E+00
  0.00000000E+00  0.00000000E+00  0.00000000E+00
