Ca8 Ni12 F42                            
   1.00000000000000     
     7.2814430000000003   -0.0192120000000000    0.0165140000000000
    -3.6816160000000000    6.3602920000000003   -0.0017120000000000
     0.0489830000000000    0.0201210000000000   18.2406480000000002
   Ca   Ni   F 
     8    12    42
Direct
  0.8543209224931686  0.9502601373246122  0.8185814970607339
  0.4704195725513358  0.8658610037892830  0.6524131792461982
  0.1728619186626692  0.6502762532069131  0.9764359756006677
  0.3496101210267616  0.5126847416736054  0.3242256149113099
  0.8366967655884424  0.0222101198228183  0.3444631557630750
  0.1722506373626659  0.1588244434623804  0.0041149126808543
  0.9864900001853333  0.7937058298958002  0.1708343678926729
  0.1928818543829261  0.1665019107515817  0.5132316929139800
  0.3318949937957401  0.0088507798867516  0.3317511648808414
  0.9879201427241168  0.3522549871224177  0.6676677008497124
  0.6728013041359999  0.6524987329452427  0.9962441606665692
  0.3456093597046668 -0.0027969853422998  0.8346570695042191
  0.9978116370886434  0.3146958474176499  0.1590335821482317
  0.6710250949134073  0.6807055874248934  0.4945957475915885
  0.4993521791142827  0.8192650036692060  0.1592622650748617
  0.1662877704259388  0.6685551668920025  0.4928205903039301
  0.3349371133800869  0.4932670355426126  0.8282363363768137
  0.8336802937927030  0.4838356409812796  0.8323121547746337
  0.6803962369775770  0.1883073367756273  0.4949742233861660
  0.4945547629255826  0.3127366771653936  0.1616508181459059
  0.7349212987903079  0.2121549463917060  0.6011691537482805
  0.8048175027297821  0.5148953654904170  0.9401993320506289
  0.4380361977141389  0.2652786035598954  0.2701442662815134
  0.2327675220302710  0.7380320690981973  0.3846855181095234
  0.4952677691670999  0.7547535219001675  0.0509098600487362
  0.2662579496402182  0.5196182545091150  0.7262452959794617
  0.8457223362578616  0.9305984483112812  0.9422854899502527
  0.0432945673773917  0.8910169858742067  0.2851481566909468
  0.1171526069185009  0.2138137106127268  0.6208437624343213
  0.9800337199570356  0.7923712470283151  0.0482273944447394
  0.7941656982513198  0.0670362490390393  0.7187023458217374
  0.1992994825174463  0.1742751174575122  0.3880333329224553
  0.5216411547693115  0.3847183223932937  0.0549949093251748
  0.6035539745655440  0.1335748185905722  0.3868761123506190
  0.8798127253674187  0.4906586660280738  0.7282926909047112
  0.3853805244107989  0.4886574715192142  0.9409603681162101
  0.1416559103616641  0.6097057381896573  0.6009037370750074
  0.5004999442315546  0.8728258242568369  0.2738879000091556
  0.7995301753999932  0.4232425686944596  0.1710560420846315
  0.5628256183523430  0.3737992842335212  0.5036874342832633
  0.6394975933955900  0.1940151547471596  0.8332226358247137
  0.4516557072254501  0.7967912906197619  0.8485140660908604
  0.3566172049122401  0.5515893116617433  0.4813323330991048
  0.1935630852142513  0.6229646366732129  0.1725385876139282
  0.0269327269405716  0.3024337054538365  0.2705430900374434
  0.6400365335862667  0.7269985647276705  0.5955425522994664
  0.3251203255899747  0.9973871764088453  0.9461099626561843
  0.3168941800425862  0.9741739002835452  0.7307984532770546
  0.6633405684865824  0.6794457692792486  0.3808938681939631
  0.0312821862735983  0.3576558721467015  0.0477071443581623
  0.1881833281567966  0.1970084364583916  0.1403416604894480
  0.7972285003100661  0.9956698416739765  0.4757889668179893
  0.0482722497778791  0.7787224810470331  0.8424291711171364
  0.2162865871916194  0.1846085836137517  0.8329404114592147
  0.9820876799891046  0.7916712775537855  0.4969644880946456
  0.8061234077482347  0.0033895422320901  0.1576708114981653
  0.0493403971117028  0.4131209102901354  0.8701260857129818
  0.5818013846742254  0.6108580466231956  0.1951519619390835
  0.3826939628103028  0.9660729909869865  0.5299543799912915
  0.3906669891125706  0.0109277151360559  0.1380488175924477
  0.6385951214848462  0.5931587956280826  0.8057108220934335
  0.9642903010008530  0.3854469929274210  0.4580628369922838
 
             NaN             NaN             NaN
             NaN             NaN             NaN
             NaN             NaN             NaN
             NaN             NaN             NaN
             NaN             NaN             NaN
             NaN             NaN             NaN
             NaN             NaN             NaN
             NaN             NaN             NaN
             NaN             NaN             NaN
             NaN             NaN             NaN
             NaN             NaN             NaN
             NaN             NaN             NaN
             NaN             NaN             NaN
             NaN             NaN             NaN
             NaN             NaN             NaN
             NaN             NaN             NaN
             NaN             NaN             NaN
             NaN             NaN             NaN
             NaN             NaN             NaN
             NaN             NaN             NaN
             NaN             NaN             NaN
             NaN             NaN             NaN
             NaN             NaN             NaN
             NaN             NaN             NaN
             NaN             NaN             NaN
             NaN             NaN             NaN
             NaN             NaN             NaN
             NaN             NaN             NaN
             NaN             NaN             NaN
             NaN             NaN             NaN
             NaN             NaN             NaN
             NaN             NaN             NaN
             NaN             NaN             NaN
             NaN             NaN             NaN
             NaN             NaN             NaN
             NaN             NaN             NaN
             NaN             NaN             NaN
             NaN             NaN             NaN
             NaN             NaN             NaN
             NaN             NaN             NaN
             NaN             NaN             NaN
             NaN             NaN             NaN
             NaN             NaN             NaN
             NaN             NaN             NaN
             NaN             NaN             NaN
             NaN             NaN             NaN
             NaN             NaN             NaN
             NaN             NaN             NaN
             NaN             NaN             NaN
             NaN             NaN             NaN
             NaN             NaN             NaN
             NaN             NaN             NaN
             NaN             NaN             NaN
             NaN             NaN             NaN
             NaN             NaN             NaN
             NaN             NaN             NaN
             NaN             NaN             NaN
             NaN             NaN             NaN
             NaN             NaN             NaN
             NaN             NaN             NaN
             NaN             NaN             NaN
             NaN             NaN             NaN
