Ca8 Ni12 F42
1.0
7.281443 -0.019212 0.016514
-3.681616 6.360292 -0.001712
0.048983 0.020121 18.240648
Ca Ni F
8 12 42
direct
0.855548 0.949063 0.800250 Ca
0.485340 0.854147 0.653276 Ca
0.161238 0.651616 0.977801 Ca
0.347806 0.508489 0.327035 Ca
0.840852 0.015550 0.345623 Ca
0.163806 0.161453 0.008104 Ca
0.982834 0.789298 0.173598 Ca
0.201288 0.160820 0.514413 Ca
0.338300 0.007859 0.332982 Ni
0.989548 0.344455 0.668694 Ni
0.665144 0.658451 -0.000120 Ni
0.330182 0.008429 0.830874 Ni
0.996693 0.314691 0.161989 Ni
0.679895 0.673804 0.493597 Ni
0.497443 0.819096 0.162362 Ni
0.173694 0.664119 0.494064 Ni
0.326784 0.502406 0.829131 Ni
0.822080 0.499604 0.827989 Ni
0.687721 0.181815 0.494918 Ni
0.494133 0.312012 0.162916 Ni
0.741532 0.193643 0.600566 F
0.812093 0.550766 0.937604 F
0.439122 0.264132 0.271359 F
0.239658 0.736197 0.386240 F
0.480390 0.747666 0.055545 F
0.262545 0.525465 0.726124 F
0.828602 0.946325 0.955653 F
0.048501 0.889399 0.287252 F
0.127912 0.208864 0.621966 F
0.975614 0.792253 0.052252 F
0.807282 0.060745 0.721040 F
0.204674 0.170982 0.389699 F
0.523549 0.383601 0.055312 F
0.611864 0.133063 0.387165 F
0.857909 0.475263 0.723272 F
0.375774 0.493607 0.942810 F
0.143027 0.608421 0.602194 F
0.504759 0.872233 0.275788 F
0.797751 0.420676 0.174464 F
0.570390 0.367649 0.503922 F
0.631394 0.203243 0.842465 F
0.425842 0.801296 0.850317 F
0.367258 0.551568 0.485332 F
0.192605 0.621737 0.178626 F
0.027353 0.296949 0.272758 F
0.658691 0.717358 0.596419 F
0.287572 0.989817 0.942372 F
0.349741 -0.003854 0.725475 F
0.665360 0.671669 0.380581 F
0.024765 0.362257 0.051172 F
0.188943 0.200886 0.141725 F
0.802735 0.987963 0.475800 F
0.024681 0.804040 0.824154 F
0.211175 0.199831 0.828988 F
0.990337 0.787283 0.495660 F
0.805042 0.003199 0.159167 F
0.042270 0.433288 0.868141 F
0.585008 0.611613 0.195760 F
0.389651 0.960796 0.530290 F
0.386416 0.008792 0.140683 F
0.624510 0.605095 0.803801 F
0.975375 0.379024 0.459515 F
