Ca1 V12 F42                             
   1.00000000000000     
     7.3838299999999997   -0.0048610000000000   -0.1031770000000000
    -3.6817769999999999    6.3756000000000004    0.0773780000000000
     0.2737240000000000   -0.0216300000000000   17.6082120000000018
   Ca   V    F 
     1    12    42
Direct
  0.0086258758465880  0.4846533148792921  0.3463928073924115
  0.3016089290531623  0.0160833910407276  0.3331609137588036
  0.7153960131347203  0.7156221987831390  0.9975262018535948
  0.0016716877658779  0.2815961694407796  0.6707935567207339
  0.3568965025206439  0.9951619372252705  0.8346777083924483
  0.6516470624758282  0.6671130475224266  0.5066746890582766
  0.9920709260319157  0.3335415943139876  0.1450677938327710
  0.6458555686344181  0.1644388885834973  0.5059380481030081
  0.4938243011796083  0.3390415466895003  0.1555363478370594
  0.8566538597377112  0.4968370171189133  0.8351590482514044
  0.3554971397419854  0.4937121405866376  0.8345758611100507
  0.1601840310299457  0.6774367092008106  0.5196920383173429
  0.4920558935160137  0.8388913878301970  0.1631711224268174
  0.5547326650439690  0.8019495053825052  0.0591462559109503
  0.2497994482814465  0.4111069311122018  0.7326825693900687
  0.2074480386859819  0.7843480172079139  0.4125476933226866
  0.4168172176435953  0.2392399580942658  0.2588448834741998
  0.8340638161909699  0.5835656243103481  0.9361004550116757
  0.7599570789416261  0.1925246975170803  0.6064191241686865
  0.8783935682369501  0.0607725670383970  0.7299021814998610
  0.1739468661050734  0.1419624929673923  0.3781265576553554
  0.9210430148475420  0.8107074535305850  0.0638618499057157
  0.1222100943234780  0.2041001511548688  0.6014049458141986
  0.0662210737293488  0.7920847768387664  0.2864420339313288
  0.8073926169207841  0.9316759011117184  0.9358007197139827
  0.1196451591992011  0.5566734630397425  0.6180162802839920
  0.4454540359417597  0.8873217373043919  0.2705822099192834
  0.4578980205159214  0.5631225371041672  0.9365780715967664
  0.8853608335729707  0.4221264967978974  0.7335565460632653
  0.5643817441250766  0.1555013698851202  0.3946114828927622
  0.5759836979712056  0.4459307133771856  0.0551513406625740
  0.3568983339564353  0.5859266876378249  0.4860010242949606
  0.1980828843163470  0.6285216674231265  0.1443899060754259
  0.4363143010272888  0.7836352198047061  0.8143621654760865
  0.6470774969221177  0.2074080506452515  0.8559242210732231
  0.5693785422137545  0.3761377617407514  0.5258979845055612
  0.7833408090562382  0.4123713620045986  0.1791822843902607
  0.6976543367615519  0.6226107274282399  0.4081040339482542
  0.9239716244926088  0.3146143502132713  0.0490605571953012
  0.3953507848563331  0.0684226721013486  0.7375175733136888
  0.3190587717913251  0.9216126760718065  0.9316944138811408
  0.6052507817039187  0.7059800329125928  0.6025108399994373
  0.0646068240338686  0.3461604776476060  0.2512108130966959
  0.9416333492343060  0.7502850167387074  0.5301983255554287
  0.7900514870484495  0.0465375994935988  0.1711331200076975
  0.2737894272339444  0.2030659602013090  0.8548435830803179
  0.0665635221060518  0.7864683189263714  0.8134731626003568
  0.7265731981171675  0.9562336647867279  0.4811840929772231
  0.2086780283113363  0.2598641077021494  0.1285332114531933
  0.6308672218996264  0.5453463053084598  0.8044930196489157
  0.9329834448772920  0.3998169145285599  0.4719331868746635
  0.4396355018090198  0.0592490576698845  0.1307038887513688
  0.3793112420993385  0.9521465338411377  0.5463653745680980
  0.5421546755584316  0.6123822430515200  0.1911527818149084
  0.0812604813401561  0.4455186828591020  0.8648055767554833
 
             NaN             NaN             NaN
             NaN             NaN             NaN
             NaN             NaN             NaN
             NaN             NaN             NaN
             NaN             NaN             NaN
             NaN             NaN             NaN
             NaN             NaN             NaN
             NaN             NaN             NaN
             NaN             NaN             NaN
             NaN             NaN             NaN
             NaN             NaN             NaN
             NaN             NaN             NaN
             NaN             NaN             NaN
             NaN             NaN             NaN
             NaN             NaN             NaN
             NaN             NaN             NaN
             NaN             NaN             NaN
             NaN             NaN             NaN
             NaN             NaN             NaN
             NaN             NaN             NaN
             NaN             NaN             NaN
             NaN             NaN             NaN
             NaN             NaN             NaN
             NaN             NaN             NaN
             NaN             NaN             NaN
             NaN             NaN             NaN
             NaN             NaN             NaN
             NaN             NaN             NaN
             NaN             NaN             NaN
             NaN             NaN             NaN
             NaN             NaN             NaN
             NaN             NaN             NaN
             NaN             NaN             NaN
             NaN             NaN             NaN
             NaN             NaN             NaN
             NaN             NaN             NaN
             NaN             NaN             NaN
             NaN             NaN             NaN
             NaN             NaN             NaN
             NaN             NaN             NaN
             NaN             NaN             NaN
             NaN             NaN             NaN
             NaN             NaN             NaN
             NaN             NaN             NaN
             NaN             NaN             NaN
             NaN             NaN             NaN
             NaN             NaN             NaN
             NaN             NaN             NaN
             NaN             NaN             NaN
             NaN             NaN             NaN
             NaN             NaN             NaN
             NaN             NaN             NaN
             NaN             NaN             NaN
             NaN             NaN             NaN
             NaN             NaN             NaN
