Ca1 V12 F42
1.0
7.383830 -0.004861 -0.103177
-3.681777 6.375600 0.077378
0.273724 -0.021630 17.608212
Ca V F
1 12 42
direct
1.031690 0.504227 0.330794 Ca
0.297232 0.000440 0.333950 V
0.714757 0.714645 0.997851 V
0.000270 0.285069 0.668208 V
0.352186 0.998873 0.833027 V
0.649786 0.653023 0.506958 V
0.995273 0.344209 0.160406 V
0.650454 0.151097 0.501887 V
0.494751 0.346116 0.161127 V
0.852215 0.499047 0.832928 V
0.352388 0.498887 0.833716 V
0.148977 0.652011 0.505666 V
0.497446 0.846525 0.165285 V
0.572386 0.819224 0.062101 F
0.249122 0.425216 0.730021 F
0.178499 0.735859 0.396068 F
0.445381 0.261043 0.270675 F
0.826882 0.580258 0.934644 F
0.754096 0.179536 0.604046 F
0.879286 0.070194 0.730113 F
0.201522 0.134810 0.392687 F
0.925405 0.803694 0.062240 F
0.122779 0.198550 0.603029 F
0.061306 0.855992 0.275557 F
0.811915 0.934292 0.937523 F
0.108099 0.546841 0.607905 F
0.428880 0.872296 0.272000 F
0.458684 0.570457 0.936195 F
0.883644 0.430295 0.730284 F
0.564775 0.132224 0.393231 F
0.564081 0.451252 0.058799 F
0.355702 0.566410 0.484220 F
0.206984 0.634662 0.145649 F
0.434589 0.790068 0.813596 F
0.644138 0.209009 0.853634 F
0.572075 0.361422 0.520201 F
0.790509 0.436090 0.186146 F
0.673313 0.613445 0.400713 F
0.916375 0.312762 0.065501 F
0.390834 0.070751 0.736320 F
0.316203 0.928899 0.929954 F
0.612581 0.687487 0.603639 F
0.053014 0.384810 0.265101 F
0.940969 0.736500 0.518674 F
0.788945 0.056672 0.185500 F
0.268355 0.206408 0.853011 F
0.061944 0.790525 0.812125 F
0.729658 0.941636 0.481793 F
0.199962 0.260510 0.146945 F
0.624358 0.546052 0.803148 F
0.925088 0.380033 0.467303 F
0.446608 0.071125 0.136364 F
0.373640 0.928898 0.531432 F
0.544495 0.618488 0.199188 F
0.079418 0.450822 0.863924 F
