Ca8 Mn12 F42                            
   1.00000000000000     
     7.6098090000000003   -0.0793590000000000   -0.0198350000000000
    -3.8790960000000001    6.7071759999999996    0.0650290000000000
    -0.0314630000000000    0.1715130000000000   18.5573009999999989
   Ca   Mn   F 
     8    12    42
Direct
  0.5019072733123615  0.4398664012784835  0.6827938317317728
  0.1625322119416978  0.6510047507279237  0.9958310117597963
  0.3398723047453289  0.4950821377281975  0.3485526361680079
  0.8250818743948201 -0.0040843754051236  0.3334762140135989
  0.1672013428532408  0.1603583885832897  0.0017483476062982
  0.8132037436758425  0.9544126219852000  0.8390950741368166
  0.9895888737761348  0.7812039807412730  0.1750073564787321
  0.1728260460240056  0.1643058704086797  0.5130396378477360
  0.3362794377564692  0.0199030467813536  0.3241599634683573
  0.9918906833076753  0.3453531410698203  0.6679662397331136
  0.6576949416656400  0.6664811322857475  0.0154421329249628
  0.3323008165798817  0.0190800258282884  0.8358751118335368
  0.0108523825152322  0.3135315690912076  0.1682541290296512
  0.7190020576688692  0.6243455316486837  0.4977892123921422
  0.5055738727383531  0.8201099006285744  0.1673799783915828
  0.1839317612770271  0.6735892092564235  0.4952420722532520
  0.3132102780813456  0.5081948116348853  0.8428957157691725
  0.8234183959622017  0.5126386628018101  0.8298815559455319
  0.6844062329179608  0.1709466415512763  0.4886698994952973
  0.4925718997846976  0.3091004499957740  0.1624799463133181
  0.8001785792934097  0.2021753738762038  0.5903958653874221
  0.7753184754373509  0.5949253630041912  0.9282352095372212
  0.4403862198612525  0.3328167105465837  0.2693779725952987
  0.2433485722310795  0.7444270423966832  0.3845275623558113
  0.4764867942931061  0.7973957903543540  0.0549112078265953
  0.2326950839412631  0.4892554389912724  0.7360537802440791
  0.8331038967178982  0.9572312613213834  0.9624177167293949
  0.0298628255920890  0.8843923418613846  0.2872093076566332
  0.2016902530916010  0.2609035782726677  0.6251763728707945
 -0.0105914405246622  0.7807973935111494  0.0543069900261359
  0.8679124424469371  0.1248819082434376  0.7377286844846752
  0.2394954220032763  0.1657602020043485  0.3922386717721850
  0.5006905008450929  0.3470248904818798  0.0500757291868604
  0.6155028614036143  0.1211500999602649  0.3735977862338184
  0.8146333261871667  0.4599674425049476  0.7215999455083294
  0.3664555630573614  0.5149790127113540  0.9555686929372299
  0.1214802975019705  0.5700928053443777  0.5985550773211332
  0.5161322221178402  0.7697682435652449  0.2780215039715453
  0.8004705759857095  0.4136704490803867  0.1764990130105275
  0.5193808511408206  0.3066625154110873  0.5200085198022970
  0.6247276704709690  0.2287565454637018  0.8549713552381590
  0.4587789546350873  0.8261566902314569  0.8461705062258053
  0.2880549563671783  0.4820099854422648  0.4717148217754881
  0.1904083423623405  0.6289527080517376  0.1628739578308730
  0.0488620105262605  0.3126615581073595  0.2830835345827961
  0.6554390126950520  0.6644627910684081  0.5964848970183326
  0.2690394779954833  0.9594095899048187  0.9437029949528505
  0.3739153084410440  0.1413926465933224  0.7411854772563923
  0.6686647964207812  0.6835860620418199  0.3964003083199793
  0.0373445658186240  0.3476544180502571  0.0537759171458005
  0.1700218570985157  0.1428454055668075  0.1344387547803634
  0.8781347984856671  0.0769640186252484  0.4545302193328563
  0.0289817196907539  0.8151449107673180  0.8150083692265296
  0.1645892357413111  0.1961263987437682  0.8676709896900393
  1.0341463904438033  0.8329754318912838  0.5112175404416315
  0.8079324912258171  0.0172763476225015  0.1923138838872162
  0.0527014654993186  0.4959922433396831  0.8855153673330582
  0.6429111931305682  0.6427949797441235  0.1431512192467136
  0.4518085167865741  0.9076273254192170  0.5145767850475363
  0.3924114559691015  0.0071521525969172  0.2040792891257880
  0.6068735129698895  0.6071907822226044  0.7942087373066418
  0.8898213519589124  0.4652624434544748  0.4666078705601027
 
             NaN             NaN             NaN
             NaN             NaN             NaN
             NaN             NaN             NaN
             NaN             NaN             NaN
             NaN             NaN             NaN
             NaN             NaN             NaN
             NaN             NaN             NaN
             NaN             NaN             NaN
             NaN             NaN             NaN
             NaN             NaN             NaN
             NaN             NaN             NaN
             NaN             NaN             NaN
             NaN             NaN             NaN
             NaN             NaN             NaN
             NaN             NaN             NaN
             NaN             NaN             NaN
             NaN             NaN             NaN
             NaN             NaN             NaN
             NaN             NaN             NaN
             NaN             NaN             NaN
             NaN             NaN             NaN
             NaN             NaN             NaN
             NaN             NaN             NaN
             NaN             NaN             NaN
             NaN             NaN             NaN
             NaN             NaN             NaN
             NaN             NaN             NaN
             NaN             NaN             NaN
             NaN             NaN             NaN
             NaN             NaN             NaN
             NaN             NaN             NaN
             NaN             NaN             NaN
             NaN             NaN             NaN
             NaN             NaN             NaN
             NaN             NaN             NaN
             NaN             NaN             NaN
             NaN             NaN             NaN
             NaN             NaN             NaN
             NaN             NaN             NaN
             NaN             NaN             NaN
             NaN             NaN             NaN
             NaN             NaN             NaN
             NaN             NaN             NaN
             NaN             NaN             NaN
             NaN             NaN             NaN
             NaN             NaN             NaN
             NaN             NaN             NaN
             NaN             NaN             NaN
             NaN             NaN             NaN
             NaN             NaN             NaN
             NaN             NaN             NaN
             NaN             NaN             NaN
             NaN             NaN             NaN
             NaN             NaN             NaN
             NaN             NaN             NaN
             NaN             NaN             NaN
             NaN             NaN             NaN
             NaN             NaN             NaN
             NaN             NaN             NaN
             NaN             NaN             NaN
             NaN             NaN             NaN
             NaN             NaN             NaN
