Ca8 Mn12 F42
1.0
7.609809 -0.079359 -0.019835
-3.879096 6.707176 0.065029
-0.031463 0.171513 18.557301
Ca Mn F
8 12 42
direct
0.515540 0.562151 0.667742 Ca
0.160547 0.645827 0.991939 Ca
0.340455 0.499542 0.348503 Ca
0.838978 0.008222 0.333238 Ca
0.171917 0.151356 0.003473 Ca
0.824806 0.980512 0.835993 Ca
0.991533 0.775557 0.175942 Ca
0.170145 0.145775 0.512560 Ca
0.343543 1.011173 0.321677 Mn
-0.001413 0.346331 0.667314 Mn
0.659529 0.655299 0.009893 Mn
0.336607 0.008740 0.835528 Mn
0.010765 0.312388 0.163933 Mn
0.683639 0.655633 0.501553 Mn
0.503808 0.815711 0.165656 Mn
0.168494 0.670576 0.493399 Mn
0.330074 0.505358 0.835211 Mn
0.834100 0.510628 0.835797 Mn
0.672570 0.177694 0.494211 Mn
0.491455 0.309677 0.167223 Mn
0.736578 0.236416 0.604042 F
0.820228 0.562098 0.946103 F
0.443052 0.314249 0.279506 F
0.234856 0.744505 0.384705 F
0.484301 0.779835 0.054382 F
0.260299 0.493403 0.730385 F
0.840707 0.940388 0.957732 F
0.036734 0.886838 0.286590 F
0.175742 0.240741 0.621239 F
1.019320 0.806564 0.057686 F
0.843189 0.085994 0.725646 F
0.172321 0.162951 0.392512 F
0.497407 0.351493 0.054016 F
0.615205 0.108883 0.376579 F
0.862614 0.463158 0.729867 F
0.381777 0.512051 0.949064 F
0.133529 0.582508 0.597587 F
0.506884 0.782723 0.278384 F
0.800799 0.410137 0.174605 F
0.525219 0.334916 0.497803 F
0.645733 0.215714 0.850376 F
0.469882 0.819913 0.842242 F
0.316857 0.518701 0.473926 F
0.191537 0.626353 0.159205 F
0.058168 0.323913 0.277433 F
0.634915 0.669187 0.598765 F
0.285530 0.963580 0.944355 F
0.368664 0.068929 0.736086 F
0.668803 0.701576 0.394664 F
0.041720 0.343598 0.048703 F
0.172325 0.154776 0.139172 F
0.826184 1.030366 0.486836 F
0.020221 0.814064 0.823529 F
0.177938 0.195397 0.860144 F
0.996029 0.803231 0.505913 F
0.801357 0.020863 0.186817 F
0.073861 0.491546 0.876921 F
0.641581 0.634951 0.157055 F
0.398499 0.944207 0.520666 F
0.387071 0.003714 0.200002 F
0.613280 0.571835 0.805679 F
0.919873 0.422161 0.465603 F
