Mg48 Ru32 O112
1.0
  10.4006188865496831    0.0000281819976460    0.0001313260275184
   0.0000516079460408   18.1004329806378053    0.0004193675527374
   0.0001256870996948    0.0002877223132256   10.7137151023734845
Mg Ru O
47 32 112
direct
   0.3813218572221673    0.3035351263272327    0.5885384083615075 Mg
   0.1186931916640108    0.6964810431064097    0.3385070412322456 Mg
   0.1186931916640108    0.6964810431064098    0.8385070412322456 Mg
   0.6186931916640108    0.6964810431064097    0.3385070412322456 Mg
   0.6186931916640108    0.6964810431064097    0.8385070412322456 Mg
   0.1313001441705441    0.8034987217346152    0.0883346068911419 Mg
   0.1313001441705441    0.8034987217346151    0.5883346068911419 Mg
   0.6313001441705441    0.8034987217346152    0.0883346068911419 Mg
   0.6313001441705441    0.8034987217346151    0.5883346068911418 Mg
   0.3813128507382874    0.6964800914674711    0.0885111704331183 Mg
   0.3813128507382874    0.6964800914674711    0.5885111704331184 Mg
   0.8813128507382875    0.6964800914674711    0.0885111704331183 Mg
   0.8813128507382874    0.6964800914674711    0.5885111704331184 Mg
   0.3687034731061110    0.8034939434284509    0.3383236725990696 Mg
   0.3687034731061111    0.8034939434284509    0.8383236725990696 Mg
   0.8687034731061110    0.8034939434284509    0.3383236725990696 Mg
   0.8687034731061112    0.8034939434284509    0.8383236725990696 Mg
   0.1291320220095443    0.0000077990103091    0.1532131928183180 Mg
   0.1291320220095443    0.0000077990103091    0.6532131928183181 Mg
   0.6291320220095443    0.0000077990103091    0.1532131928183180 Mg
   0.6291320220095442    0.0000077990103091    0.6532131928183180 Mg
   0.3708609427220352    0.0000097126051606    0.4032236792325296 Mg
   0.3708609427220352    0.0000097126051606    0.9032236792325297 Mg
   0.8708609427220352    0.0000097126051606    0.4032236792325296 Mg
   0.8708609427220352    0.0000097126051606    0.9032236792325296 Mg
   0.3686988055014238    0.1965092409382360    0.3383221344809167 Mg
   0.3686988055014238    0.1965092409382360    0.8383221344809167 Mg
   0.8686988055014238    0.1965092409382360    0.3383221344809167 Mg
   0.8686988055014236    0.1965092409382360    0.8383221344809167 Mg
   0.3813218572221673    0.3035351263272327    0.0885384083615074 Mg
   0.8813218572221672    0.3035351263272327    0.0885384083615074 Mg
   0.8813218572221674    0.3035351263272327    0.5885384083615074 Mg
   0.1313119191253647    0.1965027720568142    0.0883386987059955 Mg
   0.1313119191253646    0.1965027720568142    0.5883386987059956 Mg
   0.6313119191253647    0.1965027720568142    0.0883386987059955 Mg
   0.1186891538662631    0.3035339585570023    0.3385397396347600 Mg
   0.1186891538662630    0.3035339585570023    0.8385397396347601 Mg
   0.6186891538662630    0.3035339585570023    0.3385397396347600 Mg
   0.6186891538662630    0.3035339585570023    0.8385397396347599 Mg
   0.3790119250565881    0.5000134867434407    0.1534495079223178 Mg
   0.3790119250565882    0.5000134867434406    0.6534495079223178 Mg
   0.8790119250565880    0.5000134867434406    0.1534495079223178 Mg
   0.8790119250565882    0.5000134867434406    0.6534495079223178 Mg
   0.1209729692286496    0.5000137338002248    0.4034604274986361 Mg
   0.1209729692286496    0.5000137338002247    0.9034604274986362 Mg
   0.6209729692286496    0.5000137338002248    0.4034604274986361 Mg
   0.6209729692286498    0.5000137338002247    0.9034604274986362 Mg
   0.1257345596575962    0.6038256676555918    0.1238326285357822 Ru
   0.1257345596575962    0.6038256676555918    0.6238326285357823 Ru
   0.6257345596575963    0.6038256676555918    0.1238326285357822 Ru
   0.6257345596575962    0.6038256676555918    0.6238326285357823 Ru
   0.1242483273248692    0.8961923143030649    0.3735926924327053 Ru
   0.1242483273248692    0.8961923143030650    0.8735926924327053 Ru
   0.6242483273248691    0.8961923143030650    0.3735926924327053 Ru
   0.6242483273248691    0.8961923143030650    0.8735926924327053 Ru
   0.3742692716051577    0.6038263225272247    0.3738386656588285 Ru
   0.3742692716051577    0.6038263225272246    0.8738386656588284 Ru
   0.8742692716051577    0.6038263225272247    0.3738386656588285 Ru
   0.8742692716051577    0.6038263225272246    0.8738386656588286 Ru
   0.3757476897045687    0.8961939061440922    0.1235924061901714 Ru
   0.3757476897045687    0.8961939061440922    0.6235924061901714 Ru
   0.8757476897045686    0.8961939061440923    0.1235924061901714 Ru
   0.8757476897045687    0.8961939061440923    0.6235924061901714 Ru
   0.3757594047572689    0.1038034557163708    0.1235825888493123 Ru
   0.3757594047572689    0.1038034557163708    0.6235825888493124 Ru
   0.8757594047572688    0.1038034557163708    0.1235825888493123 Ru
   0.8757594047572690    0.1038034557163708    0.6235825888493123 Ru
   0.3742617686171378    0.3961791926478723    0.3738698727531913 Ru
   0.3742617686171378    0.3961791926478723    0.8738698727531914 Ru
   0.8742617686171377    0.3961791926478723    0.3738698727531912 Ru
   0.8742617686171379    0.3961791926478723    0.8738698727531913 Ru
   0.1242379087063287    0.1038027460794592    0.3735772795007574 Ru
   0.1242379087063286    0.1038027460794592    0.8735772795007575 Ru
   0.6242379087063286    0.1038027460794592    0.3735772795007574 Ru
   0.6242379087063286    0.1038027460794592    0.8735772795007576 Ru
   0.1257492440024207    0.3961766062037105    0.1238599064562075 Ru
   0.1257492440024207    0.3961766062037105    0.6238599064562076 Ru
   0.6257492440024207    0.3961766062037105    0.1238599064562075 Ru
   0.6257492440024207    0.3961766062037105    0.6238599064562075 Ru
   0.4673074682514081    0.8642216224163198    0.4700258218074430 O
   0.4673074682514082    0.8642216224163198    0.9700258218074430 O
   0.9673074682514082    0.8642216224163198    0.4700258218074430 O
   0.9673074682514082    0.8642216224163198    0.9700258218074431 O
   0.2827065719947256    0.6358128335709367    0.2202507574990296 O
   0.2827065719947255    0.6358128335709367    0.7202507574990297 O
   0.7827065719947256    0.6358128335709367    0.2202507574990296 O
   0.7827065719947257    0.6358128335709367    0.7202507574990297 O
   0.0326848017843308    0.8642262749364484    0.2200286779502915 O
   0.0326848017843308    0.8642262749364484    0.7200286779502915 O
   0.5326848017843308    0.8642262749364484    0.2200286779502915 O
   0.5326848017843309    0.8642262749364483    0.7200286779502915 O
   0.2172889779077327    0.6358114910651879    0.4702455509489926 O
   0.2172889779077326    0.6358114910651879    0.9702455509489926 O
   0.7172889779077326    0.6358114910651879    0.4702455509489925 O
   0.7172889779077326    0.6358114910651879    0.9702455509489926 O
   0.2122380539382515    0.9237434225573050    0.0343498467066659 O
   0.2122380539382516    0.9237434225573049    0.5343498467066660 O
   0.7122380539382515    0.9237434225573051    0.0343498467066659 O
   0.7122380539382516    0.9237434225573050    0.5343498467066659 O
   0.0378204064985700    0.5763059330864321    0.2846623483605587 O
   0.0378204064985700    0.5763059330864321    0.7846623483605587 O
   0.5378204064985700    0.5763059330864321    0.2846623483605587 O
   0.5378204064985699    0.5763059330864321    0.7846623483605588 O
   0.2877550425491238    0.9237456488082653    0.2843524260641016 O
   0.2877550425491238    0.9237456488082654    0.7843524260641017 O
   0.7877550425491238    0.9237456488082654    0.2843524260641016 O
   0.7877550425491238    0.9237456488082654    0.7843524260641017 O
   0.4621773784633064    0.5763071520362889    0.0346706724030474 O
   0.4621773784633064    0.5763071520362889    0.5346706724030474 O
   0.9621773784633063    0.5763071520362889    0.0346706724030474 O
   0.9621773784633064    0.5763071520362889    0.5346706724030474 O
   0.0572721733410402    0.9999949108922569    0.3402452958224850 O
   0.0572721733410403    0.9999949108922569    0.8402452958224850 O
   0.5572721733410402    0.9999949108922569    0.3402452958224850 O
   0.5572721733410403    0.9999949108922569    0.8402452958224850 O
   0.4427278348697097    0.9999954124198493    0.0902410569665423 O
   0.4427278348697097    0.9999954124198493    0.5902410569665424 O
   0.9427278348697097    0.9999954124198493    0.0902410569665423 O
   0.9427278348697096    0.9999954124198493    0.5902410569665424 O
   0.4374422189212589    0.7064230098000582    0.4043965273369815 O
   0.4374422189212589    0.7064230098000582    0.9043965273369816 O
   0.9374422189212588    0.7064230098000582    0.4043965273369814 O
   0.9374422189212590    0.7064230098000582    0.9043965273369814 O
   0.3125639765443797    0.7936238273258875    0.1541662193295396 O
   0.3125639765443798    0.7936238273258874    0.6541662193295397 O
   0.8125639765443797    0.7936238273258874    0.1541662193295396 O
   0.8125639765443797    0.7936238273258874    0.6541662193295397 O
   0.0625594589497877    0.7064293010382638    0.1543956992205291 O
   0.0625594589497877    0.7064293010382638    0.6543956992205291 O
   0.5625594589497878    0.7064293010382638    0.1543956992205291 O
   0.5625594589497876    0.7064293010382638    0.6543956992205291 O
   0.1874350898413585    0.7936209071548478    0.4041743954145190 O
   0.1874350898413586    0.7936209071548477    0.9041743954145192 O
   0.6874350898413586    0.7936209071548478    0.4041743954145189 O
   0.6874350898413586    0.7936209071548477    0.9041743954145189 O
   0.2173085152220906    0.3641778322976208    0.4703108529311266 O
   0.2173085152220906    0.3641778322976209    0.9703108529311265 O
   0.7173085152220906    0.3641778322976208    0.4703108529311265 O
   0.7173085152220906    0.3641778322976208    0.9703108529311266 O
   0.0326880059215666    0.1357665649800127    0.2200183290067223 O
   0.0326880059215666    0.1357665649800127    0.7200183290067224 O
   0.5326880059215667    0.1357665649800127    0.2200183290067223 O
   0.5326880059215666    0.1357665649800127    0.7200183290067224 O
   0.2827020814410257    0.3641753229741401    0.2203180547290569 O
   0.2827020814410257    0.3641753229741402    0.7203180547290570 O
   0.7827020814410257    0.3641753229741401    0.2203180547290569 O
   0.7827020814410256    0.3641753229741401    0.7203180547290570 O
   0.4673046547561050    0.1357689669287526    0.4700160888889890 O
   0.4673046547561049    0.1357689669287526    0.9700160888889890 O
   0.9673046547561048    0.1357689669287526    0.4700160888889889 O
   0.9673046547561051    0.1357689669287526    0.9700160888889890 O
   0.4621451809547378    0.4236852310710045    0.0347320737682616 O
   0.4621451809547378    0.4236852310710045    0.5347320737682617 O
   0.9621451809547380    0.4236852310710045    0.0347320737682616 O
   0.9621451809547378    0.4236852310710045    0.5347320737682616 O
   0.2877485826627181    0.0762404551923950    0.2843288090112702 O
   0.2877485826627181    0.0762404551923950    0.7843288090112702 O
   0.7877485826627180    0.0762404551923950    0.2843288090112702 O
   0.7877485826627181    0.0762404551923950    0.7843288090112701 O
   0.0378557965395786    0.4236835968956563    0.2847274470887299 O
   0.0378557965395786    0.4236835968956563    0.7847274470887299 O
   0.5378557965395786    0.4236835968956562    0.2847274470887299 O
   0.5378557965395787    0.4236835968956563    0.7847274470887300 O
   0.2122473710309049    0.0762422679671578    0.0343302209059221 O
   0.2122473710309049    0.0762422679671578    0.5343302209059221 O
   0.7122473710309050    0.0762422679671578    0.0343302209059221 O
   0.7122473710309049    0.0762422679671578    0.5343302209059221 O
   0.3073364788159157    0.5000027157035016    0.3405260907653940 O
   0.3073364788159157    0.5000027157035016    0.8405260907653940 O
   0.8073364788159156    0.5000027157035016    0.3405260907653940 O
   0.8073364788159156    0.5000027157035016    0.8405260907653941 O
   0.1926584180304688    0.5000026610224163    0.0905258364584547 O
   0.1926584180304688    0.5000026610224163    0.5905258364584548 O
   0.6926584180304688    0.5000026610224163    0.0905258364584547 O
   0.6926584180304687    0.5000026610224163    0.5905258364584547 O
   0.1874413241899951    0.2063780442107871    0.4041770616408749 O
   0.1874413241899951    0.2063780442107871    0.9041770616408749 O
   0.6874413241899952    0.2063780442107871    0.4041770616408749 O
   0.6874413241899952    0.2063780442107871    0.9041770616408750 O
   0.0625683194436119    0.2935758079208644    0.1544472329466181 O
   0.0625683194436119    0.2935758079208644    0.6544472329466182 O
   0.5625683194436120    0.2935758079208644    0.1544472329466181 O
   0.5625683194436120    0.2935758079208644    0.6544472329466181 O
   0.3125572247975817    0.2063790486096405    0.1541734527213033 O
   0.3125572247975817    0.2063790486096405    0.6541734527213033 O
   0.8125572247975817    0.2063790486096405    0.1541734527213033 O
   0.8125572247975817    0.2063790486096405    0.6541734527213032 O
   0.4374411635523681    0.2935798960649349    0.4044548931190536 O
   0.4374411635523681    0.2935798960649349    0.9044548931190537 O
   0.9374411635523680    0.2935798960649349    0.4044548931190536 O
   0.9374411635523680    0.2935798960649349    0.9044548931190537 O
