Li224 P96 S352
1.0
  24.7553519999999985    0.0000000000000000    0.0000000000000000
  -5.1907660000000053   24.7165719999999993    0.0000000000000000
  -5.9395220000000073   -9.0282100000000032   22.9269860000000030
Li P S
223 96 352
direct
   0.5941204999999999    0.3284130000000000    0.2461490000000000 Li
   0.9338669999999999    0.3341655000000001    0.5519660000000001 Li
   0.9338669999999999    0.3341655000000001    1.0519660000000000 Li
   0.1838670000000000    0.3341655000000001    0.0519660000000000 Li
   0.1838670000000000    0.3341655000000001    0.5519660000000001 Li
   0.1838670000000000    0.8341655000000001    0.0519660000000000 Li
   0.1838670000000000    0.8341655000000001    0.5519660000000001 Li
   0.4338669999999999    0.3341655000000001    0.0519660000000000 Li
   0.4338670000000000    0.3341655000000001    0.5519660000000001 Li
   0.4338670000000000    0.8341655000000001    0.0519660000000000 Li
   0.4338670000000000    0.8341655000000001    0.5519660000000001 Li
   0.6838670000000000    0.3341655000000001    0.0519660000000000 Li
   0.6838670000000000    0.3341655000000001    0.5519660000000001 Li
   0.6838669999999999    0.8341655000000001    0.0519660000000000 Li
   0.6838670000000000    0.8341655000000001    0.5519660000000001 Li
   0.9338670000000000    0.8341655000000001    0.0519660000000000 Li
   0.9338670000000000    0.8341655000000001    0.5519660000000001 Li
   0.0533742500000000    0.0178135000000000    0.3771110000000000 Li
   0.0533742500000000    0.0178135000000000    0.8771110000000001 Li
   0.0533742500000000    0.5178135000000000    0.3771110000000000 Li
   0.0533742500000000    0.5178135000000000    0.8771110000000001 Li
   0.3033742500000000    0.0178135000000000    0.3771110000000000 Li
   0.3033742500000000    0.0178135000000000    0.8771110000000001 Li
   0.3033742500000000    0.5178135000000000    0.3771110000000000 Li
   0.3033742500000000    0.5178135000000000    0.8771110000000001 Li
   0.5533742500000000    0.0178135000000000    0.3771110000000000 Li
   0.5533742500000001    0.0178135000000000    0.8771110000000001 Li
   0.5533742500000000    0.5178135000000000    0.3771110000000000 Li
   0.5533742500000000    0.5178135000000000    0.8771110000000001 Li
   0.8033742499999998    0.0178135000000000    0.3771110000000000 Li
   0.8033742499999998    0.0178135000000000    0.8771110000000001 Li
   0.8033742499999998    0.5178135000000000    0.3771110000000000 Li
   0.8033742500000000    0.5178135000000000    0.8771110000000001 Li
   0.1558795000000000    0.1715870000000000    0.2538510000000000 Li
   0.1558795000000000    0.1715870000000000    0.7538510000000000 Li
   0.1558795000000000    0.6715869999999999    0.2538510000000000 Li
   0.1558795000000000    0.6715870000000000    0.7538510000000000 Li
   0.4058794999999999    0.1715870000000000    0.2538510000000000 Li
   0.4058795000000000    0.1715870000000000    0.7538510000000000 Li
   0.4058795000000000    0.6715869999999999    0.2538510000000000 Li
   0.4058795000000000    0.6715870000000000    0.7538510000000000 Li
   0.6558795000000001    0.1715870000000000    0.2538510000000000 Li
   0.6558794999999999    0.1715870000000000    0.7538510000000000 Li
   0.6558795000000001    0.6715869999999999    0.2538510000000000 Li
   0.6558794999999999    0.6715870000000000    0.7538510000000000 Li
   0.9058794999999998    0.1715870000000000    0.2538510000000000 Li
   0.9058794999999999    0.1715870000000000    0.7538510000000000 Li
   0.9058795000000002    0.6715869999999999    0.2538510000000000 Li
   0.9058794999999999    0.6715870000000000    0.7538510000000000 Li
   0.1441620000000000    0.4323409999999999    0.4393655000000000 Li
   0.1441620000000000    0.4323409999999999    0.9393654999999999 Li
   0.1441620000000000    0.9323410000000001    0.4393655000000000 Li
   0.1441620000000000    0.9323410000000000    0.9393654999999999 Li
   0.3941620000000000    0.4323409999999999    0.4393655000000000 Li
   0.3941620000000000    0.4323409999999999    0.9393654999999999 Li
   0.3941620000000000    0.9323410000000001    0.4393655000000000 Li
   0.3941620000000000    0.9323410000000000    0.9393654999999999 Li
   0.6441620000000000    0.4323409999999999    0.4393655000000000 Li
   0.6441619999999999    0.4323409999999999    0.9393654999999999 Li
   0.6441619999999999    0.9323410000000001    0.4393655000000000 Li
   0.6441619999999999    0.9323410000000000    0.9393654999999999 Li
   0.8941619999999999    0.4323409999999999    0.4393655000000000 Li
   0.8941619999999998    0.4323409999999999    0.9393654999999999 Li
   0.8941619999999999    0.9323410000000001    0.4393655000000000 Li
   0.8941619999999999    0.9323410000000000    0.9393654999999999 Li
   0.1740970000000000    0.0893500000000000    0.3527360000000000 Li
   0.1740969999999999    0.0893500000000000    0.8527359999999999 Li
   0.1740970000000000    0.5893500000000000    0.3527360000000000 Li
   0.1740970000000000    0.5893499999999999    0.8527359999999999 Li
   0.4240970000000000    0.0893500000000000    0.3527360000000000 Li
   0.4240969999999999    0.0893500000000000    0.8527359999999999 Li
   0.4240970000000000    0.5893500000000000    0.3527360000000000 Li
   0.4240969999999999    0.5893499999999999    0.8527359999999999 Li
   0.6740969999999999    0.0893500000000000    0.3527360000000000 Li
   0.6740969999999999    0.0893500000000000    0.8527359999999999 Li
   0.6740969999999999    0.5893500000000000    0.3527360000000000 Li
   0.6740969999999999    0.5893499999999999    0.8527359999999999 Li
   0.9240969999999999    0.0893500000000000    0.3527360000000000 Li
   0.9240969999999998    0.0893500000000000    0.8527359999999999 Li
   0.9240970000000001    0.5893500000000000    0.3527360000000000 Li
   0.9240969999999999    0.5893499999999999    0.8527359999999999 Li
   0.0759030000000000    0.4106500000000001    0.1472640000000000 Li
   0.0759030000000000    0.4106500000000001    0.6472640000000001 Li
   0.0759030000000000    0.9106500000000001    0.1472640000000000 Li
   0.0759030000000000    0.9106500000000001    0.6472640000000001 Li
   0.3259029999999999    0.4106500000000001    0.1472640000000000 Li
   0.3259030000000000    0.4106500000000001    0.6472640000000001 Li
   0.3259030000000000    0.9106500000000001    0.1472640000000000 Li
   0.3259030000000000    0.9106500000000001    0.6472640000000001 Li
   0.5759029999999999    0.4106500000000001    0.1472640000000000 Li
   0.5759029999999999    0.4106500000000001    0.6472640000000001 Li
   0.5759029999999999    0.9106500000000001    0.1472640000000000 Li
   0.5759029999999999    0.9106500000000001    0.6472640000000001 Li
   0.8259029999999999    0.4106500000000001    0.1472640000000000 Li
   0.8259029999999998    0.4106500000000001    0.6472640000000001 Li
   0.8259029999999999    0.9106500000000001    0.1472640000000000 Li
   0.8259029999999999    0.9106500000000001    0.6472640000000001 Li
   0.1966257500000000    0.4821865000000000    0.1228890000000001 Li
   0.1966257500000000    0.4821865000000000    0.6228890000000000 Li
   0.1966257500000000    0.9821865000000001    0.1228890000000001 Li
   0.1966257500000000    0.9821865000000001    0.6228890000000000 Li
   0.4466257499999999    0.4821865000000000    0.1228890000000001 Li
   0.4466257499999999    0.4821865000000000    0.6228890000000000 Li
   0.4466257500000000    0.9821865000000001    0.1228890000000001 Li
   0.4466257500000000    0.9821865000000001    0.6228890000000000 Li
   0.6966257499999999    0.4821865000000000    0.1228890000000001 Li
   0.6966257499999999    0.4821865000000000    0.6228890000000000 Li
   0.6966257499999999    0.9821865000000001    0.1228890000000001 Li
   0.6966257499999999    0.9821865000000001    0.6228890000000000 Li
   0.9466257499999998    0.4821865000000000    0.1228890000000001 Li
   0.9466257499999998    0.4821865000000000    0.6228890000000000 Li
   0.9466257499999999    0.9821865000000001    0.1228890000000001 Li
   0.9466257499999998    0.9821865000000001    0.6228890000000000 Li
   0.2156802500000000    0.1913625000000000    0.0564205000000000 Li
   0.2156802500000000    0.1913625000000000    0.5564205000000000 Li
   0.2156802500000000    0.6913625000000000    0.0564205000000000 Li
   0.2156802500000000    0.6913625000000000    0.5564205000000000 Li
   0.4656802500000000    0.1913625000000000    0.0564205000000000 Li
   0.4656802500000000    0.1913625000000000    0.5564205000000000 Li
   0.4656802500000000    0.6913625000000000    0.0564205000000000 Li
   0.4656802500000000    0.6913625000000000    0.5564205000000000 Li
   0.7156802499999998    0.1913625000000000    0.0564205000000000 Li
   0.7156802500000000    0.1913625000000000    0.5564205000000000 Li
   0.7156802499999998    0.6913625000000000    0.0564205000000000 Li
   0.7156802500000000    0.6913625000000000    0.5564205000000000 Li
   0.9656802499999999    0.1913625000000000    0.0564205000000000 Li
   0.9656802500000000    0.1913625000000000    0.5564205000000000 Li
   0.9656802499999999    0.6913625000000000    0.0564205000000000 Li
   0.9656802499999999    0.6913625000000000    0.5564205000000000 Li
   0.2464777499999999    0.3404985000000000    0.3399925000000000 Li
   0.2464777499999999    0.3404985000000000    0.8399925000000000 Li
   0.2464777499999999    0.8404985000000000    0.3399925000000000 Li
   0.2464777499999999    0.8404985000000000    0.8399925000000000 Li
   0.4964777499999999    0.3404985000000000    0.3399925000000000 Li
   0.4964777499999999    0.3404985000000000    0.8399925000000000 Li
   0.4964777499999999    0.8404985000000000    0.3399925000000000 Li
   0.4964777499999999    0.8404985000000000    0.8399925000000000 Li
   0.7464777499999999    0.3404985000000000    0.8399925000000000 Li
   0.7464777499999999    0.8404985000000000    0.3399925000000000 Li
   0.7464777499999999    0.8404985000000000    0.8399925000000000 Li
   0.9964777499999998    0.3404985000000000    0.3399925000000000 Li
   0.9964777499999999    0.3404985000000000    0.8399925000000000 Li
   0.9964777499999998    0.8404985000000000    0.3399925000000000 Li
   0.9964777500000001    0.8404985000000000    0.8399925000000000 Li
   0.0343197500000000    0.3086375000000000    0.4435795000000000 Li
   0.0343197500000000    0.3086375000000000    0.9435795000000001 Li
   0.0343197500000000    0.8086375000000000    0.4435795000000000 Li
   0.0343197499999999    0.8086375000000000    0.9435795000000001 Li
   0.2843197500000000    0.3086375000000000    0.4435795000000000 Li
   0.2843197500000000    0.3086375000000000    0.9435795000000001 Li
   0.2843197500000000    0.8086375000000000    0.4435795000000000 Li
   0.2843197500000000    0.8086375000000000    0.9435795000000001 Li
   0.5343197500000000    0.3086375000000000    0.4435795000000000 Li
   0.5343197500000000    0.3086375000000000    0.9435795000000001 Li
   0.5343197499999999    0.8086375000000000    0.4435795000000000 Li
   0.5343197500000000    0.8086375000000000    0.9435795000000001 Li
   0.7843197499999999    0.3086375000000000    0.4435795000000000 Li
   0.7843197500000000    0.3086375000000000    0.9435795000000001 Li
   0.7843197499999999    0.8086375000000000    0.4435795000000000 Li
   0.7843197500000000    0.8086375000000000    0.9435795000000001 Li
   0.0661330000000000    0.1658345000000000    0.4480340000000001 Li
   0.0661330000000000    0.1658345000000000    0.9480340000000000 Li
   0.0661330000000000    0.6658345000000000    0.4480340000000001 Li
   0.0661330000000000    0.6658345000000000    0.9480340000000000 Li
   0.3161330000000000    0.1658345000000000    0.4480340000000001 Li
   0.3161330000000000    0.1658345000000000    0.9480340000000000 Li
   0.3161330000000000    0.6658345000000000    0.4480340000000001 Li
   0.3161330000000000    0.6658345000000000    0.9480340000000000 Li
   0.5661330000000000    0.1658345000000000    0.4480340000000001 Li
   0.5661330000000000    0.1658345000000000    0.9480340000000000 Li
   0.5661330000000000    0.6658345000000000    0.4480340000000001 Li
   0.5661329999999999    0.6658345000000000    0.9480340000000000 Li
   0.8161330000000000    0.1658345000000000    0.4480340000000001 Li
   0.8161330000000000    0.1658345000000000    0.9480340000000000 Li
   0.8161330000000001    0.6658345000000000    0.4480340000000001 Li
   0.8161330000000000    0.6658345000000000    0.9480340000000000 Li
   0.1058380000000000    0.0676590000000000    0.0606345000000000 Li
   0.1058380000000000    0.0676590000000000    0.5606345000000000 Li
   0.1058380000000000    0.5676590000000000    0.0606345000000000 Li
   0.1058380000000000    0.5676590000000000    0.5606345000000000 Li
   0.3558380000000000    0.0676590000000000    0.0606345000000000 Li
   0.3558380000000000    0.0676590000000000    0.5606345000000000 Li
   0.3558380000000000    0.5676590000000000    0.0606345000000000 Li
   0.3558380000000000    0.5676590000000000    0.5606345000000000 Li
   0.6058380000000000    0.0676590000000000    0.0606345000000000 Li
   0.6058380000000000    0.0676590000000000    0.5606345000000000 Li
   0.6058380000000000    0.5676590000000000    0.0606345000000000 Li
   0.6058380000000000    0.5676590000000000    0.5606345000000000 Li
   0.8558380000000000    0.0676590000000000    0.0606345000000000 Li
   0.8558380000000000    0.0676590000000000    0.5606345000000000 Li
   0.8558380000000001    0.5676590000000000    0.0606345000000000 Li
   0.8558379999999999    0.5676590000000000    0.5606345000000000 Li
   0.0941205000000000    0.3284130000000000    0.2461490000000000 Li
   0.0941205000000000    0.3284130000000001    0.7461490000000001 Li
   0.0941205000000000    0.8284130000000000    0.2461490000000000 Li
   0.0941205000000000    0.8284130000000001    0.7461490000000001 Li
   0.3441205000000000    0.3284130000000000    0.2461490000000000 Li
   0.3441205000000000    0.3284130000000001    0.7461490000000001 Li
   0.3441205000000000    0.8284130000000000    0.2461490000000000 Li
   0.3441205000000000    0.8284130000000001    0.7461490000000001 Li
   0.5941205000000001    0.3284130000000001    0.7461490000000001 Li
   0.5941204999999999    0.8284130000000000    0.2461490000000000 Li
   0.5941204999999999    0.8284130000000001    0.7461490000000001 Li
   0.8441205000000001    0.3284130000000000    0.2461490000000000 Li
   0.8441204999999999    0.3284130000000001    0.7461490000000001 Li
   0.8441204999999999    0.8284130000000000    0.2461490000000000 Li
   0.8441205000000001    0.8284130000000001    0.7461490000000001 Li
   0.0035222500000000    0.1595015000000000    0.1600075000000000 Li
   0.0035222500000000    0.1595015000000000    0.6600075000000001 Li
   0.0035222500000000    0.6595015000000000    0.1600075000000000 Li
   0.0035222500000000    0.6595015000000001    0.6600075000000001 Li
   0.2535222499999999    0.1595015000000000    0.1600075000000000 Li
   0.2535222500000000    0.1595015000000000    0.6600075000000001 Li
   0.2535222500000000    0.6595015000000000    0.1600075000000000 Li
   0.2535222500000000    0.6595015000000001    0.6600075000000001 Li
   0.5035222499999999    0.1595015000000000    0.1600075000000000 Li
   0.5035222499999999    0.1595015000000000    0.6600075000000001 Li
   0.5035222499999999    0.6595015000000000    0.1600075000000000 Li
   0.5035222499999999    0.6595015000000001    0.6600075000000001 Li
   0.7535222499999998    0.1595015000000000    0.1600075000000000 Li
   0.7535222499999999    0.1595015000000000    0.6600075000000001 Li
   0.7535222499999999    0.6595015000000000    0.1600075000000000 Li
   0.7535222499999999    0.6595015000000001    0.6600075000000001 Li
   0.1279622500000000    0.2377740000000000    0.1388199999999999 P
   0.1279622500000000    0.2377740000000000    0.6388199999999999 P
   0.1279622500000000    0.7377740000000000    0.1388199999999999 P
   0.1279622500000000    0.7377740000000000    0.6388199999999999 P
   0.3779622500000001    0.2377740000000000    0.1388199999999999 P
   0.3779622500000000    0.2377740000000000    0.6388199999999999 P
   0.3779622500000000    0.7377740000000000    0.1388199999999999 P
   0.3779622500000000    0.7377740000000000    0.6388199999999999 P
   0.6279622499999998    0.2377740000000000    0.1388199999999999 P
   0.6279622499999999    0.2377740000000000    0.6388199999999999 P
   0.6279622499999998    0.7377740000000000    0.1388199999999999 P
   0.6279622499999999    0.7377740000000000    0.6388199999999999 P
   0.8779622499999999    0.2377740000000000    0.1388199999999999 P
   0.8779622499999999    0.2377740000000000    0.6388199999999999 P
   0.8779622500000001    0.7377740000000000    0.1388199999999999 P
   0.8779622499999999    0.7377740000000000    0.6388199999999999 P
   0.2076177500000000    0.3942450000000001    0.2272149999999999 P
   0.2076177500000000    0.3942450000000001    0.7272149999999999 P
   0.2076177500000000    0.8942450000000001    0.2272149999999999 P
   0.2076177500000000    0.8942450000000002    0.7272149999999999 P
   0.4576177500000000    0.3942450000000001    0.2272149999999999 P
   0.4576177499999999    0.3942450000000001    0.7272149999999999 P
   0.4576177500000000    0.8942450000000001    0.2272149999999999 P
   0.4576177499999999    0.8942450000000002    0.7272149999999999 P
   0.7076177499999998    0.3942450000000001    0.2272149999999999 P
   0.7076177499999999    0.3942450000000001    0.7272149999999999 P
   0.7076177499999998    0.8942450000000001    0.2272149999999999 P
   0.7076177499999999    0.8942450000000002    0.7272149999999999 P
   0.9576177499999999    0.3942450000000001    0.2272149999999999 P
   0.9576177499999999    0.3942450000000001    0.7272149999999999 P
   0.9576177500000000    0.8942450000000001    0.2272149999999999 P
   0.9576177499999999    0.8942450000000002    0.7272149999999999 P
   0.2191639999999999    0.0835570000000000    0.4719834999999999 P
   0.2191639999999999    0.0835570000000000    0.9719835000000000 P
   0.2191640000000000    0.5835570000000000    0.4719834999999999 P
   0.2191639999999999    0.5835570000000000    0.9719835000000000 P
   0.4691639999999999    0.0835570000000000    0.4719834999999999 P
   0.4691639999999999    0.0835570000000000    0.9719835000000000 P
   0.4691640000000000    0.5835570000000000    0.4719834999999999 P
   0.4691639999999999    0.5835570000000000    0.9719835000000000 P
   0.7191640000000000    0.0835570000000000    0.4719834999999999 P
   0.7191639999999999    0.0835570000000000    0.9719835000000000 P
   0.7191639999999999    0.5835570000000000    0.4719834999999999 P
   0.7191639999999999    0.5835570000000000    0.9719835000000000 P
   0.9691639999999999    0.0835570000000000    0.4719834999999999 P
   0.9691639999999998    0.0835570000000000    0.9719835000000000 P
   0.9691639999999999    0.5835570000000000    0.4719834999999999 P
   0.9691639999999999    0.5835570000000000    0.9719835000000000 P
   0.0308360000000000    0.4164430000000001    0.0280165000000000 P
   0.0308360000000000    0.4164430000000001    0.5280165000000001 P
   0.0308360000000000    0.9164430000000001    0.0280165000000000 P
   0.0308360000000000    0.9164430000000000    0.5280165000000001 P
   0.2808360000000000    0.4164430000000001    0.0280165000000000 P
   0.2808360000000000    0.4164430000000001    0.5280165000000001 P
   0.2808360000000000    0.9164430000000001    0.0280165000000000 P
   0.2808360000000000    0.9164430000000000    0.5280165000000001 P
   0.5308360000000000    0.4164430000000001    0.0280165000000000 P
   0.5308360000000000    0.4164430000000001    0.5280165000000001 P
   0.5308360000000000    0.9164430000000001    0.0280165000000000 P
   0.5308360000000000    0.9164430000000000    0.5280165000000001 P
   0.7808360000000000    0.4164430000000001    0.0280165000000000 P
   0.7808360000000000    0.4164430000000001    0.5280165000000001 P
   0.7808360000000001    0.9164430000000001    0.0280165000000000 P
   0.7808360000000000    0.9164430000000000    0.5280165000000001 P
   0.1220377500000000    0.2622260000000000    0.3611800000000001 P
   0.1220377500000000    0.2622260000000000    0.8611800000000001 P
   0.1220377500000000    0.7622260000000001    0.3611800000000001 P
   0.1220377500000000    0.7622260000000000    0.8611800000000001 P
   0.3720377499999999    0.2622260000000000    0.3611800000000001 P
   0.3720377499999999    0.2622260000000000    0.8611800000000001 P
   0.3720377499999999    0.7622260000000001    0.3611800000000001 P
   0.3720377499999999    0.7622260000000000    0.8611800000000001 P
   0.6220377499999999    0.2622260000000000    0.3611800000000001 P
   0.6220377499999999    0.2622260000000000    0.8611800000000001 P
   0.6220377499999999    0.7622260000000001    0.3611800000000001 P
   0.6220377499999999    0.7622260000000000    0.8611800000000001 P
   0.8720377499999998    0.2622260000000000    0.3611800000000001 P
   0.8720377499999999    0.2622260000000000    0.8611800000000001 P
   0.8720377499999999    0.7622260000000001    0.3611800000000001 P
   0.8720377500000001    0.7622260000000000    0.8611800000000001 P
   0.0423822500000000    0.1057550000000000    0.2727850000000001 P
   0.0423822500000000    0.1057550000000000    0.7727850000000002 P
   0.0423822500000000    0.6057550000000000    0.2727850000000001 P
   0.0423822500000000    0.6057550000000000    0.7727850000000002 P
   0.2923822500000000    0.1057550000000000    0.2727850000000001 P
   0.2923822500000000    0.1057550000000000    0.7727850000000002 P
   0.2923822500000000    0.6057550000000000    0.2727850000000001 P
   0.2923822500000000    0.6057550000000000    0.7727850000000002 P
   0.5423822500000001    0.1057550000000000    0.2727850000000001 P
   0.5423822500000001    0.1057550000000000    0.7727850000000002 P
   0.5423822500000001    0.6057550000000000    0.2727850000000001 P
   0.5423822500000000    0.6057550000000000    0.7727850000000002 P
   0.7923822499999998    0.1057550000000000    0.2727850000000001 P
   0.7923822500000000    0.1057550000000000    0.7727850000000002 P
   0.7923822500000000    0.6057550000000000    0.2727850000000001 P
   0.7923822500000001    0.6057550000000000    0.7727850000000002 P
   0.2269625000000000    0.4082065000000001    0.1585825000000000 S
   0.2269625000000000    0.4082065000000000    0.6585825000000000 S
   0.2269625000000000    0.9082065000000000    0.1585825000000000 S
   0.2269625000000000    0.9082065000000000    0.6585825000000000 S
   0.4769625000000000    0.4082065000000001    0.1585825000000000 S
   0.4769625000000000    0.4082065000000000    0.6585825000000000 S
   0.4769625000000000    0.9082065000000000    0.1585825000000000 S
   0.4769625000000000    0.9082065000000000    0.6585825000000000 S
   0.7269625000000001    0.4082065000000001    0.1585825000000000 S
   0.7269625000000000    0.4082065000000000    0.6585825000000000 S
   0.7269625000000000    0.9082065000000000    0.1585825000000000 S
   0.7269624999999998    0.9082065000000000    0.6585825000000000 S
   0.9769625000000001    0.4082065000000001    0.1585825000000000 S
   0.9769624999999998    0.4082065000000000    0.6585825000000000 S
   0.9769625000000000    0.9082065000000000    0.1585825000000000 S
   0.9769624999999998    0.9082065000000000    0.6585825000000000 S
   0.0509455000000000    0.2510395000000000    0.1475154999999999 S
   0.0509455000000000    0.2510395000000000    0.6475154999999999 S
   0.0509455000000000    0.7510395000000000    0.1475154999999999 S
   0.0509455000000000    0.7510395000000000    0.6475154999999999 S
   0.3009455000000000    0.2510395000000000    0.1475154999999999 S
   0.3009455000000000    0.2510395000000000    0.6475154999999999 S
   0.3009455000000000    0.7510395000000000    0.1475154999999999 S
   0.3009455000000000    0.7510395000000000    0.6475154999999999 S
   0.5509454999999999    0.2510395000000000    0.1475154999999999 S
   0.5509455000000000    0.2510395000000000    0.6475154999999999 S
   0.5509455000000000    0.7510395000000000    0.1475154999999999 S
   0.5509454999999999    0.7510395000000000    0.6475154999999999 S
   0.8009455000000000    0.2510395000000000    0.1475154999999999 S
   0.8009454999999999    0.2510395000000000    0.6475154999999999 S
   0.8009455000000000    0.7510395000000000    0.1475154999999999 S
   0.8009455000000000    0.7510395000000000    0.6475154999999999 S
   0.1952405000000000    0.3021545000000000    0.2156215000000000 S
   0.1952405000000000    0.3021545000000000    0.7156215000000000 S
   0.1952405000000000    0.8021545000000000    0.2156215000000000 S
   0.1952405000000000    0.8021545000000001    0.7156215000000000 S
   0.4452405000000000    0.3021545000000000    0.2156215000000000 S
   0.4452405000000000    0.3021545000000000    0.7156215000000000 S
   0.4452405000000000    0.8021545000000000    0.2156215000000000 S
   0.4452405000000000    0.8021545000000001    0.7156215000000000 S
   0.6952405000000000    0.3021545000000000    0.2156215000000000 S
   0.6952405000000000    0.3021545000000000    0.7156215000000000 S
   0.6952405000000000    0.8021545000000000    0.2156215000000000 S
   0.6952404999999999    0.8021545000000001    0.7156215000000000 S
   0.9452404999999999    0.3021545000000000    0.2156215000000000 S
   0.9452404999999999    0.3021545000000000    0.7156215000000000 S
   0.9452404999999999    0.8021545000000000    0.2156215000000000 S
   0.9452404999999999    0.8021545000000001    0.7156215000000000 S
   0.1109995000000000    0.0798765000000000    0.2584935000000000 S
   0.1109995000000000    0.0798765000000000    0.7584934999999999 S
   0.1109995000000000    0.5798765000000000    0.2584935000000000 S
   0.1109995000000000    0.5798765000000000    0.7584934999999999 S
   0.3609995000000000    0.0798765000000000    0.2584935000000000 S
   0.3609995000000000    0.0798765000000000    0.7584934999999999 S
   0.3609995000000000    0.5798765000000000    0.2584935000000000 S
   0.3609995000000000    0.5798765000000000    0.7584934999999999 S
   0.6109994999999999    0.0798765000000000    0.2584935000000000 S
   0.6109994999999999    0.0798765000000000    0.7584934999999999 S
   0.6109994999999998    0.5798765000000000    0.2584935000000000 S
   0.6109994999999999    0.5798765000000000    0.7584934999999999 S
   0.8609994999999999    0.0798765000000000    0.2584935000000000 S
   0.8609994999999999    0.0798765000000000    0.7584934999999999 S
   0.8609994999999998    0.5798765000000000    0.2584935000000000 S
   0.8609994999999999    0.5798765000000000    0.7584934999999999 S
   0.1404495000000000    0.2408160000000000    0.0638850000000000 S
   0.1404495000000000    0.2408160000000000    0.5638850000000000 S
   0.1404495000000000    0.7408160000000000    0.0638850000000000 S
   0.1404495000000000    0.7408160000000000    0.5638850000000000 S
   0.3904495000000000    0.2408160000000000    0.0638850000000000 S
   0.3904494999999999    0.2408160000000000    0.5638850000000000 S
   0.3904494999999999    0.7408160000000000    0.0638850000000000 S
   0.3904494999999999    0.7408160000000000    0.5638850000000000 S
   0.6404494999999999    0.2408160000000000    0.0638850000000000 S
   0.6404495000000000    0.2408160000000000    0.5638850000000000 S
   0.6404494999999999    0.7408160000000000    0.0638850000000000 S
   0.6404494999999999    0.7408160000000000    0.5638850000000000 S
   0.8904494999999998    0.2408160000000000    0.0638850000000000 S
   0.8904495000000000    0.2408160000000000    0.5638850000000000 S
   0.8904494999999999    0.7408160000000000    0.0638850000000000 S
   0.8904494999999999    0.7408160000000000    0.5638850000000000 S
   0.1095505000000000    0.2591840000000000    0.4361150000000001 S
   0.1095505000000000    0.2591840000000000    0.9361150000000000 S
   0.1095505000000000    0.7591840000000001    0.4361150000000001 S
   0.1095505000000000    0.7591840000000000    0.9361150000000000 S
   0.3595505000000000    0.2591840000000000    0.4361150000000001 S
   0.3595504999999999    0.2591840000000000    0.9361150000000000 S
   0.3595505000000000    0.7591840000000001    0.4361150000000001 S
   0.3595504999999999    0.7591840000000000    0.9361150000000000 S
   0.6095505000000000    0.2591840000000000    0.4361150000000001 S
   0.6095505000000000    0.2591840000000000    0.9361150000000000 S
   0.6095505000000000    0.7591840000000001    0.4361150000000001 S
   0.6095504999999999    0.7591840000000000    0.9361150000000000 S
   0.8595504999999999    0.2591840000000000    0.4361150000000001 S
   0.8595505000000000    0.2591840000000000    0.9361150000000000 S
   0.8595505000000000    0.7591840000000001    0.4361150000000001 S
   0.8595505000000000    0.7591840000000000    0.9361150000000000 S
   0.1390005000000000    0.4201235000000000    0.2415065000000000 S
   0.1390005000000000    0.4201235000000000    0.7415065000000000 S
   0.1390005000000000    0.9201235000000000    0.2415065000000000 S
   0.1390004999999999    0.9201235000000000    0.7415065000000000 S
   0.3890005000000000    0.4201235000000000    0.2415065000000000 S
   0.3890005000000000    0.4201235000000000    0.7415065000000000 S
   0.3890005000000000    0.9201235000000000    0.2415065000000000 S
   0.3890005000000000    0.9201235000000000    0.7415065000000000 S
   0.6390005000000000    0.4201235000000000    0.2415065000000000 S
   0.6390005000000000    0.4201235000000000    0.7415065000000000 S
   0.6390005000000000    0.9201235000000000    0.2415065000000000 S
   0.6390004999999999    0.9201235000000000    0.7415065000000000 S
   0.8890005000000000    0.4201235000000000    0.2415065000000000 S
   0.8890004999999999    0.4201235000000000    0.7415065000000000 S
   0.8890005000000001    0.9201235000000000    0.2415065000000000 S
   0.8890004999999999    0.9201235000000000    0.7415065000000000 S
   0.0263490000000000    0.4183760000000001    0.3006680000000000 S
   0.0263490000000000    0.4183760000000001    0.8006680000000000 S
   0.0263490000000000    0.9183760000000001    0.3006680000000000 S