Ca1 Co16 F48
1.0
10.637538 -0.001762 -0.034191
-0.001078 7.434542 -0.007608
-0.031748 -0.011161 10.337309
Ca Co F
1 16 48
direct
0.475677 0.751396 0.511098 Ca
0.001457 0.502546 0.251152 Co
0.001903 0.497538 0.748925 Co
0.499301 0.495563 0.239002 Co
0.497707 0.488064 0.763542 Co
0.237645 0.013402 0.496353 Co
0.246817 0.998649 0.000151 Co
0.759212 0.008005 0.495609 Co
0.753276 0.001400 0.000475 Co
0.500661 0.003838 0.239567 Co
0.499523 0.002533 0.758460 Co
0.001101 0.001827 0.246007 Co
0.999076 0.000024 0.751771 Co
0.246353 0.498651 0.002045 Co
0.244796 0.497895 0.499991 Co
0.755386 0.500565 0.000055 Co
0.752417 0.498286 0.498420 Co
0.485330 0.250032 0.199707 F
0.481493 0.241187 0.708481 F
0.986851 0.245263 0.200803 F
0.994181 0.250230 0.696282 F
0.237918 0.257245 0.050398 F
0.243047 0.260269 0.551787 F
0.740566 0.249018 0.055282 F
0.747775 0.259047 0.547148 F
0.016770 0.760332 0.296594 F
0.008543 0.747483 0.794586 F
0.511585 0.747151 0.297972 F
0.512822 0.753526 0.793186 F
0.259615 0.743452 0.452625 F
0.256545 0.739462 0.952881 F
0.743533 0.742830 0.453094 F
0.764241 0.752809 0.948400 F
0.342431 0.549896 0.149296 F
0.353249 0.556142 0.643473 F
0.852751 0.554285 0.153850 F
0.849195 0.551780 0.643478 F
0.093408 0.952938 0.098032 F
0.099443 0.953720 0.596161 F
0.601889 0.944483 0.094968 F
0.599015 0.961420 0.608138 F
0.147627 0.058796 0.337000 F
0.154019 0.047188 0.846613 F
0.646050 0.044165 0.354204 F
0.645557 0.054877 0.848781 F
0.398031 0.467903 0.407363 F
0.393658 0.449151 0.911388 F
0.897059 0.458856 0.403488 F
0.902264 0.446045 0.899697 F
0.150524 0.446289 0.353576 F
0.154689 0.449158 0.852295 F
0.649023 0.448026 0.354286 F
0.651402 0.445391 0.849744 F
0.399698 0.024215 0.408029 F
0.402638 0.043748 0.903069 F
0.909554 0.048977 0.395433 F
0.901766 0.055067 0.902489 F
0.345476 0.948956 0.151765 F
0.358879 0.943302 0.651352 F
0.853759 0.949654 0.157329 F
0.849743 0.950396 0.646848 F
0.101603 0.546798 0.096127 F
0.102861 0.549078 0.594801 F
0.601561 0.552678 0.094756 F
0.604004 0.537102 0.598766 F
