Ca8 Ti12 F42
1.0
7.425377 -0.052507 -0.164640
-3.719017 6.329929 0.104727
0.052238 0.096596 18.703847
Ca Ti F
8 12 42
direct
0.869692 0.475288 0.336815 Ca
0.506837 0.350908 0.670016 Ca
0.168114 0.174982 0.002928 Ca
0.020349 0.842023 0.666562 Ca
0.656456 0.161500 0.998957 Ca
0.031053 0.836541 0.164429 Ca
0.821014 0.015046 0.821980 Ca
0.167557 0.187172 0.488017 Ca
0.357171 0.986751 0.336584 Ti
0.004486 0.339983 0.643167 Ti
0.671897 0.673628 0.986064 Ti
0.351542 0.052538 0.829881 Ti
0.962215 0.303138 0.166539 Ti
0.708821 0.646224 0.501955 Ti
0.519564 0.850847 0.160617 Ti
0.148604 0.629086 0.510361 Ti
0.347466 0.488997 0.826977 Ti
0.794013 0.490789 0.828813 Ti
0.721273 0.203548 0.509210 Ti
0.528589 0.304291 0.162211 Ti
0.690958 0.190141 0.618168 F
0.809547 0.505636 0.942856 F
0.519550 0.256365 0.272007 F
0.187513 0.727294 0.402481 F
0.563974 0.826255 0.052171 F
0.274751 0.446366 0.716335 F
0.832042 0.003047 0.946590 F
0.076932 0.814905 0.280973 F
0.175938 0.186059 0.610569 F
0.945284 0.830676 0.048457 F
0.891829 0.056019 0.706613 F
0.232989 0.127899 0.381180 F
0.529270 0.373363 0.047814 F
0.622505 0.158709 0.399117 F
0.851972 0.485099 0.712935 F
0.356918 0.498338 0.942826 F
0.170854 0.659180 0.619797 F
0.464512 0.869961 0.266388 F
0.836814 0.488958 0.194157 F
0.528624 0.328187 0.521442 F
0.656287 0.176726 0.867386 F
0.432767 0.810062 0.815148 F
0.380990 0.558442 0.496751 F
0.200737 0.617097 0.152141 F
0.005429 0.324947 0.270082 F
0.697055 0.665358 0.612333 F
0.331760 0.024079 0.944782 F
0.336555 0.030614 0.719430 F
0.713641 0.616350 0.398856 F
0.969514 0.291231 0.055423 F
0.203389 0.217940 0.143013 F
0.793719 0.963669 0.496070 F
0.014462 0.813293 0.800860 F
0.167216 0.173659 0.859723 F
0.029535 0.826801 0.526910 F
0.830418 0.986863 0.181329 F
0.028890 0.413160 0.826426 F
0.564104 0.596141 0.174462 F
0.416901 0.936678 0.519903 F
0.366894 0.002689 0.116423 F
0.662391 0.669688 0.863999 F
0.993465 0.352974 0.443840 F
