Ca2 Mn4 S6 O24                          
   1.00000000000000     
     7.9140439999999996    0.2389240000000000    4.4872160000000001
     2.8194050000000002    7.5180429999999996    4.5050640000000000
     0.1490320000000000    0.1299160000000000    8.8826619999999998
   Ca   Mn   S    O 
     2     4     6    24
Direct
  0.4501624082693175  0.6137415702681839  0.4516286150205361
  0.9914843712514519  0.0093551788697194 -0.0068056065845028
  0.6455830078259195  0.6392197513088229  0.6670210755876280
  0.1534217899529266  0.1820763046022428  0.1317099147211072
  0.8477497125070392  0.8363983138037433  0.8419801879377933
  0.3498397039045348  0.3505740282756963  0.3544706351425311
  0.9500657545600200  0.2662222397043831  0.5318386418391594
  0.4310235860198662  0.0345925709367462  0.7626031284803326
  0.5609149119987020  0.9618206312770620  0.2366734980966876
  0.7411452839827449  0.4467103279188223  0.0678246837281323
  0.2470703667950143  0.5628231649325599  0.9364161583059644
  0.0316188144428152  0.7416256887227779  0.4668552415714892
  0.3924809581606193  0.5950371978884260  0.7491151180998044
  0.9003999233870513  0.2684427978524128  0.0786369748269423
  0.7651599003926894  0.4150245372007046  0.5595776986613765
 -0.0105585103089585  0.8837696307221993  0.2984680405705606
  0.6111584712269250  0.7827091488171483  0.3833871489900862
  0.2609156587202605  0.0479150268277080  0.9351568432750443
  0.7213200683160935  0.9581531116072957  0.0616470291087613
  0.2224452019354663  0.6041045546294898  0.4117908618718895
  0.0806351812960891  0.7351869519607213  0.9335174780594454
  0.4006635750411370  0.2146265041641140  0.6181022506438436
  0.9528313034688919  0.1123472983866594  0.7097147975389370
  0.5915946810478766  0.4345382227579537  0.2533042337542226
  0.9821570216204835  0.2040671897730672  0.3890386338965354
  0.4507561153271236  0.8961471123597392  0.7076786003524156
  0.3990231100296981 -0.0240965763954246  0.2177329758229776
  0.6733368173445445  0.4799233380062080  0.9298441140954553
  0.2036954574746722  0.4172033698173870  0.9592890448156201
  0.8965892504089512  0.6531820443718448  0.5846500141967884
  0.0941135304765740  0.3322545698866992  0.4726928901350352
  0.5914165050783992  0.9806235390878619  0.8088443586807985
  0.5228879295459479  0.1117143448012435  0.2849419688474670
  0.7986035497236109  0.5911399596234197  0.0232269463715519
  0.3097313846688487  0.5173821704887798  0.0825852460653806
  0.0420843691791188  0.8140273475819828  0.5776433830620964
 
             NaN             NaN             NaN
             NaN             NaN             NaN
             NaN             NaN             NaN
             NaN             NaN             NaN
             NaN             NaN             NaN
             NaN             NaN             NaN
             NaN             NaN             NaN
             NaN             NaN             NaN
             NaN             NaN             NaN
             NaN             NaN             NaN
             NaN             NaN             NaN
             NaN             NaN             NaN
             NaN             NaN             NaN
             NaN             NaN             NaN
             NaN             NaN             NaN
             NaN             NaN             NaN
             NaN             NaN             NaN
             NaN             NaN             NaN
             NaN             NaN             NaN
             NaN             NaN             NaN
             NaN             NaN             NaN
             NaN             NaN             NaN
             NaN             NaN             NaN
             NaN             NaN             NaN
             NaN             NaN             NaN
             NaN             NaN             NaN
             NaN             NaN             NaN
             NaN             NaN             NaN
             NaN             NaN             NaN
             NaN             NaN             NaN
             NaN             NaN             NaN
             NaN             NaN             NaN
             NaN             NaN             NaN
             NaN             NaN             NaN
             NaN             NaN             NaN
             NaN             NaN             NaN
