Ca2 Mn4 S6 O24
1.0
7.914044 0.238924 4.487216
2.819405 7.518043 4.505064
0.149032 0.129916 8.882662
Ca Mn S O
2 4 6 24
direct
0.403862 0.640927 0.519171 Ca
0.986972 1.003047 1.003411 Ca
0.651701 0.640568 0.649023 Mn
0.151712 0.173365 0.129137 Mn
0.838971 0.825712 0.855604 Mn
0.353802 0.351130 0.350239 Mn
0.960460 0.255682 0.536159 S
0.433432 0.036582 0.755917 S
0.556556 0.955949 0.239537 S
0.744313 0.441649 0.058736 S
0.250232 0.556987 0.938234 S
0.040985 0.740894 0.458425 S
0.401850 0.576235 0.755475 O
0.905308 0.264320 0.067116 O
0.776209 0.401602 0.562106 O
0.037505 0.887703 0.279683 O
0.575348 0.779163 0.394983 O
0.259273 0.055348 0.918878 O
0.729100 0.932950 0.077461 O
0.224894 0.593329 0.433931 O
0.092805 0.737833 0.920457 O
0.413152 0.215286 0.606521 O
0.962104 0.102329 0.715425 O
0.595382 0.420083 0.240313 O
0.998577 0.186442 0.397118 O
0.458720 0.898929 0.696695 O
0.398755 1.001443 0.195515 O
0.684902 0.484370 0.909862 O
0.193785 0.417270 0.969542 O
0.898063 0.676634 0.526003 O
0.100846 0.320969 0.481089 O
0.587515 -0.016275 0.808892 O
0.532977 0.097827 0.289330 O
0.800000 0.582218 0.027194 O
0.307175 0.515483 0.087561 O
0.011458 0.810671 0.593277 O
