Mg8 Ni16 O32
1.0
        8.3586978912         0.0000000000         0.0000000000
        0.0000000000         8.3586978912         0.0000000000
        0.0000000000         0.0000000000         8.3586978912
   Mg   Ni    O
    7   16   32
Direct
   0.5000000000000000    0.5000000000000000    0.5000000000000000 Mg
     0.000000000         0.000000000         0.500000000
     0.250000000         0.750000000         0.250000000
     0.000000000         0.500000000         0.000000000
     0.250000000         0.250000000         0.750000000
     0.500000000         0.000000000         0.000000000
     0.750000000         0.250000000         0.250000000
     0.375000000         0.875000000         0.625000000
     0.875000000         0.625000000         0.375000000
     0.125000000         0.875000000         0.875000000
     0.625000000         0.625000000         0.125000000
     0.375000000         0.375000000         0.125000000
     0.875000000         0.125000000         0.875000000
     0.125000000         0.375000000         0.375000000
     0.625000000         0.125000000         0.625000000
     0.875000000         0.875000000         0.125000000
     0.375000000         0.625000000         0.875000000
     0.625000000         0.875000000         0.375000000
     0.125000000         0.625000000         0.625000000
     0.875000000         0.375000000         0.625000000
     0.375000000         0.125000000         0.375000000
     0.625000000         0.375000000         0.875000000
     0.125000000         0.125000000         0.125000000
     0.112948328         0.887051642         0.112948328
     0.637051642         0.637051642         0.362948328
     0.862948358         0.862948358         0.362948328
     0.862948358         0.637051642         0.137051672
     0.387051672         0.887051642         0.387051672
     0.387051672         0.112948328         0.612948358
     0.137051672         0.862948358         0.637051642
     0.612948358         0.112948328         0.387051672
     0.112948328         0.387051672         0.612948358
     0.637051642         0.137051672         0.862948358
     0.862948358         0.362948328         0.862948358
     0.862948358         0.137051672         0.637051642
     0.387051672         0.387051672         0.887051642
     0.387051672         0.612948358         0.112948328
     0.137051672         0.362948328         0.137051672
     0.612948358         0.612948358         0.887051642
     0.612948358         0.887051642         0.612948358
     0.137051672         0.637051642         0.862948358
     0.362948328         0.862948358         0.862948358
     0.362948328         0.637051642         0.637051642
     0.887051642         0.887051642         0.887051642
     0.887051642         0.112948328         0.112948328
     0.637051642         0.862948358         0.137051672
     0.112948328         0.112948328         0.887051642
     0.612948358         0.387051672         0.112948328
     0.137051672         0.137051672         0.362948328
     0.362948328         0.362948328         0.362948328
     0.362948328         0.137051672         0.137051672
     0.887051642         0.387051672         0.387051672
     0.887051642         0.612948358         0.612948358
     0.637051642         0.362948328         0.637051642
     0.112948328         0.612948358         0.387051672
