Ca1 Ni16 F48                            
   1.00000000000000     
    10.4531510000000001   -0.0000880000000000   -0.0274830000000000
    -0.0001770000000000    7.2693610000000000   -0.0058630000000000
    -0.0256350000000000    0.0133460000000000   10.0664280000000002
   Ca   Ni   F 
     1    16    48
Direct
  0.5000028364126362  0.0000915118426292  0.4999998596906460
 -0.0006604285469871  0.5001677367473830  0.2483444083358361
  1.0006634367039524  0.4998384054813535  0.7516542784443349
  0.4996325840392993  0.5063947015567037  0.2466317079998070
  0.5003674059564669  0.4936138163754564  0.7533629161846268
  0.2428589792581611  0.9972881061614708 -0.0027460647385987
  0.2268090062288348  0.0045287483174328  0.4943110458563823
  0.7571463330294447  0.0027148593480495  1.0027317661917852
  0.7731890770405072  0.9954717217103496  0.5056698283118265
 -0.0039048671928265  0.0005710290281799  0.2425477091398648
  1.0038860028566090  0.9994224554234280  0.7574395650176448
  0.4949989435322797  1.0109940984334134  0.2232553544440422
  0.5050156383402182 -0.0110241335761330  0.7767139947391709
  0.2484084464727847  0.4972905161079818 -0.0007795692057990
  0.2487972528286049  0.5021208935234173  0.4993119962961549
  0.7515906357658472  0.5027120436824019  1.0007672534621859
  0.7512019189409586  0.4978799652397261  0.5006954328632168
  0.4936065730815101  0.2599823836392005  0.1753582957686236
  0.4971923065892174  0.2322846083395123  0.6948727677803689
  0.9840375023615210  0.2466760832981371  0.1883680788981150
  0.9890414030709849  0.2436952160084062  0.6978620701626058
  0.2337736547235454  0.2514245585041411  0.0571422919518962
  0.2383819458315146  0.2557365810499099  0.5543983600543573
  0.7432339101183468  0.2568000941894612  0.0604015034874253
  0.7373700070005788  0.2494773632284596  0.5546860616267980
  0.0109368254960511  0.7563289226499003  0.3021382324038043
  0.0159394908733451  0.7533132384198581  0.8116296555347673
  0.5028356086712736  0.7676750230724936  0.3051334859807993
  0.5064131130916442  0.7400195010253335  0.8246427062858320
  0.2626213580248374  0.7505209091426214  0.4453336900961248
  0.2567785361420042  0.7431832144774673  0.9395717501004771
  0.7616189593819449  0.7442608487726121  0.4456182470632782
  0.7662225720961322  0.7485923663174519  0.9428398523807058
  0.3450677764818567  0.5571993104569788  0.1490061363775843
  0.3499714145883364  0.5533978014875748  0.6496672389778446
  0.8470827647892405  0.5598235169491708  0.1512297354613243
  0.8483152545835043  0.5532060153538789  0.6519030159423249
  0.0908495067297682  0.9408610746701023  0.0903124829225843
  0.0913526609379712  0.9356838893234949  0.6034780963669947
  0.6052493340426897  0.9388984384119422  0.0891247485426165
  0.6357696701172739  0.9167988836908715  0.6418300357588799
  0.1386222138738233  0.0620203688965808  0.3353548628444377
  0.1543510287543134  0.0611244757560368  0.8426354621266242
  0.6468415666004294  0.0561273323809814  0.3521206468583540
  0.6571092687947145  0.0681191301854522  0.8614669679684490
  0.3992878669498098  0.4491196336851672  0.4039230936219882
  0.3964128573160215  0.4358741740097399  0.9056871290277622
  0.8992423756288388  0.4455360642372119  0.4047443109052875
  0.9000105417162727  0.4455878134338135  0.9070301562857692
  0.1516758664058642  0.4468053065595357  0.3481150802801383
  0.1529075520748460  0.4401821532119343  0.8487520429347905
  0.6500386307071938  0.4465968803066823  0.3503371346973742
  0.6549403697047741  0.4427849254217589  0.8509807454532394
  0.3642220489779590  0.0831631991666515  0.3582330276996408
  0.3947571391890209  0.0610936652233269  0.9108693166659068
  0.9086315342075185  0.0643206965084628  0.3965187744903728
  0.9091382040386817  0.0591544959486252  0.9096861143264034
  0.3429157814083364  0.9318960678103281  0.1385365136138297
  0.3531759250672024  0.9438507232521951  0.6479244309597908
  0.8456361473102645  0.9388786681830249  0.1573543480975733
  0.8613741217981582  0.9379796534754232  0.6646680944356511
  0.0999851643895518  0.5544108648099523  0.0929556412635641
  0.1007478124606870  0.5544634677910182  0.5952666697531025
  0.6035887817531934  0.5641213816991739  0.0942973182401877
  0.6007240412585729  0.5508838782241180  0.5960847245906760
 
             NaN             NaN             NaN
             NaN             NaN             NaN
             NaN             NaN             NaN
             NaN             NaN             NaN
             NaN             NaN             NaN
             NaN             NaN             NaN
             NaN             NaN             NaN
             NaN             NaN             NaN
             NaN             NaN             NaN
             NaN             NaN             NaN
             NaN             NaN             NaN
             NaN             NaN             NaN
             NaN             NaN             NaN
             NaN             NaN             NaN
             NaN             NaN             NaN
             NaN             NaN             NaN
             NaN             NaN             NaN
             NaN             NaN             NaN
             NaN             NaN             NaN
             NaN             NaN             NaN
             NaN             NaN             NaN
             NaN             NaN             NaN
             NaN             NaN             NaN
             NaN             NaN             NaN
             NaN             NaN             NaN
             NaN             NaN             NaN
             NaN             NaN             NaN
             NaN             NaN             NaN
             NaN             NaN             NaN
             NaN             NaN             NaN
             NaN             NaN             NaN
             NaN             NaN             NaN
             NaN             NaN             NaN
             NaN             NaN             NaN
             NaN             NaN             NaN
             NaN             NaN             NaN
             NaN             NaN             NaN
             NaN             NaN             NaN
             NaN             NaN             NaN
             NaN             NaN             NaN
             NaN             NaN             NaN
             NaN             NaN             NaN
             NaN             NaN             NaN
             NaN             NaN             NaN
             NaN             NaN             NaN
             NaN             NaN             NaN
             NaN             NaN             NaN
             NaN             NaN             NaN
             NaN             NaN             NaN
             NaN             NaN             NaN
             NaN             NaN             NaN
             NaN             NaN             NaN
             NaN             NaN             NaN
             NaN             NaN             NaN
             NaN             NaN             NaN
             NaN             NaN             NaN
             NaN             NaN             NaN
             NaN             NaN             NaN
             NaN             NaN             NaN
             NaN             NaN             NaN
             NaN             NaN             NaN
             NaN             NaN             NaN
             NaN             NaN             NaN
             NaN             NaN             NaN
             NaN             NaN             NaN
