Ca1 Ni16 F48
1.0
10.453151 -0.000088 -0.027483
-0.000177 7.269361 -0.005863
-0.025635 0.013346 10.066428
Ca Ni F
1 16 48
direct
0.500027 -0.000000 0.499989 Ca
0.000014 0.499927 0.247091 Ni
-0.000022 0.500100 0.752895 Ni
0.501082 0.499330 0.238374 Ni
0.498921 0.500653 0.761596 Ni
0.246614 0.999541 1.000490 Ni
0.240843 1.001495 0.500664 Ni
0.753382 0.000456 0.999511 Ni
0.759153 0.998518 0.499369 Ni
0.000074 0.000324 0.247218 Ni
-0.000080 0.999679 0.752794 Ni
0.500949 0.999879 0.239292 Ni
0.499043 1.000123 0.760725 Ni
0.246777 0.500218 1.000583 Ni
0.241883 0.498698 0.500537 Ni
0.753211 0.499801 0.999383 Ni
0.758110 0.501276 0.499467 Ni
0.484316 0.248486 0.190760 F
0.483107 0.249507 0.707121 F
0.986950 0.248068 0.192153 F
0.987704 0.247840 0.697872 F
0.234210 0.252068 0.055640 F
0.243844 0.251201 0.555534 F
0.740698 0.252350 0.055529 F
0.745098 0.250956 0.553467 F
0.012319 0.752164 0.302122 F
0.013064 0.751955 0.807840 F
0.516884 0.750488 0.292845 F
0.515687 0.751483 0.809299 F
0.254902 0.749052 0.446586 F
0.259335 0.747650 0.944433 F
0.756150 0.748801 0.444468 F
0.765774 0.747939 0.944311 F
0.343826 0.556133 0.151216 F
0.350502 0.558136 0.651231 F
0.846674 0.555375 0.153305 F
0.850163 0.556827 0.655205 F
0.095076 0.944436 0.094417 F
0.092669 0.945285 0.598916 F
0.600346 0.946189 0.089408 F
0.599709 0.961479 0.599511 F
0.149447 0.056622 0.342090 F
0.151794 0.054786 0.844583 F
0.648836 0.057475 0.347292 F
0.654066 0.056540 0.848081 F
0.399710 0.461350 0.401163 F
0.398993 0.445377 0.912397 F
0.905587 0.447093 0.402132 F
0.903632 0.444485 0.907197 F
0.149828 0.443228 0.344790 F
0.153323 0.444641 0.846668 F
0.649513 0.441898 0.348762 F
0.656175 0.443858 0.848752 F
0.400278 0.038538 0.400533 F
0.399690 0.053775 0.910622 F
0.907316 0.054731 0.401106 F
0.904922 0.055562 0.905591 F
0.345915 0.943440 0.151899 F
0.351179 0.942499 0.652780 F
0.848222 0.945205 0.155419 F
0.850516 0.943360 0.657935 F
0.096358 0.555530 0.092785 F
0.094413 0.552906 0.597859 F
0.600993 0.554608 0.087553 F
0.600307 0.538607 0.598847 F
