Mg8 V16 S32
1.0
       10.2847003937         0.0000000000         0.0000000000
        0.0000000000        10.2847003937         0.0000000000
        0.0000000000         0.0000000000        10.2847003937
   Mg    V    S
    7   16   32
Direct
     0.500000000         0.500000000         0.000000000
     0.250000000         0.250000000         0.250000000
     0.500000000         0.000000000         0.500000000
     0.250000000         0.750000000         0.750000000
     0.750000000         0.250000000         0.750000000
     0.000000000         0.000000000         0.000000000
     0.000000000         0.500000000         0.500000000
     0.375000000         0.625000000         0.375000000
     0.375000000         0.875000000         0.125000000
     0.125000000         0.875000000         0.375000000
     0.125000000         0.625000000         0.125000000
     0.375000000         0.125000000         0.875000000
     0.375000000         0.375000000         0.625000000
     0.125000000         0.375000000         0.875000000
     0.125000000         0.125000000         0.625000000
     0.875000000         0.625000000         0.875000000
     0.875000000         0.875000000         0.625000000
     0.625000000         0.875000000         0.875000000
     0.625000000         0.625000000         0.625000000
     0.875000000         0.125000000         0.375000000
     0.875000000         0.375000000         0.125000000
     0.625000000         0.375000000         0.375000000
     0.625000000         0.125000000         0.125000000
     0.113609329         0.386390656         0.113609329
     0.636390686         0.136390671         0.363609344
     0.363609344         0.863609314         0.363609344
     0.863609314         0.136390671         0.136390671
     0.386390656         0.386390656         0.386390656
     0.386390656         0.113609329         0.113609329
     0.136390671         0.863609314         0.136390671
     0.113609329         0.113609329         0.386390656
     0.113609329         0.886390686         0.613609314
     0.636390686         0.636390686         0.863609314
     0.363609344         0.363609344         0.863609314
     0.863609314         0.636390686         0.636390686
     0.386390656         0.886390686         0.886390686
     0.386390656         0.613609314         0.613609314
     0.136390671         0.363609344         0.636390686
     0.113609329         0.613609314         0.886390686
     0.613609314         0.386390656         0.613609314
     0.136390671         0.136390671         0.863609314
     0.863609314         0.863609314         0.863609314
     0.363609344         0.136390671         0.636390686
     0.886390686         0.386390656         0.886390686
     0.886390686         0.113609329         0.613609314
     0.636390686         0.863609314         0.636390686
     0.613609314         0.113609329         0.886390686
     0.613609314         0.886390686         0.113609329
     0.136390671         0.636390686         0.363609344
     0.863609314         0.363609344         0.363609344
     0.363609344         0.636390686         0.136390671
     0.886390686         0.886390686         0.386390656
     0.886390686         0.613609314         0.113609329
     0.636390686         0.363609344         0.136390671
     0.613609314         0.613609314         0.386390656
