Ca9 Cr12 F42                            
   1.00000000000000     
     7.4696080000000000    0.0735290000000000   -0.5180300000000000
    -3.5520160000000001    6.6122779999999999    0.2128550000000000
     0.9386640000000001    0.1780610000000000   18.7366039999999998
   Ca   Cr   F 
     9    12    42
Direct
  0.6693543267276851  0.4946279925747348  0.3202019821059139
  0.5310599359702834  0.8653204262756873  0.6805674543172060
  0.5785953784573650  0.0760451623549656  0.0071982184533965
  0.0114458946159388  0.8296918899752299  0.6620904604674536
  0.8440104484919004  0.0307815116015178  0.3476055955128601
  0.1040358180372607  0.5926958446566388  0.9791406028332119
  0.9638347498155326  0.8241668754434599  0.1597938279239202
  0.8415408302728622  0.9018292420754079  0.8453507075672135
  0.2249000271960355  0.2081320546205134  0.5034326777098741
  0.3173518917555427  0.9572647262494627  0.3449723709472750
  0.0179656708144691  0.3278531194830379  0.6567568116854332
  0.6325584682091119  0.6209538639368191  0.9967472492731844
  0.3398765731451050  0.9838462157856753  0.8287828964054569
  0.9366532698270191  0.3033060409391126  0.1594962619269467
  0.6935258963955562  0.6916827997193451  0.5079084937308309
  0.4429164090005102  0.7942684447744170  0.1707512735798602
  0.2192966046306211  0.7131217182747065  0.5011047866472893
  0.3183567351959979  0.4723147983383811  0.8257242587507108
  0.8132512996832375  0.4544993950057901  0.8218085205359031
  0.7234691286784241  0.2232001815039766  0.5040515157199437
  0.4406170003527095  0.3029610958719218  0.1606390393128478
  0.7506447562620835  0.1378495122596988  0.6059436996656586
  0.8753114038158643  0.6587198912039156  0.9158159119523717
  0.4395990343964797  0.1922544639756012  0.2782446863178549
  0.1593955160365894  0.6988710906228519  0.3961821013001554
  0.3793443120379720  0.7346507098182400  0.0490524871660796
  0.2587651749137194  0.4983596630846137  0.7219246069470771
  0.7308031310631407  0.9045494985895814  0.9597810567627292
  0.8724128023796425  0.7988727828271607  0.2715806687387214
  0.1458383780521046  0.1661716350557754  0.6222078640461248
  0.8982550272462220  0.7010076940813263  0.0507824420554570
  0.8492141501882884  0.9802823251284707  0.7283618493838517
  0.1694837713794968  0.1006538712163518  0.3815479944949729
  0.5261298396263072  0.3449553389045192  0.0327602468709074
  0.7082584110515739  0.2897257784693466  0.3995098368717507
  0.8897022329964202  0.4885179303106852  0.6817589835582254
  0.3839461174139700  0.5255597645691310  0.9316047005838328
  0.2681134910373544  0.7737640264874557  0.6057237447180839
  0.5129191145423704  0.8709114642017681  0.3120839830878595
  0.7458506116251300  0.4286565022217559  0.1749091092497750
  0.5729881492916249  0.3540374820613934  0.5389076136956916
  0.6610289552763362  0.2244469109352920  0.8872019255727395
  0.5144332447774786  0.8519835187743112  0.8107294207497304
  0.4139096310247012  0.5415025821936439  0.4684931879956906
  0.1529720307373523  0.6704990564399012  0.1878834933726097
  0.9287577248443384  0.2620471101843833  0.2615670761162932
  0.6603851007055113  0.7122911264923033  0.6126513154625712
  0.3071069981061854  0.9067489309262768  0.9321536501813625
  0.3427943078343532  0.0117020847427582  0.7243046681607623
  0.7605849315429509  0.7209725861175684  0.4055523775562833
  0.9119461230746921  0.3146467839681932  0.0514863425560534
  0.1355943899565517  0.1812017831445232  0.1508239092339778
  0.8742282119508360  0.0885464048308791  0.4665069894414344
  0.9950068048316538  0.7345692136065409  0.7856353040326951
  0.1761031529906418  0.1253177605169924  0.8440812042674608
  0.9848452625561706  0.8331011972272861  0.5353184178439108
  0.7263973929425589  0.9306619530154663  0.1396078957727482
  0.0505895573796593  0.4288300740845443  0.8604325779176349
  0.4713248825770080  0.5526272924478022  0.2080628273183081
  0.3847333360724932  0.0008778622388377  0.4804560868229686
  0.4169971366116130  0.0375938507332947  0.1282374239108179
  0.5970524120444267  0.5330236996575906  0.8007824921174347
  0.0661336066563365  0.4283750361516709  0.5322751696917436
 
             NaN             NaN             NaN
             NaN             NaN             NaN
             NaN             NaN             NaN
             NaN             NaN             NaN
             NaN             NaN             NaN
             NaN             NaN             NaN
             NaN             NaN             NaN
             NaN             NaN             NaN
             NaN             NaN             NaN
             NaN             NaN             NaN
             NaN             NaN             NaN
             NaN             NaN             NaN
             NaN             NaN             NaN
             NaN             NaN             NaN
             NaN             NaN             NaN
             NaN             NaN             NaN
             NaN             NaN             NaN
             NaN             NaN             NaN
             NaN             NaN             NaN
             NaN             NaN             NaN
             NaN             NaN             NaN
             NaN             NaN             NaN
             NaN             NaN             NaN
             NaN             NaN             NaN
             NaN             NaN             NaN
             NaN             NaN             NaN
             NaN             NaN             NaN
             NaN             NaN             NaN
             NaN             NaN             NaN
             NaN             NaN             NaN
             NaN             NaN             NaN
             NaN             NaN             NaN
             NaN             NaN             NaN
             NaN             NaN             NaN
             NaN             NaN             NaN
             NaN             NaN             NaN
             NaN             NaN             NaN
             NaN             NaN             NaN
             NaN             NaN             NaN
             NaN             NaN             NaN
             NaN             NaN             NaN
             NaN             NaN             NaN
             NaN             NaN             NaN
             NaN             NaN             NaN
             NaN             NaN             NaN
             NaN             NaN             NaN
             NaN             NaN             NaN
             NaN             NaN             NaN
             NaN             NaN             NaN
             NaN             NaN             NaN
             NaN             NaN             NaN
             NaN             NaN             NaN
             NaN             NaN             NaN
             NaN             NaN             NaN
             NaN             NaN             NaN
             NaN             NaN             NaN
             NaN             NaN             NaN
             NaN             NaN             NaN
             NaN             NaN             NaN
             NaN             NaN             NaN
             NaN             NaN             NaN
             NaN             NaN             NaN
             NaN             NaN             NaN
