Sm16 Mg8 S32
1.0
       11.3787117004         0.0000000000         0.0000000000
        0.0000000000        11.3787117004         0.0000000000
        0.0000000000         0.0000000000        11.3787117004
Mg   Sm   Mg    S
1   16    6   32
Direct
   0.7500000000000000    0.2500000000000000    0.2500000000000000 Mg
     0.375000000         0.125000000         0.375000000
     0.875000000         0.875000000         0.125000000
     0.625000000         0.875000000         0.375000000
     0.125000000         0.125000000         0.125000000
     0.375000000         0.625000000         0.875000000
     0.875000000         0.375000000         0.625000000
     0.625000000         0.375000000         0.875000000
     0.125000000         0.625000000         0.625000000
     0.875000000         0.125000000         0.875000000
     0.375000000         0.875000000         0.625000000
     0.125000000         0.875000000         0.875000000
     0.625000000         0.125000000         0.625000000
     0.875000000         0.625000000         0.375000000
     0.375000000         0.375000000         0.125000000
     0.125000000         0.375000000         0.375000000
     0.625000000         0.625000000         0.125000000
     0.000000000         0.000000000         0.500000000
     0.250000000         0.750000000         0.250000000
     0.000000000         0.500000000         0.000000000
     0.250000000         0.250000000         0.750000000
     0.500000000         0.000000000         0.000000000
     0.750000000         0.750000000         0.750000000
     0.378517985         0.878517985         0.378517985
     0.878517985         0.121482000         0.121482000
     0.121482000         0.878517985         0.121482000
     0.621482015         0.121482000         0.378517985
     0.128518000         0.128518000         0.371482015
     0.128518000         0.371482015         0.128518000
     0.371482015         0.128518000         0.128518000
     0.371482015         0.371482015         0.371482015
     0.378517985         0.378517985         0.878517985
     0.878517985         0.621482015         0.621482015
     0.121482000         0.378517985         0.621482015
     0.621482015         0.621482015         0.878517985
     0.128518000         0.628517985         0.871482015
     0.128518000         0.871482015         0.628517985
     0.371482015         0.628517985         0.628517985
     0.371482015         0.871482015         0.871482015
     0.878517985         0.878517985         0.878517985
     0.378517985         0.121482000         0.621482015
     0.621482015         0.878517985         0.621482015
     0.121482000         0.121482000         0.878517985
     0.628517985         0.128518000         0.871482015
     0.628517985         0.371482015         0.628517985
     0.871482015         0.128518000         0.628517985
     0.871482015         0.371482015         0.871482015
     0.878517985         0.378517985         0.378517985
     0.378517985         0.621482015         0.121482000
     0.621482015         0.378517985         0.121482000
     0.121482000         0.621482015         0.378517985
     0.628517985         0.628517985         0.371482015
     0.628517985         0.871482015         0.128518000
     0.871482015         0.628517985         0.128518000
     0.871482015         0.871482015         0.371482015
