Li16 Co32 O64
1.0
       11.2022666931         0.0000000000         0.0000000000
        0.0000000000        11.2057466507         0.0000000000
       -0.0009706964         0.0000000000         7.9237021805
   Li   Co    O
   15   32   64
Direct
     0.125090435         0.625375509         0.875787973
     0.374334782         0.624979854         0.124863662
     0.625665247         0.624979854         0.875136316
     0.875070632         0.874347866         0.375440925
     0.874909580         0.625375509         0.124212041
     0.874328613         0.375033379         0.373942882
     0.625671387         0.875033379         0.626057088
     0.874334753         0.124979861         0.124863662
     0.125665233         0.124979861         0.875136316
     0.375070602         0.374347866         0.375440925
     0.624929368         0.374347866         0.624559045
     0.374909550         0.125375509         0.124212041
     0.374328613         0.875033379         0.373942882
     0.625090420         0.125375509         0.875787973
     0.125671387         0.375033379         0.626057088
     0.500000000         0.625120044         0.500000000
     0.624798775         0.750026345         0.249591097
     0.875378847         0.000087970         0.749892056
     0.750163019         0.874962389         0.999846995
     0.749955118         0.624904275         0.499554545
     0.624621153         0.500087976         0.250107944
     0.875209093         0.749787986         0.749634743
     0.000000000         0.874901712         0.000000000
     0.875077903         0.499888629         0.749333560
     0.749836981         0.374962360         0.000153000
     0.000000000         0.624710023         0.500000000
     0.124790907         0.749787986         0.250365287
     0.875201225         0.250026345         0.750408888
     0.000000000         0.375058770         0.000000000
     0.250044882         0.624904275         0.500445426
     0.124922097         0.499888629         0.250666440
     0.000000000         0.125120029         0.500000000
     0.124798797         0.250026345         0.249591097
     0.375378817         0.500087976         0.749892056
     0.250162989         0.374962360         0.999846995
     0.249955118         0.124904282         0.499554545
     0.124621183         0.000087970         0.250107944
     0.375209093         0.249787986         0.749634743
     0.500000000         0.374901742         0.000000000
     0.375077903         0.999888599         0.749333560
     0.249837011         0.874962389         0.000153000
     0.500000000         0.124710001         0.500000000
     0.624790907         0.249787986         0.250365287
     0.375201195         0.750026345         0.750408888
     0.500000000         0.875058770         0.000000000
     0.750044882         0.124904282         0.500445426
     0.624922097         0.999888599         0.250666440
     0.487260908         0.625032842         0.736740112
     0.875280201         0.012976450         0.513102710
     0.737003148         0.874866188         0.236681670
     0.512739062         0.625032842         0.263259888
     0.625163853         0.763127744         0.012691990
     0.624917984         0.736988902         0.486383379
     0.763581872         0.874953866         0.763011515
     0.875184834         0.986823916         0.986748099
     0.624719799         0.512976468         0.486897260
     0.736637652         0.624946833         0.262540519
     0.875241578         0.763078332         0.986404061
     0.874983132         0.736552179         0.512779951
     0.987082958         0.874770641         0.762913585
     0.763113797         0.624945223         0.736283541
     0.624815166         0.486823916         0.013251910
     0.012917060         0.874770641         0.237086400
     0.874916315         0.512988985         0.512386322
     0.987129986         0.624785423         0.736501217
     0.124758437         0.763078332         0.013595960
     0.875024378         0.486940861         0.986198008
     0.736418128         0.374953836         0.236988515
     0.762996852         0.374866158         0.763318300
     0.125016883         0.736552179         0.487220049
     0.012870010         0.624785423         0.263498813
     0.987137318         0.375056803         0.762605131
     0.874836147         0.263127744         0.987308025
     0.236886233         0.624945223         0.263716459
     0.263362318         0.624946833         0.737459481
     0.125083655         0.512988985         0.487613678
     0.875082016         0.236988902         0.513616621
     0.012862680         0.375056803         0.237394854
     0.124975599         0.486940861         0.013802000
     0.987260938         0.125032857         0.736740112
     0.375280231         0.512976468         0.513102710
     0.237003163         0.374866158         0.236681670
     0.012739080         0.125032857         0.263259888
     0.125163883         0.263127744         0.012691990
     0.124917999         0.236988902         0.486383379
     0.263581872         0.374953836         0.763011515
     0.375184864         0.486823916         0.986748099
     0.124719769         0.012976450         0.486897260
     0.236637667         0.124946862         0.262540519
     0.375241548         0.263078362         0.986404061
     0.374983102         0.236552194         0.512779951
     0.487082928         0.374770671         0.762913585
     0.263113767         0.124945201         0.736283541
     0.124815151         0.986823916         0.013251910
     0.512917042         0.374770671         0.237086400
     0.374916345         0.012988960         0.512386322
     0.487129986         0.124785453         0.736501217
     0.624758422         0.263078362         0.013595960
     0.375024408         0.986940861         0.986198008
     0.236418128         0.874953866         0.236988515
     0.262996852         0.874866188         0.763318300
     0.625016868         0.236552194         0.487220049
     0.512870014         0.124785453         0.263498813
     0.487137318         0.875056803         0.762605131
     0.374836117         0.763127744         0.987308025
     0.736886203         0.124945201         0.263716459
     0.763362348         0.124946862         0.737459481
     0.625083685         0.012988960         0.487613678
     0.375081986         0.736988902         0.513616621
     0.512862682         0.875056803         0.237394854
     0.624975622         0.986940861         0.013802000
