Li32 Mn32 S64
1.0
  11.0965459593645921    0.0000595772265424    0.0000007877323024
   0.0000595775817712   11.0963700901208355    0.0000009135315274
   0.0000016854315918    0.0000017737383654   21.3065507396323852
Li Mn S
31 32 64
direct
   0.4999999971478992    0.2500000100886837    0.6249991890792012 Li
   0.4999999971478992    0.2500000100886837    0.1249991890792011 Li
   0.4999999971478993    0.7500000100886838    0.1249991890792011 Li
   0.4999999971478992    0.7500000100886838    0.6249991890792010 Li
   0.9999999971478992    0.2500000100886837    0.1249991890792011 Li
   0.9999999971478993    0.2500000100886837    0.6249991890792010 Li
   0.9999999971478993    0.7500000100886837    0.1249991890792011 Li
   0.9999999971478992    0.7500000100886838    0.6249991890792010 Li
   0.5000000105486535    0.4999999972922566    0.9999986487500436 Li
   0.5000000105486536    0.9999999972922566    0.9999986487500436 Li
   0.5000000105486534    0.9999999972922567    0.4999986487500437 Li
   0.0000000105486533    0.4999999972922567    0.9999986487500436 Li
   0.0000000105486533    0.4999999972922566    0.4999986487500437 Li
   0.0000000105486535    0.9999999972922567    0.9999986487500436 Li
   0.0000000105486535    0.9999999972922566    0.4999986487500437 Li
   0.2500000011469936    0.0000000082168689    0.3750011837831587 Li
   0.2500000011469936    0.0000000082168690    0.8750011837831586 Li
   0.2500000011469936    0.5000000082168691    0.3750011837831587 Li
   0.2500000011469936    0.5000000082168690    0.8750011837831587 Li
   0.7500000011469936    0.0000000082168689    0.3750011837831587 Li
   0.7500000011469936    0.0000000082168689    0.8750011837831587 Li
   0.7500000011469936    0.5000000082168691    0.3750011837831587 Li
   0.7500000011469935    0.5000000082168691    0.8750011837831587 Li
   0.2500000126262698    0.2500000002989183    0.2500016818507760 Li
   0.2500000126262698    0.2500000002989183    0.7500016818507761 Li
   0.2500000126262698    0.7500000002989183    0.2500016818507760 Li
   0.2500000126262698    0.7500000002989183    0.7500016818507760 Li
   0.7500000126262699    0.2500000002989183    0.2500016818507760 Li
   0.7500000126262698    0.2500000002989182    0.7500016818507760 Li
   0.7500000126262696    0.7500000002989184    0.2500016818507760 Li
   0.7500000126262697    0.7500000002989182    0.7500016818507761 Li
   0.0000000377710876    0.4999999947412839    0.2499993677125261 Mn
   0.0000000377710876    0.4999999947412839    0.7499993677125261 Mn
   0.0000000377710876    0.9999999947412840    0.2499993677125261 Mn
   0.0000000377710876    0.9999999947412840    0.7499993677125261 Mn
   0.5000000377710877    0.4999999947412839    0.2499993677125261 Mn
   0.5000000377710876    0.4999999947412839    0.7499993677125261 Mn
   0.5000000377710875    0.9999999947412840    0.2499993677125261 Mn
   0.5000000377710876    0.9999999947412840    0.7499993677125261 Mn
   0.4999999871188834    0.2500000269883281    0.3750083978018140 Mn
   0.4999999871188834    0.2500000269883280    0.8750083978018141 Mn
   0.4999999871188834    0.7500000269883281    0.3750083978018140 Mn
   0.4999999871188834    0.7500000269883281    0.8750083978018139 Mn
   0.9999999871188834    0.2500000269883280    0.3750083978018140 Mn
   0.9999999871188835    0.2500000269883281    0.8750083978018139 Mn
   0.9999999871188835    0.7500000269883282    0.3750083978018140 Mn
   0.9999999871188834    0.7500000269883281    0.8750083978018141 Mn
   0.2499999891928937    0.0000000320067990    0.1249895107923394 Mn
   0.2499999891928937    0.0000000320067990    0.6249895107923394 Mn
   0.2499999891928937    0.5000000320067990    0.1249895107923394 Mn
   0.2499999891928937    0.5000000320067991    0.6249895107923393 Mn
   0.7499999891928936    0.0000000320067990    0.1249895107923394 Mn
   0.7499999891928936    0.0000000320067990    0.6249895107923393 Mn
   0.7499999891928937    0.5000000320067991    0.1249895107923393 Mn
   0.7499999891928938    0.5000000320067991    0.6249895107923394 Mn
   0.2500000162364628    0.2499999908501281    0.0000013515232915 Mn
   0.2500000162364628    0.2499999908501280    0.5000013515232916 Mn
   0.2500000162364628    0.7499999908501280    0.0000013515232915 Mn
   0.2500000162364628    0.7499999908501280    0.5000013515232915 Mn
   0.7500000162364628    0.2499999908501281    0.0000013515232915 Mn
   0.7500000162364628    0.2499999908501281    0.5000013515232915 Mn
   0.7500000162364628    0.7499999908501283    0.0000013515232915 Mn
   0.7500000162364628    0.7499999908501283    0.5000013515232916 Mn
   0.1249988276359133    0.3890716611632606    0.1875013549996752 S
   0.1249988276359133    0.3890716611632606    0.6875013549996751 S
   0.1249988276359133    0.8890716611632606    0.1875013549996752 S
   0.1249988276359133    0.8890716611632606    0.6875013549996752 S
   0.6249988276359132    0.3890716611632606    0.1875013549996752 S
   0.6249988276359133    0.3890716611632605    0.6875013549996752 S
   0.6249988276359134    0.8890716611632606    0.1875013549996752 S
   0.6249988276359133    0.8890716611632606    0.6875013549996752 S
   0.1249943108015934    0.3609237625741351    0.4374964774428634 S
   0.1249943108015934    0.3609237625741351    0.9374964774428635 S
   0.1249943108015934    0.8609237625741352    0.4374964774428634 S
   0.1249943108015934    0.8609237625741351    0.9374964774428634 S
   0.6249943108015934    0.3609237625741351    0.4374964774428634 S
   0.6249943108015934    0.3609237625741351    0.9374964774428635 S
   0.6249943108015935    0.8609237625741351    0.4374964774428634 S
   0.6249943108015934    0.8609237625741351    0.9374964774428634 S
   0.1390788811438420    0.1249927185262649    0.0625028921372568 S
   0.1390788811438420    0.1249927185262649    0.5625028921372569 S
   0.1390788811438420    0.6249927185262650    0.0625028921372568 S
   0.1390788811438420    0.6249927185262649    0.5625028921372568 S
   0.6390788811438420    0.1249927185262649    0.0625028921372568 S
   0.6390788811438419    0.1249927185262649    0.5625028921372568 S
   0.6390788811438419    0.6249927185262649    0.0625028921372568 S
   0.6390788811438419    0.6249927185262649    0.5625028921372569 S
   0.1109310031922597    0.1249989822426052    0.3124996111973317 S
   0.1109310031922597    0.1249989822426052    0.8124996111973318 S
   0.1109310031922597    0.6249989822426053    0.3124996111973318 S
   0.1109310031922597    0.6249989822426054    0.8124996111973317 S
   0.6109310031922597    0.1249989822426052    0.3124996111973317 S
   0.6109310031922597    0.1249989822426052    0.8124996111973317 S
   0.6109310031922597    0.6249989822426052    0.3124996111973318 S
   0.6109310031922596    0.6249989822426052    0.8124996111973317 S
   0.3609211062805038    0.3750072704340575    0.0625028926770952 S
   0.3609211062805038    0.3750072704340575    0.5625028926770952 S
   0.3609211062805038    0.8750072704340576    0.0625028926770952 S
   0.3609211062805038    0.8750072704340576    0.5625028926770952 S
   0.8609211062805039    0.3750072704340575    0.0625028926770952 S
   0.8609211062805039    0.3750072704340575    0.5625028926770952 S
   0.8609211062805038    0.8750072704340576    0.0625028926770952 S
   0.8609211062805038    0.8750072704340576    0.5625028926770952 S
   0.3890689837414811    0.3750009948617717    0.3124996160660736 S
   0.3890689837414811    0.3750009948617717    0.8124996160660737 S
   0.3890689837414811    0.8750009948617719    0.3124996160660736 S
   0.3890689837414811    0.8750009948617717    0.8124996160660736 S
   0.8890689837414811    0.3750009948617717    0.3124996160660736 S
   0.8890689837414810    0.3750009948617717    0.8124996160660736 S
   0.8890689837414811    0.8750009948617719    0.3124996160660736 S
   0.8890689837414810    0.8750009948617717    0.8124996160660737 S
   0.3750011492238521    0.1109283264755803    0.1875013539966482 S
   0.3750011492238520    0.1109283264755803    0.6875013539966482 S
   0.3750011492238520    0.6109283264755803    0.1875013539966482 S
   0.3750011492238520    0.6109283264755804    0.6875013539966481 S
   0.8750011492238520    0.1109283264755803    0.1875013539966482 S
   0.8750011492238520    0.1109283264755803    0.6875013539966481 S
   0.8750011492238521    0.6109283264755803    0.1875013539966482 S
   0.8750011492238520    0.6109283264755803    0.6875013539966482 S
   0.3750056861914110    0.1390762232390515    0.4374964701898990 S
   0.3750056861914110    0.1390762232390515    0.9374964701898991 S
   0.3750056861914110    0.6390762232390516    0.4374964701898990 S
   0.3750056861914111    0.6390762232390516    0.9374964701898990 S
   0.8750056861914109    0.1390762232390515    0.4374964701898990 S
   0.8750056861914111    0.1390762232390515    0.9374964701898990 S
   0.8750056861914109    0.6390762232390516    0.4374964701898990 S
   0.8750056861914111    0.6390762232390516    0.9374964701898990 S
