Ca1 Co16 F48                            
   1.00000000000000     
    10.6970089999999995   -0.0047280000000000   -0.0372030000000000
    -0.0029350000000000    7.4698659999999997   -0.0038530000000000
    -0.0343400000000000   -0.0057760000000000   10.3962990000000008
   Ca   Co   F 
     1    16    48
Direct
  0.4703141298043932  0.0900047509769627  0.5238297397836063
  0.0009057241062678  0.5037801301424069  0.2484270754018018
  0.0023976786252543  0.4993419669320375  0.7511921278283361
  0.5023614638661950  0.5067482353159922  0.2455094098636851
  0.5046762622194362  0.4931215111557978  0.7589352664211332
  0.2019319073067253  0.0005710005508346  0.4694656148717307
  0.2404014842727627  0.9961190369702548  0.9962736256484342
  0.7628865110751240  0.9945550996723614  0.4987781065586339
  0.7590314256976683  0.0013273954523725  1.0039069630503938
  0.4889724196322653  0.9994894521550315  0.2219139468609525
  0.5090568990710850  0.9743699827214477  0.7863498764682469
 -0.0091549914236909  0.0065062009193224  0.2359010860336477
  0.9997568837158280  1.0005040072462321  0.7545519981046126
  0.2494523853960856  0.4940526955489800 -0.0004721529646882
  0.2544208158553798  0.5056623740037034  0.5008664576816801
  0.7544071352232679  0.5018160335794982  1.0012860719535648
  0.7529743568073992  0.5010896707441748  0.5006228811236576
  0.5033774194495496  0.2490603996486526  0.1919038269880313
  0.4949783494839991  0.2339633157376320  0.7082591743956759
  0.9760177630205054  0.2477732407397272  0.1889391993328183
  0.9950061152488292  0.2491147184484335  0.7013947667950220
  0.2377377952074706  0.2537316849607597  0.0509131042323503
  0.2578788727260508  0.2235701810721386  0.5432519491188780
  0.7468615381029637  0.2487340466678286  0.0545357586908661
  0.7435178539715905  0.2578260395841143  0.5468590484341294
  0.0170405461931824  0.7704308367912069  0.2927679824557272
  0.0086199360103208  0.7496021837953615  0.7987132974279665
  0.5011269556590384  0.7663409060517438  0.2973413756502988
  0.5211140236045505  0.7304918534135789  0.8352191893362828
  0.2766184246641228  0.7732978266955651  0.4618828537314616
  0.2542258263953198  0.7326862065697434  0.9454413041398163
  0.7639627097363855  0.7415846684401750  0.4496038699216346
  0.7669144819293724  0.7534196612252410  0.9490607541752780
  0.3502074774937443  0.5476207963676275  0.1423305338455020
  0.3638453813815219  0.5334500762673010  0.6481417370110683
  0.8561972130260820  0.5579106537614613  0.1514277483897547
  0.8536798672299910  0.5520665112480561  0.6429253969301262
  0.0805375507711669  0.9538551077445760  0.0864461993673636
  0.0825305907730590  0.9431210829229345  0.5912829584044996
  0.6051630122019207  0.9427586630952569  0.0916286085547191
  0.6134406243126365  0.9266074038530686  0.6224974335189967
  0.1370799734292346  0.0755548720964626  0.3112917880184764
  0.1581480310989480  0.0455517202643395  0.8397353298707159
  0.6283399895465037  0.0486976286613175  0.3790349184460700
  0.6588940364731189  0.0601740743442353  0.8527683011593480
  0.4012368576907466  0.4532476952243124  0.3956462705925785
  0.3915688232977032  0.4388979418934434  0.9042917068701639
  0.8956524227566142  0.4561445157908893  0.4016035690000871
  0.9003081734899026  0.4496326872319582  0.8973531173615479
  0.1457587598808243  0.4650908728907654  0.3549522543985376
  0.1517232788343342  0.4411364605746079  0.8565513867572871
  0.6496774418563600  0.4539962670550827  0.3581475868516005
  0.6514946395413380  0.4380671663979466  0.8543595594438163
  0.3629040231253695  0.0731180410128789  0.3513527471917480
  0.4030270433946511  0.0508537873043803  0.9205288538111289
  0.9036165390080209  0.0571005560648889  0.3878436604933485
  0.9054252960285140  0.0523940896104483  0.9048450489792961
  0.3351697069027276  0.9236975340809356  0.1394745636564806
  0.3725230557492401  0.9257188680401262  0.6783937551619683
  0.8435251076735557  0.9404977154339068  0.1615316588253243
  0.8515353157533306  0.9552939913786332  0.6500596214532345
  0.1080393748841903  0.5465731176499974  0.0973215110646463
  0.1110506788968518  0.5438408902047510  0.6072710357640407
  0.6075719792321854  0.5564258109536371  0.1039695316098334
  0.6105374206705376  0.5423216267082676  0.6014997238859161
 
             NaN             NaN             NaN
             NaN             NaN             NaN
             NaN             NaN             NaN
             NaN             NaN             NaN
             NaN             NaN             NaN
             NaN             NaN             NaN
             NaN             NaN             NaN
             NaN             NaN             NaN
             NaN             NaN             NaN
             NaN             NaN             NaN
             NaN             NaN             NaN
             NaN             NaN             NaN
             NaN             NaN             NaN
             NaN             NaN             NaN
             NaN             NaN             NaN
             NaN             NaN             NaN
             NaN             NaN             NaN
             NaN             NaN             NaN
             NaN             NaN             NaN
             NaN             NaN             NaN
             NaN             NaN             NaN
             NaN             NaN             NaN
             NaN             NaN             NaN
             NaN             NaN             NaN
             NaN             NaN             NaN
             NaN             NaN             NaN
             NaN             NaN             NaN
             NaN             NaN             NaN
             NaN             NaN             NaN
             NaN             NaN             NaN
             NaN             NaN             NaN
             NaN             NaN             NaN
             NaN             NaN             NaN
             NaN             NaN             NaN
             NaN             NaN             NaN
             NaN             NaN             NaN
             NaN             NaN             NaN
             NaN             NaN             NaN
             NaN             NaN             NaN
             NaN             NaN             NaN
             NaN             NaN             NaN
             NaN             NaN             NaN
             NaN             NaN             NaN
             NaN             NaN             NaN
             NaN             NaN             NaN
             NaN             NaN             NaN
             NaN             NaN             NaN
             NaN             NaN             NaN
             NaN             NaN             NaN
             NaN             NaN             NaN
             NaN             NaN             NaN
             NaN             NaN             NaN
             NaN             NaN             NaN
             NaN             NaN             NaN
             NaN             NaN             NaN
             NaN             NaN             NaN
             NaN             NaN             NaN
             NaN             NaN             NaN
             NaN             NaN             NaN
             NaN             NaN             NaN
             NaN             NaN             NaN
             NaN             NaN             NaN
             NaN             NaN             NaN
             NaN             NaN             NaN
             NaN             NaN             NaN
