Ca1 Co16 F48
1.0
10.697009 -0.004728 -0.037203
-0.002935 7.469866 -0.003853
-0.034340 -0.005776 10.396299
Ca Co F
1 16 48
direct
0.508426 1.063491 0.499841 Ca
0.000475 0.501384 0.249514 Co
0.000313 0.498779 0.750580 Co
0.497212 0.502595 0.236753 Co
0.496210 0.500250 0.762512 Co
0.241496 0.003565 0.498490 Co
0.246299 0.998621 -0.000625 Co
0.759883 -0.006019 0.498449 Co
0.753118 0.000307 -0.000399 Co
0.499488 -0.003189 0.238577 Co
0.498897 -0.000870 0.759277 Co
0.000635 0.000859 0.246707 Co
0.999857 -0.000357 0.752171 Co
0.245460 0.499297 0.000455 Co
0.244631 0.502129 0.500564 Co
0.753671 0.500468 -0.000922 Co
0.754500 0.500548 0.499298 Co
0.489470 0.250522 0.205242 F
0.483762 0.248750 0.707720 F
0.987403 0.250416 0.203058 F
0.992711 0.249844 0.700564 F
0.239228 0.258708 0.049191 F
0.251793 0.253761 0.548304 F
0.741086 0.249305 0.048734 F
0.745466 0.258434 0.546708 F
0.014506 0.752346 0.295913 F
0.008370 0.748378 0.797812 F
0.510769 0.747921 0.295249 F
0.514434 0.751526 0.800383 F
0.258494 0.748344 0.452625 F
0.253850 0.739758 0.951041 F
0.750359 0.739772 0.450462 F
0.761698 0.751818 0.949352 F
0.341772 0.552033 0.145945 F
0.356623 0.551034 0.645824 F
0.851222 0.551741 0.152392 F
0.849008 0.552854 0.644448 F
0.096953 0.956498 0.096752 F
0.100274 0.953122 0.599587 F
0.602677 0.949282 0.094433 F
0.600862 0.971940 0.600667 F
0.147867 0.053623 0.344246 F
0.152991 0.048282 0.846849 F
0.644578 0.050912 0.356109 F
0.647057 0.052143 0.846826 F
0.399615 0.459380 0.400579 F
0.391872 0.451977 0.909701 F
0.897723 0.457959 0.405367 F
0.899627 0.448856 0.898385 F
0.148893 0.448134 0.351826 F
0.152706 0.448615 0.853416 F
0.649118 0.444881 0.357298 F
0.647579 0.449224 0.849295 F
0.400334 0.037213 0.402806 F
0.399496 0.042429 0.906247 F
0.904893 0.043155 0.400265 F
0.901167 0.051073 0.902487 F
0.345961 0.949680 0.149942 F
0.359641 0.950759 0.650703 F
0.851037 0.950905 0.154984 F
0.850476 0.947577 0.651476 F
0.101567 0.546447 0.094083 F
0.102010 0.547555 0.601176 F
0.602297 0.549914 0.095281 F
0.604148 0.531842 0.594890 F
