Mg32 Mn16 O56
1.0
  10.9300838332676538   -0.0000035440505442   -0.0000009196135092
  -0.0000035812715710   11.0773039095743329    0.0000014619006133
  -0.0000005214204152    0.0000011669731877    9.1987374464567413
Mg Mn O
31 16 56
direct
   0.4162137223352618    0.6546304837473345    0.6270334414195661 Mg
   0.0837844867941377    0.6546307481092354    0.3729646722705744 Mg
   0.5837844867941376    0.6546307481092355    0.3729646722705744 Mg
   0.0837866147683785    0.8453692107889604    0.1270325355991845 Mg
   0.5837866147683783    0.8453692107889604    0.1270325355991845 Mg
   0.4162149566031910    0.8453699901274876    0.8729647762152357 Mg
   0.9162149566031911    0.8453699901274877    0.8729647762152357 Mg
   0.9162137223352618    0.6546304837473345    0.6270334414195661 Mg
   0.8337849063150621    0.8453693937711229    0.3729659616068416 Mg
   0.3337862250529588    0.6546295273227578    0.1270338552551092 Mg
   0.8337862250529589    0.6546295273227578    0.1270338552551092 Mg
   0.1662155749556941    0.6546301484068390    0.8729653299511509 Mg
   0.6662155749556941    0.6546301484068390    0.8729653299511509 Mg
   0.1662139313116019    0.8453705642796389    0.6270337688227153 Mg
   0.6662139313116018    0.8453705642796389    0.6270337688227153 Mg
   0.3337849062011470    0.1546305313033726    0.3729659852243138 Mg
   0.8337849062011471    0.1546305313033726    0.3729659852243138 Mg
   0.3337864104052543    0.3453703603118083    0.1270336766145624 Mg
   0.8337864104052541    0.3453703603118082    0.1270336766145624 Mg
   0.1662155633821618    0.3453694974353869    0.8729652079658013 Mg
   0.6662155633821617    0.3453694974353869    0.8729652079658013 Mg
   0.1662138867847875    0.1546291609996953    0.6270337287422871 Mg
   0.6662138867847874    0.1546291609996953    0.6270337287422871 Mg
   0.0837848818349326    0.3453700855788724    0.3729643397180108 Mg
   0.5837848818349326    0.3453700855788724    0.3729643397180109 Mg
   0.0837866162882015    0.1546306186716107    0.1270326933023092 Mg
   0.5837866162882015    0.1546306186716107    0.1270326933023092 Mg
   0.4162149977942757    0.1546297429455938    0.8729648380058621 Mg
   0.9162149977942758    0.1546297429455938    0.8729648380058621 Mg
   0.4162137426682352    0.3453694274686540    0.6270332552438883 Mg
   0.9162137426682352    0.3453694274686540    0.6270332552438883 Mg
   0.1088178121443364    0.5000002536390857    0.1192728340223669 Mn
   0.6088178121443363    0.5000002536390856    0.1192728340223669 Mn
   0.3911822848972393    0.9999998481277435    0.6192726950173530 Mn
   0.8911822848972393    0.9999998481277435    0.6192726950173530 Mn
   0.3588169550989845    0.5000003182185714    0.3807268286889440 Mn
   0.8588169550989843    0.5000003182185715    0.3807268286889440 Mn
   0.3911787903730937    0.5000000621349421    0.8807287926779194 Mn
   0.8911787903730936    0.5000000621349421    0.8807287926779194 Mn
   0.3588219054370459    0.9999998420024372    0.1192697895580430 Mn
   0.8588219054370460    0.9999998420024372    0.1192697895580430 Mn
   0.1411784713876532    0.5000003570359173    0.6192685494837527 Mn
   0.6411784713876530    0.5000003570359173    0.6192685494837527 Mn
   0.1088216033647596    0.9999999449192273    0.3807284004371936 Mn
   0.6088216033647595    0.9999999449192273    0.3807284004371936 Mn
   0.1411827888804978    0.9999998155782180    0.8807256508482404 Mn
   0.6411827888804977    0.9999998155782180    0.8807256508482404 Mn
   0.2500035860363515    0.4999999166957764    0.0000011815201955 O
   0.7500035860363514    0.4999999166957764    0.0000011815201955 O
   0.2499965190263419    0.9999999836335994    0.5000006667948661 O
   0.7499965190263418    0.9999999836335994    0.5000006667948661 O
   0.0588424715337039    0.4999998648234478    0.8340926170483250 O
   0.5588424715337038    0.4999998648234478    0.8340926170483250 O
   0.3088407440234044    0.4999999010910804    0.6659129457832857 O
   0.8088407440234043    0.4999999010910804    0.6659129457832857 O
   0.4411576168838796    0.9999999945980182    0.3340922167328196 O
   0.9411576168838794    0.9999999945980182    0.3340922167328196 O
   0.1911584214249288    0.9999999484630077    0.1659119171016072 O
   0.6911584214249287    0.9999999484630077    0.1659119171016072 O
   0.1345898314922389    0.8282278898018113    0.3737768151174681 O
   0.6345898314922388    0.8282278898018114    0.3737768151174681 O
   0.1345899213186444    0.6717712346912648    0.1262204799351699 O
   0.6345899213186442    0.6717712346912648    0.1262204799351699 O
   0.3654106426455789    0.6717720897082731    0.8737769609496919 O
   0.8654106426455789    0.6717720897082731    0.8737769609496920 O
   0.3654101047160678    0.8282286203314034    0.6262202308474372 O
   0.8654101047160676    0.8282286203314037    0.6262202308474372 O
   0.1154091043846157    0.6717719147956058    0.6262225391138244 O
   0.6154091043846156    0.6717719147956057    0.6262225391138244 O
   0.1154113181437754    0.8282287000801910    0.8737794526971772 O
   0.6154113181437753    0.8282287000801910    0.8737794526971772 O
   0.3845889537577408    0.6717713879014588    0.3737789282436026 O
   0.8845889537577406    0.6717713879014587    0.3737789282436026 O
   0.3845907420760082    0.8282281345989604    0.1262225333867892 O
   0.8845907420760082    0.8282281345989606    0.1262225333867892 O
   0.9999993849484932    0.9999998297905491    0.0000025851358224 O
   0.4999993849484931    0.9999998297905491    0.0000025851358224 O
   0.9999993064527071    0.4999997255575189    0.5000041552828445 O
   0.4999993064527070    0.4999997255575189    0.5000041552828445 O
   0.3088434358913507    0.9999999297652361    0.8340903426357099 O
   0.8088434358913507    0.9999999297652361    0.8340903426357099 O
   0.0588419334215756    0.9999998973377932    0.6659122413963015 O
   0.5588419334215755    0.9999998973377932    0.6659122413963015 O
   0.1911553490323409    0.5000009821114478    0.3340924194230108 O
   0.6911553490323409    0.5000009821114478    0.3340924194230108 O
   0.4411582759682549    0.4999998957342166    0.1659123732380684 O
   0.9411582759682549    0.4999998957342166    0.1659123732380684 O
   0.3845883210683356    0.3282288498616118    0.3737787357213398 O
   0.8845883210683355    0.3282288498616118    0.3737787357213398 O
   0.3845906112208691    0.1717711568636097    0.1262205986919806 O
   0.8845906112208690    0.1717711568636097    0.1262205986919806 O
   0.1154113150069697    0.1717715021056351    0.8737795660201073 O
   0.6154113150069697    0.1717715021056351    0.8737795660201073 O
   0.1154093980826320    0.3282285166767100    0.6262204984518901 O
   0.6154093980826320    0.3282285166767100    0.6262204984518901 O
   0.3654101158785122    0.1717714149746541    0.6262201985352244 O
   0.8654101158785122    0.1717714149746541    0.6262201985352244 O
   0.3654105677667958    0.3282275106620038    0.8737770133914902 O
   0.8654105677667957    0.3282275106620038    0.8737770133914902 O
   0.1345897589447312    0.1717723569927811    0.3737767603017078 O
   0.6345897589447310    0.1717723569927811    0.3737767603017078 O
   0.1345902137742578    0.3282289174277565    0.1262214198109979 O
   0.6345902137742577    0.3282289174277565    0.1262214198109979 O
