Mg8 Ni16 O32                            
   1.00000000000000     
     7.9655427938594414    0.0002028763353828    0.0001224693277537
     0.0002028729238019    7.9655508196912352   -0.0000374601679397
     0.0001224692956986   -0.0000374606396202    7.9655491030927683
Mg   Ni   O 
 1   16    32
Direct
   0.7500000000000000    0.7500000000000000    0.7500000000000000 Mg
  0.3750039580129143  0.8749984818100718  0.6250022757991464
  0.8749990382795042  0.6249998502024142  0.3750000044056308
  0.1250008386285733  0.8749990316474342  0.8750038816640190
  0.6249995165084046  0.6250000540179964  0.1249991580222347
  0.3750009722905891  0.3750002781629027  0.1249995246940745
  0.8749969442521082  0.1249993279571114  0.8750012272720092
  0.1250012856119060  0.3749996325835230  0.3750021792060514
  0.6249990277339732  0.1249985840209994  0.6250026698875450
  0.8750011054431432  0.8750004456665890  0.1249994515331685
  0.3750005529105677  0.6249998412622387  0.8749986591565037
  0.6250007585762698  0.8749978541702502  0.3750015257182785
  0.1250017286295004  0.6249971096606256  0.6250010888084219
  0.8749997313685206  0.3750006548954774  0.6250010219601403
  0.3750004006508842  0.1250004458987761  0.3750012419780961
  0.6249986332858839  0.3749990292098050  0.8749998225003959
  0.1250000654046868  0.1249981665098271  0.1250006109697107
  0.1107458683438572  0.8892547874661525  0.1107484792848550
  0.6392516304470695  0.6392507835176827  0.3607433803853337
  0.8607513405695710  0.8607497586699744  0.3607486274178990
  0.8607451014436986  0.6392548275671891  0.1392517618695990
  0.3892474342437145  0.8892514862243766  0.3892489803574111
  0.3892504861367882  0.1107499149582377  0.6107482687054584
  0.1392509119329567  0.8607453386755226  0.6392518025938282
  0.6107502074495937  0.1107511080079488  0.3892500544430711
  0.1107447907323269  0.3892541864211017  0.6107480975551544
  0.6392502511971403  0.1392478396158175  0.8607519316159921
  0.8607499618659290  0.3607463547177645  0.8607487041173888
  0.8607473711782075  0.1392543900098775  0.6392548541160695
  0.3892449516854161  0.3892471867986719  0.8892471206884212
  0.3892533283701033  0.6107497504697796  0.1107497134996765
  0.1392503759568206  0.3607463354909144  0.1392518230004260
  0.6107535805546918  0.6107536719108287  0.8892485375256388
  0.6107535367993340  0.8892480204772503  0.6107524866547093
  0.1392499659121517  0.6392520421381038  0.8607459645686152
  0.3607511317741479  0.8607530780923323  0.8607535345853002
  0.3607475936465349  0.6392486740327792  0.6392478279808219
  0.8892516329207372  0.8892516755141013  0.8892506249918097
  0.8892551942598453  0.1107462603025311  0.1107468387100913
  0.6392501044348564  0.8607495591767812  0.1392480377096224
  0.1107442970153084  0.1107482680691573  0.8892542385701674
  0.6107499879707033  0.3892545883673483  0.1107483128470374
  0.1392536162670213  0.1392514518504501  0.3607456562516977
  0.3607504404929704  0.3607476988326008  0.3607477407273598
  0.3607455348787008  0.1392546749145568  0.1392543840473484
  0.8892514842713832  0.3892516665075773  0.3892515680039240
  0.8892557316353612  0.6107462246207093  0.6107462963932299
  0.6392498615076760  0.3607513345571415  0.6392463600803295
  0.1107477365179535  0.6107482743486619  0.3892536471262512
 
  0.00000000E+00  0.00000000E+00  0.00000000E+00
  0.00000000E+00  0.00000000E+00  0.00000000E+00
  0.00000000E+00  0.00000000E+00  0.00000000E+00
  0.00000000E+00  0.00000000E+00  0.00000000E+00
  0.00000000E+00  0.00000000E+00  0.00000000E+00
  0.00000000E+00  0.00000000E+00  0.00000000E+00
  0.00000000E+00  0.00000000E+00  0.00000000E+00
  0.00000000E+00  0.00000000E+00  0.00000000E+00
  0.00000000E+00  0.00000000E+00  0.00000000E+00
  0.00000000E+00  0.00000000E+00  0.00000000E+00
  0.00000000E+00  0.00000000E+00  0.00000000E+00
  0.00000000E+00  0.00000000E+00  0.00000000E+00
  0.00000000E+00  0.00000000E+00  0.00000000E+00
  0.00000000E+00  0.00000000E+00  0.00000000E+00
  0.00000000E+00  0.00000000E+00  0.00000000E+00
  0.00000000E+00  0.00000000E+00  0.00000000E+00
  0.00000000E+00  0.00000000E+00  0.00000000E+00
  0.00000000E+00  0.00000000E+00  0.00000000E+00
  0.00000000E+00  0.00000000E+00  0.00000000E+00
  0.00000000E+00  0.00000000E+00  0.00000000E+00
  0.00000000E+00  0.00000000E+00  0.00000000E+00
  0.00000000E+00  0.00000000E+00  0.00000000E+00
  0.00000000E+00  0.00000000E+00  0.00000000E+00
  0.00000000E+00  0.00000000E+00  0.00000000E+00
  0.00000000E+00  0.00000000E+00  0.00000000E+00
  0.00000000E+00  0.00000000E+00  0.00000000E+00
  0.00000000E+00  0.00000000E+00  0.00000000E+00
  0.00000000E+00  0.00000000E+00  0.00000000E+00
  0.00000000E+00  0.00000000E+00  0.00000000E+00
  0.00000000E+00  0.00000000E+00  0.00000000E+00
  0.00000000E+00  0.00000000E+00  0.00000000E+00
  0.00000000E+00  0.00000000E+00  0.00000000E+00
  0.00000000E+00  0.00000000E+00  0.00000000E+00
  0.00000000E+00  0.00000000E+00  0.00000000E+00
  0.00000000E+00  0.00000000E+00  0.00000000E+00
  0.00000000E+00  0.00000000E+00  0.00000000E+00
  0.00000000E+00  0.00000000E+00  0.00000000E+00
  0.00000000E+00  0.00000000E+00  0.00000000E+00
  0.00000000E+00  0.00000000E+00  0.00000000E+00
  0.00000000E+00  0.00000000E+00  0.00000000E+00
  0.00000000E+00  0.00000000E+00  0.00000000E+00
  0.00000000E+00  0.00000000E+00  0.00000000E+00
  0.00000000E+00  0.00000000E+00  0.00000000E+00
  0.00000000E+00  0.00000000E+00  0.00000000E+00
  0.00000000E+00  0.00000000E+00  0.00000000E+00
  0.00000000E+00  0.00000000E+00  0.00000000E+00
  0.00000000E+00  0.00000000E+00  0.00000000E+00
  0.00000000E+00  0.00000000E+00  0.00000000E+00
