Na2 Ca2 V4 P2 S4 O24                    
   1.00000000000000     
     8.9723687548257463    0.3805943909662844    0.1760557363192720
     4.2913996306441788    7.8887441993900298    0.1818557728486994
     4.1687864748373826    2.5942320885882215    7.4125184309432868
   Ca   Na   V    P    S    O 
     2     2     4     2     4    24
Direct
  0.5092166341291744  0.4963481673409333  0.4816507148968370
  0.0035532868420134  0.9908279043651120  0.0184709294338248
  0.4219895209534670  0.0779691824034785  0.7498512474352523
  0.5933828726544093  0.9065667082170279  0.2500266770142758
  0.3494446159423177  0.3552513359822740  0.3571292547619223
  0.6523741097877434  0.6544022606843569  0.6386295040284722
  0.1447258961027060  0.1506307189109251  0.1428234948537721
  0.8456901274001183  0.8475351407421172  0.8614634673696102
  0.7533615263355316  0.0400071914149152  0.4455147880790875
  0.4599581651290237  0.7466993598992104  0.0545421839596472
  0.0476577816027586  0.4525579523616940  0.7499778706349289
  0.9520432839154012  0.5478255950298418  0.2500771071037917
  0.2405203270077720  0.9606075989223584  0.5588650849258059
  0.5393493930549766  0.2594461799673979  0.9411240633121523
  0.2329315112566377  0.4289279752926305  0.5998844108292261
  0.7664475291124617  0.5700199047418693  0.4002393133180391
  0.5829535272027755  0.2262785211634366  0.4405094506003380
  0.4044321600202494  0.7813662676362867  0.5567296784969500
  0.4254325677373174  0.5850948531675471  0.2331983716371084
  0.5721820766223047  0.4100453929635677  0.7640657080913229
  0.9150895317398877  0.0743100741958003  0.2669638378809722
  0.0897761941350126  0.9281812144629171  0.7358773717558407
  0.0706238328124158  0.2673904365312083  0.9002812863755025
  0.9301180764148427  0.7334247799237872  0.0998567028057664
  0.2737724111074158  0.9172429368676447  0.0592793924684045
  0.7184606420921185  0.0953985458397710  0.9436373498003121
  0.4791384879221212  0.3107279624251191  0.1004092790609619
  0.5172367590903804  0.7148764941939305  0.8770688432432294
  0.0922735520641780  0.5104921236820559  0.3149425395694578
  0.9061547877001530  0.4886759156601457  0.6871190089982520
  0.2941941793717220  0.0978507058159082  0.5486888321937897
  0.7060251684454144  0.8972198238087401  0.4439706657476492
  0.4021603052283425  0.2059284195227633  0.9509777880808343
  0.6028209700382163  0.7939119842226603  0.0561208904804928
  0.1893704949638249  0.0204950774246768  0.3995826027312006
  0.7850241533665567  0.9828004768304623  0.6230651028015259
  0.9890266541179713  0.4077151609039404  0.1853201912091933
  0.0122100725802738  0.5939373404815171  0.8125816790142366
 
  0.00000000E+00  0.00000000E+00  0.00000000E+00
  0.00000000E+00  0.00000000E+00  0.00000000E+00
  0.00000000E+00  0.00000000E+00  0.00000000E+00
  0.00000000E+00  0.00000000E+00  0.00000000E+00
  0.00000000E+00  0.00000000E+00  0.00000000E+00
  0.00000000E+00  0.00000000E+00  0.00000000E+00
  0.00000000E+00  0.00000000E+00  0.00000000E+00
  0.00000000E+00  0.00000000E+00  0.00000000E+00
  0.00000000E+00  0.00000000E+00  0.00000000E+00
  0.00000000E+00  0.00000000E+00  0.00000000E+00
  0.00000000E+00  0.00000000E+00  0.00000000E+00
  0.00000000E+00  0.00000000E+00  0.00000000E+00
  0.00000000E+00  0.00000000E+00  0.00000000E+00
  0.00000000E+00  0.00000000E+00  0.00000000E+00
  0.00000000E+00  0.00000000E+00  0.00000000E+00
  0.00000000E+00  0.00000000E+00  0.00000000E+00
  0.00000000E+00  0.00000000E+00  0.00000000E+00
  0.00000000E+00  0.00000000E+00  0.00000000E+00
  0.00000000E+00  0.00000000E+00  0.00000000E+00
  0.00000000E+00  0.00000000E+00  0.00000000E+00
  0.00000000E+00  0.00000000E+00  0.00000000E+00
  0.00000000E+00  0.00000000E+00  0.00000000E+00
  0.00000000E+00  0.00000000E+00  0.00000000E+00
  0.00000000E+00  0.00000000E+00  0.00000000E+00
  0.00000000E+00  0.00000000E+00  0.00000000E+00
  0.00000000E+00  0.00000000E+00  0.00000000E+00
  0.00000000E+00  0.00000000E+00  0.00000000E+00
  0.00000000E+00  0.00000000E+00  0.00000000E+00
  0.00000000E+00  0.00000000E+00  0.00000000E+00
  0.00000000E+00  0.00000000E+00  0.00000000E+00
  0.00000000E+00  0.00000000E+00  0.00000000E+00
  0.00000000E+00  0.00000000E+00  0.00000000E+00
  0.00000000E+00  0.00000000E+00  0.00000000E+00
  0.00000000E+00  0.00000000E+00  0.00000000E+00
  0.00000000E+00  0.00000000E+00  0.00000000E+00
  0.00000000E+00  0.00000000E+00  0.00000000E+00
  0.00000000E+00  0.00000000E+00  0.00000000E+00
  0.00000000E+00  0.00000000E+00  0.00000000E+00
