Ca1 Mn4 S6 O24
1.0
7.804629 0.082453 5.014549
2.796285 6.995131 4.896433
0.568470 0.129271 9.103270
Ca Mn S O
1 4 6 24
direct
0.498649 0.494120 0.499553 Ca
0.648080 0.649283 0.646637 Mn
0.156631 0.145884 0.147562 Mn
0.837750 0.849309 0.847289 Mn
0.347521 0.345588 0.347304 Mn
0.952817 0.241523 0.537109 S
0.446601 0.055549 0.750030 S
0.547992 0.939421 0.244985 S
0.748255 0.463831 0.041966 S
0.246324 0.531490 0.952568 S
0.042361 0.753143 0.457682 S
0.382659 0.608139 0.747726 O
0.944843 0.339759 0.015090 O
0.754384 0.371855 0.610876 O
0.021627 0.958484 0.325124 O
0.631313 0.740695 0.371750 O
0.307253 0.020290 0.959231 O
0.687578 0.974359 0.035709 O
0.240839 0.622729 0.384883 O
0.049838 0.656061 0.979501 O
0.362193 0.253522 0.623266 O
0.973451 0.036230 0.669462 O
0.612310 0.386949 0.247065 O
0.985979 0.271467 0.340146 O
0.480394 0.905746 0.701267 O
0.369999 0.945008 0.274385 O
0.698131 0.488227 0.902358 O
0.284933 0.334966 0.966324 O
0.906082 0.704811 0.473238 O
0.089645 0.289540 0.520878 O
0.623604 0.053111 0.719835 O
0.516494 0.087863 0.294102 O
0.709048 0.660927 0.027374 O
0.296605 0.506036 0.092620 O
0.007666 0.723933 0.654955 O
