Ca8 Ni12 F42                            
   1.00000000000000     
     7.2825579999999999   -0.0216830000000000    0.0206770000000000
    -3.6843439999999998    6.3703729999999998   -0.0025910000000000
     0.0594560000000000    0.0238280000000000   18.2522899999999986
   Ca   Ni   F 
     8    12    42
Direct
  0.8296388457506049  0.9684555024522150  0.8290034600756871
  0.4800315135807858  0.8609928850453565  0.6516345385064605
  0.1673458245144707  0.6465916614697202  0.9770106128298517
  0.3484046467443327  0.5108764498761711  0.3264317076446869
  0.8386083151663071  0.0208111846595655  0.3441098366272756
  0.1768149675376698  0.1596084623831457  0.0077851333315081
  0.9831619156064920  0.7889491366310413  0.1720926023729950
  0.1969571915529212  0.1598652749110097  0.5129374143245291
  0.3341488263125478  0.0083662185644189  0.3317086982524829
  0.9900093736236312  0.3501217241309875  0.6671692483429275
  0.6716127530419627  0.6538106784606987 -0.0016593702993955
  0.3386241985950542  0.0015078870125171  0.8320814404782585
  0.9980690219581819  0.3138031207978694  0.1598654659087281
  0.6742171362111076  0.6765083960342774  0.4924990939745000
  0.4988311929867534  0.8183807466025791  0.1601475129425123
  0.1692341980120342  0.6650127940833759  0.4924573687243510
  0.3310978035877434  0.4943292734010105  0.8280216821543689
  0.8293146154439367  0.4907715330560704  0.8288719731335272
  0.6837353151769709  0.1849309211335645  0.4940798628949616
  0.4951446174149586  0.3114792088957050  0.1625041538510618
  0.7389014055216733  0.2044985915155947  0.5998605818509823
  0.8119684572689266  0.5326131951873768  0.9388542315499214
  0.4392291938000121  0.2654925420723056  0.2706895976581241
  0.2345492901193473  0.7374256720296706  0.3844362819134875
  0.4896472287044721  0.7497510200262343  0.0525609618931286
  0.2641322972874807  0.5219875760300724  0.7260986947418736
  0.8423433291085222  0.9408782966803333  0.9505557268769704
  0.0457844432263686  0.8912228939183975  0.2854127105097058
  0.1256813316611376  0.2205107603018670  0.6189491764373807
  0.9795598588927187  0.7897760482050649  0.0503974709089177
  0.8041056332262881  0.0668795076730982  0.7192610400097115
  0.2009115528365559  0.1719610046035941  0.3881290167205034
  0.5253379928756058  0.3820897469364708  0.0551184599561439
  0.6059012357648541  0.1319392437385117  0.3863126058502727
  0.8663628235962773  0.4786914429755075  0.7247647145934265
  0.3826258608228302  0.4885760316774175  0.9416653076584306
  0.1455458970415409  0.6077745785383948  0.6001738289541900
  0.5013777783709757  0.8717852419953916  0.2740002900771865
  0.7991448588748055  0.4204214420019484  0.1722475001175056
  0.5660247772352109  0.3701730292156153  0.5023133767473114
  0.6414422196359566  0.1937546383291184  0.8399090968547683
  0.4430541887822500  0.7975434924378872  0.8489822459367736
  0.3596228023806886  0.5483421614179378  0.4785686360492957
  0.1929756018226549  0.6220362409219802  0.1734049347815713
  0.0284534298742011  0.3020078063882791  0.2710806735834946
  0.6437662824025349  0.7200116361918736  0.5933320619178195
  0.3069250638235042  0.9886333944096021  0.9439379664553874
  0.3438666601818909  0.9895898537801877  0.7282915529854201
  0.6672821623518529  0.6776059881901627  0.3793278547124995
  0.0294887622090735  0.3557600921333391  0.0486991006084312
  0.1896137795239136  0.1979620956660757  0.1411483899289497
  0.8001377087138526  0.9922707346241594  0.4746071339367054
  0.0324700573427002  0.7939005967643021  0.8326650443584448
  0.2091986486670427  0.1883095535920206  0.8317114442186417
  0.9851605634374396  0.7880522129354901  0.4958875542523026
  0.8062301617140069  0.0027079884117892  0.1582420192130779
  0.0467432105090815  0.4215833925935994  0.8683789914274666
  0.5838012122867157  0.6105099897453273  0.1947664076246398
  0.3864419723012261  0.9620830257142817  0.5288956073656470
  0.3907414490390818  0.0102565296818611  0.1384429972655861
  0.6331460857461714  0.5995530088369275  0.8056406864097503
  0.9664503491076045  0.3836030343198197  0.4567699949509763
 
             NaN             NaN             NaN
             NaN             NaN             NaN
             NaN             NaN             NaN
             NaN             NaN             NaN
             NaN             NaN             NaN
             NaN             NaN             NaN
             NaN             NaN             NaN
             NaN             NaN             NaN
             NaN             NaN             NaN
             NaN             NaN             NaN
             NaN             NaN             NaN
             NaN             NaN             NaN
             NaN             NaN             NaN
             NaN             NaN             NaN
             NaN             NaN             NaN
             NaN             NaN             NaN
             NaN             NaN             NaN
             NaN             NaN             NaN
             NaN             NaN             NaN
             NaN             NaN             NaN
             NaN             NaN             NaN
             NaN             NaN             NaN
             NaN             NaN             NaN
             NaN             NaN             NaN
             NaN             NaN             NaN
             NaN             NaN             NaN
             NaN             NaN             NaN
             NaN             NaN             NaN
             NaN             NaN             NaN
             NaN             NaN             NaN
             NaN             NaN             NaN
             NaN             NaN             NaN
             NaN             NaN             NaN
             NaN             NaN             NaN
             NaN             NaN             NaN
             NaN             NaN             NaN
             NaN             NaN             NaN
             NaN             NaN             NaN
             NaN             NaN             NaN
             NaN             NaN             NaN
             NaN             NaN             NaN
             NaN             NaN             NaN
             NaN             NaN             NaN
             NaN             NaN             NaN
             NaN             NaN             NaN
             NaN             NaN             NaN
             NaN             NaN             NaN
             NaN             NaN             NaN
             NaN             NaN             NaN
             NaN             NaN             NaN
             NaN             NaN             NaN
             NaN             NaN             NaN
             NaN             NaN             NaN
             NaN             NaN             NaN
             NaN             NaN             NaN
             NaN             NaN             NaN
             NaN             NaN             NaN
             NaN             NaN             NaN
             NaN             NaN             NaN
             NaN             NaN             NaN
             NaN             NaN             NaN
             NaN             NaN             NaN
