Ca8 Ni12 F42
1.0
7.282558 -0.021683 0.020677
-3.684344 6.370373 -0.002591
0.059456 0.023828 18.252290
Ca Ni F
8 12 42
direct
0.836960 0.965849 0.817193 Ca
0.484837 0.855444 0.653353 Ca
0.159567 0.650432 0.978449 Ca
0.347789 0.508110 0.329714 Ca
0.841056 0.016780 0.345134 Ca
0.168941 0.163312 0.009382 Ca
0.980722 0.787521 0.173818 Ca
0.200373 0.155702 0.514933 Ca
0.337296 0.007768 0.332844 Ni
0.990026 0.346131 0.668369 Ni
0.665815 0.659421 0.000276 Ni
0.329963 0.008723 0.830933 Ni
0.997198 0.314983 0.162419 Ni
0.678501 0.672168 0.492821 Ni
0.497265 0.819142 0.162682 Ni
0.172657 0.661821 0.493603 Ni
0.326042 0.502407 0.829446 Ni
0.822889 0.500651 0.827501 Ni
0.687284 0.180639 0.494677 Ni
0.493990 0.312157 0.163606 Ni
0.741973 0.194493 0.600130 F
0.812095 0.551690 0.937613 F
0.439395 0.265260 0.271953 F
0.236339 0.736412 0.385911 F
0.482217 0.749893 0.055625 F
0.261743 0.526019 0.726860 F
0.832144 0.948852 0.955531 F
0.048897 0.891194 0.286724 F
0.129932 0.215377 0.621262 F
0.975334 0.792802 0.052493 F
0.807255 0.063958 0.721053 F
0.203473 0.168287 0.390059 F
0.524416 0.384430 0.055747 F
0.610076 0.130738 0.387070 F
0.856973 0.473727 0.723351 F
0.375965 0.494741 0.943336 F
0.146744 0.605423 0.601263 F
0.502685 0.870068 0.275972 F
0.797329 0.419782 0.175059 F
0.569331 0.365956 0.503471 F
0.633037 0.203467 0.843117 F
0.429629 0.803149 0.850396 F
0.365149 0.547649 0.479923 F
0.191636 0.622513 0.177056 F
0.030013 0.300127 0.273174 F
0.649229 0.714372 0.594480 F
0.287361 0.988437 0.942607 F
0.354123 -0.000441 0.726584 F
0.670526 0.673097 0.379704 F
0.024587 0.360717 0.051355 F
0.189167 0.201155 0.142005 F
0.803093 0.987344 0.475243 F
0.023611 0.805249 0.824607 F
0.207027 0.198772 0.830868 F
0.988853 0.784584 0.497344 F
0.805202 0.003836 0.160731 F
0.041510 0.433216 0.868516 F
0.585396 0.611813 0.195383 F
0.389742 0.958452 0.530002 F
0.387280 0.009810 0.141126 F
0.625149 0.607637 0.804924 F
0.972274 0.378966 0.458013 F
