Na32 Mn16 Si16 O64
1.0
14.057140 0.000000 0.000000
0.000000 11.219140 0.000000
0.038187 0.000000 10.667752
Na Mn Si Na O
1   16 16 30 64
direct
0.251215 0.094000 0.484950 Na
0.000900 0.091425 0.493750 Mn
0.000900 0.091425 0.993750 Mn
0.000900 0.591425 0.493750 Mn
0.000900 0.591425 0.993750 Mn
0.500900 0.091425 0.493750 Mn
0.500900 0.091425 0.993750 Mn
0.500900 0.591425 0.493750 Mn
0.500900 0.591425 0.993750 Mn
0.250900 0.408575 0.243750 Mn
0.250900 0.408575 0.743750 Mn
0.250900 0.908575 0.243750 Mn
0.250900 0.908575 0.743750 Mn
0.750900 0.408575 0.243750 Mn
0.750900 0.408575 0.743750 Mn
0.750900 0.908575 0.243750 Mn
0.750900 0.908575 0.743750 Mn
0.124635 0.344225 0.491800 Si
0.124635 0.344225 0.991800 Si
0.124635 0.844225 0.491800 Si
0.124635 0.844225 0.991800 Si
0.624635 0.344225 0.491800 Si
0.624635 0.344225 0.991800 Si
0.624635 0.844225 0.491800 Si
0.624635 0.844225 0.991800 Si
0.374635 0.155775 0.241800 Si
0.374635 0.155775 0.741800 Si
0.374635 0.655775 0.241800 Si
0.374635 0.655775 0.741800 Si
0.874635 0.155775 0.241800 Si
0.874635 0.155775 0.741800 Si
0.874635 0.655775 0.241800 Si
0.874635 0.655775 0.741800 Si
0.379845 0.333600 0.983000 Na
0.379845 0.833600 0.483000 Na
0.379845 0.833600 0.983000 Na
0.879845 0.333600 0.483000 Na
0.879845 0.333600 0.983000 Na
0.879845 0.833600 0.483000 Na
0.879845 0.833600 0.983000 Na
0.129845 0.166400 0.233000 Na
0.129845 0.166400 0.733000 Na
0.129845 0.666400 0.233000 Na
0.129845 0.666400 0.733000 Na
0.629845 0.166400 0.233000 Na
0.629845 0.166400 0.733000 Na
0.629845 0.666400 0.233000 Na
0.629845 0.666400 0.733000 Na
0.251215 0.094000 0.984950 Na
0.251215 0.594000 0.484950 Na
0.251215 0.594000 0.984950 Na
0.751215 0.094000 0.484950 Na
0.751215 0.094000 0.984950 Na
0.751215 0.594000 0.484950 Na
0.751215 0.594000 0.984950 Na
0.001215 0.406000 0.234950 Na
0.001215 0.406000 0.734950 Na
0.001215 0.906000 0.234950 Na
0.001215 0.906000 0.734950 Na
0.501215 0.406000 0.234950 Na
0.501215 0.406000 0.734950 Na
0.501215 0.906000 0.234950 Na
0.501215 0.906000 0.734950 Na
0.277975 0.086850 0.204000 O
0.277975 0.086850 0.704000 O
0.277975 0.586850 0.204000 O
0.277975 0.586850 0.704000 O
0.777975 0.086850 0.204000 O
0.777975 0.086850 0.704000 O
0.777975 0.586850 0.204000 O
0.777975 0.586850 0.704000 O
0.027975 0.413150 0.454000 O
0.027975 0.413150 0.954000 O
0.027975 0.913150 0.454000 O
0.027975 0.913150 0.954000 O
0.527975 0.413150 0.454000 O
0.527975 0.413150 0.954000 O
0.527975 0.913150 0.454000 O
0.527975 0.913150 0.954000 O
0.135170 0.351800 0.151755 O
0.135170 0.351800 0.651755 O
0.135170 0.851800 0.151755 O
0.135170 0.851800 0.651755 O
0.635170 0.351800 0.151755 O
0.635170 0.351800 0.651755 O
0.635170 0.851800 0.151755 O
0.635170 0.851800 0.651755 O
0.385170 0.148200 0.401755 O
0.385170 0.148200 0.901755 O
0.385170 0.648200 0.401755 O
0.385170 0.648200 0.901755 O
0.885170 0.148200 0.401755 O
0.885170 0.148200 0.901755 O
0.885170 0.648200 0.401755 O
0.885170 0.648200 0.901755 O
0.361200 0.288500 0.209000 O
0.361200 0.288500 0.709000 O
0.361200 0.788500 0.209000 O
0.361200 0.788500 0.709000 O
0.861200 0.288500 0.209000 O
0.861200 0.288500 0.709000 O
0.861200 0.788500 0.209000 O
0.861200 0.788500 0.709000 O
0.111200 0.211500 0.459000 O
0.111200 0.211500 0.959000 O
0.111200 0.711500 0.459000 O
0.111200 0.711500 0.959000 O
0.611200 0.211500 0.459000 O
0.611200 0.211500 0.959000 O
0.611200 0.711500 0.459000 O
0.611200 0.711500 0.959000 O
0.465715 0.099900 0.183250 O
0.465715 0.099900 0.683250 O
0.465715 0.599900 0.183250 O
0.465715 0.599900 0.683250 O
0.965715 0.099900 0.183250 O
0.965715 0.099900 0.683250 O
0.965715 0.599900 0.183250 O
0.965715 0.599900 0.683250 O
0.215715 0.400100 0.433250 O
0.215715 0.400100 0.933250 O
0.215715 0.900100 0.433250 O
0.215715 0.900100 0.933250 O
0.715715 0.400100 0.433250 O
0.715715 0.400100 0.933250 O
0.715715 0.900100 0.433250 O
0.715715 0.900100 0.933250 O
