Ca9 Ti12 F42                            
   1.00000000000000     
     7.3746190000000000    0.0012500000000000   -0.0733550000000000
    -3.6451970000000000    6.3478300000000001    0.0272740000000000
     0.2832770000000000    0.0029090000000000   18.7080839999999995
   Ca   Ti   F 
     9    12    42
Direct
  0.0954754911006066  0.5588908349272319  0.3155864839379286
  0.5272293056761357  0.3521561035625113  0.6674402805433736
  0.1521705129383862  0.1677615144319272  0.0123323704170640
  0.0264469893701256  0.8415943324686068  0.6703428811943725
  0.8250929847052181  0.9413262436586294  0.3415113144674428
  0.6241269919965836  0.1304114047662667  0.0043508369350701
  0.0213830728947672  0.8040786545358235  0.1604420544501061
  0.8219413938417837  0.0003271815209526  0.8242248291713242
  0.2018988874766728  0.2157742823339146  0.4892151264709320
  0.3847979671836894  1.0460134752752466  0.3160633937972831
  0.0315499790275274  0.3528368842639644  0.6517099084205715
  0.6551655892110072  0.6549997338923687  0.9904247895060355
  0.4073822294745055  0.1055989159084690  0.8287948958549346
  0.8609324385132330  0.2184810968054456  0.1706743280996429
  0.7567824799421146  0.6381655790689432  0.5000770530010519
  0.5073793355672637  0.8511901260213592  0.1713223809280395
  0.1925297019623499  0.6749741275140364  0.5018061509545657
  0.3490951003235682  0.4916858267412142  0.8305872778893033
  0.7655400439282275  0.4639251472870498  0.8332423287816161
  0.7383215011412336  0.2258029932542642  0.4928877166523343
  0.4827027069634117  0.2685072206658956  0.1689660439844034
  0.7430558824239963  0.2038436913713566  0.6036808197072971
  0.7958712358119597  0.4932577354441736  0.9470432937966281
  0.4698334497556103  0.3233539661123735  0.2743100136575498
  0.2556390190361877  0.8057073177081673  0.3967280669670212
  0.5486673440486316  0.8088263123478612  0.0584706613569135
  0.2935551487128273  0.4576348193293589  0.7190427987284820
  0.8362070158480602  0.9921034649849884  0.9531989149468669
  0.0617760462669381  0.8409847241169948  0.2825347457826679
  0.1960868356666974  0.1977896289867714  0.6110849582998269
  0.9278493290405680  0.8080102012693358  0.0496683902283676
  0.9051005177944000  0.0721342477155912  0.7081454891608838
  0.1928949466654688  0.1336685212922610  0.3754996746441922
  0.5146248331338840  0.3568618639983547  0.0531970615265777
  0.6493894625734208  0.1604571689098014  0.3823604246073988
  0.8609671337565741  0.4744764556384178  0.7074936980562576
  0.3331216114909509  0.4778690729876001  0.9481342587090849
  0.1869983906686927  0.6623247001618348  0.6143841852357814
  0.4858881404718723  0.8173734837577441  0.2889169101186969
  0.8035637281510639  0.4568602368414774  0.1930630245826370
  0.5422510459795025  0.3375653487059134  0.5269437679241455
  0.6712947455886303  0.1646866423357081  0.8818087296326917
  0.4435289219011743  0.8209334705418249  0.8164386423541045
  0.4193082262430937  0.5799130276876464  0.4850248905655182
  0.1928071843474186  0.6313129733255535  0.1916393910769235
 -0.0520938857057850  0.2414116899911626  0.2755550513588703
  0.7188281872312153  0.6690624293800018  0.6092146344877161
  0.3254287595625858  0.0470011743365674  0.9412108534828446
  0.3383620436540058  0.0413522326043184  0.7242889293009218
  0.7699728315484186  0.6448313253678613  0.3935547849169359
  0.9316116330035956  0.2828261887211854  0.0670011304084576
  0.1630080570480694  0.1751779169483537  0.1423690640716646
  0.8359065570462382  0.9984978668837498  0.4671640667483885
 -0.0564421274043536  0.7740032975817095  0.7898422084330942
  0.1752394469709573  0.1702840034327449  0.8402446810809127
  0.0552491889292902  0.8578286870092312  0.5284634341569415
  0.8058350594176562  0.9223508543193366  0.2003566888277497
  0.0247965839358154  0.4153208472805815  0.8264376507568850
  0.5164974810471222  0.5666621727476909  0.1690013940520627
  0.4515907677424847  0.9625738064497443  0.5156863680118288
  0.3483202235716524 -0.0226507741927260  0.1069324875276661
  0.6493875522504623  0.6629007148093420  0.8736142619618735
  0.0389005973542744  0.4006683631023923  0.4332353903348173
 
             NaN             NaN             NaN
             NaN             NaN             NaN
             NaN             NaN             NaN
             NaN             NaN             NaN
             NaN             NaN             NaN
             NaN             NaN             NaN
             NaN             NaN             NaN
             NaN             NaN             NaN
             NaN             NaN             NaN
             NaN             NaN             NaN
             NaN             NaN             NaN
             NaN             NaN             NaN
             NaN             NaN             NaN
             NaN             NaN             NaN
             NaN             NaN             NaN
             NaN             NaN             NaN
             NaN             NaN             NaN
             NaN             NaN             NaN
             NaN             NaN             NaN
             NaN             NaN             NaN
             NaN             NaN             NaN
             NaN             NaN             NaN
             NaN             NaN             NaN
             NaN             NaN             NaN
             NaN             NaN             NaN
             NaN             NaN             NaN
             NaN             NaN             NaN
             NaN             NaN             NaN
             NaN             NaN             NaN
             NaN             NaN             NaN
             NaN             NaN             NaN
             NaN             NaN             NaN
             NaN             NaN             NaN
             NaN             NaN             NaN
             NaN             NaN             NaN
             NaN             NaN             NaN
             NaN             NaN             NaN
             NaN             NaN             NaN
             NaN             NaN             NaN
             NaN             NaN             NaN
             NaN             NaN             NaN
             NaN             NaN             NaN
             NaN             NaN             NaN
             NaN             NaN             NaN
             NaN             NaN             NaN
             NaN             NaN             NaN
             NaN             NaN             NaN
             NaN             NaN             NaN
             NaN             NaN             NaN
             NaN             NaN             NaN
             NaN             NaN             NaN
             NaN             NaN             NaN
             NaN             NaN             NaN
             NaN             NaN             NaN
             NaN             NaN             NaN
             NaN             NaN             NaN
             NaN             NaN             NaN
             NaN             NaN             NaN
             NaN             NaN             NaN
             NaN             NaN             NaN
             NaN             NaN             NaN
             NaN             NaN             NaN
             NaN             NaN             NaN
