Ca9 Ti12 F42
1.0
7.374619 0.001250 -0.073355
-3.645197 6.347830 0.027274
0.283277 0.002909 18.708084
Ca Ti F
9 12 42
direct
1.045792 0.497592 0.337420 Ca
0.518896 0.347758 0.668174 Ca
0.166847 0.173182 0.003666 Ca
0.025002 0.835221 0.665987 Ca
0.837366 0.990261 0.330110 Ca
0.648454 0.151939 0.001467 Ca
0.031373 0.819208 0.159014 Ca
0.825988 0.003426 0.827391 Ca
0.189627 0.184826 0.493114 Ca
0.345001 0.996079 0.317175 Ti
0.017570 0.336783 0.656452 Ti
0.670110 0.667809 0.994023 Ti
0.356869 0.050303 0.830129 Ti
0.983970 0.308895 0.167914 Ti
0.713612 0.648061 0.496790 Ti
0.500501 0.826137 0.168575 Ti
0.150374 0.652880 0.493191 Ti
0.353177 0.487501 0.831715 Ti
0.796176 0.487238 0.831836 Ti
0.706722 0.208829 0.495047 Ti
0.498888 0.302841 0.170711 Ti
0.719831 0.205333 0.608594 F
0.802067 0.494907 0.945729 F
0.494668 0.298613 0.280260 F
0.199603 0.724311 0.383336 F
0.561434 0.830355 0.059306 F
0.286644 0.449107 0.720495 F
0.827928 -0.005053 0.950745 F
0.035664 0.848093 0.278064 F
0.183458 0.178408 0.615228 F
0.959763 0.830387 0.044799 F
0.895288 0.050825 0.712208 F
0.183557 0.126178 0.377078 F
0.523762 0.359020 0.053491 F
0.639094 0.135513 0.381117 F
0.856563 0.484639 0.715136 F
0.358780 0.497176 0.948180 F
0.153388 0.638842 0.608678 F
0.498087 0.832158 0.281048 F
0.817343 0.460747 0.188434 F
0.527164 0.340097 0.531431 F
0.660930 0.174083 0.866989 F
0.438504 0.806860 0.816556 F
0.388039 0.563551 0.478687 F
0.192099 0.625662 0.145517 F
1.006671 0.314323 0.278624 F
0.702397 0.667733 0.611021 F
0.333925 0.019925 0.943684 F
0.342427 0.027511 0.718617 F
0.702410 0.672007 0.384895 F
0.958895 0.288009 0.058786 F
0.185475 0.187072 0.138950 F
0.806078 0.982038 0.475056 F
0.018702 0.810595 0.803418 F
0.170602 0.173958 0.863287 F
0.022966 0.836318 0.528525 F
0.817931 0.984723 0.194878 F
0.036054 0.415426 0.827846 F
0.584333 0.605485 0.160145 F
0.400701 0.961298 0.499403 F
0.392179 0.011791 0.128596 F
0.663028 0.664999 0.868374 F
0.011282 0.344550 0.498727 F
