Na2 Ca2 V4 Si4 P2 O24                   
   1.00000000000000     
     8.8432239999999993    0.1036590000000000    0.0852140000000000
     4.2528639999999998    7.6514829999999998    0.0621490000000000
     4.4197689999999996    2.5165459999999999    7.2373219999999998
   Ca   Na   V    Si   P    O 
     2     2     4     4     2    24
Direct
  0.5604966575407766  0.5045942225461783  0.4294197097813008
  0.0019236331127786  0.9960324617161156  0.0009182121716942
  0.1249618780651943  0.7481548739254203  0.4001162821808070
  0.8965279606296737  0.2480823161020698  0.6054984861665323
  0.3673205190059342  0.3495905772841904  0.3491082030796095
  0.6416219849058087  0.6423328802095148  0.6517892354549903
  0.1500758684655517  0.1478601255337011  0.1313149776287286
  0.8512761438431754  0.8520619475447742  0.8495238662448413
  0.0329203623962527  0.4556655856127147  0.7512629224803063
  0.7473534391237295  0.0380795492358899  0.4646915982555931
  0.4594788154111963  0.7519058647027339  0.0313342073087887
  0.5432685668690158  0.2517061335671955  0.9526245053813835
  0.9750926898430748  0.5426303921947988  0.2382062325625069
  0.2603144818817045  0.9524650633097386  0.5292356390223264
  0.2233520051839302  0.4292821694168005  0.5694282897003040
  0.7893225252001194  0.5690783095277475  0.4073105620461521
  0.5796345188621280  0.2331268874165653  0.4281727948594226
  0.4261023499173621  0.7685978879174004  0.5468374292834908
  0.4283929904302269  0.5850312666826444  0.2313007121328883
  0.5703363465885734  0.4165562966122767  0.7484402773255281
  0.9331709484583102  0.0432970440906407  0.2759829661138711
  0.0899202913434754  0.9429271637127616  0.7169901543619354
  0.0502997223282940  0.2722457770130086  0.9342294179717109
  0.9549454565778027  0.7190754540660887  0.0667331282357628
  0.2679648048553642  0.9274828655212703  0.0507661566100778
  0.7390566121933498  0.0762671548552468  0.9360849569498724
  0.4950657170454584  0.3066172364699941  0.1295002716555257
  0.4924387453696988  0.6965043194622649  0.8629319737376108
  0.1337191499443575  0.5177756160987156  0.2826361909249604
  0.8550882771126030  0.4826073565323374  0.7142136842614818
  0.3018612728766358  0.1230415649369848  0.4889758779498298
  0.7076463437288345  0.8507286099211120  0.5154226605496129
  0.3605118584681334  0.2013067521181839  0.0075711172403765
  0.6417835397276292  0.7874403008076950  0.9981457172391064
  0.2064502724160279  0.9804963891070999  0.3737832738456278
  0.7878976730376437  0.0175255444260264  0.6372710523838728
 -0.0071697586871742  0.3662429748959470  0.2209654771288213
  0.9975140701458610  0.6520305953995381  0.7663260587095698
 
             NaN             NaN             NaN
             NaN             NaN             NaN
             NaN             NaN             NaN
             NaN             NaN             NaN
             NaN             NaN             NaN
             NaN             NaN             NaN
             NaN             NaN             NaN
             NaN             NaN             NaN
             NaN             NaN             NaN
             NaN             NaN             NaN
             NaN             NaN             NaN
             NaN             NaN             NaN
             NaN             NaN             NaN
             NaN             NaN             NaN
             NaN             NaN             NaN
             NaN             NaN             NaN
             NaN             NaN             NaN
             NaN             NaN             NaN
             NaN             NaN             NaN
             NaN             NaN             NaN
             NaN             NaN             NaN
             NaN             NaN             NaN
             NaN             NaN             NaN
             NaN             NaN             NaN
             NaN             NaN             NaN
             NaN             NaN             NaN
             NaN             NaN             NaN
             NaN             NaN             NaN
             NaN             NaN             NaN
             NaN             NaN             NaN
             NaN             NaN             NaN
             NaN             NaN             NaN
             NaN             NaN             NaN
             NaN             NaN             NaN
             NaN             NaN             NaN
             NaN             NaN             NaN
             NaN             NaN             NaN
             NaN             NaN             NaN
