Na2 Ca2 V4 Si4 P2 O24
1.0
8.843224 0.103659 0.085214
4.252864 7.651483 0.062149
4.419769 2.516546 7.237322
Ca Na V Si P O
2 2 4 4 2 24
direct
0.528340 0.489614 0.451297 Ca
0.002500 0.995445 0.002085 Ca
0.148630 0.721763 0.409015 Na
0.893358 0.250215 0.601550 Na
0.363295 0.355670 0.349352 V
0.643549 0.643987 0.653829 V
0.150775 0.145828 0.134987 V
0.846535 0.857364 0.852176 V
0.031943 0.459072 0.753100 Si
0.744246 0.042818 0.466316 Si
0.458455 0.751492 0.038777 Si
0.542110 0.250888 0.957968 Si
0.966128 0.543688 0.244317 P
0.254589 0.957717 0.532133 P
0.222296 0.443844 0.571212 O
0.779568 0.558593 0.413858 O
0.567840 0.231513 0.440410 O
0.423770 0.779252 0.553946 O
0.437885 0.581355 0.235828 O
0.562338 0.420097 0.758081 O
0.924242 0.058417 0.272548 O
0.086467 0.943710 0.721231 O
0.057353 0.271500 0.931278 O
0.943263 0.722313 0.074742 O
0.262559 0.921473 0.060696 O
0.740873 0.081053 0.935742 O
0.494914 0.309566 0.131173 O
0.499599 0.695671 0.866531 O
0.123251 0.525343 0.288513 O
0.857208 0.480952 0.715943 O
0.284749 0.136977 0.487234 O
0.717035 0.848835 0.514033 O
0.365917 0.192685 0.010438 O
0.634095 0.804267 0.993931 O
0.204236 0.975068 0.379064 O
0.789118 0.021006 0.636766 O
0.005955 0.364784 0.216534 O
0.988283 0.652356 0.778857 O
