K32 Ni16 F64
1.0
8.024000 0.000000 0.000000
0.000000 8.024000 0.000000
0.000000 0.000000 26.152000
K Ni F
31 16 64
direct
0.750000 0.250000 0.426950 K
0.000000 0.000000 0.176950 K
0.000000 0.000000 0.676950 K
0.000000 0.500000 0.176950 K
0.000000 0.500000 0.676950 K
0.500000 0.000000 0.176950 K
0.500000 0.000000 0.676950 K
0.500000 0.500000 0.176950 K
0.500000 0.500000 0.676950 K
0.000000 0.000000 0.823050 K
0.000000 0.500000 0.323050 K
0.000000 0.500000 0.823050 K
0.500000 0.000000 0.323050 K
0.500000 0.000000 0.823050 K
0.500000 0.500000 0.323050 K
0.500000 0.500000 0.823050 K
0.250000 0.250000 0.426950 K
0.250000 0.250000 0.926950 K
0.250000 0.750000 0.426950 K
0.250000 0.750000 0.926950 K
0.750000 0.250000 0.926950 K
0.750000 0.750000 0.426950 K
0.750000 0.750000 0.926950 K
0.250000 0.250000 0.073050 K
0.250000 0.250000 0.573050 K
0.250000 0.750000 0.073050 K
0.250000 0.750000 0.573050 K
0.750000 0.250000 0.073050 K
0.750000 0.250000 0.573050 K
0.750000 0.750000 0.073050 K
0.750000 0.750000 0.573050 K
0.000000 0.000000 0.000000 Ni
0.000000 0.000000 0.500000 Ni
0.000000 0.500000 0.000000 Ni
0.000000 0.500000 0.500000 Ni
0.500000 0.000000 0.000000 Ni
0.500000 0.000000 0.500000 Ni
0.500000 0.500000 0.000000 Ni
0.500000 0.500000 0.500000 Ni
0.250000 0.250000 0.250000 Ni
0.250000 0.250000 0.750000 Ni
0.250000 0.750000 0.250000 Ni
0.250000 0.750000 0.750000 Ni
0.750000 0.250000 0.250000 Ni
0.750000 0.250000 0.750000 Ni
0.750000 0.750000 0.250000 Ni
0.750000 0.750000 0.750000 Ni
0.000000 0.000000 0.076500 F
0.000000 0.000000 0.576500 F
0.000000 0.500000 0.076500 F
0.000000 0.500000 0.576500 F
0.500000 0.000000 0.076500 F
0.500000 0.000000 0.576500 F
0.500000 0.500000 0.076500 F
0.500000 0.500000 0.576500 F
0.000000 0.000000 0.423500 F
0.000000 0.000000 0.923500 F
0.000000 0.500000 0.423500 F
0.000000 0.500000 0.923500 F
0.500000 0.000000 0.423500 F
0.500000 0.000000 0.923500 F
0.500000 0.500000 0.423500 F
0.500000 0.500000 0.923500 F
0.250000 0.250000 0.326500 F
0.250000 0.250000 0.826500 F
0.250000 0.750000 0.326500 F
0.250000 0.750000 0.826500 F
0.750000 0.250000 0.326500 F
0.750000 0.250000 0.826500 F
0.750000 0.750000 0.326500 F
0.750000 0.750000 0.826500 F
0.250000 0.250000 0.173500 F
0.250000 0.250000 0.673500 F
0.250000 0.750000 0.173500 F
0.250000 0.750000 0.673500 F
0.750000 0.250000 0.173500 F
0.750000 0.250000 0.673500 F
0.750000 0.750000 0.173500 F
0.750000 0.750000 0.673500 F
0.250000 0.000000 0.000000 F
0.250000 0.000000 0.500000 F
0.250000 0.500000 0.000000 F
0.250000 0.500000 0.500000 F
0.750000 0.000000 0.000000 F
0.750000 0.000000 0.500000 F
0.750000 0.500000 0.000000 F
0.750000 0.500000 0.500000 F
0.000000 0.250000 0.000000 F
0.000000 0.250000 0.500000 F
0.000000 0.750000 0.000000 F
0.000000 0.750000 0.500000 F
0.500000 0.250000 0.000000 F
0.500000 0.250000 0.500000 F
0.500000 0.750000 0.000000 F
0.500000 0.750000 0.500000 F
0.000000 0.250000 0.250000 F
0.000000 0.250000 0.750000 F
0.000000 0.750000 0.250000 F
0.000000 0.750000 0.750000 F
0.500000 0.250000 0.250000 F
0.500000 0.250000 0.750000 F
0.500000 0.750000 0.250000 F
0.500000 0.750000 0.750000 F
0.250000 0.000000 0.250000 F
0.250000 0.000000 0.750000 F
0.250000 0.500000 0.250000 F
0.250000 0.500000 0.750000 F
0.750000 0.000000 0.250000 F
0.750000 0.000000 0.750000 F
0.750000 0.500000 0.250000 F
0.750000 0.500000 0.750000 F
