Ca1 Fe4 S6 O24
1.0
7.728417 0.129810 4.552236
2.648765 7.263879 4.583229
0.170423 0.160094 8.968569
Ca Fe S O
1 4 6 24
direct
0.247500 0.879664 0.614773 Ca
0.660825 0.639151 0.646853 Fe
0.136048 0.146402 0.141071 Fe
0.834643 0.846313 0.853532 Fe
0.359904 0.352474 0.348098 Fe
0.953657 0.248975 0.527817 S
0.449132 0.035618 0.744320 S
0.540153 0.966008 0.245279 S
0.748285 0.450070 0.043431 S
0.247899 0.535017 0.958644 S
0.047806 0.749459 0.456875 S
0.408099 0.565943 0.778410 O
0.913101 0.277749 0.052921 O
0.807261 0.420852 0.558492 O
0.077525 0.908489 0.280587 O
0.573358 0.790860 0.411039 O
0.304922 0.050134 0.924470 O
0.682252 0.939324 0.070275 O
0.198969 0.574747 0.434699 O
0.086480 0.714222 0.929564 O
0.410090 0.215112 0.590894 O
0.923975 0.080891 0.701438 O
0.588673 0.431367 0.219727 O
0.955942 0.233532 0.370635 O
0.447179 0.885989 0.714906 O
0.348937 1.000954 0.262360 O
0.695585 0.492888 0.889114 O
0.210070 0.377873 0.990381 O
0.864076 0.742784 0.511973 O
0.142888 0.235910 0.492990 O
0.636532 -0.017503 0.742038 O
0.538515 0.121535 0.262467 O
0.795793 0.606425 0.003644 O
0.287178 0.502611 0.115484 O
0.048902 0.776633 0.608730 O
