Ca8 Mn12 F42                            
   1.00000000000000     
     7.6362790000000000   -0.0838060000000000   -0.0187530000000000
    -3.8963169999999998    6.7106290000000000    0.0648350000000000
    -0.0287180000000000    0.1729510000000000   18.5044019999999989
   Ca   Mn   F 
     8    12    42
Direct
  0.4841074935733229  0.5231515343405201  0.6734901780821821
  0.1673724176973506  0.6477940084196825  0.9993056273780746
  0.3429211161047988  0.4945875355829273  0.3498796248126575
  0.8280828838927665 -0.0046172020237004  0.3324677008682052
  0.1699275749322595  0.1620586763601604  0.0029203716934553
  0.8094370840936997  0.9357380770342919  0.8434340211525132
  0.9866552788047193  0.7818959352800618  0.1742529774346047
  0.1792856440538138  0.1669552004938303  0.5158308927819292
  0.3391823520100186  0.0192488530064845  0.3250391428257211
  0.9723308951453938  0.3317490249770291  0.6708072986062610
  0.6577868443372968  0.6673996610768799  0.0158142573113556
  0.3224813444514459  0.0070653503072653  0.8364060871357498
  0.0103490285138836  0.3170963145102237  0.1701165743685157
  0.7343663307974466  0.6259232609621292  0.4942476484603580
  0.5084516277994957  0.8221685296606879  0.1677177284688693
  0.1942778872796755  0.6762684101395996  0.4976942848625684
  0.3053341466907686  0.5036144722868352  0.8467034559370734
  0.8121640830579331  0.5043145353352509  0.8261808459286119
  0.6922507928836328  0.1732090240019981  0.4864852490772776
  0.4933760816258752  0.3076576995089543  0.1623674451644144
  0.8098957456754479  0.1983445364708401  0.5853015122246833
  0.7448407332560661  0.6183794411698808  0.9149213800585653
  0.4375247282569770  0.3326792333965140  0.2687747940598922
  0.2498069480126952  0.7462833086697533  0.3855157426894833
  0.4814840966304599  0.8015850382916876  0.0540116943273470
  0.2104281760758556  0.4920591801337436  0.7419912611188121
  0.8401007208103322  0.9671836519038031  0.9666994688853379
  0.0350144450792507  0.8858416472986701  0.2871494578076796
  0.2085079590945464  0.2663474710853391  0.6298779768863425
 -0.0247460611114896  0.7604592137141583  0.0517619475774697
  0.8499948745214503  0.0986209360099602  0.7394708064447361
  0.2519444341676258  0.1687696227271284  0.3941986093805205
  0.5083445158744815  0.3482746341437887  0.0488360750638992
  0.6209641347032625  0.1238213216497883  0.3743572265813374
  0.8015903923832527  0.4490487211450180  0.7196276923533255
  0.3527949764818029  0.5025024129621878  0.9591250506572829
  0.1429212401109938  0.5732745734479910  0.6021448307822848
  0.5173279494003968  0.7685353514398321  0.2781919069893994
  0.8017161742940474  0.4161126776097471  0.1786841021367967
  0.5292829091468054  0.3175565692107429  0.5195661020871407
  0.5923479296575789  0.2263521929719613  0.8575714631977307
  0.4581557664581212  0.8201794359850482  0.8544558753955273
  0.2957544426253803  0.4833011750354179  0.4732669595848622
  0.1901912043429621  0.6360696477773576  0.1593908668669703
  0.0523504874566475  0.3156116671114045  0.2834708385253134
  0.6735233922444671  0.7078264629144665  0.5874554650814503
  0.2592982041108364  0.9516899848560151  0.9410011972992455
  0.3699950759651982  0.0746465757846288  0.7416705623508124
  0.6743033319779563  0.6841639660155232  0.3940842203861248
  0.0371127292902357  0.3439567017695741  0.0569844326868041
  0.1729571735264359  0.1285011441373614  0.1309578820725763
  0.8914438257450460  0.0819939753714372  0.4517880074587316
  0.0347807478553450  0.8112896477253517  0.8142279243305677
  0.1635436638672822  0.1908127384660244  0.8656319906296632
  0.0446035799501406  0.8365678838509574  0.5120516794479015
  0.8158826848337157  0.0164056302890106  0.1934380217836908
  0.0365625026946698  0.4920747167597803  0.8893487883999982
  0.6401221361229353  0.6412824839181327  0.1430808850668319
  0.4600871866281376  0.9139106369243225  0.5145915382518330
  0.4035611155978036  0.0117312124660008  0.2061485292571752
  0.5965015053986574  0.6106838348707651  0.7866462040710895
  0.9005834735284893  0.4681787409996243  0.4671398719750542
 
             NaN             NaN             NaN
             NaN             NaN             NaN
             NaN             NaN             NaN
             NaN             NaN             NaN
             NaN             NaN             NaN
             NaN             NaN             NaN
             NaN             NaN             NaN
             NaN             NaN             NaN
             NaN             NaN             NaN
             NaN             NaN             NaN
             NaN             NaN             NaN
             NaN             NaN             NaN
             NaN             NaN             NaN
             NaN             NaN             NaN
             NaN             NaN             NaN
             NaN             NaN             NaN
             NaN             NaN             NaN
             NaN             NaN             NaN
             NaN             NaN             NaN
             NaN             NaN             NaN
             NaN             NaN             NaN
             NaN             NaN             NaN
             NaN             NaN             NaN
             NaN             NaN             NaN
             NaN             NaN             NaN
             NaN             NaN             NaN
             NaN             NaN             NaN
             NaN             NaN             NaN
             NaN             NaN             NaN
             NaN             NaN             NaN
             NaN             NaN             NaN
             NaN             NaN             NaN
             NaN             NaN             NaN
             NaN             NaN             NaN
             NaN             NaN             NaN
             NaN             NaN             NaN
             NaN             NaN             NaN
             NaN             NaN             NaN
             NaN             NaN             NaN
             NaN             NaN             NaN
             NaN             NaN             NaN
             NaN             NaN             NaN
             NaN             NaN             NaN
             NaN             NaN             NaN
             NaN             NaN             NaN
             NaN             NaN             NaN
             NaN             NaN             NaN
             NaN             NaN             NaN
             NaN             NaN             NaN
             NaN             NaN             NaN
             NaN             NaN             NaN
             NaN             NaN             NaN
             NaN             NaN             NaN
             NaN             NaN             NaN
             NaN             NaN             NaN
             NaN             NaN             NaN
             NaN             NaN             NaN
             NaN             NaN             NaN
             NaN             NaN             NaN
             NaN             NaN             NaN
             NaN             NaN             NaN
             NaN             NaN             NaN
