Ca8 Mn12 F42
1.0
7.636279 -0.083806 -0.018753
-3.896317 6.710629 0.064835
-0.028718 0.172951 18.504402
Ca Mn F
8 12 42
direct
0.509667 0.620376 0.665016 Ca
0.161543 0.646867 0.990734 Ca
0.341074 0.500442 0.348312 Ca
0.838231 0.006370 0.335389 Ca
0.171643 0.150745 0.004479 Ca
0.822751 0.974746 0.836476 Ca
0.993872 0.775360 0.176233 Ca
0.170123 0.151634 0.513633 Ca
0.342098 1.015441 0.322393 Mn
-0.003298 0.345843 0.668400 Mn
0.656855 0.652725 0.010436 Mn
0.333865 0.007739 0.834274 Mn
0.012191 0.313429 0.164685 Mn
0.689558 0.650780 0.502902 Mn
0.505147 0.815851 0.165415 Mn
0.168913 0.672440 0.493035 Mn
0.328766 0.504725 0.835082 Mn
0.831690 0.509778 0.835918 Mn
0.672896 0.178641 0.493442 Mn
0.494341 0.309970 0.166853 Mn
0.739813 0.229103 0.603298 F
0.820699 0.563442 0.946321 F
0.445176 0.318741 0.278510 F
0.237506 0.745987 0.383409 F
0.480645 0.778085 0.053951 F
0.261030 0.502136 0.730114 F
0.840825 0.938862 0.958867 F
0.034879 0.887791 0.286737 F
0.165336 0.236709 0.623266 F
1.028796 0.809694 0.058250 F
0.831050 0.078350 0.726169 F
0.181064 0.162546 0.392493 F
0.498366 0.347480 0.053516 F
0.614341 0.110607 0.376379 F
0.863554 0.460809 0.730851 F
0.379233 0.506818 0.949314 F
0.136311 0.586240 0.598423 F
0.516029 0.781394 0.277546 F
0.803233 0.412304 0.175361 F
0.521791 0.331694 0.501314 F
0.637092 0.217908 0.849792 F
0.467699 0.819789 0.844746 F
0.305939 0.511050 0.472982 F
0.194597 0.625450 0.162473 F
0.055657 0.319635 0.278677 F
0.633839 0.678201 0.598030 F
0.282649 0.964988 0.943038 F
0.366948 0.053365 0.734026 F
0.666466 0.699103 0.396655 F
0.044113 0.346347 0.049390 F
0.175374 0.157989 0.140037 F
0.834744 1.041461 0.482404 F
0.020180 0.811896 0.822873 F
0.175413 0.193713 0.856887 F
1.002145 0.810855 0.507409 F
0.800883 0.023011 0.182980 F
0.070299 0.487427 0.876916 F
0.646220 0.637435 0.153044 F
0.405847 0.938904 0.521724 F
0.388717 0.003949 0.200998 F
0.615647 0.579120 0.807569 F
0.911394 0.432959 0.465970 F
