Na4 Ti32 O64
1.0
  11.9236310686617273   -0.0000000394873592    0.0000000662998344
  -0.0000000131876146    9.0538207249173919    0.0094899379621597
   0.0000000826898318    0.0112055601606033   10.7838920962706091
Na Ti O
1 32 64
direct
   0.3124999657332452    0.2386347129015576    0.6547526856910082 Na
   0.1876540357837158    0.4533404345632094    0.3809129512397220 Ti
   0.6876540357837156    0.4533404345632094    0.3809129512397220 Ti
   0.4373459746154288    0.4533404249347370    0.3809129448211479 Ti
   0.9373459746154287    0.4533404249347370    0.3809129448211479 Ti
   0.0624999971878317    0.5411319305882571    0.6207958970620737 Ti
   0.5624999971878316    0.5411319305882571    0.6207958970620737 Ti
   0.3125000019347261    0.5656971200405607    0.6213647363583874 Ti
   0.8125000019347260    0.5656971200405607    0.6213647363583874 Ti
   0.1862872711373988    0.9504840858966973    0.1187423263162088 Ti
   0.6862872711373987    0.9504840858966972    0.1187423263162088 Ti
   0.4387127114913659    0.9504840588538099    0.1187423641435998 Ti
   0.9387127114913659    0.9504840588538099    0.1187423641435998 Ti
   0.0625000094862038    0.0503689760679364    0.8770655281391342 Ti
   0.5625000094862038    0.0503689760679364    0.8770655281391341 Ti
   0.3125000177423658    0.0400498557412376    0.8856412406190300 Ti
   0.8125000177423657    0.0400498557412376    0.8856412406190300 Ti
   0.0625000024644748    0.0965416907893655    0.4028867274476652 Ti
   0.5625000024644747    0.0965416907893655    0.4028867274476653 Ti
   0.3124999938374521    0.0887619864420515    0.3905426810846393 Ti
   0.8124999938374521    0.0887619864420515    0.3905426810846393 Ti
   0.1873529379984475    0.9088564717369250    0.5964032682896487 Ti
   0.6873529379984475    0.9088564717369249    0.5964032682896487 Ti
   0.4376470465790234    0.9088564881770793    0.5964032747214389 Ti
   0.9376470465790234    0.9088564881770792    0.5964032747214389 Ti
   0.0624999946217635    0.5921069740933832    0.0992992908677905 Ti
   0.5624999946217635    0.5921069740933831    0.0992992908677905 Ti
   0.3124999933742210    0.5938791156164385    0.1000208452952549 Ti
   0.8124999933742207    0.5938791156164385    0.1000208452952549 Ti
   0.1873442536967715    0.4067302311272201    0.9035054406919302 Ti
   0.6873442536967714    0.4067302311272202    0.9035054406919301 Ti
   0.4376557738050585    0.4067302286539558    0.9035054501299626 Ti
   0.9376557738050586    0.4067302286539558    0.9035054501299625 Ti
   0.1889274356927473    0.4258429521084680    0.5747072083655667 O
   0.6889274356927473    0.4258429521084679    0.5747072083655667 O
   0.4360725614268865    0.4258429499731449    0.5747072059202551 O
   0.9360725614268866    0.4258429499731449    0.5747072059202551 O
   0.0625000005028511    0.5736525690690543    0.4290980586275879 O
   0.5625000005028511    0.5736525690690542    0.4290980586275879 O
   0.3125000024510171    0.5758977191962131    0.4298061952581094 O
   0.8125000024510172    0.5758977191962131    0.4298061952581094 O
   0.1863852444303652    0.9235962693144515    0.9270561138871257 O
   0.6863852444303652    0.9235962693144514    0.9270561138871257 O
   0.4386147640362985    0.9235962669561742    0.9270561200107750 O
   0.9386147640362984    0.9235962669561741    0.9270561200107750 O
   0.0624999983200389    0.0733883390351053    0.0710036205345617 O
   0.5624999983200388    0.0733883390351053    0.0710036205345617 O
   0.3125000017517081    0.0726864891525807    0.0721543788840933 O
   0.8125000017517080    0.0726864891525807    0.0721543788840933 O
   0.1864474552038579    0.0293640558730104    0.2843784224593406 O
   0.6864474552038579    0.0293640558730104    0.2843784224593405 O
   0.4385525462940692    0.0293640493537310    0.2843784296017020 O
   0.9385525462940690    0.0293640493537310    0.2843784296017020 O
   0.0625000001737988    0.9733565430775214    0.7137330369265058 O
   0.5625000001737986    0.9733565430775214    0.7137330369265059 O
   0.3125000002230748    0.9773592922172226    0.7124464531883135 O
   0.8125000002230748    0.9773592922172226    0.7124464531883136 O
   0.1879054968103127    0.5284253883328347    0.2158437328895246 O
   0.6879054968103127    0.5284253883328347    0.2158437328895246 O
   0.4370945070044172    0.5284253854732412    0.2158437311690236 O
   0.9370945070044170    0.5284253854732412    0.2158437311690236 O
   0.0624999979043004    0.4706465877180008    0.7868934258337318 O
   0.5624999979043003    0.4706465877180008    0.7868934258337318 O
   0.3124999995070822    0.4691662427456720    0.7828478707170207 O
   0.8124999995070823    0.4691662427456720    0.7828478707170206 O
   0.1889389007331345    0.1134892688625229    0.5143859968244726 O
   0.6889389007331346    0.1134892688625229    0.5143859968244726 O
   0.4360610969942833    0.1134892671282799    0.5143859956029786 O
   0.9360610969942833    0.1134892671282799    0.5143859956029786 O
   0.0624999992972235    0.8884330161209348    0.4859196718361432 O
   0.5624999992972235    0.8884330161209347    0.4859196718361432 O
   0.3124999980185166    0.8869271626631842    0.4845888519223180 O
   0.8124999980185164    0.8869271626631842    0.4845888519223180 O
   0.1873375497290972    0.6115563624307896    0.9874557394464035 O
   0.6873375497290971    0.6115563624307896    0.9874557394464034 O
   0.4376624537454353    0.6115563604970690    0.9874557398368039 O
   0.9376624537454352    0.6115563604970690    0.9874557398368039 O
   0.0625000033041765    0.3844872688935297    0.0143655753155230 O
   0.5625000033041765    0.3844872688935297    0.0143655753155230 O
   0.3125000013074696    0.3858414927078044    0.0133623687503999 O
   0.8125000013074696    0.3858414927078044    0.0133623687503999 O
   0.0624999998955502    0.3014098066276105    0.3615975610885940 O
   0.5624999998955502    0.3014098066276106    0.3615975610885940 O
   0.3125000002562750    0.2997017907808229    0.3628358008630670 O
   0.8125000002562750    0.2997017907808228    0.3628358008630670 O
   0.1871172535444962    0.7012528136694982    0.6412293249045149 O
   0.6871172535444962    0.7012528136694983    0.6412293249045149 O
   0.4378827456335478    0.7012528175986077    0.6412293264427618 O
   0.9378827456335477    0.7012528175986077    0.6412293264427618 O
   0.0624999990759924    0.7992443982575638    0.1400471778894214 O
   0.5624999990759924    0.7992443982575637    0.1400471778894214 O
   0.3125000053164442    0.7991891287819683    0.1397050602559062 O
   0.8125000053164442    0.7991891287819683    0.1397050602559062 O
   0.1890171941109351    0.1994790516016280    0.8558417241385925 O
   0.6890171941109351    0.1994790516016280    0.8558417241385924 O
   0.4359828058151009    0.1994790475573041    0.8558417176902182 O
   0.9359828058151008    0.1994790475573041    0.8558417176902181 O
