Ca1 Fe4 S6 O24                          
   1.00000000000000     
     7.6985419999999998    0.1560440000000000    4.5824140000000000
     2.6706460000000001    7.2235649999999998    4.6017859999999997
     0.2120050000000000    0.1749950000000000    8.9570439999999998
   Ca   Fe   S    O 
     1     4     6    24
Direct
  0.2575064351963832  0.8029622800267830  0.5722547743739028
  0.6634863820832635  0.6325536647128445  0.6474181155821412
  0.1416581566607391  0.1520760681492206  0.1341998500319974
  0.8270491853148414  0.8455777565248539  0.8586318310456491
  0.3572932282468244  0.3502116422664017  0.3570020369155102
  0.9651640629942975  0.2487377914757900  0.5228580620966454
  0.4487442477731065  0.0351971762627841  0.7505677115508078
  0.5463644010089155  0.9631844074660023  0.2450850893611829
  0.7444742973518217  0.4543709292941642  0.0509851318506094
  0.2574811106725363  0.5290487418005654  0.9549914102573496
  0.0392622851585216  0.7427812127922806  0.4527743071629331
  0.4196164262023885  0.5695666827742869  0.7742956158826075
  0.9278813346432599  0.2993856142962414  0.0373798857769714
  0.7860312739516573  0.3794891573303971  0.6050165583499805
  0.0297619536674532  0.9368400577248792  0.3227811227285713
  0.5812704146864647  0.7770016241943125  0.4031523389294307
  0.3066239297263138  0.0198646973975158  0.9431502340242019
  0.6956046914583709  0.9546162255952737  0.0638846709982701
  0.2315458576607838  0.6095736378398797  0.3924848430330670
  0.0902614651091795  0.6995128750549426  0.9175136701595150
  0.3852578826587560  0.2245620136806465  0.6147864892866011
  0.9785732146724442  0.0484008104301239  0.6543399342807845
  0.5996285019614120  0.3977067975138269  0.2342733888879920
  0.9774534507527619  0.2741770087457027  0.3393910080747347
  0.4774906577453635  0.8870394125087060  0.6985770762246304
  0.3584880626748372  0.9950876466561454  0.2526179065561251
  0.6920283186691805  0.5023712756560315  0.8954051118177944
  0.2475596541403391  0.3612065126044186  0.9727616928746983
  0.8961584396848181  0.6969148563271190  0.4661825873003309
  0.1275220707792002  0.2742745179240771  0.5010187880192731
  0.6299259233469670  0.0094200219980891  0.7464165092182995
  0.5297461561291001  0.1117379049613803  0.2839938677078209
  0.7549778539104750  0.6216835095711062  0.0381487683567343
  0.2837245163368465  0.5051517364338025  0.1151285097032471
  0.0080926583925844  0.7243512361894702  0.6446080293710637
 
             NaN             NaN             NaN
             NaN             NaN             NaN
             NaN             NaN             NaN
             NaN             NaN             NaN
             NaN             NaN             NaN
             NaN             NaN             NaN
             NaN             NaN             NaN
             NaN             NaN             NaN
             NaN             NaN             NaN
             NaN             NaN             NaN
             NaN             NaN             NaN
             NaN             NaN             NaN
             NaN             NaN             NaN
             NaN             NaN             NaN
             NaN             NaN             NaN
             NaN             NaN             NaN
             NaN             NaN             NaN
             NaN             NaN             NaN
             NaN             NaN             NaN
             NaN             NaN             NaN
             NaN             NaN             NaN
             NaN             NaN             NaN
             NaN             NaN             NaN
             NaN             NaN             NaN
             NaN             NaN             NaN
             NaN             NaN             NaN
             NaN             NaN             NaN
             NaN             NaN             NaN
             NaN             NaN             NaN
             NaN             NaN             NaN
             NaN             NaN             NaN
             NaN             NaN             NaN
             NaN             NaN             NaN
             NaN             NaN             NaN
             NaN             NaN             NaN
