Ca1 Mn12 F42
1.0
7.305538 -0.029091 -0.052907
-3.677059 6.393557 -0.000015
0.099397 -0.078944 17.452052
Ca Mn F
1 12 42
direct
0.493764 -0.148493 0.670356 Ca
0.290056 1.004188 0.328781 Mn
0.708898 0.707411 0.005261 Mn
0.001602 0.297226 0.667468 Mn
0.350065 -0.004449 0.839107 Mn
0.652964 0.649720 0.493274 Mn
0.998761 0.352883 0.166930 Mn
0.647675 0.151330 0.491932 Mn
0.500052 0.354625 0.166697 Mn
0.852119 0.495845 0.838198 Mn
0.353375 0.494599 0.841347 Mn
0.151414 0.647738 0.496125 Mn
0.497348 0.853568 0.167056 Mn
0.563659 0.816679 0.065078 F
0.256467 0.436432 0.736859 F
0.189258 0.772153 0.393259 F
0.435414 0.257682 0.268043 F
0.815224 0.572299 0.942716 F
0.739232 0.178107 0.597597 F
0.836537 0.049973 0.718746 F
0.192887 0.123601 0.389698 F
0.922625 0.810965 0.068018 F
0.117172 0.188633 0.608732 F
0.074893 0.891136 0.266670 F
0.807657 0.920084 0.943575 F
0.147128 0.560709 0.612357 F
0.431366 0.885503 0.269453 F
0.446945 0.564943 0.944051 F
0.883166 0.427295 0.729428 F
0.552666 0.122569 0.389794 F
0.565032 0.447828 0.065061 F
0.360225 0.571206 0.474876 F
0.218084 0.656761 0.146695 F
0.438988 0.789561 0.811160 F
0.641458 0.207732 0.855246 F
0.568880 0.358080 0.513288 F
0.778819 0.437948 0.187280 F
0.692849 0.619521 0.396620 F
0.931511 0.317861 0.068406 F
0.384932 0.048851 0.734137 F
0.321081 0.926878 0.935690 F
0.611837 0.685545 0.596308 F
0.066032 0.388041 0.265443 F
0.940761 0.722891 0.519439 F
0.777534 0.049562 0.187037 F
0.272278 0.203314 0.854791 F
0.063191 0.783714 0.817147 F
0.724507 0.939709 0.476908 F
0.220484 0.270094 0.146562 F
0.629159 0.552214 0.806527 F
0.936087 0.379279 0.467238 F
0.450443 0.085697 0.136743 F
0.373009 0.913073 0.539757 F
0.547402 0.621630 0.196822 F
0.076891 0.446515 0.868309 F
