Ca8 Mn12 F42                            
   1.00000000000000     
     7.5833389999999996   -0.0749110000000000   -0.0209180000000000
    -3.8618739999999998    6.7037220000000000    0.0652230000000000
    -0.0342080000000000    0.1700750000000000   18.6101999999999990
   Ca   Mn   F 
     8    12    42
Direct
  0.5104965231264459  0.4340185492998846  0.6815263343690199
  0.1487208937034862  0.6466147529078241  0.9916343838119530
  0.3357834069887736  0.5004013262711904  0.3461616450539918
  0.8293997187677821 -0.0025434409874346  0.3394820243126792
  0.1639341220295169  0.1530985690000430  0.0025244499295005
  0.8134018577114425  0.9684143608365791  0.8379488450531030
  0.9911822941896040  0.7822143541880930  0.1758219201205356
  0.1775749747973771  0.1536357927683782  0.5116028424434783
  0.3363279472447484  0.0265308895057537  0.3235728885368528
 -0.0003546249374039  0.3521021463366110  0.6663167699689458
  0.6525691547918958  0.6588689709802539  0.0150310819398737
  0.3359215452976512  0.0214599654951372  0.8371665026946281
  0.0096555114687224  0.3128266274985291  0.1673358931348826
  0.6793988237806079  0.6568301932453509  0.5002015526366642
  0.5020572273324764  0.8172795149318969  0.1662202914278970
  0.1733554643096332  0.6709058561813857  0.4923043763321636
  0.3198244382406994  0.5060518270803420  0.8397859846999600
  0.8295904123043485  0.5143029868196802  0.8324663921161033
  0.6798170387226725  0.1752776217142654  0.4913548545195095
  0.4935227090188516  0.3103345993288253  0.1632125354679858
  0.7849822364053928  0.2089712024009489  0.5947250709900394
  0.8096073946624385  0.5789840971684888  0.9426905515588690
  0.4424326689057704  0.3306400802858975  0.2720966920150858
  0.2446771826149919  0.7463937493165710  0.3817795943280065
  0.4624040370864343  0.7855763340677301  0.0560110851519496
  0.2496744244854895  0.4915723276927403  0.7318059766895457
  0.8268577461013807  0.9429314029484698  0.9605657783012816
  0.0279851939971983  0.8874808798996068  0.2866447107354974
  0.2053122504324328  0.2589777903898859  0.6212165607900915
  0.0177506962732389  0.8092698393368668  0.0575486193481225
  0.8816995111575101  0.1337083426266444  0.7362634880925351
  0.2113303019784770  0.1611501217829411  0.3903209624566997
  0.4935965816128710  0.3412516104592591  0.0504380753159068
  0.6110992755975150  0.1169599570442598  0.3757458212423391
  0.8231803800189003  0.4672272425870986  0.7213823077902899
  0.3773738935090908  0.5222094227204179  0.9521405414437710
  0.1199038810278309  0.5710695231141358  0.5957242850388303
  0.5290217280805330  0.7768232844258013  0.2761272657300460
  0.8012342667114309  0.4152323720961361  0.1750217948534615
  0.5351757555274705  0.3353663949124685  0.5178361325465984
  0.6384340338567204  0.2227179259555880  0.8534452864319367
  0.4581396816469598  0.8253664273457121  0.8399557975919848
  0.3153579325605630  0.4989955902744382  0.4729572684449382
  0.1917535166811954  0.6226375993343127  0.1706074571493613
  0.0403817877132431  0.3049103021923000  0.2823783699507497
  0.6411375012385637  0.6813773884604818  0.6024865509789078
  0.2810568506359156  0.9637748444803700  0.9439788407683601
  0.3698746053468880  0.1484004994550893  0.7441379284411689
  0.6654390873360164  0.6788690293728339  0.3929636093090503
  0.0408827141786541  0.3501896202449422  0.0521642015840099
  0.1760363318252817  0.1593346806307409  0.1397870974521286
  0.8463652890312748  0.0355687543300004  0.4662128266644583
  0.0274718094843096  0.8191701421480200  0.8200766144320446
  0.1649672992429524  0.1961489619022545  0.8703985833533345
  1.0032496449915662  0.8111532663328553  0.5072454493533988
  0.8013505710201164  0.0187022907272012  0.1801469294955212
  0.0611457701820654  0.4922677640386544  0.8801191921204228
  0.6446058813709553  0.6405409733424433  0.1417423119608416
  0.4122126948985339  0.9353834450598919  0.5154238197324159
  0.3882437128880763  0.0055568701704171  0.2037607318145733
  0.6154940818618304  0.6024228821994233  0.7995454587467805
  0.9196192251707015  0.4313257712735251  0.4600918019607298
 
             NaN             NaN             NaN
             NaN             NaN             NaN
             NaN             NaN             NaN
             NaN             NaN             NaN
             NaN             NaN             NaN
             NaN             NaN             NaN
             NaN             NaN             NaN
             NaN             NaN             NaN
             NaN             NaN             NaN
             NaN             NaN             NaN
             NaN             NaN             NaN
             NaN             NaN             NaN
             NaN             NaN             NaN
             NaN             NaN             NaN
             NaN             NaN             NaN
             NaN             NaN             NaN
             NaN             NaN             NaN
             NaN             NaN             NaN
             NaN             NaN             NaN
             NaN             NaN             NaN
             NaN             NaN             NaN
             NaN             NaN             NaN
             NaN             NaN             NaN
             NaN             NaN             NaN
             NaN             NaN             NaN
             NaN             NaN             NaN
             NaN             NaN             NaN
             NaN             NaN             NaN
             NaN             NaN             NaN
             NaN             NaN             NaN
             NaN             NaN             NaN
             NaN             NaN             NaN
             NaN             NaN             NaN
             NaN             NaN             NaN
             NaN             NaN             NaN
             NaN             NaN             NaN
             NaN             NaN             NaN
             NaN             NaN             NaN
             NaN             NaN             NaN
             NaN             NaN             NaN
             NaN             NaN             NaN
             NaN             NaN             NaN
             NaN             NaN             NaN
             NaN             NaN             NaN
             NaN             NaN             NaN
             NaN             NaN             NaN
             NaN             NaN             NaN
             NaN             NaN             NaN
             NaN             NaN             NaN
             NaN             NaN             NaN
             NaN             NaN             NaN
             NaN             NaN             NaN
             NaN             NaN             NaN
             NaN             NaN             NaN
             NaN             NaN             NaN
             NaN             NaN             NaN
             NaN             NaN             NaN
             NaN             NaN             NaN
             NaN             NaN             NaN
             NaN             NaN             NaN
             NaN             NaN             NaN
             NaN             NaN             NaN
