Ca8 Mn12 F42
1.0
7.583339 -0.074911 -0.020918
-3.861874 6.703722 0.065223
-0.034208 0.170075 18.610200
Ca Mn F
8 12 42
direct
0.521413 0.503925 0.670469 Ca
0.159552 0.644787 0.993145 Ca
0.339836 0.498641 0.348694 Ca
0.839726 0.010074 0.331087 Ca
0.172192 0.151968 0.002467 Ca
0.826861 0.986278 0.835510 Ca
0.989193 0.775754 0.175650 Ca
0.170168 0.139916 0.511487 Ca
0.344988 1.006905 0.320960 Mn
0.000472 0.346819 0.666227 Mn
0.662203 0.657874 0.009349 Mn
0.339348 0.009741 0.836782 Mn
0.009338 0.311347 0.163182 Mn
0.677721 0.660485 0.500204 Mn
0.502468 0.815572 0.165897 Mn
0.168075 0.668713 0.493764 Mn
0.331382 0.505992 0.835341 Mn
0.836511 0.511478 0.835675 Mn
0.672245 0.176746 0.494980 Mn
0.488570 0.309383 0.167592 Mn
0.733344 0.243729 0.604785 F
0.819757 0.560753 0.945885 F
0.440928 0.309757 0.280501 F
0.232206 0.743022 0.386001 F
0.487958 0.781585 0.054814 F
0.259567 0.484669 0.730657 F
0.840588 0.941915 0.956597 F
0.038590 0.885884 0.286443 F
0.186148 0.244772 0.619213 F
1.009844 0.803433 0.057122 F
0.855329 0.093637 0.725124 F
0.163578 0.163357 0.392530 F
0.496447 0.355506 0.054516 F
0.616069 0.107158 0.376779 F
0.861674 0.465506 0.728884 F
0.384321 0.517284 0.948815 F
0.130748 0.578777 0.596751 F
0.497738 0.784051 0.279223 F
0.798365 0.407969 0.173850 F
0.528648 0.338137 0.494291 F
0.654374 0.213520 0.850961 F
0.472065 0.820038 0.839737 F
0.327776 0.526352 0.474870 F
0.188477 0.627255 0.155937 F
0.060679 0.328191 0.276190 F
0.635990 0.660173 0.599501 F
0.288411 0.962171 0.945672 F
0.370379 0.084493 0.738145 F
0.671140 0.704050 0.392673 F
0.039328 0.340848 0.048016 F
0.169276 0.151562 0.138306 F
0.817624 1.019272 0.491269 F
0.020262 0.816231 0.824185 F
0.180463 0.197080 0.863401 F
0.989912 0.795608 0.504418 F
0.801830 0.018716 0.190655 F
0.077424 0.495665 0.876925 F
0.636942 0.632467 0.161066 F
0.391152 0.949511 0.519608 F
0.385424 0.003479 0.199006 F
0.610912 0.564551 0.803789 F
0.928352 0.411362 0.465236 F
