Na128 Pt64 O192
1.0
10.870509 0.000000 0.000000
0.000000 18.835150 0.000000
-3.667110 0.000000 20.909895
Na Pt O
127 64 192
direct
   0.6192580000000000    0.5400210000000000    0.2500230000000000 Na
1.000000 0.457678 0.125000 Na
1.000000 0.457678 0.625000 Na
1.000000 0.957678 0.125000 Na
1.000000 0.957678 0.625000 Na
0.500000 0.457678 0.125000 Na
0.500000 0.457678 0.625000 Na
0.500000 0.957678 0.125000 Na
0.500000 0.957678 0.625000 Na
0.130742 0.290021 0.499977 Na
0.130742 0.290021 0.999977 Na
0.130742 0.790021 0.499977 Na
0.130742 0.790021 0.999977 Na
0.630742 0.290021 0.499977 Na
0.630742 0.290021 0.999977 Na
0.630742 0.790021 0.499977 Na
0.630742 0.790021 0.999977 Na
0.250000 0.292322 0.375000 Na
0.250000 0.292322 0.875000 Na
0.250000 0.792322 0.375000 Na
0.250000 0.792322 0.875000 Na
0.750000 0.292322 0.375000 Na
0.750000 0.292322 0.875000 Na
0.750000 0.792322 0.375000 Na
0.750000 0.792322 0.875000 Na
0.369258 0.290021 0.250023 Na
0.369258 0.290021 0.750023 Na
0.369258 0.790021 0.250023 Na
0.369258 0.790021 0.750023 Na
0.869258 0.290021 0.250023 Na
0.869258 0.290021 0.750023 Na
0.869258 0.790021 0.250023 Na
0.869258 0.790021 0.750023 Na
0.119258 0.459979 0.000023 Na
0.119258 0.459979 0.500023 Na
0.119258 0.959979 0.000023 Na
0.119258 0.959979 0.500023 Na
0.619258 0.459979 0.000023 Na
0.619258 0.459979 0.500023 Na
0.619258 0.959979 0.000023 Na
0.619258 0.959979 0.500023 Na
0.375000 0.375000 0.000000 Na
0.375000 0.375000 0.500000 Na
0.375000 0.875000 0.000000 Na
0.375000 0.875000 0.500000 Na
0.875000 0.375000 0.000000 Na
0.875000 0.375000 0.500000 Na
0.875000 0.875000 0.000000 Na
0.875000 0.875000 0.500000 Na
0.380742 0.459979 0.249977 Na
0.380742 0.459979 0.749977 Na
0.380742 0.959979 0.249977 Na
0.380742 0.959979 0.749977 Na
0.880742 0.459979 0.249977 Na
0.880742 0.459979 0.749977 Na
0.880742 0.959979 0.249977 Na
0.880742 0.959979 0.749977 Na
0.125000 0.375000 0.250000 Na
0.125000 0.375000 0.750000 Na
0.125000 0.875000 0.250000 Na
0.125000 0.875000 0.750000 Na
0.625000 0.375000 0.750000 Na
0.625000 0.875000 0.250000 Na
0.625000 0.875000 0.750000 Na
0.250000 0.207678 0.125000 Na
0.250000 0.207678 0.625000 Na
0.250000 0.707678 0.125000 Na
0.250000 0.707678 0.625000 Na
0.750000 0.207678 0.125000 Na
0.750000 0.207678 0.625000 Na
0.750000 0.707678 0.125000 Na
0.750000 0.707678 0.625000 Na
0.380742 0.040021 0.499977 Na
0.380742 0.040021 0.999977 Na
0.380742 0.540021 0.499977 Na
0.380742 0.540021 0.999977 Na
0.880742 0.040021 0.499977 Na
0.880742 0.040021 0.999977 Na
0.880742 0.540021 0.499977 Na
0.880742 0.540021 0.999977 Na
0.000000 0.042322 0.375000 Na
1.000000 0.042322 0.875000 Na
0.000000 0.542322 0.375000 Na
1.000000 0.542322 0.875000 Na
0.500000 0.042322 0.375000 Na
0.500000 0.042322 0.875000 Na
0.500000 0.542322 0.375000 Na
0.500000 0.542322 0.875000 Na
0.119258 0.040021 0.250023 Na
0.119258 0.040021 0.750023 Na
0.119258 0.540021 0.250023 Na
0.119258 0.540021 0.750023 Na
0.619258 0.040021 0.250023 Na
0.619258 0.040021 0.750023 Na
0.619258 0.540021 0.750023 Na
0.369258 0.209979 0.000023 Na
0.369258 0.209979 0.500023 Na
0.369258 0.709979 0.000023 Na
0.369258 0.709979 0.500023 Na
0.869258 0.209979 0.000023 Na
0.869258 0.209979 0.500023 Na
0.869258 0.709979 0.000023 Na
0.869258 0.709979 0.500023 Na
0.125000 0.125000 0.000000 Na
0.125000 0.125000 0.500000 Na
0.125000 0.625000 0.000000 Na
0.125000 0.625000 0.500000 Na
0.625000 0.125000 0.000000 Na
0.625000 0.125000 0.500000 Na
0.625000 0.625000 0.000000 Na
0.625000 0.625000 0.500000 Na
0.130742 0.209979 0.249977 Na
0.130742 0.209979 0.749977 Na
0.130742 0.709979 0.249977 Na
0.130742 0.709979 0.749977 Na
0.630742 0.209979 0.249977 Na
0.630742 0.209979 0.749977 Na
0.630742 0.709979 0.249977 Na
0.630742 0.709979 0.749977 Na
0.375000 0.125000 0.250000 Na
0.375000 0.125000 0.750000 Na
0.375000 0.625000 0.250000 Na
0.375000 0.625000 0.750000 Na
0.875000 0.125000 0.250000 Na
0.875000 0.125000 0.750000 Na
0.875000 0.625000 0.250000 Na
0.875000 0.625000 0.750000 Na
0.000000 0.375054 0.375000 Pt
1.000000 0.375054 0.875000 Pt
0.000000 0.875054 0.375000 Pt
1.000000 0.875054 0.875000 Pt
0.500000 0.375054 0.375000 Pt
0.500000 0.375054 0.875000 Pt
0.500000 0.875054 0.375000 Pt
0.500000 0.875054 0.875000 Pt
0.250000 0.458543 0.375000 Pt
0.250000 0.458543 0.875000 Pt
0.250000 0.958543 0.375000 Pt
0.250000 0.958543 0.875000 Pt
0.750000 0.458543 0.375000 Pt
0.750000 0.458543 0.875000 Pt
0.750000 0.958543 0.375000 Pt
0.750000 0.958543 0.875000 Pt
0.250000 0.374946 0.125000 Pt
0.250000 0.374946 0.625000 Pt
0.250000 0.874946 0.125000 Pt
0.250000 0.874946 0.625000 Pt
0.750000 0.374946 0.125000 Pt
0.750000 0.374946 0.625000 Pt
0.750000 0.874946 0.125000 Pt
0.750000 0.874946 0.625000 Pt
1.000000 0.291457 0.125000 Pt
1.000000 0.291457 0.625000 Pt
1.000000 0.791457 0.125000 Pt
1.000000 0.791457 0.625000 Pt
0.500000 0.291457 0.125000 Pt
0.500000 0.291457 0.625000 Pt
0.500000 0.791457 0.125000 Pt
0.500000 0.791457 0.625000 Pt
0.250000 0.125054 0.375000 Pt
0.250000 0.125054 0.875000 Pt
0.250000 0.625054 0.375000 Pt
0.250000 0.625054 0.875000 Pt
0.750000 0.125054 0.375000 Pt
0.750000 0.125054 0.875000 Pt
0.750000 0.625054 0.375000 Pt
0.750000 0.625054 0.875000 Pt
0.000000 0.208543 0.375000 Pt
1.000000 0.208543 0.875000 Pt
0.000000 0.708543 0.375000 Pt
1.000000 0.708543 0.875000 Pt
0.500000 0.208543 0.375000 Pt
0.500000 0.208543 0.875000 Pt
0.500000 0.708543 0.375000 Pt
0.500000 0.708543 0.875000 Pt
1.000000 0.124946 0.125000 Pt
1.000000 0.124946 0.625000 Pt
1.000000 0.624946 0.125000 Pt
1.000000 0.624946 0.625000 Pt
0.500000 0.124946 0.125000 Pt
0.500000 0.124946 0.625000 Pt
0.500000 0.624946 0.125000 Pt
0.500000 0.624946 0.625000 Pt
0.250000 0.041457 0.125000 Pt
0.250000 0.041457 0.625000 Pt
0.250000 0.541457 0.125000 Pt
0.250000 0.541457 0.625000 Pt
0.750000 0.041457 0.125000 Pt
0.750000 0.041457 0.625000 Pt
0.750000 0.541457 0.125000 Pt
0.750000 0.541457 0.625000 Pt
0.052086 0.291861 0.322348 O
0.052086 0.291861 0.822348 O
0.052086 0.791861 0.322348 O
0.052086 0.791861 0.822348 O
0.552086 0.291861 0.322348 O
0.552086 0.291861 0.822348 O
0.552086 0.791861 0.322348 O
0.552086 0.791861 0.822348 O
0.322295 0.381915 0.322279 O
0.322295 0.381915 0.822279 O
0.322295 0.881915 0.322279 O
0.322295 0.881915 0.822279 O
0.822295 0.381915 0.322279 O
0.822295 0.381915 0.822279 O
0.822295 0.881915 0.322279 O
0.822295 0.881915 0.822279 O
0.302086 0.458139 0.072348 O
0.302086 0.458139 0.572348 O
0.302086 0.958139 0.072348 O
0.302086 0.958139 0.572348 O
0.802086 0.458139 0.072348 O
0.802086 0.458139 0.572348 O
0.802086 0.958139 0.072348 O
0.802086 0.958139 0.572348 O
0.197914 0.458139 0.177652 O
0.197914 0.458139 0.677652 O
0.197914 0.958139 0.177652 O
0.197914 0.958139 0.677652 O
0.697914 0.458139 0.177652 O
0.697914 0.458139 0.677652 O
0.697914 0.958139 0.177652 O
0.697914 0.958139 0.677652 O
0.072295 0.368085 0.072279 O
0.072295 0.368085 0.572279 O
0.072295 0.868085 0.072279 O
0.072295 0.868085 0.572279 O
0.572295 0.368085 0.072279 O
0.572295 0.368085 0.572279 O
0.572295 0.868085 0.072279 O
0.572295 0.868085 0.572279 O
0.177705 0.381915 0.427721 O
0.177705 0.381915 0.927721 O
0.177705 0.881915 0.427721 O
0.177705 0.881915 0.927721 O
0.677705 0.381915 0.427721 O
0.677705 0.381915 0.927721 O
0.677705 0.881915 0.427721 O
0.677705 0.881915 0.927721 O
0.322069 0.297862 0.072435 O
0.322069 0.297862 0.572435 O
0.322069 0.797862 0.072435 O
0.322069 0.797862 0.572435 O
0.822069 0.297862 0.072435 O
0.822069 0.297862 0.572435 O
0.822069 0.797862 0.072435 O
0.822069 0.797862 0.572435 O
0.427705 0.368085 0.177721 O
0.427705 0.368085 0.677721 O
0.427705 0.868085 0.177721 O
0.427705 0.868085 0.677721 O
0.927705 0.368085 0.177721 O
0.927705 0.368085 0.677721 O
0.927705 0.868085 0.177721 O
0.927705 0.868085 0.677721 O
0.072069 0.452138 0.322435 O
0.072069 0.452138 0.822435 O
0.072069 0.952138 0.322435 O
0.072069 0.952138 0.822435 O
0.572069 0.452138 0.322435 O
0.572069 0.452138 0.822435 O
0.572069 0.952138 0.322435 O
0.572069 0.952138 0.822435 O
0.427931 0.452138 0.427565 O
0.427931 0.452138 0.927565 O
0.427931 0.952138 0.427565 O
0.427931 0.952138 0.927565 O
0.927931 0.452138 0.427565 O
0.927931 0.452138 0.927565 O
0.927931 0.952138 0.427565 O
0.927931 0.952138 0.927565 O
0.177931 0.297862 0.177565 O
0.177931 0.297862 0.677565 O
0.177931 0.797862 0.177565 O
0.177931 0.797862 0.677565 O
0.677931 0.297862 0.177565 O
0.677931 0.297862 0.677565 O
0.677931 0.797862 0.177565 O
0.677931 0.797862 0.677565 O
0.447914 0.291861 0.427652 O
0.447914 0.291861 0.927652 O
0.447914 0.791861 0.427652 O
0.447914 0.791861 0.927652 O
0.947914 0.291861 0.427652 O
0.947914 0.291861 0.927652 O
0.947914 0.791861 0.427652 O
0.947914 0.791861 0.927652 O
0.302086 0.041861 0.322348 O
0.302086 0.041861 0.822348 O
0.302086 0.541861 0.322348 O
0.302086 0.541861 0.822348 O
0.802086 0.041861 0.322348 O
0.802086 0.041861 0.822348 O
0.802086 0.541861 0.322348 O
0.802086 0.541861 0.822348 O
0.072295 0.131915 0.322279 O
0.072295 0.131915 0.822279 O
0.072295 0.631915 0.322279 O
0.072295 0.631915 0.822279 O
0.572295 0.131915 0.322279 O
0.572295 0.131915 0.822279 O
0.572295 0.631915 0.322279 O
0.572295 0.631915 0.822279 O
0.052086 0.208139 0.072348 O
0.052086 0.208139 0.572348 O
0.052086 0.708139 0.072348 O
0.052086 0.708139 0.572348 O
0.552086 0.208139 0.072348 O
0.552086 0.208139 0.572348 O
0.552086 0.708139 0.072348 O
0.552086 0.708139 0.572348 O
0.447914 0.208139 0.177652 O
0.447914 0.208139 0.677652 O
0.447914 0.708139 0.177652 O
0.447914 0.708139 0.677652 O
0.947914 0.208139 0.177652 O
0.947914 0.208139 0.677652 O
0.947914 0.708139 0.177652 O
0.947914 0.708139 0.677652 O
0.322295 0.118085 0.072279 O
0.322295 0.118085 0.572279 O
0.322295 0.618085 0.072279 O
0.322295 0.618085 0.572279 O
0.822295 0.118085 0.072279 O
0.822295 0.118085 0.572279 O
0.822295 0.618085 0.072279 O
0.822295 0.618085 0.572279 O
0.427705 0.131915 0.427721 O
0.427705 0.131915 0.927721 O
0.427705 0.631915 0.427721 O
0.427705 0.631915 0.927721 O
0.927705 0.131915 0.427721 O
0.927705 0.131915 0.927721 O
0.927705 0.631915 0.427721 O
0.927705 0.631915 0.927721 O
0.072069 0.047862 0.072435 O
0.072069 0.047862 0.572435 O
0.072069 0.547862 0.072435 O
0.072069 0.547862 0.572435 O
0.572069 0.047862 0.072435 O
0.572069 0.047862 0.572435 O
0.572069 0.547862 0.072435 O
0.572069 0.547862 0.572435 O
0.177705 0.118085 0.177721 O
0.177705 0.118085 0.677721 O
0.177705 0.618085 0.177721 O
0.177705 0.618085 0.677721 O
0.677705 0.118085 0.177721 O
0.677705 0.118085 0.677721 O
0.677705 0.618085 0.177721 O
0.677705 0.618085 0.677721 O
0.322069 0.202138 0.322435 O
0.322069 0.202138 0.822435 O
0.322069 0.702138 0.322435 O
0.322069 0.702138 0.822435 O
0.822069 0.202138 0.322435 O
0.822069 0.202138 0.822435 O
0.822069 0.702138 0.322435 O
0.822069 0.702138 0.822435 O
0.177931 0.202138 0.427565 O
0.177931 0.202138 0.927565 O
0.177931 0.702138 0.427565 O
0.177931 0.702138 0.927565 O
0.677931 0.202138 0.427565 O
0.677931 0.202138 0.927565 O
0.677931 0.702138 0.427565 O
0.677931 0.702138 0.927565 O
0.427931 0.047862 0.177565 O
0.427931 0.047862 0.677565 O
0.427931 0.547862 0.177565 O
0.427931 0.547862 0.677565 O
0.927931 0.047862 0.177565 O
0.927931 0.047862 0.677565 O
0.927931 0.547862 0.177565 O
0.927931 0.547862 0.677565 O
0.197914 0.041861 0.427652 O
0.197914 0.041861 0.927652 O
0.197914 0.541861 0.427652 O
0.197914 0.541861 0.927652 O
0.697914 0.041861 0.427652 O
0.697914 0.041861 0.927652 O
0.697914 0.541861 0.427652 O
0.697914 0.541861 0.927652 O
