K32 Co16 Si16 O64
1.0
  10.9359998702999999    0.0000000000000000    0.0000000000000000
   0.0000000000000000   10.9060001373999995    0.0000000000000000
   0.0000000000000000    0.0000000000000000   15.6230001450000007
K Co Si O
31 16 16 64
direct
   0.7619000000000001    0.4755000000000000    0.6847000000000000 K
   0.5121999980000000    0.9954499900000001    0.5695999859999999 K
   0.7619000000000001    0.9754999999999999    0.6847000000000000 K
   0.0122000000000000    0.2545500100000000    0.9304000140000001 K
   0.0122000000000000    0.7545500099999999    0.9304000140000001 K
   0.9878000020000000    0.2454499900000000    0.4304000140000000 K
   0.9878000020000000    0.7454499900000001    0.4304000140000000 K
   0.5121999980000000    0.2454499900000000    0.9304000140000001 K
   0.5121999980000000    0.7454499900000001    0.9304000140000001 K
   0.4878000020000001    0.2545500100000000    0.4304000140000000 K
   0.4878000020000001    0.7545500099999999    0.4304000140000000 K
   0.2619000080000000    0.2745000125000000    0.8152999880000000 K
   0.2619000080000000    0.7745000125000000    0.8152999880000000 K
   0.7380999920000000    0.2254999875000000    0.3152999880000000 K
   0.7380999920000000    0.7254999875000000    0.3152999880000000 K
   0.7619000080000001    0.2254999875000000    0.8152999880000000 K
   0.7619000080000001    0.7254999875000000    0.8152999880000000 K
   0.2380999920000000    0.2745000125000000    0.3152999880000000 K
   0.2380999920000000    0.7745000125000000    0.3152999880000000 K
   0.9878000020000000    0.4954499900000000    0.0696000010000000 K
   0.9878000020000000    0.9954499900000001    0.0696000010000000 K
   0.0122000000000000    0.0045500000000000    0.5695999859999999 K
   0.0122000000000000    0.5045500000000001    0.5695999859999999 K
   0.4878000020000001    0.0045500000000000    0.0696000010000000 K
   0.4878000020000001    0.5045500000000001    0.0696000010000000 K
   0.7380999920000000    0.4754999875000000    0.1846999970000000 K
   0.7380999920000000    0.9754999875000000    0.1846999970000000 K
   0.2619000080000000    0.0244999995000000    0.6847000120000000 K
   0.2619000080000000    0.5244999995000000    0.6847000120000000 K
   0.2380999920000000    0.0244999995000000    0.1846999970000000 K
   0.2380999920000000    0.5244999995000000    0.1846999970000000 K
   0.0080000000000000    0.0004000000000000    0.8105999830000000 Co
   0.0080000000000000    0.5004000000000001    0.8105999830000000 Co
   0.9919999840000000    0.4995999930000000    0.3105999830000000 Co
   0.9919999840000000    0.9995999930000001    0.3105999830000000 Co
   0.5080000160000000    0.4995999930000000    0.8105999830000000 Co
   0.5080000160000000    0.9995999930000001    0.8105999830000000 Co
   0.4920000140000000    0.0004000000000000    0.3105999830000000 Co
   0.4920000140000000    0.5004000000000001    0.3105999830000000 Co
   0.7415999770000000    0.2351499945000000    0.0594000000000000 Co
   0.7415999770000000    0.7351499945000000    0.0594000000000000 Co
   0.2584000230000000    0.2648500205000000    0.5594000220000001 Co
   0.2584000230000000    0.7648500205000001    0.5594000220000001 Co
   0.2415999770000000    0.2648500205000000    0.0594000000000000 Co
   0.2415999770000000    0.7648500205000001    0.0594000000000000 Co
   0.7584000230000001    0.2351499945000000    0.5594000220000001 Co
   0.7584000230000001    0.7351499945000000    0.5594000220000001 Co
   0.9919999840000000    0.2495999930000000    0.1886000040000000 Si
   0.9919999840000000    0.7495999929999999    0.1886000040000000 Si
   0.0080000160000000    0.2504000070000000    0.6886000040000000 Si
   0.0080000160000000    0.7504000069999999    0.6886000040000000 Si
   0.4919999840000001    0.2504000070000000    0.1886000040000000 Si
   0.4919999840000001    0.7504000069999999    0.1886000040000000 Si
   0.5080000160000000    0.2495999930000000    0.6886000040000000 Si
   0.5080000160000000    0.7495999929999999    0.6886000040000000 Si
   0.2583999930000000    0.0148500000000000    0.9405999779999999 Si
   0.2583999930000000    0.5148500000000000    0.9405999779999999 Si
   0.7416000370000001    0.4851500095000000    0.4405999780000000 Si
   0.7416000370000001    0.9851500094999999    0.4405999780000000 Si
   0.7583999630000001    0.4851500095000000    0.9405999779999999 Si
   0.7583999630000001    0.9851500094999999    0.9405999779999999 Si
   0.2416000070000000    0.0148500000000000    0.4405999780000000 Si
   0.2416000070000000    0.5148500000000000    0.4405999780000000 Si
   0.2829999920000000    0.1597499995000000    0.9836999770000000 O
   0.2829999920000000    0.6597499995000000    0.9836999770000000 O
   0.7170000080000000    0.3402500155000000    0.4836999770000001 O
   0.7170000080000000    0.8402500154999999    0.4836999770000001 O
   0.7829999920000001    0.3402500155000000    0.9836999770000000 O
   0.7829999920000001    0.8402500154999999    0.9836999770000000 O
   0.2170000080000000    0.1597499995000000    0.4836999770000001 O
   0.2170000080000000    0.6597499995000000    0.4836999770000001 O
   0.4020999970000000    0.4567500055000000    0.8881999850000001 O
   0.4020999970000000    0.9567500054999999    0.8881999850000001 O
   0.5979000330000002    0.0432499945000000    0.3881999850000000 O
   0.5979000330000002    0.5432499945000000    0.3881999850000000 O
   0.9020999669999999    0.0432499945000000    0.8881999850000001 O
   0.9020999669999999    0.5432499945000000    0.8881999850000001 O
   0.0979000030000000    0.4567500055000000    0.3881999850000000 O
   0.0979000030000000    0.9567500054999999    0.3881999850000000 O
   0.1562999930000000    0.0335999990000000    0.8519999980000001 O
   0.1562999930000000    0.5335999990000000    0.8519999980000001 O
   0.8436999920000001    0.4663999975000000    0.3519999980000000 O
   0.8436999920000001    0.9663999974999999    0.3519999980000000 O
   0.6563000080000000    0.4663999975000000    0.8519999980000001 O
   0.6563000080000000    0.9663999974999999    0.8519999980000001 O
   0.3436999920000000    0.0335999990000000    0.3519999980000000 O
   0.3436999920000000    0.5335999990000000    0.3519999980000000 O
   0.9901000260000001    0.3489499985000000    0.7852000000000000 O
   0.9901000260000001    0.8489499985000001    0.7852000000000000 O
   0.0098999740000000    0.1510500015000000    0.2852000000000000 O
   0.0098999740000000    0.6510500015000000    0.2852000000000000 O
   0.4901000260000000    0.1510500015000000    0.7852000000000000 O
   0.4901000260000000    0.6510500015000000    0.7852000000000000 O
   0.5098999740000000    0.3489499985000000    0.2852000000000000 O
   0.5098999740000000    0.8489499985000001    0.2852000000000000 O
   0.7170000080000000    0.0902500005000000    0.0163000000000000 O
   0.7170000080000000    0.5902500005000000    0.0163000000000000 O
   0.2829999920000000    0.4097499845000000    0.5163000230000000 O
   0.2829999920000000    0.9097499845000001    0.5163000230000000 O
   0.2170000080000000    0.4097499845000000    0.0163000000000000 O
   0.2170000080000000    0.9097499845000001    0.0163000000000000 O
   0.7829999920000001    0.0902500005000000    0.5163000230000000 O
   0.7829999920000001    0.5902500005000000    0.5163000230000000 O
   0.5978999730000001    0.2932499945000000    0.1118000000000000 O
   0.5978999730000001    0.7932499945000001    0.1118000000000000 O
   0.4021000270000000    0.2067500055000000    0.6118000150000000 O
   0.4021000270000000    0.7067500055000000    0.6118000150000000 O
   0.0978999730000000    0.2067500055000000    0.1118000000000000 O
   0.0978999730000000    0.7067500055000000    0.1118000000000000 O
   0.9021000270000001    0.2932499945000000    0.6118000150000000 O
   0.9021000270000001    0.7932499945000001    0.6118000150000000 O
   0.8436999920000001    0.2163999975000000    0.1480000020000000 O
   0.8436999920000001    0.7163999974999999    0.1480000020000000 O
   0.1563000080000000    0.2836000025000000    0.6480000020000000 O
   0.1563000080000000    0.7836000024999999    0.6480000020000000 O
   0.3436999920000000    0.2836000025000000    0.1480000020000000 O
   0.3436999920000000    0.7836000024999999    0.1480000020000000 O
   0.6563000080000000    0.2163999975000000    0.6480000020000000 O
   0.6563000080000000    0.7163999974999999    0.6480000020000000 O
   0.0099000000000000    0.4010500015000000    0.2148000000000000 O
   0.0099000000000000    0.9010500015000000    0.2148000000000000 O
   0.9901000260000001    0.0989499985000000    0.7148000000000000 O
   0.9901000260000001    0.5989499985000000    0.7148000000000000 O
   0.5098999740000000    0.0989499985000000    0.2148000000000000 O
   0.5098999740000000    0.5989499985000000    0.2148000000000000 O
   0.4900999960000000    0.4010500015000000    0.7148000000000000 O
   0.4900999960000000    0.9010500015000000    0.7148000000000000 O
