Li8 Ni16 O32
1.0
        8.1428098679         0.0000000000         0.0000000000
        0.0000000000         8.1428098679         0.0000000000
        0.0000000000         0.0000000000         8.1428098679
   Li   Ni    O
    7   16   32
Direct
   0.2500000000000000    0.7500000000000000    0.7500000000000000 Li
     0.250000000         0.250000000         0.250000000
     0.500000000         0.000000000         0.500000000
     0.750000000         0.250000000         0.750000000
     0.000000000         0.000000000         0.000000000
     0.750000000         0.750000000         0.250000000
     0.000000000         0.500000000         0.500000000
     0.125000000         0.625000000         0.125000000
     0.375000000         0.875000000         0.125000000
     0.375000000         0.625000000         0.375000000
     0.125000000         0.875000000         0.375000000
     0.125000000         0.125000000         0.625000000
     0.375000000         0.375000000         0.625000000
     0.375000000         0.125000000         0.875000000
     0.125000000         0.375000000         0.875000000
     0.625000000         0.625000000         0.625000000
     0.875000000         0.875000000         0.625000000
     0.875000000         0.625000000         0.875000000
     0.625000000         0.875000000         0.875000000
     0.625000000         0.125000000         0.125000000
     0.875000000         0.375000000         0.125000000
     0.875000000         0.125000000         0.375000000
     0.625000000         0.375000000         0.375000000
     0.861711323         0.138288677         0.138288677
     0.361711323         0.861711323         0.361711323
     0.388288677         0.111711331         0.111711331
     0.111711331         0.111711331         0.388288677
     0.388288677         0.388288677         0.388288677
     0.111711331         0.388288677         0.111711331
     0.638288677         0.138288677         0.361711323
     0.138288677         0.861711323         0.138288677
     0.861711323         0.638288677         0.638288677
     0.361711323         0.361711323         0.861711323
     0.388288677         0.611711323         0.611711323
     0.111711331         0.611711323         0.888288677
     0.388288677         0.888288677         0.888288677
     0.111711331         0.888288677         0.611711323
     0.638288677         0.638288677         0.861711323
     0.138288677         0.361711323         0.638288677
     0.361711323         0.138288677         0.638288677
     0.861711323         0.861711323         0.861711323
     0.888288677         0.111711331         0.611711323
     0.611711323         0.111711331         0.888288677
     0.888288677         0.388288677         0.888288677
     0.611711323         0.388288677         0.611711323
     0.138288677         0.138288677         0.861711323
     0.638288677         0.861711323         0.638288677
     0.361711323         0.638288677         0.138288677
     0.861711323         0.361711323         0.361711323
     0.888288677         0.611711323         0.111711331
     0.611711323         0.611711323         0.388288677
     0.888288677         0.888288677         0.388288677
     0.611711323         0.888288677         0.111711331
     0.138288677         0.638288677         0.361711323
     0.638288677         0.361711323         0.138288677
