Ca3 V8 F24                              
   1.00000000000000     
     7.9472250000000004    0.0002240000000000    0.0000320000000000
     0.0002230000000000    8.1166640000000001    0.0000410000000000
     0.0000260000000000    0.0000380000000000    7.8835389999999999
   Ca   V    F 
     3     8    24
Direct
  0.4948288045200313  0.9768781659883963  0.5331824651198438
  0.9976713267249191  0.5020330857723521  0.4810814106627602
  0.5004571651750332  0.9710009293174694  0.0149266684027791
  0.2471261159476555  0.2400108196749542  0.2444703241382899
  0.2446485239688735  0.2414905369170828  0.7518917238969264
  0.2492673849555978  0.7347605702668036  0.2496702459360843
  0.2456130088633763  0.7292529458180950  0.7553514834678132
  0.7522080369506636  0.2382701299953982  0.2443896417340396
  0.7534717121122088  0.2392613192238519  0.7508940784970939
  0.7527203599379051  0.7341002595088612  0.2489063962739357
  0.7548619419470021  0.7282741808805581  0.7551654305601799
  0.9995715708433196  0.2644927043850661  0.3137280064921504
  0.9993099570955563  0.2287041235419522  0.6829042334537513
  0.0012365584079389  0.6843388010430183  0.2296463832286885
  0.0003541695431472  0.7533241305611570  0.8039853971118820
  0.4997639943732212  0.2038305137120576  0.1923182169647041
  0.4992417282587942  0.2381017262112840  0.7987824369816768
  0.5012881027167806  0.7970896007118763  0.3001704931559588
  0.5005168912634080  0.7314986882487299  0.6881053289858161
  0.2052064348366422  0.2782628051794041  0.9982530778337090
  0.3033967953850966  0.1848778027960070  0.4978556101841212
  0.3202296816088708  0.7249254004995989  0.0017444779846679
  0.2085711294002437  0.7758930823562069  0.5027947867426572
  0.7941447529572881  0.2735976161653861 -0.0024257425949678
  0.6932249099412950  0.1824846882340290  0.4971584444939532
  0.6792529753674912  0.7269813691845920  0.0014111990858831
  0.8044974915609160  0.7615647804737852  0.5024620789662048
  0.2555957633502823  0.9878963553756899  0.1954771748884762
  0.3054040617494498  0.9842820989448320  0.7808816122151828
  0.2509291904231692  0.4861555601459823  0.3127737883766503
  0.2055743711991297  0.4869098349452902  0.6931394798118570
  0.7460561557597345  0.9870308601401738  0.1963957680909170
  0.6933804634891276  0.9830168941264114  0.7776238624273817
  0.7480542998108731  0.4847294982525325  0.3089025295283246
  0.7923176942254787  0.4847070579519058  0.6959619609542840
 
             NaN             NaN             NaN
             NaN             NaN             NaN
             NaN             NaN             NaN
             NaN             NaN             NaN
             NaN             NaN             NaN
             NaN             NaN             NaN
             NaN             NaN             NaN
             NaN             NaN             NaN
             NaN             NaN             NaN
             NaN             NaN             NaN
             NaN             NaN             NaN
             NaN             NaN             NaN
             NaN             NaN             NaN
             NaN             NaN             NaN
             NaN             NaN             NaN
             NaN             NaN             NaN
             NaN             NaN             NaN
             NaN             NaN             NaN
             NaN             NaN             NaN
             NaN             NaN             NaN
             NaN             NaN             NaN
             NaN             NaN             NaN
             NaN             NaN             NaN
             NaN             NaN             NaN
             NaN             NaN             NaN
             NaN             NaN             NaN
             NaN             NaN             NaN
             NaN             NaN             NaN
             NaN             NaN             NaN
             NaN             NaN             NaN
             NaN             NaN             NaN
             NaN             NaN             NaN
             NaN             NaN             NaN
             NaN             NaN             NaN
             NaN             NaN             NaN
