Ca3 V8 F24                              
   1.00000000000000     
     7.9472250000000004    0.0002240000000000    0.0000320000000000
     0.0002230000000000    8.1166640000000001    0.0000410000000000
     0.0000260000000000    0.0000380000000000    7.8835389999999999
   Ca   V    F 
     3     8    24
Direct
  0.4920734824416881  0.9750052281390457  0.5060497312020521
 -0.0026854235612384  0.4973733698332008  0.4976552747696979
  0.5010411693670062  0.9810323808492258  1.0017041280893495
  0.2464665518962171  0.2413144540807231  0.2465327442524438
  0.2463100396238928  0.2411815900673853  0.7528097918734051
  0.2497037103046174  0.7315753433440028  0.2482361154890567
  0.2491695633424298  0.7303292479139546  0.7524461787294543
  0.7522634850675938  0.2388998862714564  0.2469268779726511
  0.7521618759833234  0.2386802996372647  0.7523270333129742
  0.7524297318623031  0.7308307324194983  0.2477598509874873
  0.7527580804149266  0.7297191776250457  0.7528210106456767
 -0.0006262190167404  0.2549436668717651  0.3195395650662641
 -0.0004719697835313  0.2518727517122997  0.6792987702604599
  0.0008516629642848  0.7051923422429558  0.2196017706525210
  0.0009543888416435  0.7131049482853543  0.7854280532174999
  0.4994820627645686  0.2189621153861615  0.1887698825976480
  0.4991569855245624  0.2220310418528103  0.8111765400206276
  0.5012748463083266  0.7646598046291566  0.3068665528484287
  0.5007291360527090  0.7550518744153735  0.6920268244649569
  0.2005319850608573  0.2721831010326761 -0.0002291359480146
  0.3063361222656845  0.1883604575439996  0.4996966434288812
  0.3187276621601597  0.7286846528922050  1.0003206556264805
  0.2115874127552826  0.7777956754101876  0.5003704050170277
  0.7986347992092832  0.2690525131052874  0.0002488598558100
  0.6891034924821516  0.1840910104944979  0.4988892525704245
  0.6807241762769436  0.7297354817208646  1.0003423351076677
  0.8012491639663299  0.7637264723784184  0.5002730041741312
  0.2809095994004466  0.9868756853603567  0.2119550527620641
  0.2877809174634472  0.9863291482747704  0.7838115706439669
  0.2352832146735485  0.4860469352884645  0.3113870237854268
  0.2302395277435506  0.4858573029395069  0.6890922796654180
  0.7211593945344755 -0.0139274053062308  0.2113698890335684
  0.7140019553435798 -0.0148958255422706  0.7840854904544067
  0.7629579222842284  0.4845055594308224  0.3084514575060177
  0.7677152405599480  0.4845134328757906  0.6919386386097524
 
             NaN             NaN             NaN
             NaN             NaN             NaN
             NaN             NaN             NaN
             NaN             NaN             NaN
             NaN             NaN             NaN
             NaN             NaN             NaN
             NaN             NaN             NaN
             NaN             NaN             NaN
             NaN             NaN             NaN
             NaN             NaN             NaN
             NaN             NaN             NaN
             NaN             NaN             NaN
             NaN             NaN             NaN
             NaN             NaN             NaN
             NaN             NaN             NaN
             NaN             NaN             NaN
             NaN             NaN             NaN
             NaN             NaN             NaN
             NaN             NaN             NaN
             NaN             NaN             NaN
             NaN             NaN             NaN
             NaN             NaN             NaN
             NaN             NaN             NaN
             NaN             NaN             NaN
             NaN             NaN             NaN
             NaN             NaN             NaN
             NaN             NaN             NaN
             NaN             NaN             NaN
             NaN             NaN             NaN
             NaN             NaN             NaN
             NaN             NaN             NaN
             NaN             NaN             NaN
             NaN             NaN             NaN
             NaN             NaN             NaN
             NaN             NaN             NaN
