Ca9 Cr12 F42                            
   1.00000000000000     
     7.4644089999999998    0.0953330000000000   -0.5953230000000000
    -3.5317660000000002    6.6068689999999997    0.2180150000000000
     0.7420750000000000    0.0905800000000000   18.7363700000000009
   Ca   Cr   F 
     9    12    42
Direct
  0.4024308027370154  0.5090916210830727  0.3383938723085365
  0.5238933891482560  0.8449682198603483  0.6797957921524755
  0.5930343375741245  0.0939513412224926  0.0053850372560191
  0.0108823432882019  0.8141555415265316  0.6624827303882483
  0.8489199033949504  0.0564683748960277  0.3512086530300493
  0.1185230697105908  0.6065835741671535  0.9823833864422014
  0.9721935180243264  0.8166845625067012  0.1709691607485695
  0.8464014922970691  0.9037595325333854  0.8459909822199023
  0.2119204762919935  0.1961256506397078  0.5067912530215182
  0.2851845785833476  0.9244839760144572  0.3250286010606303
  0.0027727483405755  0.3096163704280315  0.6590823352388924
  0.6513579481286840  0.6380917491513429  0.9994999129193261
  0.3431243830104975  0.9825109118479816  0.8280218061990041
  0.9609137609208034  0.3099108493085652  0.1594224776900504
  0.6883423170114966  0.6831032968552719  0.5023090542106914
  0.4653740375559039  0.8056480859581256  0.1690702968079307
  0.1852855949800372  0.6865563619609105  0.4920660012821969
  0.3221237689504335  0.4732201623351884  0.8278334668603691
  0.8174569686590800  0.4553489907176811  0.8233035813154927
  0.7037787456796636  0.1869909784729700  0.5036771913308371
  0.4665344319268883  0.3110433254986091  0.1677391238059300
  0.7317853032319590  0.1267442285118108  0.6085520103753552
  0.8830892218692412  0.6629494955709063  0.9179035977576788
  0.4061854659113706  0.2001072091324900  0.2838245422680643
  0.1832246116605489  0.6507672845744139  0.3660137547340554
  0.4056106714125605  0.7541150080935921  0.0493672907874796
  0.2514885420718471  0.4843631738461980  0.7223336673949063
  0.7461964425125345  0.9185932298200399  0.9605965439475526
  0.0103709424721430  0.8913270301618184  0.2894802572818449
  0.1251572082720287  0.1434506599676553  0.6221210212920809
  0.9190902195139543  0.7220172238197975  0.0551546646381240
  0.8451005679261314  0.9695436486006557  0.7278880067659870
  0.1761498852701990  0.2358510461380163  0.3903152408843837
  0.5463380388425847  0.3623351682375784  0.0335797745924609
  0.7036053448640942  0.2333935554171376  0.4018516376912444
  0.8814958296417856  0.4759379283395475  0.6844158603971451
  0.3994790843900518  0.5386972281570479  0.9327038779191241
  0.2674256658434970  0.7769427526309869  0.6058214690193964
  0.5250659512995099  0.8718106637163103  0.3061933379770068
  0.7713235336081397  0.4397622394925733  0.1737958248100853
  0.5493839614054110  0.3302823884171389  0.5265374933972993
  0.6655957898611931  0.2252107425779357  0.8865177228525454
  0.5164776482713336  0.8481559676053152  0.8111765916638802
  0.3976560489256684  0.5801563238601375  0.4737889802559039
  0.1770632460992729  0.6748262648824053  0.1832017463090239
  0.9799880127559391  0.2770088361369645  0.2606998510751097
  0.6706966524242119  0.7089341784734131  0.6082214777251025
  0.3150223160603431  0.9143618500647790  0.9321204883448644
  0.3415133280765588  0.0022763366468510  0.7237503715456839
  0.7108092018306067  0.6957869618206374  0.3957655176019159
  0.9277364661291685  0.3241197395624482  0.0515089659245760
  0.1612196983905605  0.1886534001966496  0.1502236535838009
  0.8574015794846446  0.0392005725126268  0.4778782603106109
  0.9970489414977095  0.7319434446642035  0.7867097914257783
  0.1798763752824897  0.1261736304699141  0.8416337501198043
  0.9780847952996936  0.7744502841238941  0.5281843304460168
  0.7527923737902853  0.9385289601394575  0.1513869993695209
  0.0573947440217637  0.4320694169140467  0.8632662373740203
  0.4853273297095200  0.5634102055066350  0.2135226702695476
  0.3118153274947773  0.9656492204956564  0.4570216487210104
  0.4546287925466999  0.0571689616531188  0.1297886638604382
  0.5979684800369682  0.5309654067224372  0.8010351345683588
  0.0499525833909615  0.4121234866550907  0.5307600320709014
 
             NaN             NaN             NaN
             NaN             NaN             NaN
             NaN             NaN             NaN
             NaN             NaN             NaN
             NaN             NaN             NaN
             NaN             NaN             NaN
             NaN             NaN             NaN
             NaN             NaN             NaN
             NaN             NaN             NaN
             NaN             NaN             NaN
             NaN             NaN             NaN
             NaN             NaN             NaN
             NaN             NaN             NaN
             NaN             NaN             NaN
             NaN             NaN             NaN
             NaN             NaN             NaN
             NaN             NaN             NaN
             NaN             NaN             NaN
             NaN             NaN             NaN
             NaN             NaN             NaN
             NaN             NaN             NaN
             NaN             NaN             NaN
             NaN             NaN             NaN
             NaN             NaN             NaN
             NaN             NaN             NaN
             NaN             NaN             NaN
             NaN             NaN             NaN
             NaN             NaN             NaN
             NaN             NaN             NaN
             NaN             NaN             NaN
             NaN             NaN             NaN
             NaN             NaN             NaN
             NaN             NaN             NaN
             NaN             NaN             NaN
             NaN             NaN             NaN
             NaN             NaN             NaN
             NaN             NaN             NaN
             NaN             NaN             NaN
             NaN             NaN             NaN
             NaN             NaN             NaN
             NaN             NaN             NaN
             NaN             NaN             NaN
             NaN             NaN             NaN
             NaN             NaN             NaN
             NaN             NaN             NaN
             NaN             NaN             NaN
             NaN             NaN             NaN
             NaN             NaN             NaN
             NaN             NaN             NaN
             NaN             NaN             NaN
             NaN             NaN             NaN
             NaN             NaN             NaN
             NaN             NaN             NaN
             NaN             NaN             NaN
             NaN             NaN             NaN
             NaN             NaN             NaN
             NaN             NaN             NaN
             NaN             NaN             NaN
             NaN             NaN             NaN
             NaN             NaN             NaN
             NaN             NaN             NaN
             NaN             NaN             NaN
             NaN             NaN             NaN
