Na64 Pt32 O96
1.0
  10.8705091476000000    0.0000000000000000    0.0000000000000000
   0.0000000000000000   18.8351497650000006    0.0000000000000000
  -1.8335548223000000    0.0000000000000000   10.4549476747999996
Na Pt O
63 32 96
direct
   0.4999999999999999    0.4576782285000001    0.2500000000000000 Na
   0.0000000000000000    0.4576782285000001    0.2500000000000000 Na
   0.0000000000000000    0.9576782285000002    0.2500000000000000 Na
   0.4999999999999999    0.9576782285000002    0.2500000000000000 Na
   0.1307421325000000    0.2900207340000000    0.9999547600000001 Na
   0.1307421325000000    0.7900207340000001    0.9999547600000001 Na
   0.6307421325000000    0.2900207340000000    0.9999547600000001 Na
   0.6307421325000000    0.7900207340000001    0.9999547600000001 Na
   0.2500000000000000    0.2923217715000000    0.7500000000000000 Na
   0.2500000000000000    0.7923217715000000    0.7500000000000000 Na
   0.7500000000000000    0.2923217715000000    0.7500000000000000 Na
   0.7500000000000000    0.7923217715000000    0.7500000000000000 Na
   0.3692578675000000    0.2900207340000000    0.5000452399999999 Na
   0.3692578675000000    0.7900207340000001    0.5000452399999999 Na
   0.8692578675000000    0.2900207340000000    0.5000452399999999 Na
   0.8692578675000000    0.7900207340000001    0.5000452399999999 Na
   0.1192578600000000    0.4599792660000000    0.0000452600000000 Na
   0.1192578600000000    0.9599792660000001    0.0000452600000000 Na
   0.6192578600000000    0.4599792660000000    0.0000452600000000 Na
   0.6192578600000000    0.9599792660000001    0.0000452600000000 Na
   0.3749999999999999    0.3750000000000001    0.0000000000000000 Na
   0.3749999999999999    0.8750000000000000    0.0000000000000000 Na
   0.8750000000000000    0.3750000000000001    0.0000000000000000 Na
   0.8750000000000000    0.8750000000000000    0.0000000000000000 Na
   0.3807421325000000    0.9599792660000001    0.4999547300000000 Na
   0.8807421324999999    0.4599792660000000    0.4999547300000000 Na
   0.8807421324999999    0.9599792660000001    0.4999547300000000 Na
   0.1250000000000000    0.3750000000000001    0.5000000000000000 Na
   0.1250000000000000    0.8750000000000000    0.5000000000000000 Na
   0.6249999999999999    0.3750000000000001    0.5000000000000000 Na
   0.6249999999999999    0.8750000000000000    0.5000000000000000 Na
   0.2500000000000000    0.2076782135000000    0.2500000000000000 Na
   0.2500000000000000    0.7076782135000000    0.2500000000000000 Na
   0.7500000000000001    0.2076782135000000    0.2500000000000000 Na
   0.7500000000000001    0.7076782135000000    0.2500000000000000 Na
   0.3807421325000000    0.0400207265000000    0.9999547600000001 Na
   0.3807421325000000    0.5400207265000000    0.9999547600000001 Na
   0.8807421325000000    0.0400207265000000    0.9999547600000001 Na
   0.8807421325000000    0.5400207265000000    0.9999547600000001 Na
   0.0000000000000000    0.0423217865000000    0.7500000000000000 Na
   0.0000000000000000    0.5423217865000001    0.7500000000000000 Na
   0.5000000000000000    0.0423217865000000    0.7500000000000000 Na
   0.5000000000000000    0.5423217865000001    0.7500000000000000 Na
   0.1192578600000000    0.0400207265000000    0.5000452399999999 Na
   0.1192578600000000    0.5400207265000000    0.5000452399999999 Na
   0.6192578600000000    0.0400207265000000    0.5000452399999999 Na
   0.6192578600000000    0.5400207265000000    0.5000452399999999 Na
   0.3692578675000000    0.2099792810000000    0.0000452600000000 Na
   0.3692578675000000    0.7099792810000001    0.0000452600000000 Na
   0.8692578674999999    0.2099792810000000    0.0000452600000000 Na
   0.8692578674999999    0.7099792810000001    0.0000452600000000 Na
   0.1250000000000000    0.1250000000000000    0.0000000000000000 Na
   0.1250000000000000    0.6250000000000000    0.0000000000000000 Na
   0.6250000000000000    0.1250000000000000    0.0000000000000000 Na
   0.6250000000000000    0.6250000000000000    0.0000000000000000 Na
   0.1307421325000000    0.2099792810000000    0.4999547300000000 Na
   0.1307421325000000    0.7099792810000001    0.4999547300000000 Na
   0.6307421325000000    0.2099792810000000    0.4999547300000000 Na
   0.6307421325000000    0.7099792810000001    0.4999547300000000 Na
   0.3749999999999999    0.1250000000000000    0.5000000000000000 Na
   0.3749999999999999    0.6250000000000000    0.5000000000000000 Na
   0.8750000000000000    0.1250000000000000    0.5000000000000000 Na
   0.8750000000000000    0.6250000000000000    0.5000000000000000 Na
   0.0000000000000000    0.3750540020000000    0.7500000000000000 Pt
   0.0000000000000000    0.8750540020000001    0.7500000000000000 Pt
   0.5000000000000000    0.3750540020000000    0.7500000000000000 Pt
   0.5000000000000000    0.8750540020000001    0.7500000000000000 Pt
   0.2500000000000000    0.4585426150000000    0.7500000000000000 Pt
   0.2500000000000000    0.9585426150000002    0.7500000000000000 Pt
   0.7500000000000000    0.4585426150000000    0.7500000000000000 Pt
   0.7500000000000000    0.9585426150000002    0.7500000000000000 Pt
   0.2500000000000000    0.3749459980000001    0.2500000000000000 Pt
   0.2500000000000000    0.8749459980000002    0.2500000000000000 Pt
   0.7500000000000001    0.3749459980000001    0.2500000000000000 Pt
   0.7500000000000001    0.8749459980000002    0.2500000000000000 Pt
   0.0000000000000000    0.2914573850000000    0.2500000000000000 Pt
   0.0000000000000000    0.7914573850000001    0.2500000000000000 Pt
   0.4999999999999999    0.2914573850000000    0.2500000000000000 Pt
   0.4999999999999999    0.7914573850000001    0.2500000000000000 Pt
   0.2500000000000000    0.1250540020000000    0.7500000000000000 Pt
   0.2500000000000000    0.6250540020000001    0.7500000000000000 Pt
   0.7500000000000000    0.1250540020000000    0.7500000000000000 Pt
   0.7500000000000000    0.6250540020000001    0.7500000000000000 Pt
   0.0000000000000000    0.2085426150000000    0.7500000000000000 Pt
   0.0000000000000000    0.7085426150000000    0.7500000000000000 Pt
   0.5000000000000000    0.2085426150000000    0.7500000000000000 Pt
   0.5000000000000000    0.7085426150000000    0.7500000000000000 Pt
   0.0000000000000000    0.1249459980000000    0.2500000000000000 Pt
   0.0000000000000000    0.6249459980000001    0.2500000000000000 Pt
   0.4999999999999999    0.1249459980000000    0.2500000000000000 Pt
   0.4999999999999999    0.6249459980000001    0.2500000000000000 Pt
   0.2500000000000000    0.0414573850000000    0.2500000000000000 Pt
   0.2500000000000000    0.5414573850000000    0.2500000000000000 Pt
   0.7500000000000001    0.0414573850000000    0.2500000000000000 Pt
   0.7500000000000001    0.5414573850000000    0.2500000000000000 Pt
   0.0520857910000000    0.2918609680000000    0.6446955200000000 O
   0.0520857910000000    0.7918609680000001    0.6446955200000000 O
   0.5520857910000000    0.2918609680000000    0.6446955200000000 O
   0.5520857910000000    0.7918609680000001    0.6446955200000000 O
   0.3222949505000000    0.3819153605000001    0.6445574160000000 O
   0.3222949505000000    0.8819153605000001    0.6445574160000000 O
   0.8222949505000000    0.3819153605000001    0.6445574160000000 O
   0.8222949505000000    0.8819153605000001    0.6445574160000000 O
   0.3020857870000001    0.4581390320000001    0.1446955050000000 O
   0.3020857870000001    0.9581390320000001    0.1446955050000000 O
   0.8020857870000000    0.4581390320000001    0.1446955050000000 O
   0.8020857870000000    0.9581390320000001    0.1446955050000000 O
   0.1979142130000000    0.4581390320000001    0.3553045090000000 O
   0.1979142130000000    0.9581390320000001    0.3553045090000000 O
   0.6979142130000000    0.4581390320000001    0.3553045090000000 O
   0.6979142130000000    0.9581390320000001    0.3553045090000000 O
   0.0722949655000000    0.3680846395000000    0.1445574310000000 O
   0.0722949655000000    0.8680846395000000    0.1445574310000000 O
   0.5722949655000000    0.3680846395000000    0.1445574310000000 O
   0.5722949655000000    0.8680846395000000    0.1445574310000000 O
   0.1777050345000000    0.3819153605000001    0.8554425840000001 O
   0.1777050345000000    0.8819153605000001    0.8554425840000001 O
   0.6777050345000000    0.3819153605000001    0.8554425840000001 O
   0.6777050345000000    0.8819153605000001    0.8554425840000001 O
   0.3220692575000000    0.2978622315000001    0.1448692830000000 O
   0.3220692575000000    0.7978622315000001    0.1448692830000000 O
   0.8220692575000000    0.2978622315000001    0.1448692830000000 O
   0.8220692575000000    0.7978622315000001    0.1448692830000000 O
   0.4277050495000000    0.3680846395000000    0.3554425840000000 O
   0.4277050495000000    0.8680846395000000    0.3554425840000000 O
   0.9277050495000000    0.3680846395000000    0.3554425840000000 O
   0.9277050495000000    0.8680846395000000    0.3554425840000000 O
   0.0720692725000000    0.4521377685000000    0.6448692680000000 O
   0.0720692725000000    0.9521377685000000    0.6448692680000000 O
   0.5720692725000001    0.4521377685000000    0.6448692680000000 O
   0.5720692725000001    0.9521377685000000    0.6448692680000000 O
   0.4279307425000001    0.4521377685000000    0.8551307320000001 O
   0.4279307425000001    0.9521377685000000    0.8551307320000001 O
   0.9279307425000001    0.4521377685000000    0.8551307320000001 O
   0.9279307425000001    0.9521377685000000    0.8551307320000001 O
   0.1779307275000000    0.2978622315000001    0.3551307320000000 O
   0.1779307275000000    0.7978622315000001    0.3551307320000000 O
   0.6779307274999999    0.2978622315000001    0.3551307320000000 O
   0.6779307274999999    0.7978622315000001    0.3551307320000000 O
   0.4479142130000000    0.2918609680000000    0.8553044800000000 O
   0.4479142130000000    0.7918609680000001    0.8553044800000000 O
   0.9479142130000000    0.2918609680000000    0.8553044800000000 O
   0.9479142130000000    0.7918609680000001    0.8553044800000000 O
   0.3020857870000000    0.0418609565000000    0.6446955200000000 O
   0.3020857870000000    0.5418609565000000    0.6446955200000000 O
   0.8020857870000001    0.0418609565000000    0.6446955200000000 O
   0.8020857870000001    0.5418609565000000    0.6446955200000000 O
   0.0722949655000000    0.1319153755000000    0.6445574160000000 O
   0.0722949655000000    0.6319153755000000    0.6445574160000000 O
   0.5722949655000000    0.1319153755000000    0.6445574160000000 O
   0.5722949655000000    0.6319153755000000    0.6445574160000000 O
   0.0520857910000000    0.2081390470000000    0.1446955050000000 O
   0.0520857910000000    0.7081390470000001    0.1446955050000000 O
   0.5520857910000000    0.2081390470000000    0.1446955050000000 O
   0.5520857910000000    0.7081390470000001    0.1446955050000000 O
   0.4479142130000001    0.2081390470000000    0.3553045090000000 O
   0.4479142130000001    0.7081390470000001    0.3553045090000000 O
   0.9479142130000000    0.2081390470000000    0.3553045090000000 O
   0.9479142130000000    0.7081390470000001    0.3553045090000000 O
   0.3222949505000000    0.1180846245000000    0.1445574310000000 O
   0.3222949505000000    0.6180846245000000    0.1445574310000000 O
   0.8222949505000000    0.1180846245000000    0.1445574310000000 O
   0.8222949505000000    0.6180846245000000    0.1445574310000000 O
   0.4277050495000000    0.1319153755000000    0.8554425840000001 O
   0.4277050495000000    0.6319153755000000    0.8554425840000001 O
   0.9277050494999999    0.1319153755000000    0.8554425840000001 O
   0.9277050494999999    0.6319153755000000    0.8554425840000001 O
   0.0720692725000000    0.0478622315000000    0.1448692830000000 O
   0.0720692725000000    0.5478622315000000    0.1448692830000000 O
   0.5720692725000001    0.0478622315000000    0.1448692830000000 O
   0.5720692725000001    0.5478622315000000    0.1448692830000000 O
   0.1777050345000000    0.1180846245000000    0.3554425840000000 O
   0.1777050345000000    0.6180846245000000    0.3554425840000000 O
   0.6777050345000000    0.1180846245000000    0.3554425840000000 O
   0.6777050345000000    0.6180846245000000    0.3554425840000000 O
   0.3220692575000000    0.2021377685000000    0.6448692680000000 O
   0.3220692575000000    0.7021377685000000    0.6448692680000000 O
   0.8220692575000000    0.2021377685000000    0.6448692680000000 O
   0.8220692575000000    0.7021377685000000    0.6448692680000000 O
   0.1779307275000000    0.2021377685000000    0.8551307320000001 O
   0.1779307275000000    0.7021377685000000    0.8551307320000001 O
   0.6779307275000001    0.2021377685000000    0.8551307320000001 O
   0.6779307275000001    0.7021377685000000    0.8551307320000001 O
   0.4279307425000001    0.0478622315000000    0.3551307320000000 O
   0.4279307425000001    0.5478622315000000    0.3551307320000000 O
   0.9279307425000001    0.0478622315000000    0.3551307320000000 O
   0.9279307425000001    0.5478622315000000    0.3551307320000000 O
   0.1979142130000000    0.0418609565000000    0.8553044800000000 O
   0.1979142130000000    0.5418609565000000    0.8553044800000000 O
   0.6979142130000000    0.0418609565000000    0.8553044800000000 O
   0.6979142130000000    0.5418609565000000    0.8553044800000000 O
