Dipotassium nickel diphosphate
1.0
        9.2299995422         0.0000000000         0.0000000000
        0.0000000000        17.5400009155         0.0000000000
       -0.2090576245         0.0000000000         8.3163730058
  K  Ni    K    P    O
  1   8   14   16   56
Direct
     0.002100000         0.298500001         0.211899996
     0.578800023         0.291599989         0.395200014
     0.421199977         0.791599989         0.604799986
     0.576499999         0.538100004         0.596800029
     0.423500001         0.038100004         0.403199971
     0.418599993         0.535399973         0.883599997
     0.581400037         0.035399973         0.116400003
     0.412699997         0.290199995         0.099399999
     0.587300003         0.790199995         0.900600016
     0.248500004         0.929899991         0.059200000
     0.751500010         0.429899991         0.940800011
     0.097599998         0.773500025         0.317000002
     0.902400017         0.273500025         0.682999969
     0.192200005         0.542500019         0.194399998
     0.807799995         0.042500019         0.805599988
     0.998099983         0.035799999         0.276199996
     0.001900000         0.535799980         0.723800004
     0.498100013         0.175600007         0.752300024
     0.501899958         0.675599992         0.247699976
     0.997900009         0.798500001         0.788100004
     0.754599988         0.894100010         0.552399993
     0.875999987         0.605199993         0.303999990
     0.124000013         0.105199993         0.695999980
     0.454200000         0.365200013         0.752399981
     0.545799971         0.865200043         0.247600019
     0.182899997         0.398099989         0.910000026
     0.817099988         0.898100019         0.089999974
     0.741400003         0.628099978         0.906099975
     0.258599997         0.128099978         0.093900025
     0.740100026         0.702300012         0.597500026
     0.259899974         0.202300012         0.402499974
     0.810999990         0.432799995         0.421400011
     0.189000010         0.932799995         0.578599989
     0.541299999         0.465099990         0.250000000
     0.458700001         0.965099990         0.750000000
     0.738600016         0.135600001         0.413700014
     0.261399984         0.635599971         0.586300015
     0.725700021         0.200599998         0.095200002
     0.274299979         0.700600028         0.904799998
     0.497399986         0.453999996         0.744599998
     0.502600014         0.953999996         0.255400002
     0.508899987         0.329299986         0.898400009
     0.491100013         0.829299986         0.101599991
     0.481999993         0.331000000         0.601899981
     0.518000007         0.830999970         0.398100019
     0.276800007         0.362100005         0.764400005
     0.723199964         0.862100005         0.235599995
     0.223800004         0.482300013         0.917500019
     0.776199996         0.982300043         0.082499981
     0.231500000         0.357800007         0.059999999
     0.768499970         0.857800007         0.939999998
     0.030300001         0.383500010         0.864099979
     0.969699979         0.883499980         0.135900021
     0.621200025         0.582499981         0.829299986
     0.378799975         0.082499981         0.170700014
     0.861199975         0.586099982         0.998099983
     0.138800025         0.086099982         0.001900017
     0.682799995         0.695800006         0.004700000
     0.317200005         0.195800006         0.995299995
     0.826399982         0.666000009         0.751699984
     0.173600018         0.166000009         0.248300016
     0.670700014         0.631399989         0.508099973
     0.329299986         0.131399989         0.491900027
     0.632000029         0.752900004         0.667299986
     0.367999971         0.252900004         0.332700014
     0.854399979         0.738099992         0.504000008
     0.145600021         0.238099992         0.495999992
     0.773699999         0.348199993         0.427500010
     0.226300001         0.848199964         0.572499990
     0.771700025         0.480899990         0.566399992
     0.228299975         0.980899990         0.433600008
     0.966700017         0.451799989         0.374799997
     0.033299983         0.951799989         0.625200033
     0.715600014         0.468600005         0.266600013
     0.284399986         0.968600035         0.733399987
     0.493999988         0.377299994         0.263599992
     0.506000042         0.877300024         0.736400008
     0.478599995         0.501900017         0.384900004
     0.521399975         0.001900017         0.615100026
     0.510399997         0.502399981         0.092299998
     0.489600003         0.002399981         0.907700002
     0.855599999         0.102899998         0.515900016
     0.144400001         0.602900028         0.484099984
     0.667900026         0.204300001         0.500400007
     0.332099974         0.704299986         0.499599993
     0.630299985         0.084299996         0.342999995
     0.369700015         0.584299982         0.657000005
     0.818599999         0.170599997         0.257600009
     0.181400001         0.670599997         0.742399991
     0.657100022         0.129500002         0.007100000
     0.342899978         0.629500031         0.992900014
     0.832400024         0.236599997         0.990800023
     0.167599976         0.736599982         0.009200000
     0.607100010         0.244800001         0.174700007
     0.392899990         0.744799972         0.825299978
