Ca8 Cr12 F42                            
   1.00000000000000     
     7.3878880000000002   -0.0215940000000000   -0.5074820000000000
    -3.5995849999999998    6.7075750000000003    0.1780460000000000
     0.9464580000000000    0.0810810000000000   18.6006390000000010
   Ca   Cr   F 
     8    12    42
Direct
  0.6920148879392504  0.8950352380917921  0.7988476762415107
  0.8471854955661953  0.5160002423181403  0.3139885306140243
  0.5715038939223910  0.0692884315767507  0.9927358906457905
  0.0617482700411239  0.8612383770409470  0.6649083717481885
  0.8406502718417893  0.0092221317495139  0.3459412613044973
  0.0862869128299435  0.5778841193089382  0.9787513923839289
  0.9884451127065867  0.8502261308376977  0.1514329384285208
  0.2817228808504640  0.2536145248491538  0.5023292916831165
  0.3477881330939482  0.0149604860023784  0.3438155013997884
  1.0205498814610838  0.3275074820711237  0.6607636890523025
  0.6096750390320487  0.5935260775016830  0.9949355460983003
  0.2947078977698211  0.9557814001090819  0.8313163011982624
  0.9330185558116998  0.3045845953132094  0.1590266855300666
  0.7389177995773182  0.7185936219969445  0.5031677397350726
  0.4404757244534654  0.8051476307926138  0.1728574731314313
  0.2205688902454042  0.7186941323942260  0.4980780483490237
  0.2958728484365374  0.4474055687453715  0.8299253731108925
  0.8067833818366911  0.4601092917964411  0.8149379523855722
  0.7485089341464299  0.2233444136901553  0.4998976576500652
  0.4444291227765122  0.3167465856068151  0.1685060925288127
  0.7651587170792815  0.1879292543019458  0.6018465498991737
  0.7728463229346354  0.4800044102721335  0.9203789636015675
  0.5017160879481399  0.2722884470438477  0.2942596123762509
  0.1785898533173451  0.7398332984332668  0.3879274995410257
  0.3588911323796491  0.7726833947992406  0.0490608268716465
  0.2578573063918640  0.4582622509798291  0.7255684680608508
  0.6933343704387469  0.8592531152950342  0.9505816926827719
  0.9307191701767602  0.8315770762610646  0.2686912859487245
  0.1658656894181372  0.1840576792961394  0.6128831338592126
  0.8881413621561619  0.6961399363030115  0.0449283875131063
  0.9139035824655416  1.0361501852769974  0.7205000397374997
  0.1773672880481198  0.1263753414811589  0.3873291189173383
  0.5139435721290102  0.3231460499321301  0.0370764280071293
  0.7699647817304914  0.2667709943148558  0.3948072124013245
  0.8892101861197346  0.4741973706096537  0.7118639320262033
  0.3385083176178615  0.4869120802349818  0.9419186811401693
  0.2025938293771178  0.6974736155845684  0.6023704687023563
  0.5216192174896401  0.9150389172448073  0.3013754886004146
  0.7533971566439123  0.4335471256819052  0.1786038813731240
  0.6478269010522463  0.4247619149250073  0.5168118840126507
  0.5935579270986190  0.1020621222915276  0.8615545209970635
  0.3576913172649528  0.7283793346698220  0.8329114765410386
  0.4305738372888499  0.6131422492617677  0.4910395503672805
  0.1441402023175623  0.6643870931600337  0.1953755451742748
  0.9405519062425493  0.2798180303973338  0.2654390345540043
  0.7537574998771704  0.7490076766231663  0.6051297585338273
  0.2414859716700918  0.9027223129159161  0.9346574322938137
  0.3725055955916902 -0.0143533004728908  0.7324762970216513
  0.7511569829412704  0.6843699062039350  0.3969730941963324
  0.8987593381547696  0.3028895770000011  0.0506670941866567
  0.1394986097281970  0.2022176001421358  0.1503265308239447
  0.7960512879560501 -0.0056247998148926  0.4723222545048470
  0.0086246136937250  0.7961785714306309  0.7996375400404684
  0.2400978490089444  0.1774813634568331  0.8385322068161749
  0.0510435546231569  0.8579827886396058  0.5118196997359800
  0.7323831778275502  0.9485260052342118  0.1425989463150532
  0.0051713615586329  0.3749327129198719  0.8553298350725704
  0.4918862428933661  0.5813579391530977  0.1967155669130360
  0.4475022803805866  0.0510327320283794  0.4881911432453933
  0.3746635114665026  0.0321444243524343  0.1511055948107761
  0.6020983511064231  0.5636066589352942  0.8014911684824708
  0.0495723717932270  0.3792278167652077  0.5000900444631763
 
             NaN             NaN             NaN
             NaN             NaN             NaN
             NaN             NaN             NaN
             NaN             NaN             NaN
             NaN             NaN             NaN
             NaN             NaN             NaN
             NaN             NaN             NaN
             NaN             NaN             NaN
             NaN             NaN             NaN
             NaN             NaN             NaN
             NaN             NaN             NaN
             NaN             NaN             NaN
             NaN             NaN             NaN
             NaN             NaN             NaN
             NaN             NaN             NaN
             NaN             NaN             NaN
             NaN             NaN             NaN
             NaN             NaN             NaN
             NaN             NaN             NaN
             NaN             NaN             NaN
             NaN             NaN             NaN
             NaN             NaN             NaN
             NaN             NaN             NaN
             NaN             NaN             NaN
             NaN             NaN             NaN
             NaN             NaN             NaN
             NaN             NaN             NaN
             NaN             NaN             NaN
             NaN             NaN             NaN
             NaN             NaN             NaN
             NaN             NaN             NaN
             NaN             NaN             NaN
             NaN             NaN             NaN
             NaN             NaN             NaN
             NaN             NaN             NaN
             NaN             NaN             NaN
             NaN             NaN             NaN
             NaN             NaN             NaN
             NaN             NaN             NaN
             NaN             NaN             NaN
             NaN             NaN             NaN
             NaN             NaN             NaN
             NaN             NaN             NaN
             NaN             NaN             NaN
             NaN             NaN             NaN
             NaN             NaN             NaN
             NaN             NaN             NaN
             NaN             NaN             NaN
             NaN             NaN             NaN
             NaN             NaN             NaN
             NaN             NaN             NaN
             NaN             NaN             NaN
             NaN             NaN             NaN
             NaN             NaN             NaN
             NaN             NaN             NaN
             NaN             NaN             NaN
             NaN             NaN             NaN
             NaN             NaN             NaN
             NaN             NaN             NaN
             NaN             NaN             NaN
             NaN             NaN             NaN
             NaN             NaN             NaN
