Ca8 Cr12 F42
1.0
7.387888 -0.021594 -0.507482
-3.599585 6.707575 0.178046
0.946458 0.081081 18.600639
Ca Cr F
8 12 42
direct
0.698268 0.870631 0.781089 Ca
0.838891 0.514544 0.315145 Ca
0.575843 0.075637 -0.000291 Ca
0.043344 0.851127 0.670849 Ca
0.835022 0.009008 0.345641 Ca
0.103356 0.579543 0.978943 Ca
0.994641 0.856477 0.153122 Ca
0.253090 0.233086 0.502872 Ca
0.338180 0.007228 0.341543 Cr
0.984753 0.284087 0.665799 Cr
0.633840 0.616244 0.996439 Cr
0.322362 0.976305 0.831510 Cr
0.942037 0.312699 0.160283 Cr
0.722193 0.703722 0.502219 Cr
0.449540 0.812180 0.172634 Cr
0.211361 0.707393 0.498676 Cr
0.317315 0.463184 0.826694 Cr
0.812401 0.458188 0.818094 Cr
0.728918 0.207412 0.500836 Cr
0.453171 0.323730 0.167661 Cr
0.731153 0.149587 0.603257 F
0.817174 0.550243 0.917219 F
0.495391 0.264725 0.291741 F
0.163372 0.729407 0.382465 F
0.373741 0.761951 0.051196 F
0.237953 0.437113 0.723381 F
0.728454 0.893821 0.961807 F
0.928066 0.832852 0.269384 F
0.130693 0.155560 0.613068 F
0.907779 0.705127 0.047266 F
0.872497 -0.006308 0.727743 F
0.171856 0.122997 0.386113 F
0.528248 0.341039 0.033740 F
0.761464 0.263555 0.396152 F
0.855622 0.426891 0.714934 F
0.376352 0.521894 0.935974 F
0.212632 0.721312 0.607633 F
0.517388 0.912585 0.299216 F
0.761765 0.442653 0.178896 F
0.616633 0.394988 0.516833 F
0.603902 0.169764 0.870408 F
0.439070 0.791899 0.817661 F
0.415120 0.596994 0.492048 F
0.154412 0.676836 0.195026 F
0.940216 0.283240 0.266756 F
0.735235 0.731645 0.605419 F
0.273567 0.893406 0.932810 F
0.360078 0.043602 0.732595 F
0.733555 0.680081 0.395581 F
0.908184 0.310933 0.051735 F
0.147251 0.206783 0.152200 F
0.808363 1.003674 0.472784 F
0.041573 0.766306 0.798075 F
0.195806 0.145662 0.849461 F
0.028551 0.831471 0.509702 F
0.740346 0.954277 0.142222 F
0.036599 0.407994 0.859480 F
0.495584 0.585435 0.198731 F
0.425872 0.022974 0.483559 F
0.392977 0.042788 0.142391 F
0.605138 0.546806 0.796893 F
0.032259 0.385447 0.508850 F
