Ca1 V12 F42                             
   1.00000000000000     
     7.3845989999999997   -0.0043790000000000   -0.0976320000000000
    -3.6816209999999998    6.3754790000000003    0.0769060000000000
     0.2868290000000000   -0.0152330000000000   17.6106039999999986
   Ca   V    F 
     1    12    42
Direct
  0.8745082838689930  0.4930654617645606  0.3316391944387108
  0.3018371897720677  0.0026427503274022  0.3332149309546878
  0.7154970177777775  0.7129720203270636  0.9980412016230736
  0.0028938032121615  0.2803918056438457  0.6699410504231768
  0.3574910718417556  0.9966627794222288  0.8342251304494860
  0.6577962072985643  0.6642268218213778  0.5069751751146193
  0.9960976547364293  0.3393925853182241  0.1568797516926301
  0.6544869416233517  0.1615783127076217  0.5031972152829751
  0.4931631172344190  0.3408187851676526  0.1593125463102338
  0.8573254247057871  0.4978641237310933  0.8339260198776027
  0.3564954251670998  0.4956554899024004  0.8342302597156818
  0.1602315754122269  0.6627286658703933  0.5101579676308536
  0.4969493545665341  0.8422605641678176  0.1642365502786544
  0.5626091509226476  0.8082924543732490  0.0604555316452367
  0.2500751293727513  0.4132370333942349  0.7322269358547286
  0.1900780768842986  0.7489017918533228  0.4012289706434372
  0.4361250483753610  0.2497028907678455  0.2665802701489595
  0.8307739270416811  0.5788726360719139  0.9359590254169665
  0.7628564529060399  0.1876976576913676  0.6036751263694743
  0.8785220029620524  0.0622910602241534  0.7300966255349902
  0.1854623528912997  0.1168434615164754  0.3886982106558250
  0.9248445747128617  0.8110420233429572  0.0628862041209038
  0.1253054218025671  0.1995433503702500  0.6027240110170856
  0.0599794380757034  0.8216783954231041  0.2782093274614800
  0.8064758795466592  0.9283090531948900  0.9359229342154702
  0.1238609653480369  0.5518961085099366  0.6102024763068176
  0.4434214739988438  0.8896482846313013  0.2698654550389946
  0.4567590059710704  0.5617285208712690  0.9365172248592170
  0.8900862628115670  0.4264355855696814  0.7311476701614658
  0.5761090887313787  0.1560883991357183  0.3920632890259986
  0.5750281728669087  0.4508198935258740  0.0581014301774009
  0.3688068031285263  0.5810377222159745  0.4856812809075088
  0.2035614333659640  0.6338032965129030  0.1470122003487091
  0.4382113477538261  0.7855327063362237  0.8143684062814769
  0.6478749501286302  0.2083199889851562  0.8544662309388091
  0.5757814350856907  0.3702743947136534  0.5235447236094822
  0.7848357404451727  0.4225489717369911  0.1905430346818253
  0.7088841795125410  0.6198927340638086  0.4044120011577624
  0.9216284793651885  0.3209036871673325  0.0613033066964677
  0.3960447182669748  0.0682195912151805  0.7369308504561395
  0.3204479343546552  0.9242636811921462  0.9313724862158074
  0.6275513765809279  0.7073867474189225  0.6033052908475436
  0.0533010334533427  0.3725899414622137  0.2629736578168831
  0.9506633895212498  0.7453114599914101  0.5256783435141100
  0.7929953099267238  0.0499361182050427  0.1792606410230930
  0.2737865004267058  0.2041468596355999  0.8539802193606750
  0.0672898614899570  0.7879246610940498  0.8134986385346283
  0.7339477320916112  0.9533690174481172  0.4791072368783902
  0.2038542000842471  0.2581551658505542  0.1383263936383402
  0.6318465143518159  0.5462673388705697  0.8036432595981298
  0.9323106563308078  0.3953673114168707  0.4636466033099347
  0.4485904819169352  0.0676834205360157  0.1330072524562985
  0.3760691191573452  0.9421195753556600  0.5361509801244454
  0.5434288196674449  0.6135428783658857  0.1940066202874847
  0.0813782310729699  0.4472471262889249  0.8640497098012935
 
             NaN             NaN             NaN
             NaN             NaN             NaN
             NaN             NaN             NaN
             NaN             NaN             NaN
             NaN             NaN             NaN
             NaN             NaN             NaN
             NaN             NaN             NaN
             NaN             NaN             NaN
             NaN             NaN             NaN
             NaN             NaN             NaN
             NaN             NaN             NaN
             NaN             NaN             NaN
             NaN             NaN             NaN
             NaN             NaN             NaN
             NaN             NaN             NaN
             NaN             NaN             NaN
             NaN             NaN             NaN
             NaN             NaN             NaN
             NaN             NaN             NaN
             NaN             NaN             NaN
             NaN             NaN             NaN
             NaN             NaN             NaN
             NaN             NaN             NaN
             NaN             NaN             NaN
             NaN             NaN             NaN
             NaN             NaN             NaN
             NaN             NaN             NaN
             NaN             NaN             NaN
             NaN             NaN             NaN
             NaN             NaN             NaN
             NaN             NaN             NaN
             NaN             NaN             NaN
             NaN             NaN             NaN
             NaN             NaN             NaN
             NaN             NaN             NaN
             NaN             NaN             NaN
             NaN             NaN             NaN
             NaN             NaN             NaN
             NaN             NaN             NaN
             NaN             NaN             NaN
             NaN             NaN             NaN
             NaN             NaN             NaN
             NaN             NaN             NaN
             NaN             NaN             NaN
             NaN             NaN             NaN
             NaN             NaN             NaN
             NaN             NaN             NaN
             NaN             NaN             NaN
             NaN             NaN             NaN
             NaN             NaN             NaN
             NaN             NaN             NaN
             NaN             NaN             NaN
             NaN             NaN             NaN
             NaN             NaN             NaN
             NaN             NaN             NaN
