Ca1 V12 F42
1.0
7.384599 -0.004379 -0.097632
-3.681621 6.375479 0.076906
0.286829 -0.015233 17.610604
Ca V F
1 12 42
direct
0.906961 0.506036 0.326141 Ca
0.298371 0.001480 0.334375 V
0.714369 0.714220 0.997723 V
0.000458 0.284812 0.668160 V
0.352204 0.998772 0.832937 V
0.648544 0.652659 0.507403 V
0.996544 0.343769 0.160678 V
0.650464 0.151438 0.501967 V
0.493934 0.345848 0.161095 V
0.852210 0.499028 0.832919 V
0.352393 0.498764 0.833689 V
0.150210 0.652097 0.505660 V
0.498020 0.846559 0.165511 V
0.570249 0.818372 0.061631 F
0.249792 0.425177 0.729598 F
0.174363 0.736066 0.396128 F
0.451328 0.260391 0.270694 F
0.828170 0.581661 0.934340 F
0.755210 0.179081 0.603638 F
0.878611 0.071312 0.730499 F
0.196827 0.125278 0.393601 F
0.923265 0.801534 0.062789 F
0.123413 0.198908 0.602875 F
0.055838 0.847415 0.276945 F
0.812782 0.935154 0.937916 F
0.107518 0.546091 0.607937 F
0.430064 0.880002 0.270705 F
0.459761 0.570953 0.936082 F
0.883203 0.431178 0.730189 F
0.570310 0.140167 0.392367 F
0.562094 0.448774 0.058234 F
0.357371 0.568190 0.486211 F
0.207215 0.633287 0.146567 F
0.434325 0.789919 0.813419 F
0.644416 0.209186 0.853632 F
0.571416 0.361067 0.521170 F
0.790816 0.437909 0.187460 F
0.680019 0.611992 0.401609 F
0.915207 0.315829 0.066244 F
0.391708 0.071396 0.736295 F
0.316107 0.928691 0.929853 F
0.617219 0.689986 0.604426 F
0.044678 0.383765 0.265816 F
0.940712 0.734794 0.519410 F
0.790381 0.056660 0.184705 F
0.268223 0.206120 0.853006 F
0.062184 0.790462 0.811942 F
0.728156 0.940868 0.481215 F
0.198941 0.259067 0.147943 F
0.623840 0.545907 0.803329 F
0.924269 0.381641 0.465749 F
0.447462 0.071178 0.135972 F
0.373591 0.929373 0.531231 F
0.547564 0.620027 0.197754 F
0.079794 0.450450 0.863990 F
