Ca7 Mn16 F48                            
   1.00000000000000     
    11.5063709999999997    0.0000040000000000   -0.0073790000000000
     0.0000110000000000    8.2089900000000000   -0.0000050000000000
    -0.0071860000000000   -0.0000060000000000   11.1464300000000005
   Ca   Mn   F 
     7    16    48
Direct
  0.5494157679474004  0.7500018893247978  0.5850370192441264
  0.2201305272483293  0.7500030440413930  0.2500715035195011
  0.2194698626339473  0.7500044463827588  0.7404971356106979
  0.7132346655982938  0.7500266772018387  0.2473447507003312
  0.4688403616818900  0.7499978827141052  0.0003347805258413
  0.9574705780754441  0.7499967185013617  0.0015414001575122
  0.9680058042749130  0.7499973551123447  0.5093089831746442
  0.4967560428268741  0.4856853275184211  0.2559772265526596
  0.4936358513505655  0.4618603235993759  0.7601440602865680
  0.9993727260766138  0.4845223793084912  0.2480559816685792
  0.9931314640470358  0.4862508141350402  0.7511087458509806
  0.2556336786018564  0.0127670920362414  0.4981936259195863
  0.2434761012852973  0.0175767836027584  0.9974039015739932
  0.7529659197538622  0.0270932934738881  0.5010055970782314
  0.7428914128266899  0.0142946453004998  0.9948392092449052
  0.4967648403143973  0.0143270925542843  0.2559888032799424
  0.4936541330702148  0.0381280806349521  0.7600956885712219
  0.9993735142384612  0.0154755836030230  0.2480663659369972
  0.9931247705480568  0.0137462066919383  0.7511036624663706
  0.2556243890566333  0.4872417827395317  0.4981921863903824
  0.2434876576450168  0.4824203455398300  0.9974004547703482
  0.7530098998633745  0.4727938849186061  0.5010402636006177
  0.7428966060754245  0.4857062192239153  0.9948455773473504
  0.4927417380545751  0.2500039014928384  0.2136481244517912
  0.4216040357737260  0.2500006365920937  0.7173775124761430
  0.9777014601396159  0.2500045207920662  0.2142391152593967
  0.9895884607677876  0.2500056262230059  0.7215608912938659
  0.2242736555812560  0.2500136866690988  0.0437665669102670
  0.2308495924845858  0.2500072053640973  0.5267613735732541
  0.7432083912634415  0.2500016242450250  0.0376143613530569
  0.7856603096877722  0.2500624700990927  0.5539080971063619
  0.0193593572277791  0.7500008692057519  0.2978680951402948
  0.0176462153467415  0.7499964354869895  0.7955948850629746
  0.5145319450588031  0.7499979634186433  0.2982520215030864
  0.5199878008877211  0.7500034339036591  0.7887244188075060
  0.2650706355877724  0.7499995119819910  0.4530629811946923
  0.2692634386230817  0.7500011979186275  0.9438880382719587
  0.7295152083506157  0.7500144946403066  0.4729175053110680
  0.7532625801212026  0.7499920446992405  0.9687399437047322
  0.3519097962074411  0.5813526204700631  0.1467711104501633
  0.3609576966359284  0.5790186799863511  0.6520861231523983
  0.8509193938628975  0.5778355636412281  0.1477464201727180
  0.8661513670483985  0.5724773914298478  0.6363148087162132
  0.1008773085617341  0.9170274902397521  0.0980961142534284
  0.1108554633643287  0.9220652467070850  0.5981166031760450
  0.5986286403089970  0.9243786586188331  0.1075576961131281
  0.6002393302388429  1.0065785840884101  0.6030826454724036
  0.1618559759592861  0.0021275361405321  0.3334818739356847
  0.1589207786067636  0.0021712888298436  0.8328042000071998
  0.6652033917275006  0.0049324674430334  0.3369050450500122
  0.6428290527649293  0.0447479439642532  0.8514940900176892
  0.4038946801561943  0.4666512258763078  0.4050306438398316
  0.4100679374206697  0.4954835335861619  0.9201754270608794
  0.9045203574932531  0.5162140423469093  0.4049754226963876
  0.9087755488648139  0.5006198844613121  0.9156988199919299
  0.1618584423860968  0.4978789865593235  0.3334870274280344
  0.1589183508614805  0.4978347147226262  0.8328037535338473
  0.6651874623931858  0.4950902402854884  0.3369022472956441
  0.6428219655736856  0.4552560830130231  0.8515055640821436
  0.4038891713954036  0.0333505518442876  0.4050349817696419
  0.4100677116965148  0.0045227249030552  0.9201856153471137
  0.9045281794322813 -0.0162211590489628  0.4049844506036848
  0.9087659750871202 -0.0006150842542994  0.9157000307999477
  0.3519072041542838  0.9186498231531550  0.1467716526689866
  0.3609498470218312  0.9209816021248433  0.6520881524844769
  0.8509243580764976  0.9221560531897431  0.1477452830216325
  0.8661673946085010  0.9274870809136754  0.6363368988051078
  0.1008810180994813  0.5829786547385138  0.0980959813620984
  0.1108598965142062  0.5779345706404925  0.5981159676193147
  0.5986384250585671  0.5756149258261988  0.1075717587304528
  0.6002428841316741  0.4933945712366000  0.6030775342706106
 
             NaN             NaN             NaN
             NaN             NaN             NaN
             NaN             NaN             NaN
             NaN             NaN             NaN
             NaN             NaN             NaN
             NaN             NaN             NaN
             NaN             NaN             NaN
             NaN             NaN             NaN
             NaN             NaN             NaN
             NaN             NaN             NaN
             NaN             NaN             NaN
             NaN             NaN             NaN
             NaN             NaN             NaN
             NaN             NaN             NaN
             NaN             NaN             NaN
             NaN             NaN             NaN
             NaN             NaN             NaN
             NaN             NaN             NaN
             NaN             NaN             NaN
             NaN             NaN             NaN
             NaN             NaN             NaN
             NaN             NaN             NaN
             NaN             NaN             NaN
             NaN             NaN             NaN
             NaN             NaN             NaN
             NaN             NaN             NaN
             NaN             NaN             NaN
             NaN             NaN             NaN
             NaN             NaN             NaN
             NaN             NaN             NaN
             NaN             NaN             NaN
             NaN             NaN             NaN
             NaN             NaN             NaN
             NaN             NaN             NaN
             NaN             NaN             NaN
             NaN             NaN             NaN
             NaN             NaN             NaN
             NaN             NaN             NaN
             NaN             NaN             NaN
             NaN             NaN             NaN
             NaN             NaN             NaN
             NaN             NaN             NaN
             NaN             NaN             NaN
             NaN             NaN             NaN
             NaN             NaN             NaN
             NaN             NaN             NaN
             NaN             NaN             NaN
             NaN             NaN             NaN
             NaN             NaN             NaN
             NaN             NaN             NaN
             NaN             NaN             NaN
             NaN             NaN             NaN
             NaN             NaN             NaN
             NaN             NaN             NaN
             NaN             NaN             NaN
             NaN             NaN             NaN
             NaN             NaN             NaN
             NaN             NaN             NaN
             NaN             NaN             NaN
             NaN             NaN             NaN
             NaN             NaN             NaN
             NaN             NaN             NaN
             NaN             NaN             NaN
             NaN             NaN             NaN
             NaN             NaN             NaN
             NaN             NaN             NaN
             NaN             NaN             NaN
             NaN             NaN             NaN
             NaN             NaN             NaN
             NaN             NaN             NaN
             NaN             NaN             NaN
