Ca7 Mn16 F48
1.0
11.506371 0.000004 -0.007379
0.000011 8.208990 -0.000005
-0.007186 -0.000006 11.146430
Ca Mn F
7 16 48
direct
0.558661 0.749998 0.596003 Ca
0.215793 0.750002 0.246223 Ca
0.217154 0.750000 0.742438 Ca
0.712481 0.750000 0.244966 Ca
0.466005 0.750000 1.001339 Ca
0.962109 0.750002 0.005110 Ca
0.963329 0.750000 0.508311 Ca
0.495918 0.483572 0.253964 Mn
0.500523 0.488060 0.748876 Mn
0.995240 0.481579 0.252852 Mn
0.994231 0.484050 0.752799 Mn
0.249143 0.015903 0.497885 Mn
0.245964 0.018744 0.996456 Mn
0.743953 0.013355 0.501863 Mn
0.744997 0.014916 0.995983 Mn
0.495918 0.016427 0.253963 Mn
0.500521 0.011939 0.748876 Mn
0.995238 0.018419 0.252854 Mn
0.994230 0.015943 0.752800 Mn
0.249143 0.484097 0.497886 Mn
0.245966 0.481256 0.996456 Mn
0.743955 0.486645 0.501863 Mn
0.745000 0.485079 0.995986 Mn
0.481789 0.249999 0.210314 F
0.483901 0.249999 0.717221 F
0.976920 0.249999 0.207523 F
0.979947 0.249996 0.715149 F
0.224341 0.250002 0.042799 F
0.227761 0.250000 0.537604 F
0.737350 0.249996 0.037741 F
0.734335 0.250001 0.534026 F
0.014755 0.749999 0.302460 F
0.017919 0.750002 0.800381 F
0.512742 0.750007 0.295672 F
0.508160 0.750004 0.795416 F
0.263838 0.750001 0.450488 F
0.264330 0.749999 0.946607 F
0.763603 0.750001 0.451846 F
0.760819 0.750002 0.961594 F
0.351434 0.580818 0.145879 F
0.349220 0.569977 0.652593 F
0.851372 0.578604 0.148861 F
0.861785 0.571404 0.643288 F
0.102136 0.918018 0.102220 F
0.105661 0.918951 0.600354 F
0.600021 0.921932 0.103585 F
0.600323 0.939871 0.598261 F
0.160439 0.004326 0.333658 F
0.158431 0.007086 0.833834 F
0.662690 0.003053 0.333182 F
0.651731 0.023333 0.845270 F
0.404751 0.481470 0.408846 F
0.409856 0.496728 0.913744 F
0.907367 0.495657 0.413783 F
0.912428 0.497502 0.918948 F
0.160440 0.495673 0.333656 F
0.158431 0.492913 0.833830 F
0.662689 0.496947 0.333182 F
0.651735 0.476671 0.845271 F
0.404750 0.018526 0.408844 F
0.409854 0.003271 0.913743 F
0.907367 0.004347 0.413787 F
0.912423 0.002500 0.918952 F
0.351430 0.919185 0.145875 F
0.349220 0.930028 0.652594 F
0.851372 0.921394 0.148863 F
0.861784 0.928592 0.643288 F
0.102137 0.581983 0.102218 F
0.105661 0.581049 0.600350 F
0.600023 0.578068 0.103588 F
0.600323 0.560128 0.598262 F
