Na2 Ca2 V4 Si4 P2 O24
1.0
8.832108 0.147667 0.051103
4.284838 7.726090 0.105263
4.397543 2.610996 7.219999
Ca Na V Si P O
2 2 4 4 2 24
direct
0.740510 0.399518 0.120771 Ca
0.009917 0.980810 0.002716 Ca
0.428751 0.524118 0.532481 Na
0.859414 0.251908 0.599678 Na
0.350309 0.363209 0.350933 V
0.620595 0.656135 0.652693 V
0.149812 0.148770 0.136081 V
0.850828 0.854516 0.844990 V
0.023556 0.472356 0.741831 Si
0.737217 0.042684 0.462586 Si
0.446821 0.762203 0.030982 Si
0.541560 0.256718 0.959318 Si
0.958553 0.544900 0.242800 P
0.247809 0.966479 0.527490 P
0.200039 0.440330 0.558562 O
0.790461 0.562068 0.421631 O
0.567949 0.242602 0.432946 O
0.412307 0.784345 0.545834 O
0.432779 0.582240 0.224466 O
0.555674 0.429716 0.759304 O
0.905260 0.077807 0.258583 O
0.080265 0.956683 0.715929 O
0.048980 0.281670 0.925498 O
0.932183 0.728060 0.074822 O
0.262516 0.940897 0.055761 O
0.732546 0.078792 0.929275 O
0.522913 0.303132 0.126296 O
0.461945 0.722504 0.860647 O
0.142243 0.503426 0.257738 O
0.820283 0.503458 0.751526 O
0.297356 0.133683 0.478936 O
0.694383 0.859576 0.512143 O
0.350736 0.214052 0.020409 O
0.644724 0.777504 0.985731 O
0.183157 1.000283 0.376406 O
0.789646 0.012159 0.631377 O
-0.033237 0.380472 0.212192 O
1.006845 0.649843 0.772899 O
