Mg16 Ti16 Si16 O64
1.0
   9.5488520188481587    0.0002289272200218   -0.0000007986615512
   0.0002769213129257   10.7212368389053943   -0.0000009965335030
  -0.0000007956804968   -0.0000011570987058   12.3532755494116948
Mg Ti Si O
15 16 16 64
direct
   0.4999984254518685    0.0000023404299039    0.7500003833700256 Mg
   0.2499983740261948    0.4999979647216037    0.2500006254999361 Mg
   0.2499983740261948    0.4999979647216036    0.7500006254999361 Mg
   0.7499983740261947    0.4999979647216036    0.2500006254999361 Mg
   0.7499983740261948    0.4999979647216037    0.7500006254999362 Mg
   0.2499983792321759    0.4999979661414883    0.4999993719824222 Mg
   0.2499983792321759    0.4999979661414883    0.9999993719824222 Mg
   0.7499983792321758    0.4999979661414883    0.4999993719824222 Mg
   0.7499983792321758    0.4999979661414883    0.9999993719824223 Mg
   0.4999984254518685    0.0000023404299039    0.2500003833700257 Mg
   0.9999984254518686    0.0000023404299039    0.2500003833700257 Mg
   0.9999984254518686    0.0000023404299039    0.7500003833700257 Mg
   0.4999987163939946    0.0000023105719446    0.9999996194939860 Mg
   0.9999987163939946    0.0000023105719446    0.4999996194939859 Mg
   0.9999987163939947    0.0000023105719446    0.9999996194939860 Mg
   0.4938953747944891    0.2741455108960646    0.1249999601882426 Ti
   0.4938953747944891    0.2741455108960645    0.6249999601882427 Ti
   0.9938953747944891    0.2741455108960646    0.1249999601882426 Ti
   0.9938953747944890    0.2741455108960646    0.6249999601882427 Ti
   0.2438939527120914    0.2258562643184244    0.3750000351848636 Ti
   0.2438939527120914    0.2258562643184244    0.8750000351848636 Ti
   0.7438939527120912    0.2258562643184244    0.3750000351848636 Ti
   0.7438939527120915    0.2258562643184244    0.8750000351848636 Ti
   0.0061015118590949    0.7258538202485224    0.3750000183441164 Ti
   0.0061015118590949    0.7258538202485224    0.8750000183441166 Ti
   0.5061015118590949    0.7258538202485225    0.3750000183441164 Ti
   0.5061015118590948    0.7258538202485225    0.8750000183441164 Ti
   0.2561084933142750    0.7741488484700167    0.1249999705052695 Ti
   0.2561084933142750    0.7741488484700169    0.6249999705052695 Ti
   0.7561084933142751    0.7741488484700169    0.1249999705052695 Ti
   0.7561084933142751    0.7741488484700169    0.6249999705052696 Ti
   0.0355917580389742    0.5913592428023583    0.1250000029964438 Si
   0.0355917580389742    0.5913592428023583    0.6250000029964438 Si
   0.5355917580389742    0.5913592428023582    0.1250000029964438 Si
   0.5355917580389741    0.5913592428023583    0.6250000029964438 Si
   0.2144070765863900    0.0913618081208942    0.1250000163674347 Si
   0.2144070765863900    0.0913618081208942    0.6250000163674347 Si
   0.7144070765863900    0.0913618081208942    0.1250000163674347 Si
   0.7144070765863900    0.0913618081208942    0.6250000163674347 Si
   0.4644084362122624    0.4086367962222567    0.3749999932745615 Si
   0.4644084362122622    0.4086367962222567    0.8749999932745616 Si
   0.9644084362122624    0.4086367962222568    0.3749999932745615 Si
   0.9644084362122622    0.4086367962222568    0.8749999932745616 Si
   0.2855921756222803    0.9086411962874795    0.3749999952607745 Si
   0.2855921756222803    0.9086411962874795    0.8749999952607747 Si
   0.7855921756222802    0.9086411962874794    0.3749999952607745 Si
   0.7855921756222802    0.9086411962874795    0.8749999952607745 Si
   0.3651033000885074    0.5845905195668523    0.1250000083489400 O
   0.3651033000885074    0.5845905195668523    0.6250000083489400 O
   0.8651033000885074    0.5845905195668523    0.1250000083489400 O
   0.8651033000885073    0.5845905195668523    0.6250000083489400 O
   0.3848967104237845    0.0845934186277755    0.1250000056182798 O
   0.3848967104237845    0.0845934186277755    0.6250000056182798 O
   0.8848967104237845    0.0845934186277755    0.1250000056182798 O
   0.8848967104237845    0.0845934186277755    0.6250000056182798 O
   0.1348978673865321    0.4154040022078134    0.3749999853426218 O
   0.1348978673865321    0.4154040022078134    0.8749999853426219 O
   0.6348978673865321    0.4154040022078134    0.3749999853426218 O
   0.6348978673865321    0.4154040022078134    0.8749999853426218 O
   0.1151034336549692    0.9154119064116485    0.3749999806560574 O
   0.1151034336549692    0.9154119064116485    0.8749999806560574 O
   0.6151034336549691    0.9154119064116484    0.3749999806560575 O
   0.6151034336549691    0.9154119064116485    0.8749999806560576 O
   0.1386885389702056    0.9506191042647140    0.1250000005139648 O
   0.1386885389702056    0.9506191042647140    0.6250000005139649 O
   0.6386885389702056    0.9506191042647139    0.1250000005139648 O
   0.6386885389702056    0.9506191042647139    0.6250000005139648 O
   0.1113165996540758    0.4506081518190542    0.1250000096343402 O
   0.1113165996540758    0.4506081518190542    0.6250000096343402 O
   0.6113165996540758    0.4506081518190542    0.1250000096343402 O
   0.6113165996540758    0.4506081518190542    0.6250000096343402 O
   0.3613127670968112    0.0493847270023026    0.3749999995311349 O
   0.3613127670968112    0.0493847270023026    0.8749999995311349 O
   0.8613127670968111    0.0493847270023026    0.3749999995311349 O
   0.8613127670968113    0.0493847270023026    0.8749999995311349 O
   0.3886837724424370    0.5493854774340237    0.3749999929242548 O
   0.3886837724424370    0.5493854774340237    0.8749999929242549 O
   0.8886837724424370    0.5493854774340238    0.3749999929242548 O
   0.8886837724424369    0.5493854774340238    0.8749999929242548 O
   0.1100781950107696    0.6581318329051182    0.0180700922973194 O
   0.1100781950107696    0.6581318329051182    0.5180700922973194 O
   0.6100781950107697    0.6581318329051182    0.0180700922973194 O
   0.6100781950107695    0.6581318329051183    0.5180700922973195 O
   0.1399260726836234    0.1581373237611319    0.2319340820477364 O
   0.1399260726836234    0.1581373237611319    0.7319340820477364 O
   0.6399260726836234    0.1581373237611319    0.2319340820477364 O
   0.6399260726836233    0.1581373237611319    0.7319340820477365 O
   0.3899248518262797    0.3418612991858666    0.2680699693253871 O
   0.3899248518262797    0.3418612991858666    0.7680699693253872 O
   0.8899248518262798    0.3418612991858666    0.2680699693253871 O
   0.8899248518262797    0.3418612991858666    0.7680699693253871 O
   0.3600730473617847    0.8418688684764166    0.4819359454792328 O
   0.3600730473617847    0.8418688684764166    0.9819359454792328 O
   0.8600730473617847    0.8418688684764165    0.4819359454792328 O
   0.8600730473617847    0.8418688684764166    0.9819359454792329 O
   0.3899248435190615    0.3418613505499813    0.4819300087032717 O
   0.3899248435190615    0.3418613505499813    0.9819300087032717 O
   0.8899248435190615    0.3418613505499813    0.4819300087032717 O
   0.8899248435190614    0.3418613505499813    0.9819300087032719 O
   0.3600730471328531    0.8418688464022759    0.2680640395034540 O
   0.3600730471328532    0.8418688464022760    0.7680640395034540 O
   0.8600730471328532    0.8418688464022760    0.2680640395034540 O
   0.8600730471328532    0.8418688464022760    0.7680640395034540 O
   0.1100781978455442    0.6581318712718334    0.2319299413618920 O
   0.1100781978455442    0.6581318712718334    0.7319299413618920 O
   0.6100781978455442    0.6581318712718335    0.2319299413618920 O
   0.6100781978455442    0.6581318712718335    0.7319299413618920 O
   0.1399260806586627    0.1581372308822267    0.0180659462440470 O
   0.1399260806586627    0.1581372308822267    0.5180659462440471 O
   0.6399260806586626    0.1581372308822267    0.0180659462440470 O
   0.6399260806586626    0.1581372308822267    0.5180659462440471 O
