Ca48 Mn32 O112
1.0
  10.4976175982443483    0.0000000000000000    0.0000000000000006
   0.0000000000000031   19.3486414434772094    0.0000000000000012
   0.0000000000000000    0.0000000000000000   10.5063117800028358
Ca Mn O
47 32 112
direct
   0.6226109725000003    0.1864406699999999    0.6383127149999998 Ca
   0.1226109725000002    0.1864406699999999    0.1383127149999999 Ca
   0.1226109725000002    0.1864406699999999    0.6383127149999999 Ca
   0.6226109725000003    0.1864406699999999    0.1383127149999998 Ca
   0.1273890274999998    0.3135593300000001    0.3883127149999999 Ca
   0.1273890274999998    0.3135593300000001    0.8883127149999999 Ca
   0.6273890274999998    0.3135593300000001    0.3883127149999999 Ca
   0.3736638725000000    0.5000000000000000    0.1090160899999999 Ca
   0.3736638725000000    0.5000000000000000    0.6090160899999999 Ca
   0.8736638725000000    0.5000000000000000    0.1090160899999999 Ca
   0.8736638725000000    0.5000000000000000    0.6090160899999999 Ca
   0.3763361274999999    0.0000000000000000    0.3590160899999999 Ca
   0.3763361274999999    0.0000000000000000    0.8590160899999998 Ca
   0.8763361274999999    0.0000000000000000    0.3590160899999999 Ca
   0.8763361274999999    0.0000000000000000    0.8590160899999998 Ca
   0.1226109725000002    0.8135593300000001    0.1383127149999998 Ca
   0.1226109725000002    0.8135593300000001    0.6383127149999999 Ca
   0.6226109725000003    0.8135593300000001    0.1383127149999998 Ca
   0.6226109725000003    0.8135593300000001    0.6383127149999999 Ca
   0.3773890274999998    0.8135593300000001    0.3883127149999999 Ca
   0.3773890274999998    0.8135593300000001    0.8883127150000000 Ca
   0.8773890274999999    0.8135593300000001    0.3883127149999999 Ca
   0.8773890274999999    0.8135593300000001    0.8883127150000000 Ca
   0.1273890274999998    0.6864406699999999    0.3883127149999999 Ca
   0.1273890274999998    0.6864406699999999    0.8883127149999999 Ca
   0.6273890274999997    0.6864406699999999    0.3883127149999998 Ca
   0.6273890274999997    0.6864406699999999    0.8883127149999999 Ca
   0.3726109725000002    0.6864406699999999    0.1383127149999998 Ca
   0.3726109725000002    0.6864406699999999    0.6383127149999999 Ca
   0.8726109725000002    0.6864406699999999    0.1383127149999998 Ca
   0.8726109725000002    0.6864406699999999    0.6383127149999999 Ca
   0.1236638725000001    0.0000000000000000    0.1090160899999999 Ca
   0.1236638725000001    0.0000000000000000    0.6090160899999999 Ca
   0.6236638725000001    0.0000000000000000    0.1090160899999999 Ca
   0.6236638725000001    0.0000000000000000    0.6090160899999999 Ca
   0.1263361274999999    0.5000000000000000    0.3590160899999999 Ca
   0.1263361274999999    0.5000000000000000    0.8590160900000000 Ca
   0.6263361274999999    0.5000000000000000    0.3590160899999999 Ca
   0.6263361274999999    0.5000000000000000    0.8590160899999999 Ca
   0.3726109725000002    0.3135593300000001    0.1383127149999998 Ca
   0.3726109725000002    0.3135593300000001    0.6383127149999999 Ca
   0.8726109725000002    0.3135593300000001    0.1383127149999998 Ca
   0.8726109725000002    0.3135593300000001    0.6383127149999999 Ca
   0.3773890274999998    0.1864406699999999    0.3883127149999999 Ca
   0.3773890274999998    0.1864406699999999    0.8883127149999999 Ca
   0.8773890274999998    0.1864406699999999    0.3883127149999999 Ca
   0.8773890274999998    0.1864406699999999    0.8883127149999999 Ca
   0.3749807300000000    0.9019028650000001    0.1250574249999999 Mn
   0.3749807300000000    0.9019028650000001    0.6250574249999999 Mn
   0.8749807300000001    0.9019028650000001    0.1250574249999999 Mn
   0.8749807300000001    0.9019028650000001    0.6250574249999999 Mn
   0.1250192700000000    0.9019028650000001    0.3750574249999999 Mn
   0.1250192700000000    0.9019028650000001    0.8750574249999999 Mn
   0.6250192700000000    0.9019028650000001    0.3750574249999999 Mn
   0.6250192700000000    0.9019028650000001    0.8750574249999998 Mn
   0.3750192700000000    0.5980971349999999    0.3750574250000000 Mn
   0.3750192700000000    0.5980971349999999    0.8750574249999999 Mn
   0.8750192699999999    0.5980971349999999    0.3750574250000000 Mn
   0.8750192699999999    0.5980971349999999    0.8750574249999998 Mn
   0.1249807300000001    0.5980971349999999    0.1250574250000000 Mn
   0.1249807300000001    0.5980971349999999    0.6250574250000001 Mn
   0.6249807300000000    0.5980971349999999    0.1250574249999999 Mn
   0.6249807300000000    0.5980971349999999    0.6250574249999999 Mn
   0.1249807300000001    0.4019028650000001    0.1250574249999999 Mn
   0.1249807300000001    0.4019028650000001    0.6250574249999999 Mn
   0.6249807300000001    0.4019028650000001    0.1250574249999999 Mn
   0.6249807300000001    0.4019028650000001    0.6250574249999999 Mn
   0.3750192700000000    0.4019028650000001    0.3750574249999999 Mn
   0.3750192700000000    0.4019028650000001    0.8750574249999999 Mn
   0.8750192700000000    0.4019028650000001    0.3750574249999999 Mn
   0.8750192700000000    0.4019028650000001    0.8750574249999999 Mn
   0.1250192699999999    0.0980971349999999    0.3750574249999999 Mn
   0.1250192699999999    0.0980971349999999    0.8750574249999999 Mn
   0.6250192699999999    0.0980971349999999    0.3750574250000000 Mn
   0.6250192699999999    0.0980971349999999    0.8750574249999999 Mn
   0.3749807300000001    0.0980971349999999    0.1250574249999999 Mn
   0.3749807300000001    0.0980971349999999    0.6250574249999999 Mn
   0.8749807300000001    0.0980971349999999    0.1250574249999999 Mn
   0.8749807300000001    0.0980971349999999    0.6250574249999999 Mn
   0.0964622800000000    0.5000000000000000    0.1297470399999999 O
   0.0964622800000000    0.5000000000000000    0.6297470399999999 O
   0.5964622800000000    0.5000000000000000    0.1297470399999999 O
   0.5964622800000000    0.5000000000000000    0.6297470399999999 O
   0.1535377200000000    0.0000000000000000    0.3797470399999999 O
   0.1535377200000000    0.0000000000000000    0.8797470399999999 O
   0.6535377200000000    0.0000000000000000    0.3797470400000000 O
   0.6535377200000000    0.0000000000000000    0.8797470399999999 O
   0.2693162550000001    0.5862404750000001    0.2306772349999999 O
   0.2693162550000001    0.5862404750000001    0.7306772349999999 O
   0.7693162550000000    0.5862404750000001    0.2306772349999999 O
   0.7693162550000000    0.5862404750000001    0.7306772349999999 O
   0.2306837449999999    0.5862404750000001    0.4806772350000000 O
   0.2306837449999999    0.5862404750000001    0.9806772350000000 O
   0.7306837449999999    0.5862404750000001    0.4806772349999999 O
   0.7306837449999999    0.5862404750000001    0.9806772349999999 O
   0.4806837449999998    0.9137595249999999    0.4806772349999999 O
   0.4806837449999998    0.9137595249999999    0.9806772349999999 O
   0.9806837450000000    0.9137595249999999    0.4806772349999999 O
   0.9806837450000000    0.9137595249999999    0.9806772349999999 O
   0.0193162550000001    0.9137595249999999    0.2306772349999999 O
   0.0193162550000001    0.9137595249999999    0.7306772349999999 O
   0.5193162550000001    0.9137595249999999    0.2306772349999999 O
   0.5193162550000001    0.9137595249999999    0.7306772349999998 O
   0.0188263575000000    0.6076908600000002    0.2687246300000000 O
   0.0188263575000000    0.6076908600000002    0.7687246300000000 O
   0.5188263574999999    0.6076908600000002    0.2687246300000000 O
   0.5188263574999999    0.6076908600000002    0.7687246300000000 O
   0.4811736424999999    0.6076908600000002    0.0187246300000000 O
   0.4811736424999999    0.6076908600000002    0.5187246300000000 O
   0.9811736424999999    0.6076908600000002    0.0187246300000000 O
   0.9811736424999999    0.6076908600000002    0.5187246300000000 O
   0.2311736424999999    0.8923091399999998    0.0187246300000000 O
   0.2311736424999999    0.8923091399999998    0.5187246300000000 O
   0.7311736424999999    0.8923091399999998    0.0187246300000000 O
   0.7311736424999999    0.8923091399999998    0.5187246300000000 O
   0.2688263575000001    0.8923091399999998    0.2687246300000000 O
   0.2688263575000001    0.8923091399999998    0.7687246300000000 O
   0.7688263575000001    0.8923091399999998    0.2687246300000000 O
   0.7688263575000001    0.8923091399999998    0.7687246300000000 O
   0.1452645024999999    0.6952482700000001    0.1228560249999999 O
   0.1452645024999999    0.6952482700000001    0.6228560249999999 O
   0.6452645024999999    0.6952482700000001    0.1228560249999999 O
   0.6452645024999999    0.6952482700000001    0.6228560249999999 O
   0.3547354975000001    0.6952482700000001    0.3728560249999999 O
   0.3547354975000001    0.6952482700000001    0.8728560249999999 O
   0.8547354975000000    0.6952482700000001    0.3728560249999999 O
   0.8547354975000000    0.6952482700000001    0.8728560249999999 O
   0.1047354975000001    0.8047517299999999    0.3728560249999999 O
   0.1047354975000001    0.8047517299999999    0.8728560249999999 O
   0.6047354975000001    0.8047517299999999    0.3728560249999999 O
   0.6047354975000001    0.8047517299999999    0.8728560249999999 O
   0.3952645024999999    0.8047517299999999    0.1228560249999999 O
   0.3952645024999999    0.8047517299999999    0.6228560249999999 O
   0.8952645024999999    0.8047517299999999    0.1228560249999999 O
   0.8952645024999999    0.8047517299999999    0.6228560249999999 O
   0.3464622800000000    0.0000000000000000    0.1297470399999999 O
   0.3464622800000000    0.0000000000000000    0.6297470399999999 O
   0.8464622799999999    0.0000000000000000    0.1297470399999999 O
   0.8464622799999999    0.0000000000000000    0.6297470399999999 O
   0.4035377200000000    0.5000000000000000    0.3797470399999999 O
   0.4035377200000000    0.5000000000000000    0.8797470399999998 O
   0.9035377200000000    0.5000000000000000    0.3797470399999999 O
   0.9035377200000000    0.5000000000000000    0.8797470399999998 O
   0.0193162550000001    0.0862404750000001    0.2306772349999999 O
   0.0193162550000001    0.0862404750000001    0.7306772349999999 O
   0.5193162550000001    0.0862404750000001    0.2306772349999999 O
   0.5193162550000001    0.0862404750000001    0.7306772349999999 O
   0.4806837449999999    0.0862404750000001    0.4806772349999999 O
   0.4806837449999999    0.0862404750000001    0.9806772349999998 O
   0.9806837449999999    0.0862404750000001    0.4806772349999999 O
   0.9806837449999999    0.0862404750000001    0.9806772349999998 O
   0.2306837449999999    0.4137595249999999    0.4806772349999999 O
   0.2306837449999999    0.4137595249999999    0.9806772349999998 O
   0.7306837450000000    0.4137595249999999    0.4806772349999999 O
   0.7306837450000000    0.4137595249999999    0.9806772349999998 O
   0.2693162550000001    0.4137595249999999    0.2306772349999999 O
   0.2693162550000001    0.4137595249999999    0.7306772349999999 O
   0.7693162550000001    0.4137595249999999    0.2306772349999999 O
   0.7693162550000001    0.4137595249999999    0.7306772349999999 O
   0.2688263575000001    0.1076908600000002    0.2687246300000000 O
   0.2688263575000001    0.1076908600000002    0.7687246300000001 O
   0.7688263575000001    0.1076908600000002    0.2687246300000000 O
   0.7688263575000001    0.1076908600000002    0.7687246300000000 O
   0.2311736424999999    0.1076908600000002    0.0187246300000000 O
   0.2311736424999999    0.1076908600000002    0.5187246300000000 O
   0.7311736425000001    0.1076908600000002    0.0187246300000000 O
   0.7311736425000001    0.1076908600000002    0.5187246300000000 O
   0.4811736424999999    0.3923091399999998    0.0187246300000000 O
   0.4811736424999999    0.3923091399999998    0.5187246300000000 O
   0.9811736425000001    0.3923091399999998    0.0187246300000000 O
   0.9811736425000001    0.3923091399999998    0.5187246300000000 O
   0.0188263575000001    0.3923091399999998    0.2687246300000000 O
   0.0188263575000001    0.3923091399999998    0.7687246300000001 O
   0.5188263575000001    0.3923091399999998    0.2687246300000000 O
   0.5188263575000001    0.3923091399999998    0.7687246300000000 O
   0.3952645024999999    0.1952482700000000    0.1228560249999999 O
   0.3952645024999999    0.1952482700000000    0.6228560249999999 O
   0.8952645024999998    0.1952482700000000    0.1228560249999999 O
   0.8952645024999998    0.1952482700000000    0.6228560249999999 O
   0.1047354975000001    0.1952482700000000    0.3728560250000000 O
   0.1047354975000001    0.1952482700000000    0.8728560250000000 O
   0.6047354975000000    0.1952482700000000    0.3728560250000000 O
   0.6047354975000000    0.1952482700000000    0.8728560250000000 O
   0.3547354975000001    0.3047517300000000    0.3728560249999999 O
   0.3547354975000001    0.3047517300000000    0.8728560250000000 O
   0.8547354975000000    0.3047517300000000    0.3728560249999999 O
   0.8547354975000000    0.3047517300000000    0.8728560249999999 O
   0.1452645024999999    0.3047517300000000    0.1228560249999999 O
   0.1452645024999999    0.3047517300000000    0.6228560249999999 O
   0.6452645024999999    0.3047517300000000    0.1228560249999999 O
   0.6452645024999999    0.3047517300000000    0.6228560249999999 O
