Ca8 Ti12 F42                            
   1.00000000000000     
     7.4423709999999996   -0.0436710000000000   -0.1370480000000000
    -3.7191640000000001    6.3957439999999997    0.0846530000000000
     0.1221870000000000    0.0720480000000000   18.7798820000000006
   Ca   Ti   F 
     8    12    42
Direct
  0.8643669999021202  0.1702046775097606  0.3385425502555036
  0.5080982300195851  0.3552827327906737  0.6722691701670852
  0.1724424226736342  0.1781586756740738  0.0064779827976650
  0.0143806435196111  0.8365767178373872  0.6702549892576087
  0.6640078121553423  0.1687950028007280  0.9960980628045457
 -0.0048998344911670  0.7936699420013255  0.1646721057482976
  0.8234078898336639  0.0141361364597952  0.8212282127042957
  0.1837641833891637  0.1725487274487432  0.4931149029056143
  0.3287474010032623  0.9843229610174884  0.3360985041297149
 -0.0009179392142290  0.3385890857031574  0.6453321974535330
  0.6743878472724114  0.6773076424269731  0.9854088393987295
  0.3675122373213299  0.0664739827179184  0.8294768509156010
  0.9802304279636237  0.3157958626355103  0.1593053000524542
  0.6890572897485049  0.6563387494615723  0.5007413735965968
  0.5297856090683303  0.8647526220447275  0.1615964277798494
  0.1577586036804765  0.6318002448707219  0.5093206271190106
  0.3507120901113070  0.4951930938196409  0.8272292168405556
  0.7791928546288247  0.4840433918341077  0.8273219731505395
  0.7162466573090861  0.1895061841321982  0.5144565757847359
  0.5304342509569225  0.3075330055777014  0.1624559884184779
  0.6845807477143857  0.1802510643673796  0.6222565452666300
  0.8057481465813531  0.5087253145040528  0.9419364254228434
  0.4517852303645223  0.2184695344702854  0.2656625846034284
  0.2141408631128612  0.7484722041266159  0.4045995947260662
  0.5659952565415100  0.8356321970928848  0.0517353469279843
  0.2709637813482362  0.4451151132816950  0.7165489762164485
  0.8457740474169460  0.0065987193366249  0.9467943760816135
  0.0838834361144425  0.8340664274399623  0.2750506320796552
  0.1742379121121750  0.1820065623564738  0.6116980732167860
  0.9448233622338126  0.8300604598560173  0.0480445489068570
  0.8900605160830531  0.0582144040907071  0.7056215988291898
  0.1485488828665412  0.1048691918038425  0.3783767599324415
  0.5423073892252956  0.3767500387840767  0.0489866257894919
  0.5963557586266894  0.1379246978694854  0.4036780168274635
  0.8544567011795871  0.4832032946126003  0.7087101290578852
  0.3577900522899310  0.4902619503662208  0.9431203257900930
  0.1666823896357414  0.6533459619036325  0.6197419879004007
  0.5360544471612276  0.9180055121351591  0.2772426471406689
  0.8279797424776699  0.4546200095311970  0.2066973748576423
  0.5440162175232588  0.3370881720822175  0.5264813386486173
  0.6633081909037625  0.1741507409205975  0.8705953127506598
  0.4263359681066072  0.8133653528260530  0.8181924618557075
  0.3765392815224735  0.5467766542550155  0.4971500487622881
  0.2071711751366034  0.6257688240031491  0.1515245970103801
  0.0837254570871143  0.3431131696274962  0.2585671202118726
  0.6908692399768528  0.6708447459705617  0.6105562162078860
  0.3366531449458766  0.0421761796233141  0.9430443966555815
  0.3280123264742383  0.0363437682813635  0.7213649939709601
  0.7170263517723900  0.6052848195395056  0.4075682722810637
  0.9754069916461696  0.3090873356626187  0.0497830686297100
  0.2173942645011303  0.2439294934889643  0.1320797104145351
  0.7955524139428514  0.9685375248748134  0.4892041274878646
 -0.0043633645972116  0.8033632938627394  0.7968043962542075
  0.1732134526294553  0.1783249577079901  0.8438337930918817
  0.0095442164145450  0.8049941582822674  0.5246000424061538
  0.8452983576224170  1.0022212742544485  0.1804450454367652
  0.0272917290891507  0.4176333593980726  0.8254079158420213
  0.6005780998285697  0.6152358594539533  0.1699407037115976
  0.4073990369287626  0.9366028917420308  0.5252768903923449
  0.3547690161850287  1.0007889667581260  0.1315788186535757
  0.6600225782780902  0.6781544567223774  0.8664840011948804
  0.9883847710464868  0.3474671544806982  0.4455798427255176
 
             NaN             NaN             NaN
             NaN             NaN             NaN
             NaN             NaN             NaN
             NaN             NaN             NaN
             NaN             NaN             NaN
             NaN             NaN             NaN
             NaN             NaN             NaN
             NaN             NaN             NaN
             NaN             NaN             NaN
             NaN             NaN             NaN
             NaN             NaN             NaN
             NaN             NaN             NaN
             NaN             NaN             NaN
             NaN             NaN             NaN
             NaN             NaN             NaN
             NaN             NaN             NaN
             NaN             NaN             NaN
             NaN             NaN             NaN
             NaN             NaN             NaN
             NaN             NaN             NaN
             NaN             NaN             NaN
             NaN             NaN             NaN
             NaN             NaN             NaN
             NaN             NaN             NaN
             NaN             NaN             NaN
             NaN             NaN             NaN
             NaN             NaN             NaN
             NaN             NaN             NaN
             NaN             NaN             NaN
             NaN             NaN             NaN
             NaN             NaN             NaN
             NaN             NaN             NaN
             NaN             NaN             NaN
             NaN             NaN             NaN
             NaN             NaN             NaN
             NaN             NaN             NaN
             NaN             NaN             NaN
             NaN             NaN             NaN
             NaN             NaN             NaN
             NaN             NaN             NaN
             NaN             NaN             NaN
             NaN             NaN             NaN
             NaN             NaN             NaN
             NaN             NaN             NaN
             NaN             NaN             NaN
             NaN             NaN             NaN
             NaN             NaN             NaN
             NaN             NaN             NaN
             NaN             NaN             NaN
             NaN             NaN             NaN
             NaN             NaN             NaN
             NaN             NaN             NaN
             NaN             NaN             NaN
             NaN             NaN             NaN
             NaN             NaN             NaN
             NaN             NaN             NaN
             NaN             NaN             NaN
             NaN             NaN             NaN
             NaN             NaN             NaN
             NaN             NaN             NaN
             NaN             NaN             NaN
             NaN             NaN             NaN
