Ca8 Ti12 F42
1.0
7.442371 -0.043671 -0.137048
-3.719164 6.395744 0.084653
0.122187 0.072048 18.779882
Ca Ti F
8 12 42
direct
0.862345 0.295193 0.331300 Ca
0.509616 0.348624 0.672889 Ca
0.164422 0.171959 0.001290 Ca
0.020474 0.837738 0.667812 Ca
0.655427 0.160060 0.996799 Ca
0.024206 0.819827 0.162489 Ca
0.819710 0.008251 0.823368 Ca
0.179128 0.186947 0.491151 Ca
0.353373 0.987903 0.334440 Ti
0.006917 0.337710 0.650381 Ti
0.670642 0.671402 0.986489 Ti
0.351075 0.049062 0.829981 Ti
0.975745 0.303337 0.166278 Ti
0.700986 0.662383 0.502726 Ti
0.520002 0.845345 0.160667 Ti
0.169130 0.650978 0.507944 Ti
0.347814 0.487507 0.829004 Ti
0.794863 0.489364 0.829921 Ti
0.707333 0.190352 0.504772 Ti
0.518037 0.304070 0.160826 Ti
0.707945 0.210483 0.613692 F
0.807166 0.500878 0.943542 F
0.494676 0.240454 0.267355 F
0.209103 0.742775 0.402387 F
0.563318 0.827385 0.051890 F
0.276432 0.444811 0.718469 F
0.830757 0.000357 0.946825 F
0.071650 0.833398 0.278345 F
0.180189 0.183939 0.612418 F
0.945166 0.830020 0.047933 F
0.891420 0.051193 0.708153 F
0.208982 0.119175 0.382131 F
0.526719 0.368021 0.047466 F
0.628009 0.137990 0.395212 F
0.853145 0.485220 0.714902 F
0.355402 0.494687 0.944211 F
0.157331 0.646427 0.617247 F
0.481709 0.873234 0.267903 F
0.829648 0.469340 0.183573 F
0.551122 0.347641 0.509895 F
0.657353 0.174983 0.866687 F
0.433341 0.807729 0.816489 F
0.377885 0.552518 0.503151 F
0.204812 0.616370 0.153941 F
0.012795 0.317008 0.269661 F
0.697471 0.658846 0.613040 F
0.331899 0.023318 0.945050 F
0.337021 0.026770 0.718908 F
0.711048 0.664036 0.399988 F
0.963188 0.287318 0.055514 F
0.199720 0.211843 0.138832 F
0.808781 0.979994 0.503501 F
0.013660 0.811816 0.801160 F
0.166407 0.172030 0.860051 F
0.016329 0.811941 0.522407 F
0.832014 0.984993 0.183820 F
0.031499 0.415023 0.827762 F
0.574464 0.599542 0.172550 F
0.401727 0.961018 0.522634 F
0.368626 -0.000067 0.121144 F
0.661751 0.666890 0.865574 F
0.992237 0.364981 0.457190 F
