Ca9 Cr12 F42                            
   1.00000000000000     
     7.4675289999999999    0.0822510000000000   -0.5489470000000000
    -3.5439159999999998    6.6101140000000003    0.2149190000000000
     0.8600290000000000    0.1430680000000000   18.7365099999999991
   Ca   Cr   F 
     9    12    42
Direct
  0.5132355683818156  0.4664887387414386  0.3435164162033520
  0.5188925563399852  0.8638801603500281  0.6795682558473976
  0.5902246710022508  0.0848027330060593  0.0058193751245023
 -0.0041518822355376  0.8233823555331786  0.6626949082917063
  0.8548075129031095  0.0284342222567317  0.3424811455801515
  0.1133514536495308  0.6002830841915741  0.9802093177273422
  0.9810761131566397  0.8167307735494733  0.1639459236623630
  0.8354269656332747  0.8988254401390349  0.8450395175434855
  0.2079883805587694  0.2005202098834201  0.5068358310215899
  0.3185889908254453  0.9524979641988846  0.3441285375075828
  0.0046539170150943  0.3227770900661077  0.6575911064587145
  0.6442549909389114  0.6289535434161873  0.9979393706687698
  0.3347474903504403  0.9833169007306508  0.8288449039946185
  0.9617456232439264  0.3039037688729175  0.1577322013708222
  0.6825096757532813  0.6880790773744953  0.5046808631650241
  0.4664265819044143  0.7943856347471920  0.1684496564926705
  0.2070433851149513  0.7103329902186456  0.5030803167210967
  0.3171700683573520  0.4718250943526299  0.8264307229962065
  0.8131923839121354  0.4541292228523293  0.8220736790015075
  0.7070199232517171  0.2270779826364372  0.5023519642682428
  0.4687528536503263  0.3062920241466114  0.1619951597430632
  0.7426072638349815  0.1359508655790910  0.6033115858889886
  0.8775901957799126  0.6591324613842344  0.9156390758729183
  0.4406740925717693  0.1817210941335281  0.2755475780810854
  0.1668546640171234  0.6993788983194770  0.3981887448716452
  0.3977596399129384  0.7414115145355338  0.0482021005929358
  0.2464261119588301  0.4932280488119942  0.7228689226678169
  0.7400368277952919  0.9105744328557162  0.9597683200626131
  0.9241219369122582  0.8303042778098478  0.2746037618120411
  0.1322530517564372  0.1590980157728515  0.6250496330539042
  0.9134207990608904  0.7088989698930985  0.0507655453831023
  0.8347829849268072  0.9722570998364538  0.7276067915590885
  0.1977512153002634  0.1353243763203896  0.3798575541888694
  0.5394821499171712  0.3528386645489697  0.0330965552741261
  0.6581502799031339  0.2985215230734702  0.4035230503222499
  0.8741636380181268  0.4827835172089747  0.6812497275789691
  0.3938258936606430  0.5311286517630999  0.9313919956266830
  0.2472070073690444  0.7662184072496319  0.6075993423488247
  0.5102495067631102  0.8507173379365606  0.3148269201935837
  0.7705305023437417  0.4279909128671833  0.1696034408534890
  0.5561812226193009  0.3533904942977469  0.5425599864579176
  0.6634203455986117  0.2216095970680993  0.8855613598920945
  0.5064280697812967  0.8483445019855929  0.8103296344752119
  0.4078827930944510  0.5192376234232051  0.4538446017482627
  0.1784317861172472  0.6671394819642935  0.1830228587576632
  0.9694854622121564  0.2658073698143737  0.2593729245639386
  0.6419883523272172  0.7108077741523092  0.6085697915982061
  0.3114114134447527  0.9130386608841192  0.9327361948057267
  0.3334801653836598  0.0092492166512213  0.7243238487459727
  0.7596388043974923  0.7249393849728903  0.4038357328815028
  0.9277182504843673  0.3166495823911708  0.0500948455175495
  0.1645335104036562  0.1858979610340107  0.1487847452993906
  0.8641499124553796  0.1018191839253691  0.4595208190421572
  0.9898005889498854  0.7328544343099992  0.7850259727235559
  0.1691088043940719  0.1231877684036931  0.8434471646378158
  0.9698626179947882  0.8364246927823261  0.5344274249993617
  0.7500544943596651  0.9304363804581733  0.1422795626946569
  0.0538630430520356  0.4349273893005147  0.8622969531283141
  0.4897844637190151  0.5522334122263156  0.2123997631720698
  0.3642948521395628  0.9967818702084773  0.4857055533278679
  0.4480124937755995  0.0442770407914052  0.1275799667625751
  0.5934098909647983  0.5287802455431326  0.8001257188705765
  0.0750771885052714  0.4261821234760375  0.5331547475468084
 
             NaN             NaN             NaN
             NaN             NaN             NaN
             NaN             NaN             NaN
             NaN             NaN             NaN
             NaN             NaN             NaN
             NaN             NaN             NaN
             NaN             NaN             NaN
             NaN             NaN             NaN
             NaN             NaN             NaN
             NaN             NaN             NaN
             NaN             NaN             NaN
             NaN             NaN             NaN
             NaN             NaN             NaN
             NaN             NaN             NaN
             NaN             NaN             NaN
             NaN             NaN             NaN
             NaN             NaN             NaN
             NaN             NaN             NaN
             NaN             NaN             NaN
             NaN             NaN             NaN
             NaN             NaN             NaN
             NaN             NaN             NaN
             NaN             NaN             NaN
             NaN             NaN             NaN
             NaN             NaN             NaN
             NaN             NaN             NaN
             NaN             NaN             NaN
             NaN             NaN             NaN
             NaN             NaN             NaN
             NaN             NaN             NaN
             NaN             NaN             NaN
             NaN             NaN             NaN
             NaN             NaN             NaN
             NaN             NaN             NaN
             NaN             NaN             NaN
             NaN             NaN             NaN
             NaN             NaN             NaN
             NaN             NaN             NaN
             NaN             NaN             NaN
             NaN             NaN             NaN
             NaN             NaN             NaN
             NaN             NaN             NaN
             NaN             NaN             NaN
             NaN             NaN             NaN
             NaN             NaN             NaN
             NaN             NaN             NaN
             NaN             NaN             NaN
             NaN             NaN             NaN
             NaN             NaN             NaN
             NaN             NaN             NaN
             NaN             NaN             NaN
             NaN             NaN             NaN
             NaN             NaN             NaN
             NaN             NaN             NaN
             NaN             NaN             NaN
             NaN             NaN             NaN
             NaN             NaN             NaN
             NaN             NaN             NaN
             NaN             NaN             NaN
             NaN             NaN             NaN
             NaN             NaN             NaN
             NaN             NaN             NaN
             NaN             NaN             NaN
