Ca1 Ni12 F42
1.0
7.000406 -0.024605 0.002829
-3.517736 6.123958 -0.021526
-0.109403 -0.023492 16.885286
Ca Ni F
1 12 42
direct
0.495805 0.856811 0.674495 Ca
0.298133 0.998163 0.328748 Ni
0.699944 0.695324 0.004984 Ni
0.003007 0.312592 0.667858 Ni
0.344010 1.002614 0.840815 Ni
0.656992 0.653587 0.492462 Ni
0.998506 0.344616 0.167004 Ni
0.656604 0.156492 0.492091 Ni
0.498776 0.345495 0.167552 Ni
0.847557 0.500592 0.838514 Ni
0.346507 0.496156 0.841631 Ni
0.154797 0.653583 0.493719 Ni
0.498220 0.845333 0.166321 Ni
0.562281 0.823331 0.061248 F
0.263780 0.455182 0.732627 F
0.174585 0.743544 0.386141 F
0.432549 0.262583 0.273052 F
0.827537 0.567909 0.946227 F
0.745791 0.188186 0.600937 F
0.856380 0.063583 0.724445 F
0.187965 0.110636 0.393629 F
0.928729 0.814520 0.068263 F
0.123690 0.198893 0.607675 F
0.069200 0.888493 0.265435 F
0.807839 0.918599 0.940682 F
0.145660 0.575510 0.609072 F
0.433523 0.867864 0.270876 F
0.431236 0.551316 0.947699 F
0.869938 0.437260 0.727938 F
0.565814 0.120444 0.386328 F
0.566766 0.430679 0.062909 F
0.364614 0.566949 0.468684 F
0.205731 0.643452 0.142441 F
0.439715 0.802005 0.816325 F
0.636828 0.206567 0.863641 F
0.564348 0.360830 0.514168 F
0.790320 0.435291 0.192487 F
0.701374 0.620610 0.392613 F
0.916883 0.304039 0.067357 F
0.389502 0.075117 0.735285 F
0.302969 0.924384 0.940666 F
0.613191 0.686774 0.597245 F
0.080005 0.384827 0.266677 F
0.946582 0.738201 0.520269 F
0.790597 0.046332 0.190872 F
0.244195 0.194189 0.859469 F
0.057093 0.793552 0.812637 F
0.749439 0.948190 0.474059 F
0.207256 0.254941 0.142173 F
0.626183 0.563078 0.805403 F
0.936975 0.371465 0.460169 F
0.438701 0.064480 0.134416 F
0.384504 0.931419 0.534382 F
0.558079 0.626808 0.199476 F
0.064661 0.435071 0.871809 F
