Li16 Sc16 Si16 O64
1.0
   9.7284917832000009    0.0000000000000000    0.0000000000000000
   0.0000000000000000   12.0655755996000007    0.0000000000000000
   0.0000000000000000    0.0000000000000000   10.5299148559999995
Li Sc Si O
15 16 16 64
direct
   0.7500000000000000    0.5000000000000000    0.5000000000000000 Li
   0.0000000000000000    0.0000000000000000    0.0000000000000000 Li
   0.0000000000000000    0.5000000000000000    0.0000000000000000 Li
   0.5000000000000000    0.0000000000000000    0.0000000000000000 Li
   0.5000000000000000    0.5000000000000000    0.0000000000000000 Li
   0.0000000000000000    0.2500000000000000    0.0000000000000000 Li
   0.0000000000000000    0.7500000000000000    0.0000000000000000 Li
   0.5000000000000000    0.2500000000000000    0.0000000000000000 Li
   0.5000000000000000    0.7500000000000000    0.0000000000000000 Li
   0.2500000000000000    0.0000000000000000    0.5000000000000000 Li
   0.2500000000000000    0.5000000000000000    0.5000000000000000 Li
   0.7500000000000000    0.0000000000000000    0.5000000000000000 Li
   0.2500000000000000    0.2500000000000000    0.5000000000000000 Li
   0.2500000000000000    0.7500000000000000    0.5000000000000000 Li
   0.7500000000000000    0.2500000000000000    0.5000000000000000 Li
   0.2527174950000000    0.1250000000000000    0.7746880050000000 Sc
   0.2527174950000000    0.6250000000000000    0.7746880050000000 Sc
   0.7527174950000000    0.1250000000000000    0.7746880050000000 Sc
   0.7527174950000000    0.6250000000000000    0.7746880050000000 Sc
   0.4972825049999999    0.1250000000000000    0.2746880050000000 Sc
   0.4972825049999999    0.6250000000000000    0.2746880050000000 Sc
   0.9972825049999998    0.1250000000000000    0.2746880050000000 Sc
   0.9972825049999998    0.6250000000000000    0.2746880050000000 Sc
   0.2472825050000000    0.3750000000000000    0.2253119950000000 Sc
   0.2472825050000000    0.8750000000000000    0.2253119950000000 Sc
   0.7472825049999999    0.3750000000000000    0.2253119950000000 Sc
   0.7472825049999999    0.8750000000000000    0.2253119950000000 Sc
   0.0027175000000000    0.3750000000000000    0.7253119950000000 Sc
   0.0027175000000000    0.8750000000000000    0.7253119950000000 Sc
   0.5027175000000000    0.3750000000000000    0.7253119950000000 Sc
   0.5027175000000000    0.8750000000000000    0.7253119950000000 Sc
   0.2831285000000000    0.3750000000000000    0.9084579940000000 Si
   0.2831285000000000    0.8750000000000000    0.9084579940000000 Si
   0.7831285000000000    0.3750000000000000    0.9084579940000000 Si
   0.7831285000000000    0.8750000000000000    0.9084579940000000 Si
   0.2168715000000000    0.1250000000000000    0.0915419980000000 Si
   0.2168715000000000    0.6250000000000000    0.0915419980000000 Si
   0.7168715000000000    0.1250000000000000    0.0915419980000000 Si
   0.7168715000000000    0.6250000000000000    0.0915419980000000 Si
   0.4668715000000000    0.3750000000000000    0.4084579940000000 Si
   0.4668715000000000    0.8750000000000000    0.4084579940000000 Si
   0.9668715000000000    0.3750000000000000    0.4084579940000000 Si
   0.9668715000000000    0.8750000000000000    0.4084579940000000 Si
   0.0331285000000000    0.1250000000000000    0.5915420060000000 Si
   0.0331285000000000    0.6250000000000000    0.5915420060000000 Si
   0.5331284999999999    0.1250000000000000    0.5915420060000000 Si
   0.5331284999999999    0.6250000000000000    0.5915420060000000 Si
   0.3921934960000000    0.2697915135000000    0.3312230110000000 O
   0.3921934960000000    0.7697915135000000    0.3312230110000000 O
   0.8921934960000000    0.2697915135000000    0.3312230110000000 O
   0.8921934960000000    0.7697915135000000    0.3312230110000000 O
   0.1078064965000000    0.2302085010000000    0.6687769890000000 O
   0.1078064965000000    0.7302085010000000    0.6687769890000000 O
   0.6078064965000000    0.2302085010000000    0.6687769890000000 O
   0.6078064965000000    0.7302085010000000    0.6687769890000000 O
   0.3578065040000000    0.2697915135000000    0.8312230110000000 O
   0.3578065040000000    0.7697915135000000    0.8312230110000000 O
   0.8578065040000000    0.2697915135000000    0.8312230110000000 O
   0.8578065040000000    0.7697915135000000    0.8312230110000000 O
   0.3921934960000000    0.4802084865000000    0.3312230110000000 O
   0.3921934960000000    0.9802084864999999    0.3312230110000000 O
   0.8921934960000000    0.4802084865000000    0.3312230110000000 O
   0.8921934960000000    0.9802084864999999    0.3312230110000000 O
   0.1421934960000000    0.0197915005000000    0.1687770040000000 O
   0.1421934960000000    0.5197915005000000    0.1687770040000000 O
   0.6421934960000000    0.0197915005000000    0.1687770040000000 O
   0.6421934960000000    0.5197915005000000    0.1687770040000000 O
   0.3832240105000000    0.1250000000000000    0.1008479970000000 O
   0.3832240105000000    0.6250000000000000    0.1008479970000000 O
   0.8832240105000000    0.1250000000000000    0.1008479970000000 O
   0.8832240105000000    0.6250000000000000    0.1008479970000000 O
   0.1421934960000000    0.2302085010000000    0.1687770040000000 O
   0.1421934960000000    0.7302085010000000    0.1687770040000000 O
   0.6421934960000000    0.2302085010000000    0.1687770040000000 O
   0.6421934960000000    0.7302085010000000    0.1687770040000000 O
   0.1078064965000000    0.0197915005000000    0.6687769890000000 O
   0.1078064965000000    0.5197915005000000    0.6687769890000000 O
   0.6078064965000000    0.0197915005000000    0.6687769890000000 O
   0.6078064965000000    0.5197915005000000    0.6687769890000000 O
   0.1167759970000000    0.3750000000000000    0.8991519810000000 O
   0.1167759970000000    0.8750000000000000    0.8991519810000000 O
   0.6167759970000001    0.3750000000000000    0.8991519810000000 O
   0.6167759970000001    0.8750000000000000    0.8991519810000000 O
   0.3667759895000000    0.1250000000000000    0.6008480190000000 O
   0.3667759895000000    0.6250000000000000    0.6008480190000000 O
   0.8667759895000000    0.1250000000000000    0.6008480190000000 O
   0.8667759895000000    0.6250000000000000    0.6008480190000000 O
   0.4022405150000000    0.3750000000000000    0.5519030090000000 O
   0.4022405150000000    0.8750000000000000    0.5519030090000000 O
   0.9022405149999999    0.3750000000000000    0.5519030090000000 O
   0.9022405149999999    0.8750000000000000    0.5519030090000000 O
   0.1332239955000000    0.3750000000000000    0.3991520110000000 O
   0.1332239955000000    0.8750000000000000    0.3991520110000000 O
   0.6332239955000000    0.3750000000000000    0.3991520110000000 O
   0.6332239955000000    0.8750000000000000    0.3991520110000000 O
   0.3477594850000000    0.3750000000000000    0.0519029980000000 O
   0.3477594850000000    0.8750000000000000    0.0519029980000000 O
   0.8477594849999999    0.3750000000000000    0.0519029980000000 O
   0.8477594849999999    0.8750000000000000    0.0519029980000000 O
   0.1522405000000000    0.1250000000000000    0.9480969910000001 O
   0.1522405000000000    0.6250000000000000    0.9480969910000001 O
   0.6522404999999999    0.1250000000000000    0.9480969910000001 O
   0.6522404999999999    0.6250000000000000    0.9480969910000001 O
   0.0977595000000000    0.1250000000000000    0.4480969910000000 O
   0.0977595000000000    0.6250000000000000    0.4480969910000000 O
   0.5977595000000000    0.1250000000000000    0.4480969910000000 O
   0.5977595000000000    0.6250000000000000    0.4480969910000000 O
   0.3578065040000000    0.4802084865000000    0.8312230110000000 O
   0.3578065040000000    0.9802084864999999    0.8312230110000000 O
   0.8578065040000000    0.4802084865000000    0.8312230110000000 O
   0.8578065040000000    0.9802084864999999    0.8312230110000000 O
