Ni16 P16 O64
1.0
   9.6093772116176872    0.0000000078218040   -0.0000095369825575
  -0.0000000000806416   11.3017807249719819    0.0000004313632608
  -0.0000079117633120    0.0000003517324386    9.3529378095232456
Li Ni P O
1 16 16 64
direct
   0.5000000000000000    0.5000000000000000    0.5000000000000000 Li
   0.2720372466612133    0.1250000272219331    0.4709367096722410 Ni
   0.2720372466612133    0.1250000272219332    0.9709367096722409 Ni
   0.2720372466612133    0.6250000272219329    0.4709367096722410 Ni
   0.2720372466612133    0.6250000272219330    0.9709367096722409 Ni
   0.7279578912205905    0.3749999723349048    0.0290607226122503 Ni
   0.7279578912205906    0.3749999723349048    0.5290607226122503 Ni
   0.7279578912205905    0.8749999723349048    0.0290607226122503 Ni
   0.7279578912205906    0.8749999723349048    0.5290607226122503 Ni
   0.2279584903850207    0.3750000269257646    0.2209414878794184 Ni
   0.2279584903850207    0.3750000269257646    0.7209414878794184 Ni
   0.2279584903850207    0.8750000269257645    0.2209414878794184 Ni
   0.2279584903850207    0.8750000269257645    0.7209414878794184 Ni
   0.7720439825439699    0.1249999714645611    0.2790582021957313 Ni
   0.7720439825439699    0.1249999714645611    0.7790582021957313 Ni
   0.7720439825439699    0.6249999714645609    0.2790582021957313 Ni
   0.7720439825439699    0.6249999714645609    0.7790582021957313 Ni
   0.0905991217433737    0.1250000087102911    0.1973166808749874 P
   0.0905991217433737    0.1250000087102911    0.6973166808749873 P
   0.0905991217433737    0.6250000087102909    0.1973166808749874 P
   0.0905991217433737    0.6250000087102910    0.6973166808749873 P
   0.9093982590028417    0.3749999905556542    0.3026786899958473 P
   0.9093982590028418    0.3749999905556542    0.8026786899958472 P
   0.9093982590028417    0.8749999905556540    0.3026786899958473 P
   0.9093982590028417    0.8749999905556540    0.8026786899958473 P
   0.4094001248993564    0.3750000093866567    0.4473207418395120 P
   0.4094001248993564    0.3750000093866567    0.9473207418395120 P
   0.4094001248993564    0.8750000093866566    0.4473207418395120 P
   0.4094001248993565    0.8750000093866566    0.9473207418395120 P
   0.5906036042307434    0.1249999917809745    0.0526884826429601 P
   0.5906036042307433    0.1249999917809745    0.5526884826429601 P
   0.5906036042307434    0.6249999917809743    0.0526884826429601 P
   0.5906036042307434    0.6249999917809744    0.5526884826429602 P
   0.1093115396329125    0.1250000079865643    0.3597183419167713 O
   0.1093115396329125    0.1250000079865643    0.8597183419167713 O
   0.1093115396329125    0.6250000079865642    0.3597183419167713 O
   0.1093115396329125    0.6250000079865642    0.8597183419167714 O
   0.8906885549350320    0.3749999923208164    0.1402742093628895 O
   0.8906885549350320    0.3749999923208164    0.6402742093628895 O
   0.8906885549350319    0.8749999923208164    0.1402742093628895 O
   0.8906885549350319    0.8749999923208164    0.6402742093628895 O
   0.3906909568776058    0.3750000083350890    0.1097224368074343 O
   0.3906909568776059    0.3750000083350890    0.6097224368074343 O
   0.3906909568776058    0.8750000083350888    0.1097224368074343 O
   0.3906909568776059    0.8750000083350888    0.6097224368074343 O
   0.6093114265870697    0.1249999912652768    0.3902869592553024 O
   0.6093114265870696    0.1249999912652768    0.8902869592553023 O
   0.6093114265870697    0.6249999912652766    0.3902869592553024 O
   0.6093114265870696    0.6249999912652766    0.8902869592553023 O
   0.4344480980898170    0.1250000087193719    0.0859696295924977 O
   0.4344480980898170    0.1250000087193719    0.5859696295924975 O
   0.4344480980898170    0.6250000087193718    0.0859696295924977 O
   0.4344480980898170    0.6250000087193718    0.5859696295924977 O
   0.5655566419066957    0.3749999927661739    0.4140296523857501 O
   0.5655566419066956    0.3749999927661739    0.9140296523857502 O
   0.5655566419066957    0.8749999927661738    0.4140296523857501 O
   0.5655566419066956    0.8749999927661738    0.9140296523857502 O
   0.0655553375033548    0.3750000084019581    0.3359692227419302 O
   0.0655553375033548    0.3750000084019581    0.8359692227419302 O
   0.0655553375033548    0.8750000084019579    0.3359692227419301 O
   0.0655553375033548    0.8750000084019579    0.8359692227419302 O
   0.9344403042013808    0.1249999907860513    0.1640309700741938 O
   0.9344403042013808    0.1249999907860513    0.6640309700741938 O
   0.9344403042013807    0.6249999907860512    0.1640309700741937 O
   0.9344403042013808    0.6249999907860512    0.6640309700741938 O
   0.1657881095914533    0.0189568579655095    0.1170170544046485 O
   0.1657881095914533    0.0189568579655095    0.6170170544046485 O
   0.1657881095914533    0.5189568579655093    0.1170170544046485 O
   0.1657881095914533    0.5189568579655094    0.6170170544046485 O
   0.8342123986059350    0.4810456345187999    0.3829773932714566 O
   0.8342123986059350    0.4810456345188000    0.8829773932714566 O
   0.8342123986059350    0.9810456345187997    0.3829773932714566 O
   0.8342123986059349    0.9810456345187998    0.8829773932714566 O
   0.3342116175150736    0.4810437939194577    0.3670198924295320 O
   0.3342116175150736    0.4810437939194577    0.8670198924295320 O
   0.3342116175150736    0.9810437939194575    0.3670198924295320 O
   0.3342116175150737    0.9810437939194575    0.8670198924295320 O
   0.6657870835603958    0.0189598189614557    0.1329840907994395 O
   0.6657870835603958    0.0189598189614557    0.6329840907994395 O
   0.6657870835603960    0.5189598189614556    0.1329840907994395 O
   0.6657870835603958    0.5189598189614556    0.6329840907994395 O
   0.8342124103688279    0.2689543376495499    0.3829773949339881 O
   0.8342124103688279    0.2689543376495500    0.8829773949339880 O
   0.8342124103688278    0.7689543376495498    0.3829773949339881 O
   0.8342124103688278    0.7689543376495499    0.8829773949339881 O
   0.1657880987244553    0.2310431711447264    0.1170170516915831 O
   0.1657880987244553    0.2310431711447264    0.6170170516915832 O
   0.1657880987244553    0.7310431711447263    0.1170170516915831 O
   0.1657880987244553    0.7310431711447264    0.6170170516915832 O
   0.6657870966386028    0.2310401523382629    0.1329840879962028 O
   0.6657870966386029    0.2310401523382630    0.6329840879962028 O
   0.6657870966386028    0.7310401523382628    0.1329840879962028 O
   0.6657870966386029    0.7310401523382628    0.6329840879962028 O
   0.3342116045742500    0.2689562345401981    0.3670198946234287 O
   0.3342116045742500    0.2689562345401981    0.8670198946234285 O
   0.3342116045742500    0.7689562345401979    0.3670198946234287 O
   0.3342116045742500    0.7689562345401979    0.8670198946234285 O
