Ca8 Ni12 F42                            
   1.00000000000000     
     7.2668320000000000    0.0217020000000000   -0.0407320000000000
    -3.6387369999999999    6.3423189999999998    0.0128910000000000
    -0.0949770000000000   -0.0214440000000000   18.3328139999999991
   Ca   Ni   F 
     8    12    42
Direct
  0.0304795320230629  0.8319598861979097  0.6742920716620349
  0.1501784072515361  0.6439276178893977  0.9842008280939950
  0.3565607528086177  0.5082350871805515  0.3160594989307771
  0.8427459101875724  0.0154541881888004  0.3471329254292949
  0.1780346442965567  0.1665999943813821  0.0035713807812549
  0.9883833099207452  0.7963829956009610  0.1742483235611170
  0.7872876978137416  0.9778064831880691  0.8353715102168977
  0.2205635895334932  0.1878664259886003  0.5066967530971707
  0.3413780060164080  0.0009858997393562  0.3341223685557573
  0.9964515560663945  0.3278194261605195  0.6653632203944653
  0.6662116896214401  0.6671372008289288  0.0011840736551381
  0.3250677724741768  0.0163933744352896  0.8322630362725358
  0.9937736461256405  0.3105937851821351  0.1611415288267229
  0.6974840101043146  0.6798695582394686  0.4965067469253114
  0.4970446180744759  0.8190655792723907  0.1631558584037051
  0.1875138537025691  0.6707456427660405  0.4955674378978955
  0.3139489686931172  0.4974222621011480  0.8287524819788044
  0.8196768994258975  0.5034173756909038  0.8291062301182489
  0.6943287346459485  0.1784055224464710  0.4989701680387248
  0.4937237973259919  0.3100299469375168  0.1617119388706110
  0.7547700313334410  0.2022176048012785  0.6013801831419183
  0.8161289092508737  0.5679523503052948  0.9368229765513139
  0.4402371901900937  0.2527632617415052  0.2693917063213589
  0.2538176095503087  0.7257790983046479  0.3864044433428028
  0.4814092248958685  0.7505626424230790  0.0575367247457388
  0.2439388197531629  0.4730043142598980  0.7270338524477963
  0.8306337698596550  0.9547731530285603  0.9552738525367612
  0.0473291698907954  0.8805132566866493  0.2894247882024769
  0.1238679128803449  0.1678435079116092  0.6174938945657550
  0.9748355899969847  0.7959568951226054  0.0531199218594489
  0.8790995428402663  0.0676960161432481  0.7244591632490245
  0.2112448168603454  0.1818630409239433  0.3848961644028395
  0.5210803109656307  0.3863639874748069  0.0539098123363589
  0.6167800204918596  0.1311451509207079  0.3891437296096255
  0.8754158909947786  0.4819328499706915  0.7237130771842210
  0.3834828008106668  0.5215616479688829  0.9430078819964274
  0.1136337512339052  0.6056342313005854  0.6024436463227074
  0.5058584653238172  0.8754698108081791  0.2750435478811050
  0.7987287150027056  0.4247927072122522  0.1705723690476963
  0.5875005264243751  0.3738380733095443  0.4984538920434289
  0.6358210256953757  0.2028130551546000  0.8469517598723652
  0.4217757489785664  0.8050664726549923  0.8340850888229723
  0.3866725677480939  0.5648020436829203  0.5025658626727963
  0.1918606678141338  0.6204553370764442  0.1773403912154399
  0.0218908861007559  0.2937661361759110  0.2713520804715181
  0.7528179090518694  0.7182043701726228  0.5984198086321743
  0.2912039221506789  0.9725001374733603  0.9431421939226429
  0.3409913379285104  0.0476489853266681  0.7294920077813127
  0.6521581830839905  0.6724318331944464  0.3831088904167109
  0.0203707619004488  0.3491678274993864  0.0502662937110322
  0.1876692929731135  0.1975381684594457  0.1413526139985526
  0.8071831160351552  0.9868588399255578  0.4780743628619751
  0.0132447524610133  0.8137203950740466  0.8115333743517573
  0.1955488111539058  0.1970833073730089  0.8546715777491822
  1.0016270129911722  0.7896122805779529  0.4813537182139391
  0.8044276633184168  0.9981724289630892  0.1617660932783932
  0.0430948649000220  0.4475622136794853  0.8710297982887595
  0.5749480459341029  0.6045544978086611  0.1998541981253386
  0.3860543756659582  0.9749707335051936  0.5215929188788131
  0.3874894980274788  0.0087483259934271  0.1374187852293489
  0.6146655085638997  0.6001466155356375  0.8071329184383411
  0.9916920205421481  0.3734047495613044  0.4668665409680521
 
             NaN             NaN             NaN
             NaN             NaN             NaN
             NaN             NaN             NaN
             NaN             NaN             NaN
             NaN             NaN             NaN
             NaN             NaN             NaN
             NaN             NaN             NaN
             NaN             NaN             NaN
             NaN             NaN             NaN
             NaN             NaN             NaN
             NaN             NaN             NaN
             NaN             NaN             NaN
             NaN             NaN             NaN
             NaN             NaN             NaN
             NaN             NaN             NaN
             NaN             NaN             NaN
             NaN             NaN             NaN
             NaN             NaN             NaN
             NaN             NaN             NaN
             NaN             NaN             NaN
             NaN             NaN             NaN
             NaN             NaN             NaN
             NaN             NaN             NaN
             NaN             NaN             NaN
             NaN             NaN             NaN
             NaN             NaN             NaN
             NaN             NaN             NaN
             NaN             NaN             NaN
             NaN             NaN             NaN
             NaN             NaN             NaN
             NaN             NaN             NaN
             NaN             NaN             NaN
             NaN             NaN             NaN
             NaN             NaN             NaN
             NaN             NaN             NaN
             NaN             NaN             NaN
             NaN             NaN             NaN
             NaN             NaN             NaN
             NaN             NaN             NaN
             NaN             NaN             NaN
             NaN             NaN             NaN
             NaN             NaN             NaN
             NaN             NaN             NaN
             NaN             NaN             NaN
             NaN             NaN             NaN
             NaN             NaN             NaN
             NaN             NaN             NaN
             NaN             NaN             NaN
             NaN             NaN             NaN
             NaN             NaN             NaN
             NaN             NaN             NaN
             NaN             NaN             NaN
             NaN             NaN             NaN
             NaN             NaN             NaN
             NaN             NaN             NaN
             NaN             NaN             NaN
             NaN             NaN             NaN
             NaN             NaN             NaN
             NaN             NaN             NaN
             NaN             NaN             NaN
             NaN             NaN             NaN
             NaN             NaN             NaN
