Ca8 Ni12 F42
1.0
7.266832 0.021702 -0.040732
-3.638737 6.342319 0.012891
-0.094977 -0.021444 18.332814
Ca Ni F
8 12 42
direct
0.065939 0.837871 0.673135 Ca
0.149187 0.643462 0.980193 Ca
0.351785 0.513055 0.315748 Ca
0.843991 0.015253 0.347589 Ca
0.167359 0.160935 0.008768 Ca
0.989278 0.794811 0.174734 Ca
0.781929 0.979081 0.835909 Ca
0.220994 0.194622 0.508233 Ca
0.345890 0.008370 0.334578 Ni
0.992110 0.336316 0.666004 Ni
0.658896 0.657733 0.001345 Ni
0.311503 0.004853 0.832372 Ni
0.993939 0.311579 0.161812 Ni
0.694828 0.685644 0.494618 Ni
0.498150 0.819469 0.162556 Ni
0.187038 0.678563 0.496794 Ni
0.305546 0.490876 0.829481 Ni
0.807514 0.496467 0.828916 Ni
0.696127 0.186911 0.498051 Ni
0.495230 0.310466 0.162584 Ni
0.751086 0.204068 0.601123 F
0.805919 0.554638 0.937439 F
0.441156 0.258709 0.269804 F
0.258147 0.734651 0.387247 F
0.474075 0.744006 0.056772 F
0.241464 0.486091 0.727717 F
0.823728 0.947441 0.955660 F
0.051474 0.884524 0.289537 F
0.124481 0.183048 0.618308 F
0.971393 0.790001 0.053346 F
0.866826 0.065633 0.723992 F
0.213036 0.187245 0.385677 F
0.519455 0.380706 0.055231 F
0.622469 0.141056 0.388206 F
0.861984 0.480005 0.723718 F
0.369357 0.498158 0.944356 F
0.109733 0.614110 0.602951 F
0.512947 0.882121 0.274898 F
0.800260 0.425363 0.171775 F
0.587815 0.381181 0.498372 F
0.620994 0.195430 0.843126 F
0.409655 0.794668 0.847877 F
0.385305 0.571681 0.502850 F
0.196199 0.618994 0.183662 F
0.018460 0.288833 0.271393 F
0.732152 0.724602 0.596346 F
0.279949 0.977586 0.943799 F
0.328612 0.009515 0.729205 F
0.649395 0.673103 0.382289 F
0.020667 0.356751 0.051667 F
0.188523 0.199034 0.142332 F
0.808260 0.994038 0.477001 F
0.000080 0.804978 0.816804 F
0.185973 0.189712 0.844962 F
0.999732 0.794939 0.481417 F
0.804727 -0.000794 0.156603 F
0.026346 0.428140 0.869980 F
0.582032 0.609096 0.198986 F
0.387608 0.982868 0.521172 F
0.383838 0.006157 0.138284 F
0.606631 0.600576 0.806923 F
0.993667 0.382095 0.467704 F
