Na2 Ca2 V4 P4 S2 O24                    
   1.00000000000000     
     8.8759340000000009    0.2271260000000000    0.1275500000000000
     4.3395979999999996    7.8027329999999999    0.1633050000000000
     4.2947439999999997    2.6448749999999999    7.3238469999999998
   Ca   Na   V    P    S    O 
     2     2     4     4     2    24
Direct
  0.5148000434260763  0.4669312566210276  0.5230647754611221
  0.0253255368010337  0.9714003467529299  0.0077419868423889
  0.7515724307617855  0.3916860078474934  0.1067295231708666
  0.6105746132342529  0.8877622615294513  0.2444268319467643
  0.3591723014824940  0.3560426999999141  0.3501398116285743
  0.6463279849185057  0.6493923461579142  0.6463026637847313
  0.1491520634293741  0.1490070887813772  0.1445694938815151
  0.8555240148842448  0.8563207717457945  0.8534661845478897
  0.9563861722456565  0.5361490076977938  0.2519241206340401
  0.7556539956591166  0.0364936539198021  0.4524262637924386
  0.4626504396387726  0.7529588567318267  0.0465692878171110
  0.5525916568400163  0.2517841458171756  0.9613741739965135
  0.0508348739765103  0.4576214776287028  0.7445881639329944
  0.2489721710257976  0.9568800374670966  0.5467315817649394
  0.2318974682473699  0.4331660667567340  0.5915087766648478
  0.7657205405737090  0.5676349280501207  0.4127474923082616
  0.5911321790681847  0.2271450362223424  0.4342311790432103
  0.4113303336748436  0.7763638332953885  0.5550788391598632
  0.4465375429663008  0.5831339551885021  0.2321209876225318
  0.5683392861122466  0.4167102548371566  0.7755798096120443
  0.9146107629226093  0.0700944688760341  0.2606481532973675
  0.0989388292840826  0.9283616682419469  0.7298686052596658
  0.0634149750464205  0.2755688098467567  0.9051662154344030
  0.9363558322067113  0.7279454174733641  0.0890187897360049
  0.2768053081964550  0.9166972446614885  0.0682803835568494
  0.7391226392856712  0.0839245222567950  0.9407847426569744
  0.5338305444778645  0.2964613617515400  0.1178558202627082
  0.5027242211292813  0.7064040855283141  0.8834156860652895
  0.1196869564588019  0.4905773685384476  0.3014085749284325
  0.8997100139772879  0.4951341888324692  0.6917627699396224
  0.3039204308242824  0.1025791738416160  0.5161315711072351
  0.7038813354568394  0.8854243281488918  0.4716495603089193
  0.3897061391296692  0.1997693916228686  0.0099889225399286
  0.6225645445652145  0.7965654700897655  0.0228977033485463
  0.1915204028709303  0.9952368960026635  0.3987769586702323
  0.8064127107730887  0.9938136844171831  0.6137519919709037
  0.9737133984546676  0.3867807325004663  0.1990643199054039
  0.0203094983845560  0.6021266239060483  0.8009590204925815
 
             NaN             NaN             NaN
             NaN             NaN             NaN
             NaN             NaN             NaN
             NaN             NaN             NaN
             NaN             NaN             NaN
             NaN             NaN             NaN
             NaN             NaN             NaN
             NaN             NaN             NaN
             NaN             NaN             NaN
             NaN             NaN             NaN
             NaN             NaN             NaN
             NaN             NaN             NaN
             NaN             NaN             NaN
             NaN             NaN             NaN
             NaN             NaN             NaN
             NaN             NaN             NaN
             NaN             NaN             NaN
             NaN             NaN             NaN
             NaN             NaN             NaN
             NaN             NaN             NaN
             NaN             NaN             NaN
             NaN             NaN             NaN
             NaN             NaN             NaN
             NaN             NaN             NaN
             NaN             NaN             NaN
             NaN             NaN             NaN
             NaN             NaN             NaN
             NaN             NaN             NaN
             NaN             NaN             NaN
             NaN             NaN             NaN
             NaN             NaN             NaN
             NaN             NaN             NaN
             NaN             NaN             NaN
             NaN             NaN             NaN
             NaN             NaN             NaN
             NaN             NaN             NaN
             NaN             NaN             NaN
             NaN             NaN             NaN
