Na2 Ca2 V4 P4 S2 O24
1.0
8.875934 0.227126 0.127550
4.339598 7.802733 0.163305
4.294744 2.644875 7.323847
Ca Na V P S O
2 2 4 4 2 24
direct
0.529837 0.454385 0.526257 Ca
0.021448 0.976222 0.004219 Ca
0.746218 0.396325 0.107092 Na
0.605573 0.891589 0.244718 Na
0.355951 0.358375 0.350022 V
0.641932 0.652424 0.644793 V
0.144531 0.151535 0.143027 V
0.851531 0.856811 0.854130 V
0.953018 0.538641 0.251057 P
0.751633 0.037973 0.450958 P
0.459189 0.756248 0.045433 P
0.547478 0.255457 0.960757 P
0.045175 0.459385 0.743740 S
0.244390 0.960261 0.544775 S
0.226274 0.433928 0.592180 O
0.762922 0.570768 0.412124 O
0.588546 0.229630 0.434405 O
0.406127 0.780058 0.554393 O
0.439060 0.587291 0.230529 O
0.561643 0.421569 0.775961 O
0.911056 0.071261 0.259751 O
0.093454 0.933056 0.727455 O
0.056163 0.277895 0.905353 O
0.933768 0.730068 0.087833 O
0.274267 0.921188 0.062837 O
0.734333 0.088912 0.935252 O
0.532129 0.296894 0.117651 O
0.505136 0.708462 0.881256 O
0.117410 0.491150 0.299479 O
0.895029 0.496707 0.689700 O
0.299708 0.105905 0.513633 O
0.698103 0.888968 0.468956 O
0.384170 0.203623 0.010573 O
0.617497 0.798902 0.026612 O
0.187000 0.998010 0.396989 O
0.803400 0.991304 0.613310 O
0.967650 0.388604 0.200857 O
0.013707 0.603561 0.801072 O
