Ca2 Mn4 S6 O24                          
   1.00000000000000     
     7.9495979999999999    0.2854380000000000    4.4629830000000004
     2.8710200000000001    7.5776230000000000    4.4867819999999998
     0.1520800000000000    0.1400980000000000    8.8300870000000007
   Ca   Mn   S    O 
     2     4     6    24
Direct
  0.3954913603608862  0.6796977127514079  0.4502278637152070
  0.9917070747868172  0.0087175337750121 -0.0077656023454545
  0.6479413215918901  0.6306469181388842  0.6667423690733916
  0.1499105262538830  0.1915060931116941  0.1256874292702287
  0.8446231153479726  0.8233316340912387  0.8496015869063852
  0.3589034957861993  0.3495305973230311  0.3559568325188001
  0.9625784772321165  0.2650359622447419  0.5266840748808588
  0.4297726633615349  0.0274452448903325  0.7670520763956372
  0.5656494298424568  0.9638447094154173  0.2347468343125890
  0.7389467872907718  0.4433558247871077  0.0717578247972938
  0.2474764604415235  0.5644225125356936  0.9354038436711459
  0.0254461161148920  0.7389963372864002  0.4680694591598564
  0.3902024859888441  0.5986978988406652  0.7461562729056717
  0.8988821088958853  0.2646795400821982  0.0815797519454378
  0.7782262699703979  0.4106436422689053  0.5608151499628008
 -0.0246795422144397  0.8796687672847516  0.3036877915519406
  0.6136521114629959  0.7854718344791053  0.3816839204705101
  0.2613751694928902  0.0405453018874206  0.9420213025091716
  0.7220806644597952  0.9572642228826872  0.0576758377034006
  0.2177977534874077  0.6064433363860361  0.4081674034767825
  0.0783069381282302  0.7345381295661368  0.9328940134521473
  0.3963135464122869  0.2066277059863845  0.6247982732816265
  0.9752142187828373  0.1119038990650552  0.7026921340405953
  0.5894810268002796  0.4354959680530486  0.2552844310580163
 -0.0118736218969493  0.1993654462557485  0.3884884555958478
  0.4500308311783122  0.8896421474717321  0.7115065611187303
  0.3980389394580414 -0.0179141243856058  0.2205621617053186
  0.6732455789995404  0.4777502856449108  0.9304954442925132
  0.2079195540837378  0.4180944023592595  0.9569295533087872
  0.8956296901383553  0.6478774014772127  0.5935420845147112
  0.1073031645721823  0.3334336785420103  0.4548365081913411
  0.5912344496031972  0.9731653849314784  0.8125312884311457
  0.5330824545725344  0.1123681570605650  0.2802158903139616
  0.8009809435143460  0.5835881625552760  0.0265122485714666
  0.3113045682829531  0.5215211545386332  0.0799960533594359
  0.0412105840092479  0.8133656254974713  0.5756091976457859
 
             NaN             NaN             NaN
             NaN             NaN             NaN
             NaN             NaN             NaN
             NaN             NaN             NaN
             NaN             NaN             NaN
             NaN             NaN             NaN
             NaN             NaN             NaN
             NaN             NaN             NaN
             NaN             NaN             NaN
             NaN             NaN             NaN
             NaN             NaN             NaN
             NaN             NaN             NaN
             NaN             NaN             NaN
             NaN             NaN             NaN
             NaN             NaN             NaN
             NaN             NaN             NaN
             NaN             NaN             NaN
             NaN             NaN             NaN
             NaN             NaN             NaN
             NaN             NaN             NaN
             NaN             NaN             NaN
             NaN             NaN             NaN
             NaN             NaN             NaN
             NaN             NaN             NaN
             NaN             NaN             NaN
             NaN             NaN             NaN
             NaN             NaN             NaN
             NaN             NaN             NaN
             NaN             NaN             NaN
             NaN             NaN             NaN
             NaN             NaN             NaN
             NaN             NaN             NaN
             NaN             NaN             NaN
             NaN             NaN             NaN
             NaN             NaN             NaN
             NaN             NaN             NaN
