Ca2 Mn4 S6 O24
1.0
7.949598 0.285438 4.462983
2.871020 7.577623 4.486782
0.152080 0.140098 8.830087
Ca Mn S O
2 4 6 24
direct
0.372651 0.688737 0.526395 Ca
0.983464 1.004897 1.005382 Ca
0.652539 0.637694 0.648968 Mn
0.152553 0.181424 0.122453 Mn
0.836695 0.819017 0.858872 Mn
0.356469 0.352907 0.351719 Mn
0.965416 0.258410 0.531666 S
0.429379 0.032230 0.758723 S
0.558862 0.959402 0.236883 S
0.743251 0.440335 0.061767 S
0.251144 0.559436 0.935783 S
0.038100 0.738692 0.462704 S
0.401618 0.579305 0.752540 O
0.906229 0.264333 0.067147 O
0.780185 0.401287 0.560466 O
0.027665 0.882755 0.284817 O
0.578122 0.784124 0.392463 O
0.257605 0.051456 0.924322 O
0.728519 0.934615 0.072506 O
0.222909 0.593661 0.435926 O
0.092964 0.740162 0.917959 O
0.408217 0.210100 0.611251 O
0.973488 0.105662 0.710285 O
0.596399 0.417462 0.243467 O
1.003378 0.185098 0.394926 O
0.450236 0.897340 0.698769 O
0.397108 1.007199 0.197196 O
0.683047 0.484434 0.911917 O
0.194890 0.421794 0.964666 O
0.896185 0.672023 0.539948 O
0.104077 0.326426 0.470813 O
0.586303 -0.025671 0.810322 O
0.539999 0.100052 0.284239 O
0.798468 0.579240 0.032284 O
0.308033 0.516673 0.086364 O
0.011307 0.812695 0.593986 O
