Mg4 V32 O64
1.0
  11.4001384029331980    0.0000361202653068   -0.0002075949291770
   0.0000290531345073    8.9124479733125366   -0.0335751974950633
  -0.0001934910230654   -0.0385237118490219   10.6299841829348729
Mg V O
1 32 64
direct
   0.4375086757048474    0.2366938242310670    0.8624304766259605 Mg
   0.0616174025503319    0.4046788348941390    0.5932943434235636 V
   0.5616174025503320    0.4046788348941390    0.5932943434235636 V
   0.3133710434695899    0.4046872797068796    0.5934081027967626 V
   0.8133710434695900    0.4046872797068796    0.5934081027967625 V
   0.1874800600854325    0.0999148141278526    0.0985238287711550 V
   0.6874800600854325    0.0999148141278526    0.0985238287711550 V
   0.4374804154552879    0.0884851109074139    0.1093727238390423 V
   0.9374804154552879    0.0884851109074139    0.1093727238390423 V
   0.0651945673218695    0.9044113984428624    0.9024768685106425 V
   0.5651945673218693    0.9044113984428626    0.9024768685106425 V
   0.3098048664719334    0.9045693529527326    0.9022382291341186 V
   0.8098048664719334    0.9045693529527326    0.9022382291341187 V
   0.1875239845734394    0.5964108771624961    0.4009941557957888 V
   0.6875239845734394    0.5964108771624961    0.4009941557957888 V
   0.4375035527970926    0.5959519038611865    0.3975612052086566 V
   0.9375035527970926    0.5959519038611863    0.3975612052086566 V
   0.1875557392414524    0.5384327635828869    0.8740852224233604 V
   0.6875557392414524    0.5384327635828868    0.8740852224233605 V
   0.4375651282499978    0.5614181403770683    0.8747005684614452 V
   0.9375651282499978    0.5614181403770683    0.8747005684614452 V
   0.0617854797383998    0.4538843727098984    0.1202265726720016 V
   0.5617854797383999    0.4538843727098984    0.1202265726720016 V
   0.3132687186543872    0.4539379023786880    0.1201967812845235 V
   0.8132687186543873    0.4539379023786880    0.1201967812845235 V
   0.1874939317693809    0.0544896066202551    0.6260014449041572 V
   0.6874939317693808    0.0544896066202551    0.6260014449041572 V
   0.4375258423705249    0.0345209195175743    0.6174583864373140 V
   0.9375258423705249    0.0345209195175743    0.6174583864373140 V
   0.0632424018028001    0.9533885582333981    0.3794938263949155 V
   0.5632424018028001    0.9533885582333981    0.3794938263949154 V
   0.3117813360328109    0.9533952409536832    0.3795396460172688 V
   0.8117813360328110    0.9533952409536832    0.3795396460172688 V
   0.0620373009614803    0.9188303920169414    0.5742586021482444 O
   0.5620373009614802    0.9188303920169414    0.5742586021482444 O
   0.3129676309158541    0.9188479070733728    0.5742299894848085 O
   0.8129676309158540    0.9188479070733728    0.5742299894848085 O
   0.1874690827564022    0.0779762301019857    0.4383076736947366 O
   0.6874690827564022    0.0779762301019857    0.4383076736947366 O
   0.4374828172070723    0.0795740210189635    0.4339410241094063 O
   0.9374828172070724    0.0795740210189635    0.4339410241094063 O
   0.0580999338974292    0.4111729292048163    0.9219474612725097 O
   0.5580999338974292    0.4111729292048163    0.9219474612725098 O
   0.3168504001188926    0.4112025993010547    0.9218956280404675 O
   0.8168504001188926    0.4112025993010547    0.9218956280404677 O
   0.1874741214481598    0.5740156719548190    0.0612127980554303 O
   0.6874741214481598    0.5740156719548190    0.0612127980554303 O
   0.4375043394974882    0.5786302933920158    0.0626672609927140 O
   0.9375043394974881    0.5786302933920157    0.0626672609927140 O
   0.0645045602541039    0.0309308820230116    0.2165307030663055 O
   0.5645045602541039    0.0309308820230116    0.2165307030663055 O
   0.3105152036029460    0.0309691521246801    0.2164970608875623 O
   0.8105152036029460    0.0309691521246801    0.2164970608875623 O
   0.1874941124337214    0.9729276013811731    0.7877936994504863 O
   0.6874941124337215    0.9729276013811731    0.7877936994504863 O
   0.4374205341833589    0.9888267777410087    0.7927547165425087 O
   0.9374205341833589    0.9888267777410088    0.7927547165425088 O
   0.0631014983553229    0.5307053484029522    0.2826391665766042 O
   0.5631014983553229    0.5307053484029522    0.2826391665766042 O
   0.3120449998133528    0.5307038168248944    0.2826145768854365 O
   0.8120449998133528    0.5307038168248945    0.2826145768854365 O
   0.1874257254178943    0.4707605501948726    0.7099754415525287 O
   0.6874257254178944    0.4707605501948726    0.7099754415525286 O
   0.4374569712120412    0.4657279376838723    0.7147597405073648 O
   0.9374569712120412    0.4657279376838723    0.7147597405073648 O
   0.0624203061113938    0.6106934233339724    0.5172895618982678 O
   0.5624203061113937    0.6106934233339725    0.5172895618982677 O
   0.3126551955670123    0.6107103630110631    0.5173070665045398 O
   0.8126551955670123    0.6107103630110631    0.5173070665045398 O
   0.1874580237811987    0.3802546993702526    0.4809622027421877 O
   0.6874580237811988    0.3802546993702526    0.4809622027421877 O
   0.4374350647320448    0.3854667130597608    0.4768970849520587 O
   0.9374350647320449    0.3854667130597608    0.4768970849520586 O
   0.0591295838240272    0.1179396708845857    0.9785945844165076 O
   0.5591295838240272    0.1179396708845857    0.9785945844165077 O
   0.3158538448096807    0.1178356191960353    0.9785776029818507 O
   0.8158538448096807    0.1178356191960353    0.9785776029818508 O
   0.1874716286745790    0.8927500677574575    0.0214932184747883 O
   0.6874716286745789    0.8927500677574575    0.0214932184747883 O
   0.4374583836754384    0.8895006874365046    0.0192172764994883 O
   0.9374583836754385    0.8895006874365047    0.0192172764994883 O
   0.1874687569963060    0.8008048385210098    0.3625775881509483 O
   0.6874687569963059    0.8008048385210098    0.3625775881509483 O
   0.4374727343978514    0.8021669197817289    0.3620682860901234 O
   0.9374727343978513    0.8021669197817289    0.3620682860901234 O
   0.0596823476689764    0.1999219710176720    0.6490262602110983 O
   0.5596823476689763    0.1999219710176720    0.6490262602110982 O
   0.3152949644509614    0.1999384197311377    0.6489540430743331 O
   0.8152949644509614    0.1999384197311376    0.6489540430743330 O
   0.0633009434625604    0.7005493190169718    0.8586277436430094 O
   0.5633009434625604    0.7005493190169719    0.8586277436430095 O
   0.3118488265233643    0.7005640841876540    0.8586109712250501 O
   0.8118488265233641    0.7005640841876540    0.8586109712250503 O
   0.1875067669378625    0.3035649850058405    0.1368726706299282 O
   0.6875067669378625    0.3035649850058405    0.1368726706299282 O
   0.4374902500216294    0.3014492075878067    0.1376979125380212 O
   0.9374902500216294    0.3014492075878067    0.1376979125380212 O
