Ca1 Ti12 F42                            
   1.00000000000000     
     7.4984940000000000   -0.0044370000000000    0.0161600000000000
    -3.7427090000000001    6.5197839999999996   -0.0625540000000000
    -0.0842940000000000   -0.1643750000000000   17.7238879999999988
   Ca   Ti   F 
     1    12    42
Direct
  0.7530010172004884  0.1763412284680366  0.9607053027939114
  0.2653742971648027  0.9900703084793724  0.3330021426733290
  0.7110123393129349  0.6875274902231620  0.0042322910030642
  0.0058949097989231  0.2828020712139115  0.6612346666827664
  0.3561767092424501  0.0191253533519820  0.8266528528416278
  0.6484402212806891  0.6491750013336206  0.4981828117842815
 -0.0019602173625418  0.3413965048577852  0.1740179679254843
  0.6438762276195188  0.1476968858063302  0.4961845456923551
  0.4909051491402660  0.3347534325508273  0.1672763715849075
  0.8603872049909086  0.5213478876610110  0.8212465591189438
  0.3547127036305120  0.5126791785253059  0.8309276644659953
  0.1470466814336279  0.6456562770584183  0.4984526882192181
  0.4951811792918547  0.8387931763757743  0.1699788707984771
  0.5828897221658701  0.8243788501205410  0.0636807429463088
  0.2494981101801358  0.4299086573702605  0.7272738164565503
  0.1689061766285916  0.7457666021079858  0.3944412275674460
  0.4162392050150406  0.2345237012110792  0.2709524017670316
  0.7978207068931525  0.5210206215606901  0.9350128267608133
  0.7549697695519710  0.1861694180544774  0.6008194645804317
  0.8819976963135924  0.0908986848496873  0.7311113450436418
  0.1768487280250257  0.1105133662018188  0.3976067437239675
  0.9274533624828385  0.7685299798098428  0.0654197637036393
  0.1171575821888015  0.1779829041170091  0.6000460428079802
  0.0592724340450953  0.8727929275926326  0.2666792250960388
  0.8255136945246823  0.9288797522880118  0.9416025369470551
  0.1237040863824115  0.5436072142642130  0.5999505747836404
  0.4185335851042134  0.8742656937611906  0.2704514202952093
  0.4595801021402704  0.5805642926840230  0.9362258058391402
  0.9122752622887503  0.4670989410912266  0.7214377893142873
  0.5356907072202187  0.1068810927104021  0.3940350266418070
  0.5510541443847973  0.4235093229220528  0.0612634001538675
  0.3564042329876139  0.5725610844019495  0.4760118992835796
  0.2127948545801150  0.6255106684336321  0.1456968733468736
  0.4171515760366905  0.7909902359559661  0.8124960965287171
  0.6690254756115681  0.2219955450653472  0.8354896314317765
  0.5693279419540177  0.3567450701069491  0.5176811404905949
  0.7763729201958436  0.4127129112703151  0.1869245692795568
  0.6881001962641418  0.6125227138279994  0.3994884949676336
  0.9151656641973760  0.2945304567285699  0.0674739811113178
  0.3747175243268406  0.0753064210228120  0.7285002394114456
  0.4143358720968171  1.0088760023186405  0.9333721538092996
  0.6133203304757504  0.6891920256080346  0.5972111254700960
  0.0752125059504296  0.3875495443779691  0.2707367874921511
  0.9403651477984366  0.7235989768038242  0.5202551142497317
  0.7805498263318764  0.0499515262142620  0.1903851271154095
  0.2831477707338096  0.2314828933327823  0.8535807942099163
  0.0632063089788381  0.8101364540139627  0.8292325052860934
  0.7238722669326551  0.9407690757036683  0.4786767214963494
  0.2024768013525283  0.2531745893326223  0.1482888222477159
  0.6288006983839947  0.5644651945504371  0.8016157453011890
  0.9195539925619498  0.3713008405294756  0.4678714331080790
  0.4429520821436828  0.0592449208965925  0.1349887569977384
  0.3714174209280048  0.9235403719317579  0.5268047256228190
  0.5453830992099347  0.6129063244038547  0.1940171262653743
  0.0685925614321896  0.4470802846982005  0.8655323202004660
 
             NaN             NaN             NaN
             NaN             NaN             NaN
             NaN             NaN             NaN
             NaN             NaN             NaN
             NaN             NaN             NaN
             NaN             NaN             NaN
             NaN             NaN             NaN
             NaN             NaN             NaN
             NaN             NaN             NaN
             NaN             NaN             NaN
             NaN             NaN             NaN
             NaN             NaN             NaN
             NaN             NaN             NaN
             NaN             NaN             NaN
             NaN             NaN             NaN
             NaN             NaN             NaN
             NaN             NaN             NaN
             NaN             NaN             NaN
             NaN             NaN             NaN
             NaN             NaN             NaN
             NaN             NaN             NaN
             NaN             NaN             NaN
             NaN             NaN             NaN
             NaN             NaN             NaN
             NaN             NaN             NaN
             NaN             NaN             NaN
             NaN             NaN             NaN
             NaN             NaN             NaN
             NaN             NaN             NaN
             NaN             NaN             NaN
             NaN             NaN             NaN
             NaN             NaN             NaN
             NaN             NaN             NaN
             NaN             NaN             NaN
             NaN             NaN             NaN
             NaN             NaN             NaN
             NaN             NaN             NaN
             NaN             NaN             NaN
             NaN             NaN             NaN
             NaN             NaN             NaN
             NaN             NaN             NaN
             NaN             NaN             NaN
             NaN             NaN             NaN
             NaN             NaN             NaN
             NaN             NaN             NaN
             NaN             NaN             NaN
             NaN             NaN             NaN
             NaN             NaN             NaN
             NaN             NaN             NaN
             NaN             NaN             NaN
             NaN             NaN             NaN
             NaN             NaN             NaN
             NaN             NaN             NaN
             NaN             NaN             NaN
             NaN             NaN             NaN
