Ca1 Ti12 F42
1.0
7.498494 -0.004437 0.016160
-3.742709 6.519784 -0.062554
-0.084294 -0.164375 17.723888
Ca Ti F
1 12 42
direct
0.693340 0.105230 0.956771 Ca
0.265230 0.999727 0.334800 Ti
0.717285 0.705532 0.004367 Ti
0.008481 0.284965 0.661639 Ti
0.354957 0.006174 0.827580 Ti
0.644193 0.649667 0.498743 Ti
0.003008 0.345248 0.172078 Ti
0.643544 0.149615 0.497360 Ti
0.500725 0.344312 0.167095 Ti
0.859762 0.510567 0.827785 Ti
0.356297 0.506393 0.832558 Ti
0.144400 0.649581 0.500085 Ti
0.496441 0.842384 0.173884 Ti
0.562236 0.813436 0.065944 F
0.251057 0.435755 0.728551 F
0.170069 0.755193 0.396192 F
0.415634 0.237052 0.269549 F
0.838218 0.590401 0.932741 F
0.756448 0.180499 0.600985 F
0.894105 0.077129 0.728150 F
0.175879 0.121150 0.398289 F
0.922000 0.796110 0.071368 F
0.128838 0.194091 0.598314 F
0.058823 0.878727 0.268599 F
0.792143 0.944917 0.947605 F
0.114125 0.548195 0.602413 F
0.421587 0.883947 0.272662 F
0.459404 0.562571 0.937631 F
0.890902 0.432598 0.727821 F
0.534354 0.114875 0.395553 F
0.575840 0.424643 0.058014 F
0.351380 0.573175 0.477853 F
0.210463 0.635124 0.149470 F
0.447123 0.796778 0.816467 F
0.655262 0.223218 0.859609 F
0.570634 0.359565 0.520245 F
0.783323 0.418581 0.189775 F
0.678372 0.605873 0.400162 F
0.914665 0.299979 0.068803 F
0.418062 0.081881 0.732626 F
0.335310 0.951197 0.932989 F
0.609207 0.691548 0.597488 F
0.081159 0.383217 0.269368 F
0.937436 0.728724 0.519986 F
0.784271 0.054220 0.189394 F
0.267707 0.214181 0.848064 F
0.063046 0.800892 0.809102 F
0.719369 0.939823 0.477217 F
0.215508 0.268525 0.144501 F
0.631551 0.556857 0.802703 F
0.918559 0.374612 0.469318 F
0.457147 0.069106 0.129706 F
0.371074 0.926364 0.528637 F
0.548568 0.618692 0.195439 F
0.075761 0.448538 0.863070 F
