Li16 Fe16 S16 O64 F16                   
   1.00000000000000     
    10.4723543217950663    0.1673842034188983   -0.1115376540665270
    -1.1912539571324199   10.4933557287747874   -0.1214166869825661
    -4.6132566650181692   -4.9309147503040824   13.1946598065528828
   Li   Fe   S    O    F 
     1    16    16    64    16
Direct
  -0.1296104636000450    0.6893015858618696    0.6133280489096435 Li
  0.9998694499939021  0.0002709212497588  0.2503185085964306
  0.9984957047916234  0.0007276493577087  0.7508056445852105
  0.9989606582410776  0.4981445451216133  0.2503139314005589
  0.0013449061732766  0.5011367234297109  0.7512837399554606
  0.4985658240337828  0.9991524902390708  0.2483000858957815
  0.5044344748343427  0.0108274275466633  0.7523341723099859
  0.4986626640799315  0.4996120597370717  0.2484562689921059
  0.5023253996512401  0.4951664375720625  0.7519756153233943
  0.0002172601785936  0.9992935696171322  0.0004643125850043
  0.9958687854412727  0.0011750486227514  0.4988813793549771
  0.0010899440820123  0.5013876975643770  0.0011784402235310
  0.9928828283731088  0.4966967923442494  0.4981218421736235
  0.5014088284634938  0.0002343505828323  0.9994360753287825
  0.5005575985593629  0.0002350056898935  0.4987772327025592
  0.5001358502351303  0.5012818652397755  0.0010926131302045
  0.5090305932606252  0.4936000293736638  0.4975585469540350
  0.1673138579580423  0.3216282910389686  0.1288685257693540
  0.1668726300060313  0.3223162510038431  0.6283212695942123
  0.1678607696415540  0.8221244064173762  0.1294960173395139
  0.1669037626451774  0.8228929151016522  0.6279229959638917
  0.6668821017580288  0.3220926005166724  0.1283896534297059
  0.6707565222189619  0.3197635155994228  0.6300074570565765
  0.6678475792123656  0.8221306503136200  0.1283514147050834
  0.6664710134270435  0.8201767013457915  0.6269490995541426
  0.3329390336133522  0.1788509683497228  0.3710099541391281
  0.3302015219881077  0.1788581566392547  0.8714115497412054
  0.3340241415894293  0.6793787786730969  0.3766405193685806
  0.3324849177009038  0.6781263728558122  0.8684452002843154
  0.8296747725846330  0.1770982940588698  0.3697617658877385
  0.8343630437291828  0.1795806540409026  0.8725157897240808
  0.8315102232740832  0.6783736604962668  0.3704677042438481
  0.8317345958639344  0.6777131135309137  0.8712862823706448
  0.3123933640650782  0.3763669193987182  0.2027551250398186
  0.3130419637578483  0.3741418538910700  0.7005779085987485
  0.3130576174153513  0.8762167710939776  0.2030069432404818
  0.3165476137897716  0.8699780499893858  0.6966919710744547
  0.8116671899303374  0.3760320085331427  0.2027992651867547
  0.8142153360196615  0.3749547306598254  0.7051485182002851
  0.8126913778205398  0.8766342476636276  0.2023743967661583
  0.8077805242227872  0.8790432642007298  0.7054958154678878
  0.1871281146161117  0.1263691732947174  0.2991209577435457
  0.1854753915937838  0.1240476968284316  0.7973950824443888
  0.1900158505818158  0.6200100295371589  0.3035934933618861
  0.1865556417183428  0.6248827274754296  0.7960936224833264
  0.6854065836545209  0.1232850106313985  0.2952236642270791
  0.6894125096752201  0.1249539765684970  0.7965144477962792
  0.6867095091633159  0.6231605096454632  0.2967591419690042
  0.6863128810394016  0.6225390551929706  0.7975779153795659
  0.0717481518388798  0.3391567502791185  0.1852754314652658
  0.0731257664669262  0.3407989482498297  0.6861220803809652
  0.0729026747497877  0.8403652312152116  0.1862898880077124
  0.0759906369828139  0.8394250541016187  0.6869806086083775
  0.5703337821028861  0.3391062103294947  0.1839455485718115
  0.5715013212751848  0.3374905529054225  0.6833561070811754
  0.5717721877243872  0.8395282539245736  0.1842945305754329
  0.5621553934916266  0.8332630195117193  0.6776098274643948
  0.4269284064617613  0.1601870637107043  0.3134853117744130
  0.4246681687021213  0.1613657807482227  0.8134034001001713
  0.4307635454246075  0.6587871986470472  0.3218627605700562
  0.4250041454153634  0.6580509382657874  0.8089934821438960
  0.9271115727825382  0.1610048971120308  0.3152096604875193
  0.9303544577974415  0.1622899021633907  0.8165517571986711
  0.9278183492756080  0.6599628381640139  0.3148604035244643
  0.9265917640446287  0.6599077831122798  0.8143107989905113
  0.1512702397861639  0.1745425579703327  0.0736305151006106
  0.1479542986641639  0.1751337503568171  0.5718561675049452
  0.1520360091931315  0.6749559969941442  0.0746632778017101
  0.1542733275054812  0.6744021812756071  0.5724179136207802
  0.6512089960201439  0.1751776498728460  0.0727341108596465
  0.6549428829284886  0.1731971681705169  0.5745174833511223
  0.6519697683675155  0.6749838459453725  0.0732442558312301
  0.6555799345705950  0.6736034250848760  0.5735751297063988
  0.3515680064035600  0.3269232701925073  0.4268775037912271
  0.3471711242512470  0.3258074443192560  0.9265530485438506
  0.3470482227783315  0.8271294306601783  0.4279830695239381
  0.3502474120801810  0.8254731458379012  0.9229573482906820
  0.8447384533615325  0.3241868059597156  0.4257575521322424
  0.8484196453208066  0.3260383578582751  0.9270260879370545
  0.8470998126622027  0.8255281349217451  0.4250618420247275
  0.8474338852657735  0.8248348931688980  0.9260399186368999
  0.1369751821638007  0.3941862852649228  0.0548917860349030
  0.1370152451437618  0.3970352708437522  0.5556212756792265
  0.1372801058475602  0.8941165581748320  0.0551437553589172
  0.1353222228182722  0.8953230925408460  0.5547744488998843
  0.6372511981819330  0.3954555424434745  0.0549256129775240
  0.6423105458751692  0.3931079992816809  0.5560199430668887
  0.6376649509808124  0.8945221743214111  0.0541512140946000
  0.6376607566415150  0.8923812873455759  0.5529915932046102
  0.3644947222564912  0.1071720643097607  0.4455493489973996
  0.3622984373048250  0.1055069794777286  0.9444690248694789
  0.3683099155560689  0.6148142197246644  0.4571139636456066
  0.3645640961543178  0.6060193125091257  0.9423781565720002
  0.8585410658178088  0.1045618214786100  0.4438570183829512
  0.8620943760117959  0.1056989978031334  0.9452565917664808
  0.8623031425377611  0.6074880966957397  0.4458674600063168
  0.8627855174280732  0.6056011606506759  0.9455130430788499
  0.0487252551894864  0.4642879880049900  0.3802262419585117
  0.0523982637767819  0.4674745665695499  0.8806487587844383
  0.0501169279798164  0.9664399039998055  0.3798481638361324
  0.0497316312461254  0.9644977390377488  0.8790055844182004
  0.5543888465921876  0.4621592922366497  0.3779088896014909
  0.5523314624167183  0.4636225249021145  0.8801291078794306
  0.5508352964896741  0.9656657304099832  0.3786482690607093
  0.5512668143301963  0.9674925582876353  0.8774480668850182
  0.4477703549679432  0.0327407026971286  0.1185607764042685
  0.4504959977296412  0.0367819629366375  0.6202995746419588
  0.4471761611702760  0.5365201770489980  0.1206069622387628
  0.4488569807819051  0.5388099570180029  0.6202025470713800
  0.9491445715442186  0.0342819870747409  0.1207937366727456
  0.9469577981443170  0.0315228254165019  0.6203921856310042
  0.9511968760581857  0.5351816505719126  0.1222635620138554
  0.9477802532738075  0.5344292155834527  0.6207162645787784
 
  0.00000000E+00  0.00000000E+00  0.00000000E+00
  0.00000000E+00  0.00000000E+00  0.00000000E+00
  0.00000000E+00  0.00000000E+00  0.00000000E+00
  0.00000000E+00  0.00000000E+00  0.00000000E+00
  0.00000000E+00  0.00000000E+00  0.00000000E+00
  0.00000000E+00  0.00000000E+00  0.00000000E+00
  0.00000000E+00  0.00000000E+00  0.00000000E+00
  0.00000000E+00  0.00000000E+00  0.00000000E+00
  0.00000000E+00  0.00000000E+00  0.00000000E+00
  0.00000000E+00  0.00000000E+00  0.00000000E+00
  0.00000000E+00  0.00000000E+00  0.00000000E+00
  0.00000000E+00  0.00000000E+00  0.00000000E+00
  0.00000000E+00  0.00000000E+00  0.00000000E+00
  0.00000000E+00  0.00000000E+00  0.00000000E+00
  0.00000000E+00  0.00000000E+00  0.00000000E+00
  0.00000000E+00  0.00000000E+00  0.00000000E+00
  0.00000000E+00  0.00000000E+00  0.00000000E+00
  0.00000000E+00  0.00000000E+00  0.00000000E+00
  0.00000000E+00  0.00000000E+00  0.00000000E+00
  0.00000000E+00  0.00000000E+00  0.00000000E+00
  0.00000000E+00  0.00000000E+00  0.00000000E+00
  0.00000000E+00  0.00000000E+00  0.00000000E+00
  0.00000000E+00  0.00000000E+00  0.00000000E+00
  0.00000000E+00  0.00000000E+00  0.00000000E+00
  0.00000000E+00  0.00000000E+00  0.00000000E+00
  0.00000000E+00  0.00000000E+00  0.00000000E+00
  0.00000000E+00  0.00000000E+00  0.00000000E+00
  0.00000000E+00  0.00000000E+00  0.00000000E+00
  0.00000000E+00  0.00000000E+00  0.00000000E+00
  0.00000000E+00  0.00000000E+00  0.00000000E+00
  0.00000000E+00  0.00000000E+00  0.00000000E+00
  0.00000000E+00  0.00000000E+00  0.00000000E+00
  0.00000000E+00  0.00000000E+00  0.00000000E+00
  0.00000000E+00  0.00000000E+00  0.00000000E+00
  0.00000000E+00  0.00000000E+00  0.00000000E+00
  0.00000000E+00  0.00000000E+00  0.00000000E+00
  0.00000000E+00  0.00000000E+00  0.00000000E+00
  0.00000000E+00  0.00000000E+00  0.00000000E+00
  0.00000000E+00  0.00000000E+00  0.00000000E+00
  0.00000000E+00  0.00000000E+00  0.00000000E+00
  0.00000000E+00  0.00000000E+00  0.00000000E+00
  0.00000000E+00  0.00000000E+00  0.00000000E+00
  0.00000000E+00  0.00000000E+00  0.00000000E+00
  0.00000000E+00  0.00000000E+00  0.00000000E+00
  0.00000000E+00  0.00000000E+00  0.00000000E+00
  0.00000000E+00  0.00000000E+00  0.00000000E+00
  0.00000000E+00  0.00000000E+00  0.00000000E+00
  0.00000000E+00  0.00000000E+00  0.00000000E+00
  0.00000000E+00  0.00000000E+00  0.00000000E+00
  0.00000000E+00  0.00000000E+00  0.00000000E+00
  0.00000000E+00  0.00000000E+00  0.00000000E+00
  0.00000000E+00  0.00000000E+00  0.00000000E+00
  0.00000000E+00  0.00000000E+00  0.00000000E+00
  0.00000000E+00  0.00000000E+00  0.00000000E+00
  0.00000000E+00  0.00000000E+00  0.00000000E+00
  0.00000000E+00  0.00000000E+00  0.00000000E+00
  0.00000000E+00  0.00000000E+00  0.00000000E+00
  0.00000000E+00  0.00000000E+00  0.00000000E+00
  0.00000000E+00  0.00000000E+00  0.00000000E+00
  0.00000000E+00  0.00000000E+00  0.00000000E+00
  0.00000000E+00  0.00000000E+00  0.00000000E+00
  0.00000000E+00  0.00000000E+00  0.00000000E+00
  0.00000000E+00  0.00000000E+00  0.00000000E+00
  0.00000000E+00  0.00000000E+00  0.00000000E+00
  0.00000000E+00  0.00000000E+00  0.00000000E+00
  0.00000000E+00  0.00000000E+00  0.00000000E+00
  0.00000000E+00  0.00000000E+00  0.00000000E+00
  0.00000000E+00  0.00000000E+00  0.00000000E+00
  0.00000000E+00  0.00000000E+00  0.00000000E+00
  0.00000000E+00  0.00000000E+00  0.00000000E+00
  0.00000000E+00  0.00000000E+00  0.00000000E+00
  0.00000000E+00  0.00000000E+00  0.00000000E+00
  0.00000000E+00  0.00000000E+00  0.00000000E+00
  0.00000000E+00  0.00000000E+00  0.00000000E+00
  0.00000000E+00  0.00000000E+00  0.00000000E+00
  0.00000000E+00  0.00000000E+00  0.00000000E+00
  0.00000000E+00  0.00000000E+00  0.00000000E+00
  0.00000000E+00  0.00000000E+00  0.00000000E+00
  0.00000000E+00  0.00000000E+00  0.00000000E+00
  0.00000000E+00  0.00000000E+00  0.00000000E+00
  0.00000000E+00  0.00000000E+00  0.00000000E+00
  0.00000000E+00  0.00000000E+00  0.00000000E+00
  0.00000000E+00  0.00000000E+00  0.00000000E+00
  0.00000000E+00  0.00000000E+00  0.00000000E+00
  0.00000000E+00  0.00000000E+00  0.00000000E+00
  0.00000000E+00  0.00000000E+00  0.00000000E+00
  0.00000000E+00  0.00000000E+00  0.00000000E+00
  0.00000000E+00  0.00000000E+00  0.00000000E+00
  0.00000000E+00  0.00000000E+00  0.00000000E+00
  0.00000000E+00  0.00000000E+00  0.00000000E+00
  0.00000000E+00  0.00000000E+00  0.00000000E+00
  0.00000000E+00  0.00000000E+00  0.00000000E+00
  0.00000000E+00  0.00000000E+00  0.00000000E+00
  0.00000000E+00  0.00000000E+00  0.00000000E+00
  0.00000000E+00  0.00000000E+00  0.00000000E+00
  0.00000000E+00  0.00000000E+00  0.00000000E+00
  0.00000000E+00  0.00000000E+00  0.00000000E+00
  0.00000000E+00  0.00000000E+00  0.00000000E+00
  0.00000000E+00  0.00000000E+00  0.00000000E+00
  0.00000000E+00  0.00000000E+00  0.00000000E+00
  0.00000000E+00  0.00000000E+00  0.00000000E+00
  0.00000000E+00  0.00000000E+00  0.00000000E+00
  0.00000000E+00  0.00000000E+00  0.00000000E+00
  0.00000000E+00  0.00000000E+00  0.00000000E+00
  0.00000000E+00  0.00000000E+00  0.00000000E+00
  0.00000000E+00  0.00000000E+00  0.00000000E+00
  0.00000000E+00  0.00000000E+00  0.00000000E+00
  0.00000000E+00  0.00000000E+00  0.00000000E+00
  0.00000000E+00  0.00000000E+00  0.00000000E+00
  0.00000000E+00  0.00000000E+00  0.00000000E+00
  0.00000000E+00  0.00000000E+00  0.00000000E+00
  0.00000000E+00  0.00000000E+00  0.00000000E+00
  0.00000000E+00  0.00000000E+00  0.00000000E+00
