Ca8 Mn12 F42
1.0
7.527157 -0.065304 -0.017234
-3.825334 6.697076 0.060427
-0.027475 0.162499 18.713376
Ca Mn F
8 12 42
direct
0.830470 0.991682 0.834345 Ca
0.158340 0.640112 0.995641 Ca
0.337791 0.494991 0.348800 Ca
0.533068 0.387943 0.676005 Ca
0.839420 0.011238 0.327239 Ca
0.172730 0.150220 0.000416 Ca
0.984928 0.772950 0.175271 Ca
0.170075 0.125364 0.509291 Ca
0.344905 0.998736 0.320332 Mn
0.005383 0.346763 0.664132 Mn
0.667933 0.660683 0.008475 Mn
0.345990 0.010294 0.839343 Mn
0.006366 0.306176 0.161926 Mn
0.664981 0.667526 0.497337 Mn
0.499462 0.812553 0.166846 Mn
0.166375 0.662493 0.494156 Mn
0.334101 0.504136 0.835552 Mn
0.841936 0.510387 0.835566 Mn
0.671097 0.172832 0.496549 Mn
0.482596 0.306288 0.168144 Mn
0.727327 0.256493 0.606145 F
0.819806 0.556029 0.945630 F
0.436630 0.300561 0.281889 F
0.225777 0.738680 0.388339 F
0.495426 0.783002 0.055693 F
0.262224 0.466881 0.730513 F
0.840228 0.941507 0.954216 F
0.040132 0.880842 0.286221 F
0.206353 0.250490 0.615011 F
0.992429 0.795550 0.056163 F
0.881568 0.109676 0.725008 F
0.149594 0.159790 0.391976 F
0.493734 0.360560 0.055360 F
0.616125 0.101750 0.377009 F
0.860445 0.469906 0.727039 F
0.390476 0.526229 0.948263 F
0.125361 0.569468 0.594725 F
0.479318 0.783361 0.280891 F
0.793183 0.400663 0.172004 F
0.534136 0.342280 0.487715 F
0.670637 0.207066 0.852104 F
0.475326 0.817703 0.833971 F
0.348345 0.539096 0.476325 F
0.182341 0.625639 0.149909 F
0.063728 0.334014 0.274395 F
0.636493 0.641531 0.600759 F
0.294878 0.957537 0.948265 F
0.375828 0.117469 0.742950 F
0.675263 0.705842 0.388663 F
0.035092 0.332826 0.046653 F
0.163008 0.143384 0.136735 F
0.801901 0.996319 0.498697 F
0.023186 0.817639 0.825320 F
0.184698 0.197390 0.869944 F
0.976637 0.777476 0.501975 F
0.802028 0.012305 0.198618 F
0.083913 0.499832 0.877421 F
0.628545 0.625635 0.168733 F
0.376028 0.956563 0.517599 F
0.380395 0.000360 0.197441 F
0.610192 0.554089 0.800303 F
0.944453 0.388497 0.463849 F
