Zn8 In16 S32
1.0
       10.7523260117         0.0000000000         0.0000000000
        0.0000000000        10.7523260117         0.0000000000
        0.0000000000         0.0000000000        10.7523260117
   Zn   In    S
    7   16   32
Direct
   0.2500000000000000    0.7500000000000000   -0.2500000000000000 Zn
     0.250000000         0.250000000         0.250000000
     0.500000000         0.000000000         0.500000000
     0.750000000         0.250000000         0.750000000
     0.000000000         0.000000000         0.000000000
     0.750000000         0.750000000         0.250000000
     0.000000000         0.500000000         0.500000000
     0.125000000         0.875000000         0.375000000
     0.125000000         0.625000000         0.125000000
     0.375000000         0.625000000         0.375000000
     0.375000000         0.875000000         0.125000000
     0.125000000         0.375000000         0.875000000
     0.125000000         0.125000000         0.625000000
     0.375000000         0.125000000         0.875000000
     0.375000000         0.375000000         0.625000000
     0.625000000         0.875000000         0.875000000
     0.625000000         0.625000000         0.625000000
     0.875000000         0.625000000         0.875000000
     0.875000000         0.875000000         0.625000000
     0.625000000         0.375000000         0.375000000
     0.625000000         0.125000000         0.125000000
     0.875000000         0.125000000         0.375000000
     0.875000000         0.375000000         0.125000000
     0.370611995         0.870612025         0.370611995
     0.379388005         0.120612003         0.120612003
     0.120612003         0.120612003         0.379388005
     0.120612003         0.379388005         0.120612003
     0.629387975         0.129388005         0.370611995
     0.129388005         0.870612025         0.129388005
     0.379388005         0.379388005         0.379388005
     0.870612025         0.129388005         0.129388005
     0.370611995         0.370611995         0.870612025
     0.379388005         0.620612025         0.620612025
     0.120612003         0.620612025         0.879387975
     0.120612003         0.879387975         0.620612025
     0.629387975         0.629387975         0.870612025
     0.129388005         0.370611995         0.629387975
     0.379388005         0.879387975         0.879387975
     0.870612025         0.629387975         0.629387975
     0.870612025         0.870612025         0.870612025
     0.879387975         0.120612003         0.620612025
     0.620612025         0.120612003         0.879387975
     0.620612025         0.379388005         0.620612025
     0.129388005         0.129388005         0.870612025
     0.629387975         0.870612025         0.629387975
     0.879387975         0.379388005         0.879387975
     0.370611995         0.129388005         0.629387975
     0.870612025         0.370611995         0.370611995
     0.879387975         0.620612025         0.120612003
     0.620612025         0.620612025         0.379388005
     0.620612025         0.879387975         0.120612003
     0.129388005         0.629387975         0.370611995
     0.629387975         0.370611995         0.129388005
     0.879387975         0.879387975         0.379388005
     0.370611995         0.629387975         0.129388005
