Lu16 Mg8 Se32
1.0
       11.4353599548         0.0000000000         0.0000000000
        0.0000000000        11.4353599548         0.0000000000
        0.0000000000         0.0000000000        11.4353599548
Mg   Lu   Mg   Se
1    16    6   32
Direct
   0.5000000000000000    0.5000000000000000    0.5000000000000000 Mg
     0.875000000         0.125000000         0.875000000
     0.625000000         0.625000000         0.125000000
     0.125000000         0.875000000         0.875000000
     0.875000000         0.875000000         0.125000000
     0.875000000         0.625000000         0.375000000
     0.625000000         0.125000000         0.625000000
     0.125000000         0.375000000         0.375000000
     0.875000000         0.375000000         0.625000000
     0.375000000         0.125000000         0.375000000
     0.125000000         0.625000000         0.625000000
     0.625000000         0.875000000         0.375000000
     0.375000000         0.875000000         0.625000000
     0.375000000         0.625000000         0.875000000
     0.125000000         0.125000000         0.125000000
     0.625000000         0.375000000         0.875000000
     0.375000000         0.375000000         0.125000000
     0.250000000         0.250000000         0.750000000
     0.500000000         0.000000000         0.000000000
     0.250000000         0.750000000         0.250000000
     0.750000000         0.250000000         0.250000000
     0.000000000         0.000000000         0.500000000
     0.000000000         0.500000000         0.000000000
     0.630891502         0.130891487         0.869108498
     0.119108513         0.380891502         0.619108498
     0.119108513         0.119108513         0.880891502
     0.869108498         0.369108498         0.869108498
     0.630891502         0.869108498         0.130891487
     0.880891502         0.119108513         0.119108513
     0.880891502         0.880891502         0.880891502
     0.869108498         0.130891487         0.630891502
     0.630891502         0.630891502         0.369108498
     0.119108513         0.880891502         0.119108513
     0.119108513         0.619108498         0.380891502
     0.869108498         0.869108498         0.369108498
     0.630891502         0.369108498         0.630891502
     0.880891502         0.619108498         0.619108498
     0.880891502         0.380891502         0.380891502
     0.869108498         0.630891502         0.130891487
     0.130891487         0.130891487         0.369108498
     0.619108498         0.380891502         0.119108513
     0.619108498         0.119108513         0.380891502
     0.369108498         0.369108498         0.369108498
     0.130891487         0.869108498         0.630891502
     0.380891502         0.119108513         0.619108498
     0.380891502         0.880891502         0.380891502
     0.369108498         0.130891487         0.130891487
     0.130891487         0.630891502         0.869108498
     0.619108498         0.880891502         0.619108498
     0.619108498         0.619108498         0.880891502
     0.369108498         0.869108498         0.869108498
     0.130891487         0.369108498         0.130891487
     0.380891502         0.619108498         0.119108513
     0.380891502         0.380891502         0.880891502
     0.369108498         0.630891502         0.630891502
