Ca8 Mn12 F42                            
   1.00000000000000     
     7.6120299999999999   -0.0446980000000000    0.0881320000000000
    -3.8488709999999999    6.6525470000000002    0.0200710000000000
     0.2353320000000000    0.1979400000000000   18.6390190000000011
   Ca   Mn   F 
     8    12    42
Direct
  0.5132372727206953  0.8721986040823114  0.6856385667124635
  0.1307174276871042  0.6194417702476244  0.9930600442198156
  0.3583149407579116  0.5030393552663465  0.3554015803142196
  0.5362176261439279  0.3795558401214638  0.6837400106160283
  0.8605004040514664  0.0185865900712524  0.3306521290049754
  0.2032778461430342  0.1604816479382360  0.0043756081351504
  0.0024969697982214  0.7713891822979241  0.1822711549849238
  0.1430964288261347  0.1240418011302888  0.5167391467022222
  0.3665920127265399  0.9922355318859847  0.3263703777002860
  0.0398485924924621  0.3572134229102553  0.6705210174562014
  0.6962235565874094  0.6878633823028160  0.0081031482927462
  0.3575170264087265  0.0129572701401460  0.8457244876542197
  0.0335483958024430  0.3129220931145320  0.1662690036235471
  0.6585887199337771  0.6711820658373343  0.5079381012911950
  0.5255571909371312  0.8164465046388528  0.1768175055047369
  0.1692570553079713  0.6709226981470088  0.5055053711737848
  0.3616548973491905  0.5173538934880278  0.8448886354291757
  0.8554319225705597  0.5101394076191832  0.8359253216628370
  0.6616936410684314  0.1743377096957306  0.5011520411436083
  0.5061391833179504  0.3136465915092776  0.1745826161709220
  0.6227605847332535  0.1815098737895128  0.6139981723724871
  0.8162617145789285  0.5596937240908498  0.9452260412956058
  0.4496159693656906  0.2907359370394588  0.2929011123603784
  0.2243707090898422  0.7234171789532189  0.3912414972932033
  0.5820129295884957  0.8137858717011714  0.0726455906500063
  0.2957028800883503  0.4790750825960445  0.7348421855678908
  0.8872388234025306  0.9525984568525906  0.9679395558129537
  0.0672740731229425  0.8924848928935747  0.2924417648908011
  0.2326960458545347  0.2628785284996125  0.6199902476755946
  0.9930498851513846  0.7676100857197893  0.0645914677805953
  0.8453443938628695  0.0717250292235810  0.6958350884869743
  0.1361037211389275  0.1785868816237599  0.4020486377491831
  0.5287423091332594  0.4071290143815195  0.0614647538700367
  0.6428105361163488  0.1144940629918560  0.3848664655195003
  0.8685809347069473  0.4576345893548112  0.7258282584922933
  0.4079781057400351  0.5741325959184520  0.9567211227408031
  0.2120318946489806  0.6496824528907830  0.6182817697958476
  0.4989005305590477  0.8031625003536094  0.2886763261236562
  0.8157516048512118  0.4039963719195386  0.1756459852169172
  0.5648536063921185  0.3738341338036109  0.4938657283097029
  0.6457136792383988  0.2260883833893380  0.8531800110348818
  0.4521506834912611  0.8117887339480024  0.8138880273637693
  0.3523135444907412  0.5456981995487613  0.4832180648465085
  0.2156306603978858  0.6349574048964134  0.1562191665762249
  0.0948203080378343  0.3448741551226582  0.2767290955467567
  0.6113553452357781  0.6656014179589707  0.6208054875977678
  0.3102779008918575  0.9463750706023957  0.9584998660668719
  0.3900041461124696  0.0706270109323179  0.7356686112272445
  0.6879221921033561  0.7193449284202630  0.3937483387552885
  0.0558617465627724  0.3353779846797605  0.0530858831540578
  0.1959807582958136  0.1473772962531585  0.1386772942889957
  0.7738556997277467  0.9809374903999591  0.5126781473351409
  0.0729228881590037  0.7958305234134081  0.8304073728110226
  0.2816205913097889  0.2281787352308469  0.8797899521044352
  0.9632991452753650  0.7701179424983954  0.5193172589743708
  0.8315965568695570  0.0161938961340356  0.2038593672441180
  0.0792639572188237  0.4688108862231927  0.8806542662311644
  0.6421403407230876  0.6217131512787072  0.1940191248197804
  0.3539312586444708  0.9785647807264924  0.5075699416752837
  0.4124507408991268  0.0108823025530981  0.2006957370809397
  0.6248788641196514  0.5492650023682498  0.7983304714235953
  0.9597029119495769  0.3742806559294806  0.5082839483298028
 
             NaN             NaN             NaN
             NaN             NaN             NaN
             NaN             NaN             NaN
             NaN             NaN             NaN
             NaN             NaN             NaN
             NaN             NaN             NaN
             NaN             NaN             NaN
             NaN             NaN             NaN
             NaN             NaN             NaN
             NaN             NaN             NaN
             NaN             NaN             NaN
             NaN             NaN             NaN
             NaN             NaN             NaN
             NaN             NaN             NaN
             NaN             NaN             NaN
             NaN             NaN             NaN
             NaN             NaN             NaN
             NaN             NaN             NaN
             NaN             NaN             NaN
             NaN             NaN             NaN
             NaN             NaN             NaN
             NaN             NaN             NaN
             NaN             NaN             NaN
             NaN             NaN             NaN
             NaN             NaN             NaN
             NaN             NaN             NaN
             NaN             NaN             NaN
             NaN             NaN             NaN
             NaN             NaN             NaN
             NaN             NaN             NaN
             NaN             NaN             NaN
             NaN             NaN             NaN
             NaN             NaN             NaN
             NaN             NaN             NaN
             NaN             NaN             NaN
             NaN             NaN             NaN
             NaN             NaN             NaN
             NaN             NaN             NaN
             NaN             NaN             NaN
             NaN             NaN             NaN
             NaN             NaN             NaN
             NaN             NaN             NaN
             NaN             NaN             NaN
             NaN             NaN             NaN
             NaN             NaN             NaN
             NaN             NaN             NaN
             NaN             NaN             NaN
             NaN             NaN             NaN
             NaN             NaN             NaN
             NaN             NaN             NaN
             NaN             NaN             NaN
             NaN             NaN             NaN
             NaN             NaN             NaN
             NaN             NaN             NaN
             NaN             NaN             NaN
             NaN             NaN             NaN
             NaN             NaN             NaN
             NaN             NaN             NaN
             NaN             NaN             NaN
             NaN             NaN             NaN
             NaN             NaN             NaN
             NaN             NaN             NaN
