Ca8 Mn12 F42                            
   1.00000000000000     
     7.6120299999999999   -0.0446980000000000    0.0881320000000000
    -3.8488709999999999    6.6525470000000002    0.0200710000000000
     0.2353320000000000    0.1979400000000000   18.6390190000000011
   Ca   Mn   F 
     8    12    42
Direct
  0.5169821608729469  0.8766007743424031  0.6855654046742166
  0.1315640232623979  0.6172998007105311  0.9932141299476516
  0.3582217411343535  0.5033139161695286  0.3554689027176638
  0.5362330698169242  0.3792642499363412  0.6838474261504311
  0.8595084727026069  0.0182554413050004  0.3302636891249903
  0.1989267768000557  0.1517733386117568  0.0048866963869772
  1.0049213705747622  0.7730032072457602  0.1817851012867373
  0.1349156002127291  0.1225134292313454  0.5187117069428556
  0.3650364173821754  0.9904619786627885  0.3274022868742486
  0.0451944129155720  0.3628427376034764  0.6695534605211212
  0.6938131166821233  0.6858617220763172  0.0077908345059390
  0.3588012965230451  0.0138224531957787  0.8473046386464869
  0.0349591501183908  0.3147723814499111  0.1650005127369054
  0.6560315741433761  0.6703845809869903  0.5085426338056572
  0.5251999636369136  0.8156034665452684  0.1749428738177390
  0.1671598813191336  0.6705409329909809  0.5059353516336109
  0.3612134326640851  0.5158876443247291  0.8467966668960034
  0.8570498019775328  0.5071086375736888  0.8363906462406679
  0.6593391651439929  0.1733183177973993  0.5016586654250135
  0.5070431389059322  0.3138833191649310  0.1747810256953073
  0.6097951302428162  0.1724417478630389  0.6138730744578937
  0.8163269745550511  0.5558583275602900  0.9463447323941160
  0.4486440813199430  0.2895033382885477  0.2933239754600273
  0.2209854331097361  0.7191065546699791  0.3904037651295438
  0.5891490189274712  0.8163329775057124  0.0736363264243962
  0.2968375323811303  0.4754176515494447  0.7352621193579894
  0.8844505840965862  0.9476293848993049  0.9655618086135789
  0.0673487889212832  0.8934795949889458  0.2923895552112245
  0.2358024581301343  0.2658538360414349  0.6184975225855214
  0.9987782005266850  0.7758202191220787  0.0639014320777646
  0.8490747446566255  0.0769669214105870  0.6941321587130060
  0.1318256452869045  0.1805193344484085  0.4017802587790429
  0.5278116036070016  0.4075882822570605  0.0617403027225950
  0.6430401950150898  0.1146222334575823  0.3845941359087239
  0.8687666533152838  0.4581849926951247  0.7248403818338762
  0.4104554083926037  0.5801485851309933  0.9563272265133524
  0.2178824851868493  0.6561460159935205  0.6188274654556328
  0.4977198434455011  0.8020898281300489  0.2892849956891440
  0.8173352566800194  0.4060093123273047  0.1745203033069624
  0.5703847387935079  0.3785856879597007  0.4937513591418256
  0.6479107476883031  0.2254672935891969  0.8527921291445721
  0.4536509516320938  0.8112135460267581  0.8128068964221622
  0.3514658649360402  0.5462111930066339  0.4829815355121371
  0.2169522395831017  0.6358148603936573  0.1535966244030454
  0.0961492676834998  0.3464118245139800  0.2761697849646433
  0.6128788294150770  0.6668018831337783  0.6215103308367057
  0.3117297693159908  0.9438401820995458  0.9580551093593143
  0.3896454125869865  0.0723570314711202  0.7367264796071615
  0.6872719181088993  0.7203933268210032  0.3934768827155464
  0.0543552771421234  0.3308093330149667  0.0528056107516757
  0.1962994922060147  0.1475245912573846  0.1396508015392996
  0.7663391779740633  0.9770514372405565  0.5126418978095424
  0.0737725856962350  0.7954316519029899  0.8311484146493209
  0.2849008685969444  0.2297983090965585  0.8816004192343899
  0.9598946445462041  0.7681869497919633  0.5199690284249591
  0.8319596353224175  0.0180598461255136  0.2040244844271518
  0.0804805327029601  0.4686001703220088  0.8800584662489700
  0.6437426288912717  0.6221844589201174  0.1944530015519074
  0.3471318360144119  0.9821251654998744  0.5036125423734893
  0.4126138807271795  0.0113630888055832  0.2005595677356352
  0.6282967548020315  0.5495526958500504  0.7992527257248871
  0.9600217772162953  0.3694890868944186  0.5143421442681559
 
             NaN             NaN             NaN
             NaN             NaN             NaN
             NaN             NaN             NaN
             NaN             NaN             NaN
             NaN             NaN             NaN
             NaN             NaN             NaN
             NaN             NaN             NaN
             NaN             NaN             NaN
             NaN             NaN             NaN
             NaN             NaN             NaN
             NaN             NaN             NaN
             NaN             NaN             NaN
             NaN             NaN             NaN
             NaN             NaN             NaN
             NaN             NaN             NaN
             NaN             NaN             NaN
             NaN             NaN             NaN
             NaN             NaN             NaN
             NaN             NaN             NaN
             NaN             NaN             NaN
             NaN             NaN             NaN
             NaN             NaN             NaN
             NaN             NaN             NaN
             NaN             NaN             NaN
             NaN             NaN             NaN
             NaN             NaN             NaN
             NaN             NaN             NaN
             NaN             NaN             NaN
             NaN             NaN             NaN
             NaN             NaN             NaN
             NaN             NaN             NaN
             NaN             NaN             NaN
             NaN             NaN             NaN
             NaN             NaN             NaN
             NaN             NaN             NaN
             NaN             NaN             NaN
             NaN             NaN             NaN
             NaN             NaN             NaN
             NaN             NaN             NaN
             NaN             NaN             NaN
             NaN             NaN             NaN
             NaN             NaN             NaN
             NaN             NaN             NaN
             NaN             NaN             NaN
             NaN             NaN             NaN
             NaN             NaN             NaN
             NaN             NaN             NaN
             NaN             NaN             NaN
             NaN             NaN             NaN
             NaN             NaN             NaN
             NaN             NaN             NaN
             NaN             NaN             NaN
             NaN             NaN             NaN
             NaN             NaN             NaN
             NaN             NaN             NaN
             NaN             NaN             NaN
             NaN             NaN             NaN
             NaN             NaN             NaN
             NaN             NaN             NaN
             NaN             NaN             NaN
             NaN             NaN             NaN
             NaN             NaN             NaN
