Ca1 Ti12 F42                            
   1.00000000000000     
     7.5129820000000000   -0.0106990000000000    0.0071670000000000
    -3.7553090000000000    6.5031889999999999   -0.0011880000000000
    -0.1061520000000000   -0.0118780000000000   17.6851860000000016
   Ca   Ti   F 
     1    12    42
Direct
  0.3908744460477414  0.5028549622720615  0.3338148830021883
  0.2790210283407741  0.9898037636188992  0.3324118779281487
  0.7389897709814428  0.7347359233950423  0.9964659369669665
  1.0008298699834168  0.2686613309941350  0.6686021997268077
  0.3644068203748083  1.0042579354753431  0.8313410692068621
  0.6599766635250718  0.6683196669260726  0.5117784863481794
  0.9845108637138321  0.3269554181403863  0.1625152811863116
  0.6525788701487983  0.1629123574598393  0.5006123390638672
  0.4930375101796201  0.3320511421172430  0.1531978352917606
  0.8647193556171764  0.5037050461640479  0.8305823937043972
  0.3652511772286250  0.5045699355537829  0.8327331182060541
  0.1543973686571700  0.6601011992921205  0.5103856890673847
  0.4850699072008862  0.8303602583504260  0.1645289371978938
  0.5778327226055266  0.8082234986233016  0.0625852156624948
  0.2501645863914677  0.4150775637718369  0.7291723951900261
  0.1696743953663360  0.7622959808337738  0.4061529409931763
  0.4220698224209071  0.2374044425545062  0.2621316911256420
  0.8374079890167300  0.5876939349730516  0.9347998702559787
  0.7610210873018921  0.1958005913237681  0.6056449136815980
  0.8815208795588717  0.0589005986869027  0.7322269808312473
  0.2357304535839900  0.1842562924415437  0.3872584959138738
  0.9397135100985579  0.8172294960636654  0.0646721598787453
  0.1056695341319605  0.1728678456218488  0.6008185128046373
  0.0500019777620357  0.8628986533678623  0.2769117796446698
  0.8337625007093741  0.9513140276935711  0.9362284570397368
  0.1322073703690626  0.5446459681091540  0.6084953180555641
  0.4069807386483629  0.8352728422010283  0.2756820773282310
  0.4749287092803260  0.5836501733402772  0.9348428746272802
  0.8933105254514774  0.4272749438526353  0.7284568350731234
  0.5467262573764684  0.1122747264118483  0.3946131581697235
  0.5815127540099907  0.4566323953438372  0.0570103262464753
  0.3635798884760847  0.5859747673044789  0.4736132645540378
  0.2033676597094789  0.6222399339290844  0.1430300472078119
  0.4374484943608262  0.7859592858958541  0.8089946653677005
  0.6565343647419108  0.2212978599217799  0.8531024161594324
  0.5758030067760016  0.3694193419908174  0.5216897411721094
  0.7757169645472349  0.4089542017139334  0.1859575432822836
  0.6800473448578139  0.6308430294466476  0.4035741567092517
  0.9020882599543980  0.2867524289251496  0.0658689334417633
  0.3985833283470009  0.0809681525861912  0.7325940376219106
  0.3261432380813624  0.9260697991953720  0.9299714489584719
  0.5915444703641466  0.6915322841341449  0.6062544563607754
  0.0968698797720069  0.3797228146990935  0.2646050984099429
  0.9428327167851448  0.7337334463899770  0.5326340569428557
  0.7691205495031910  0.0383078152020462  0.1908172685930174
  0.2886634520363737  0.2204879814999019  0.8539004098808473
  0.0704098926774521  0.7887424268050596  0.8100599705435436
  0.7377554457966475  0.9586381298361986  0.4861342826336660
  0.2057605192496103  0.2578599962128912  0.1383724048718712
  0.6383257546147089  0.5530484974305031  0.8014315833110729
  0.9313026163517923  0.3915825182532176  0.4720614823308574
  0.4400661140562973  0.0558112502413797  0.1327995239960136
  0.3812171876224597  0.9354212768827148  0.5330739752279928
  0.5296919682217039  0.5970371843790625  0.2043141541987241
  0.0899279010278852  0.4555916056800967  0.8612351375527496
 
             NaN             NaN             NaN
             NaN             NaN             NaN
             NaN             NaN             NaN
             NaN             NaN             NaN
             NaN             NaN             NaN
             NaN             NaN             NaN
             NaN             NaN             NaN
             NaN             NaN             NaN
             NaN             NaN             NaN
             NaN             NaN             NaN
             NaN             NaN             NaN
             NaN             NaN             NaN
             NaN             NaN             NaN
             NaN             NaN             NaN
             NaN             NaN             NaN
             NaN             NaN             NaN
             NaN             NaN             NaN
             NaN             NaN             NaN
             NaN             NaN             NaN
             NaN             NaN             NaN
             NaN             NaN             NaN
             NaN             NaN             NaN
             NaN             NaN             NaN
             NaN             NaN             NaN
             NaN             NaN             NaN
             NaN             NaN             NaN
             NaN             NaN             NaN
             NaN             NaN             NaN
             NaN             NaN             NaN
             NaN             NaN             NaN
             NaN             NaN             NaN
             NaN             NaN             NaN
             NaN             NaN             NaN
             NaN             NaN             NaN
             NaN             NaN             NaN
             NaN             NaN             NaN
             NaN             NaN             NaN
             NaN             NaN             NaN
             NaN             NaN             NaN
             NaN             NaN             NaN
             NaN             NaN             NaN
             NaN             NaN             NaN
             NaN             NaN             NaN
             NaN             NaN             NaN
             NaN             NaN             NaN
             NaN             NaN             NaN
             NaN             NaN             NaN
             NaN             NaN             NaN
             NaN             NaN             NaN
             NaN             NaN             NaN
             NaN             NaN             NaN
             NaN             NaN             NaN
             NaN             NaN             NaN
             NaN             NaN             NaN
             NaN             NaN             NaN
