Ca1 Ti12 F42
1.0
7.512982 -0.010699 0.007167
-3.755309 6.503189 -0.001188
-0.106152 -0.011878 17.685186
Ca Ti F
1 12 42
direct
0.426122 0.500907 0.335388 Ca
0.279700 -0.003642 0.331885 Ti
0.733931 0.732739 0.997768 Ti
-0.000508 0.270121 0.668489 Ti
0.358318 0.999248 0.833703 Ti
0.644870 0.657313 0.506946 Ti
0.990440 0.340027 0.160244 Ti
0.645285 0.154373 0.501048 Ti
0.497715 0.344656 0.158656 Ti
0.858219 0.498665 0.832375 Ti
0.358710 0.499812 0.834780 Ti
0.141440 0.655142 0.507174 Ti
0.492971 0.842318 0.166550 Ti
0.581049 0.817947 0.064134 F
0.247343 0.415989 0.730768 F
0.156576 0.757554 0.401565 F
0.431397 0.256076 0.267806 F
0.830984 0.582531 0.936160 F
0.754609 0.183890 0.604629 F
0.879897 0.057853 0.731220 F
0.211621 0.166322 0.388096 F
0.939157 0.818780 0.064284 F
0.112557 0.182223 0.600654 F
0.072167 0.876444 0.265410 F
0.823881 0.943794 0.934849 F
0.115479 0.540894 0.605933 F
0.415832 0.846835 0.276856 F
0.466728 0.576958 0.936877 F
0.889543 0.424797 0.730068 F
0.542649 0.114051 0.394636 F
0.577065 0.461623 0.060453 F
0.348078 0.578672 0.469523 F
0.210924 0.632951 0.143776 F
0.432666 0.782394 0.811911 F
0.650611 0.216032 0.855215 F
0.567534 0.361832 0.519472 F
0.783839 0.425482 0.185595 F
0.666083 0.617958 0.399741 F
0.910347 0.299800 0.063708 F
0.395705 0.076131 0.735035 F
0.321894 0.922351 0.932426 F
0.567693 0.676562 0.600193 F
0.077882 0.386580 0.265336 F
0.928864 0.727695 0.528206 F
0.777894 0.052358 0.189408 F
0.282231 0.214635 0.855540 F
0.065817 0.784542 0.812269 F
0.727181 0.948213 0.482238 F
0.210037 0.268540 0.143113 F
0.631793 0.548207 0.803441 F
0.920484 0.383474 0.468608 F
0.446591 0.068708 0.138335 F
0.371997 0.927742 0.530480 F
0.535065 0.610172 0.205821 F
0.083626 0.450268 0.863458 F
