Ca7 Mn16 F48                            
   1.00000000000000     
    11.5067500000000003    0.0000220000000000    0.0218700000000000
     0.0000240000000000    8.2085629999999998   -0.0000200000000000
     0.0212200000000000   -0.0000280000000000   11.1472060000000006
   Ca   Mn   F 
     7    16    48
Direct
  0.7004471519528658  0.7499969243691226  0.7232517368114459
  0.2181805014553437  0.7500011343860885  0.2501537758799604
  0.2149305620874534  0.7500030281025097  0.7398734844945739
  0.7108363019335487  0.7499888435429922  0.2484182260313183
  0.4638271530276007  0.7499995724532611  0.0038037464551528
  0.9597976039462839  0.7499978512592006  0.0038595387064402
  0.9644649887470341  0.7499920790938588  0.5044333594651751
  0.4946546890801886  0.4868104186288830  0.2545934813383801
  0.4882398036634049  0.4829637455995694  0.7456549651513465
  0.9963711593430589  0.4834597217174475  0.2496980681658595
  0.9939162904498584  0.4841193359212118  0.7508956102965809
  0.2533372930909062  0.0115715721923247  0.4972424757845830
  0.2447575940380511  0.0182858945855658  0.9958241988527113
  0.7434163130932432  0.0207131498499418  0.4955867771936611
  0.7409819452300767  0.0158615770945585  0.9933125439009015
  0.4946478369558754  0.0132048026836001  0.2545892512906912
  0.4882435993409269  0.0170516497976764  0.7456549707089908
  0.9963706437202603  0.0165513476744607  0.2496983597608067
  0.9939114869729185  0.0158839495179374  0.7508924342000813
  0.2533381671762134  0.4884304305929940  0.4972413450490094
  0.2447574661957408  0.4817102209058664  0.9958258235762203
  0.7434195471329526  0.4792885805701227  0.4955885591621904
  0.7409868715736201  0.4841439889646494  0.9933110567653697
  0.4929591704096709  0.2500023152759590  0.2135725944018303
  0.4565648669039695  0.2500043424640089  0.7140175903297954
  0.9758771493716331  0.2499909791519407  0.2110902409068134
  0.9825129429769284  0.2499939085691371  0.7145532018530520
  0.2249192875031148  0.2500013879342090  0.0426053243507381
  0.2309125818730941  0.2500017650510820  0.5277882212738603
  0.7350317906661064  0.2499985286531975  0.0348546094189236
  0.7617916017338627  0.2499317537136959  0.5453106663906220
  0.0149945088465455  0.7500009840636460  0.2990024234640327
  0.0148868277868773  0.7499996287696153  0.7984266008700648
  0.5100797284103562  0.7500023741910704  0.2819591179975797
  0.5102069459143072  0.7500008259054982  0.7939653354614682
  0.2563394703484209  0.7500019935817711  0.4540261784196467
  0.2662321985391860  0.7500055170711543  0.9439527384637231
  0.7571931115757606  0.7500037488832417  0.4583909744111582
  0.7569690769926134  0.7499967233227477  0.9446573634789575
  0.3494280245092183  0.5799906801013635  0.1445820348041341
  0.3396403387007801  0.5616649192077974  0.6569446965095500
  0.8499787209671156  0.5824213618547329  0.1462218349212400
  0.8532165681284822  0.5827051522421864  0.6473250358749139
  0.1004754160489540  0.9178330986173681  0.0998246279351329
  0.1010912840396618  0.9229763544089256  0.5988131051284411
  0.5996407508771823  0.9248165359029777  0.1015496793554511
  0.6082271088983547  0.9548346615196741  0.6063524310536010
  0.1585427295867518  0.0023653958359934  0.3346181869471127
  0.1565409832336493  0.0040888271247416  0.8349991812931027
  0.6635974153732707  0.0052404689749795  0.3300330452807713
  0.6505586275764685  0.0090264964700711  0.8355537787193668
  0.3985344138171266  0.4626895314155022  0.3996582947940132
  0.4110528124080681  0.4955395241728784  0.9161531211567356
  0.9057391423017989  0.5031705908391307  0.4114299902304198
  0.9079122016535407  0.4984649368024712  0.9151825834784726
  0.1585440098405650  0.4976371077819803  0.3346143365817419
  0.1565460928125121  0.4959109123049550  0.8349982125386169
  0.6635915557807900  0.4947632065418522  0.3300511800738763
  0.6505507614352312  0.4909623693249143  0.8355576153157710
  0.3985352348119243  0.0373122415391703  0.3996507692707036
  0.4110501958520165  0.0044700949493291  0.9161515715982012
  0.9057397217674696 -0.0031694780145795  0.4114269862351015
  0.9079064438853927  0.0015328806684324  0.9151823940465520
  0.3494264435869717  0.9200120029781259  0.1445800269964573
  0.3396405925269023  0.9383413145980689  0.6569487328404402
  0.8499746335781941  0.9175793367122552  0.1462226183130623
  0.8532138722642127  0.9172935328536238  0.6473227185015312
  0.1004791452512284  0.5821741396234748  0.0998243918269782
  0.1010966351143411  0.5770271861458673  0.5988142308618380
  0.5996423937431021  0.5751828123715995  0.1015594513133298
  0.6082320570907466  0.5451752072612948  0.6063561198228961
 
             NaN             NaN             NaN
             NaN             NaN             NaN
             NaN             NaN             NaN
             NaN             NaN             NaN
             NaN             NaN             NaN
             NaN             NaN             NaN
             NaN             NaN             NaN
             NaN             NaN             NaN
             NaN             NaN             NaN
             NaN             NaN             NaN
             NaN             NaN             NaN
             NaN             NaN             NaN
             NaN             NaN             NaN
             NaN             NaN             NaN
             NaN             NaN             NaN
             NaN             NaN             NaN
             NaN             NaN             NaN
             NaN             NaN             NaN
             NaN             NaN             NaN
             NaN             NaN             NaN
             NaN             NaN             NaN
             NaN             NaN             NaN
             NaN             NaN             NaN
             NaN             NaN             NaN
             NaN             NaN             NaN
             NaN             NaN             NaN
             NaN             NaN             NaN
             NaN             NaN             NaN
             NaN             NaN             NaN
             NaN             NaN             NaN
             NaN             NaN             NaN
             NaN             NaN             NaN
             NaN             NaN             NaN
             NaN             NaN             NaN
             NaN             NaN             NaN
             NaN             NaN             NaN
             NaN             NaN             NaN
             NaN             NaN             NaN
             NaN             NaN             NaN
             NaN             NaN             NaN
             NaN             NaN             NaN
             NaN             NaN             NaN
             NaN             NaN             NaN
             NaN             NaN             NaN
             NaN             NaN             NaN
             NaN             NaN             NaN
             NaN             NaN             NaN
             NaN             NaN             NaN
             NaN             NaN             NaN
             NaN             NaN             NaN
             NaN             NaN             NaN
             NaN             NaN             NaN
             NaN             NaN             NaN
             NaN             NaN             NaN
             NaN             NaN             NaN
             NaN             NaN             NaN
             NaN             NaN             NaN
             NaN             NaN             NaN
             NaN             NaN             NaN
             NaN             NaN             NaN
             NaN             NaN             NaN
             NaN             NaN             NaN
             NaN             NaN             NaN
             NaN             NaN             NaN
             NaN             NaN             NaN
             NaN             NaN             NaN
             NaN             NaN             NaN
             NaN             NaN             NaN
             NaN             NaN             NaN
             NaN             NaN             NaN
             NaN             NaN             NaN
