Ca7 Mn16 F48
1.0
11.506750 0.000022 0.021870
0.000024 8.208563 -0.000020
0.021220 -0.000028 11.147206
Ca Mn F
7 16 48
direct
0.680571 0.749997 0.711641 Ca
0.217160 0.750002 0.250302 Ca
0.217299 0.749999 0.741065 Ca
0.710938 0.750002 0.245817 Ca
0.464151 0.750000 1.004928 Ca
0.964284 0.750003 0.006522 Ca
0.966365 0.750000 0.506910 Ca
0.495214 0.486310 0.254777 Mn
0.495743 0.487465 0.746010 Mn
0.995574 0.481182 0.253510 Mn
0.995826 0.482000 0.752770 Mn
0.253137 0.012424 0.498777 Mn
0.246357 0.018555 0.996561 Mn
0.743233 0.014223 0.498150 Mn
0.744978 0.017483 0.997292 Mn
0.495212 0.013693 0.254775 Mn
0.495741 0.012530 0.746012 Mn
0.995569 0.018814 0.253514 Mn
0.995823 0.017996 0.752771 Mn
0.253139 0.487574 0.498778 Mn
0.246360 0.481441 0.996561 Mn
0.743235 0.485774 0.498147 Mn
0.744980 0.482519 0.997290 Mn
0.490077 0.250000 0.214049 F
0.484647 0.249995 0.714719 F
0.974257 0.249998 0.207156 F
0.975595 0.249998 0.709775 F
0.225339 0.250000 0.042563 F
0.232085 0.249999 0.532303 F
0.730511 0.250002 0.041307 F
0.733320 0.249999 0.531567 F
0.013854 0.749999 0.302371 F
0.018281 0.750000 0.802153 F
0.509071 0.750010 0.283138 F
0.510612 0.750004 0.797253 F
0.257640 0.750005 0.454798 F
0.265249 0.750000 0.945355 F
0.766795 0.750000 0.451153 F
0.764535 0.750001 0.950367 F
0.349788 0.579377 0.145057 F
0.343289 0.560200 0.657942 F
0.851690 0.581323 0.148634 F
0.857794 0.580873 0.648878 F
0.102522 0.918221 0.103207 F
0.104078 0.921994 0.601165 F
0.600898 0.923261 0.101516 F
0.611770 0.936515 0.608360 F
0.158744 0.003146 0.336488 F
0.158417 0.008121 0.835704 F
0.662849 0.001525 0.331266 F
0.655773 0.007209 0.839773 F
0.399999 0.467969 0.402358 F
0.412035 0.495900 0.914996 F
0.908222 0.494034 0.416837 F
0.911895 0.495262 0.918569 F
0.158746 0.496856 0.336484 F
0.158420 0.491880 0.835701 F
0.662846 0.498475 0.331263 F
0.655778 0.492788 0.839769 F
0.399996 0.032033 0.402357 F
0.412033 0.004098 0.914998 F
0.908221 0.005969 0.416844 F
0.911889 0.004742 0.918570 F
0.349783 0.920620 0.145054 F
0.343288 0.939797 0.657943 F
0.851689 0.918678 0.148637 F
0.857793 0.919119 0.648879 F
0.102525 0.581780 0.103206 F
0.104080 0.578010 0.601158 F
0.600900 0.576749 0.101520 F
0.611769 0.563479 0.608358 F
