Ca1 Ti12 F42
1.0
7.513079 0.004208 0.051162
-3.742428 6.494404 -0.021390
-0.002981 -0.006748 17.685872
Ca Ti F
1 12 42
direct
0.862499 0.499031 0.330845 Ca
0.284654 0.005578 0.335169 Ti
0.728614 0.729002 0.997664 Ti
0.000981 0.264529 0.668766 Ti
0.357419 0.996656 0.833072 Ti
0.651049 0.660406 0.506506 Ti
0.988438 0.344433 0.159634 Ti
0.651253 0.157916 0.500046 Ti
0.485889 0.346300 0.159786 Ti
0.857283 0.496244 0.832055 Ti
0.357708 0.497289 0.834602 Ti
0.154553 0.655227 0.508338 Ti
0.491911 0.847440 0.165249 Ti
0.570058 0.816321 0.061375 F
0.247106 0.413767 0.730568 F
0.177793 0.742926 0.398581 F
0.396006 0.242220 0.264968 F
0.829664 0.581090 0.935918 F
0.763687 0.179973 0.602122 F
0.879612 0.051993 0.731128 F
0.194688 0.119006 0.402939 F
0.930919 0.820349 0.064847 F
0.121324 0.180354 0.601844 F
0.041105 0.827996 0.280889 F
0.819110 0.939172 0.933961 F
0.114108 0.536102 0.606284 F
0.431214 0.893471 0.271001 F
0.462968 0.572125 0.936689 F
0.888547 0.419038 0.729816 F
0.573679 0.159160 0.388907 F
0.575832 0.460040 0.060818 F
0.360393 0.574696 0.482999 F
0.206297 0.639896 0.147772 F
0.432793 0.779775 0.811183 F
0.648474 0.213375 0.854959 F
0.579296 0.367580 0.523545 F
0.768674 0.422519 0.198868 F
0.695484 0.612438 0.401852 F
0.889328 0.327752 0.066891 F
0.398063 0.074142 0.734387 F
0.317268 0.918825 0.931697 F
0.617250 0.704362 0.603551 F
0.043313 0.381658 0.267254 F
0.943160 0.731865 0.523247 F
0.780078 0.053169 0.183501 F
0.279357 0.211470 0.854950 F
0.066203 0.781350 0.811162 F
0.725115 0.947249 0.476124 F
0.201048 0.274196 0.138097 F
0.631154 0.545215 0.803595 F
0.925199 0.390997 0.459577 F
0.445292 0.074429 0.135603 F
0.378306 0.931792 0.527974 F
0.539371 0.619237 0.196832 F
0.082089 0.448154 0.863555 F
