Na32 Mn32 P32 O128
1.0
  10.3448019999999996    0.0000000000000000    0.0000000000000006
   0.0000000000000022   13.9612320000000008    0.0000000000000008
   0.0000000000000000    0.0000000000000000   18.4275179999999992
Na Mn P O
31 32 32 128
direct
   0.5135770000000001    0.1250000000000000    0.3250744999999999 Na
   0.0135770000000000    0.1250000000000000    0.3250744999999999 Na
   0.0135770000000000    0.1250000000000000    0.8250744999999999 Na
   0.0135770000000000    0.6250000000000000    0.3250744999999999 Na
   0.0135770000000000    0.6250000000000000    0.8250744999999998 Na
   0.5135770000000001    0.1250000000000000    0.8250744999999998 Na
   0.5135770000000000    0.6250000000000000    0.3250744999999999 Na
   0.5135770000000000    0.6250000000000000    0.8250744999999998 Na
   0.2635770000000001    0.3749999999999999    0.4249255000000001 Na
   0.2635770000000001    0.3749999999999999    0.9249255000000002 Na
   0.2635770000000000    0.8749999999999999    0.4249255000000001 Na
   0.2635770000000000    0.8749999999999999    0.9249255000000002 Na
   0.7635770000000000    0.3749999999999999    0.4249255000000001 Na
   0.7635770000000000    0.3749999999999999    0.9249255000000002 Na
   0.7635770000000000    0.8749999999999999    0.4249255000000001 Na
   0.7635770000000000    0.8749999999999999    0.9249255000000001 Na
   0.4864230000000000    0.3749999999999999    0.6749255000000001 Na
   0.4864230000000000    0.8749999999999999    0.1749255000000000 Na
   0.4864230000000000    0.8749999999999999    0.6749255000000001 Na
   0.9864229999999999    0.3749999999999999    0.1749255000000000 Na
   0.9864229999999999    0.3749999999999999    0.6749255000000001 Na
   0.9864229999999998    0.8749999999999999    0.1749255000000000 Na
   0.9864229999999998    0.8749999999999999    0.6749255000000001 Na
   0.2364230000000000    0.1250000000000000    0.0750744999999999 Na
   0.2364230000000000    0.1250000000000000    0.5750744999999999 Na
   0.2364230000000000    0.6250000000000000    0.0750744999999999 Na
   0.2364230000000000    0.6250000000000000    0.5750744999999999 Na
   0.7364230000000000    0.1250000000000000    0.0750744999999999 Na
   0.7364230000000000    0.1250000000000000    0.5750744999999999 Na
   0.7364230000000000    0.6250000000000000    0.0750744999999999 Na
   0.7364230000000000    0.6250000000000000    0.5750744999999999 Na
   0.2500000000000000    0.0000000000000000    0.2500000000000000 Mn
   0.2500000000000000    0.0000000000000000    0.7500000000000000 Mn
   0.2500000000000000    0.5000000000000000    0.2500000000000000 Mn
   0.2500000000000000    0.5000000000000000    0.7500000000000000 Mn
   0.7500000000000000    0.0000000000000000    0.2500000000000000 Mn
   0.7500000000000000    0.0000000000000000    0.7500000000000000 Mn
   0.7500000000000000    0.5000000000000000    0.2500000000000000 Mn
   0.7500000000000000    0.5000000000000000    0.7499999999999999 Mn
   0.0000000000000000    0.0000000000000000    0.0000000000000000 Mn
   0.0000000000000000    0.0000000000000000    0.5000000000000000 Mn
   0.0000000000000000    0.5000000000000000    0.0000000000000000 Mn
   0.0000000000000000    0.5000000000000000    0.4999999999999999 Mn
   0.5000000000000000    0.0000000000000000    0.0000000000000000 Mn
   0.5000000000000000    0.0000000000000000    0.5000000000000000 Mn
   0.5000000000000000    0.5000000000000000    0.0000000000000000 Mn
   0.5000000000000000    0.5000000000000000    0.4999999999999999 Mn
   0.2500000000000000    0.2500000000000000    0.2500000000000000 Mn
   0.2500000000000000    0.2500000000000000    0.7500000000000000 Mn
   0.2499999999999999    0.7499999999999999    0.2499999999999999 Mn
   0.2499999999999999    0.7499999999999999    0.7500000000000000 Mn
   0.7500000000000000    0.2500000000000000    0.2500000000000000 Mn
   0.7500000000000000    0.2500000000000000    0.7500000000000000 Mn
   0.7500000000000000    0.7499999999999999    0.2500000000000000 Mn
   0.7500000000000000    0.7499999999999999    0.7499999999999999 Mn
   0.0000000000000000    0.2500000000000000    0.0000000000000000 Mn
   0.0000000000000000    0.2500000000000000    0.5000000000000000 Mn
   0.0000000000000000    0.7499999999999999    0.0000000000000000 Mn
   0.0000000000000000    0.7499999999999999    0.4999999999999999 Mn
   0.5000000000000001    0.2500000000000000    0.0000000000000000 Mn
   0.5000000000000001    0.2500000000000000    0.4999999999999999 Mn
   0.5000000000000001    0.7499999999999999    0.0000000000000000 Mn
   0.5000000000000001    0.7499999999999999    0.4999999999999999 Mn
   0.0147260000000000    0.3749999999999999    0.3379929999999999 P
   0.0147260000000000    0.3749999999999999    0.8379929999999999 P
   0.0147260000000000    0.8749999999999999    0.3379929999999999 P
   0.0147260000000000    0.8749999999999999    0.8379929999999999 P
   0.5147260000000000    0.3749999999999999    0.3379929999999999 P
   0.5147260000000000    0.3749999999999999    0.8379929999999999 P
   0.5147259999999999    0.8749999999999999    0.3379929999999999 P
   0.5147259999999999    0.8749999999999999    0.8379929999999999 P
   0.2647260000000000    0.1250000000000000    0.4120070000000001 P
   0.2647260000000000    0.1250000000000000    0.9120069999999999 P
   0.2647260000000000    0.6250000000000000    0.4120070000000000 P
   0.2647260000000000    0.6250000000000000    0.9120069999999999 P
   0.7647260000000000    0.1250000000000000    0.4120070000000000 P
   0.7647260000000000    0.1250000000000000    0.9120069999999999 P
   0.7647260000000000    0.6250000000000000    0.4120070000000001 P
   0.7647260000000000    0.6250000000000000    0.9120069999999999 P
   0.4852740000000000    0.1250000000000000    0.1620070000000000 P
   0.4852740000000000    0.1250000000000000    0.6620070000000000 P
   0.4852740000000000    0.6250000000000000    0.1620070000000000 P
   0.4852740000000000    0.6250000000000000    0.6620070000000000 P
   0.9852740000000000    0.1250000000000000    0.1620070000000001 P
   0.9852740000000000    0.1250000000000000    0.6620070000000000 P
   0.9852740000000001    0.6250000000000000    0.1620070000000001 P
   0.9852740000000001    0.6250000000000000    0.6620070000000000 P
   0.2352740000000000    0.3749999999999999    0.0879930000000000 P
   0.2352740000000000    0.3749999999999999    0.5879930000000000 P
   0.2352740000000000    0.8749999999999999    0.0879930000000000 P
   0.2352740000000000    0.8749999999999999    0.5879930000000000 P
   0.7352740000000000    0.3749999999999999    0.0879930000000000 P
   0.7352740000000000    0.3749999999999999    0.5879930000000000 P
   0.7352739999999999    0.8749999999999999    0.0879930000000000 P
   0.7352739999999999    0.8749999999999999    0.5879930000000000 P
   0.0212130000000000    0.3749999999999999    0.4235725000000000 O
   0.0212130000000000    0.3749999999999999    0.9235724999999999 O
   0.0212130000000000    0.8749999999999999    0.4235725000000000 O
   0.0212130000000000    0.8749999999999999    0.9235724999999999 O
   0.5212130000000000    0.3749999999999999    0.4235725000000000 O
   0.5212130000000000    0.3749999999999999    0.9235724999999999 O
   0.5212129999999999    0.8749999999999999    0.4235725000000000 O
   0.5212129999999999    0.8749999999999999    0.9235724999999999 O
   0.2712130000000000    0.1250000000000000    0.3264275000000000 O
   0.2712130000000000    0.1250000000000000    0.8264275000000000 O
   0.2712130000000000    0.6250000000000000    0.3264275000000000 O
   0.2712130000000000    0.6250000000000000    0.8264275000000000 O
   0.7712129999999999    0.1250000000000000    0.3264275000000000 O
   0.7712129999999999    0.1250000000000000    0.8264275000000000 O
   0.7712130000000000    0.6250000000000000    0.3264275000000000 O
   0.7712130000000000    0.6250000000000000    0.8264275000000000 O
   0.4787870000000001    0.1250000000000000    0.0764275000000001 O
   0.4787870000000001    0.1250000000000000    0.5764275000000000 O
   0.4787870000000000    0.6250000000000000    0.0764275000000001 O
   0.4787870000000000    0.6250000000000000    0.5764275000000000 O
   0.9787870000000002    0.1250000000000000    0.0764275000000001 O
   0.9787870000000002    0.1250000000000000    0.5764275000000000 O
   0.9787870000000001    0.6250000000000000    0.0764275000000001 O
   0.9787870000000001    0.6250000000000000    0.5764275000000000 O
   0.2287870000000000    0.3749999999999999    0.1735724999999999 O
   0.2287870000000000    0.3749999999999999    0.6735724999999999 O
   0.2287869999999999    0.8749999999999999    0.1735724999999999 O
   0.2287869999999999    0.8749999999999999    0.6735724999999999 O
   0.7287870000000000    0.3749999999999999    0.1735724999999999 O
   0.7287870000000000    0.3749999999999999    0.6735724999999999 O
   0.7287869999999999    0.8749999999999999    0.1735724999999999 O
   0.7287869999999999    0.8749999999999999    0.6735724999999999 O
   0.3781725000000001    0.3749999999999999    0.0600894999999999 O
   0.3781725000000001    0.3749999999999999    0.5600894999999999 O
   0.3781725000000000    0.8749999999999999    0.0600894999999999 O
   0.3781725000000000    0.8749999999999999    0.5600894999999999 O
   0.8781725000000000    0.3749999999999999    0.0600894999999999 O
   0.8781725000000000    0.3749999999999999    0.5600894999999999 O
   0.8781724999999999    0.8749999999999999    0.0600894999999999 O
   0.8781724999999999    0.8749999999999999    0.5600894999999999 O
   0.1281725000000000    0.1250000000000000    0.1899105000000001 O
   0.1281725000000000    0.1250000000000000    0.6899105000000001 O
   0.1281725000000000    0.6250000000000000    0.1899105000000001 O
   0.1281725000000000    0.6250000000000000    0.6899105000000000 O
   0.6281725000000000    0.1250000000000000    0.1899105000000001 O
   0.6281725000000000    0.1250000000000000    0.6899105000000000 O
   0.6281724999999999    0.6250000000000000    0.1899105000000001 O
   0.6281724999999999    0.6250000000000000    0.6899105000000000 O
   0.1218275000000000    0.1250000000000000    0.4399105000000000 O
   0.1218275000000000    0.1250000000000000    0.9399105000000001 O
   0.1218275000000000    0.6250000000000000    0.4399105000000000 O
   0.1218275000000000    0.6250000000000000    0.9399105000000000 O
   0.6218275000000001    0.1250000000000000    0.4399105000000000 O
   0.6218275000000001    0.1250000000000000    0.9399105000000000 O
   0.6218275000000000    0.6250000000000000    0.4399105000000000 O
   0.6218275000000000    0.6250000000000000    0.9399105000000000 O
   0.3718275000000000    0.3749999999999999    0.3100894999999999 O
   0.3718275000000000    0.3749999999999999    0.8100894999999999 O
   0.3718275000000000    0.8749999999999999    0.3100894999999999 O
   0.3718275000000000    0.8749999999999999    0.8100894999999999 O
   0.8718274999999999    0.3749999999999999    0.3100894999999999 O
   0.8718274999999999    0.3749999999999999    0.8100894999999999 O
   0.8718275000000000    0.8749999999999999    0.3100894999999999 O
   0.8718275000000000    0.8749999999999999    0.8100894999999998 O
   0.4148300000000000    0.0343455000000000    0.1891780000000000 O
   0.4148300000000000    0.0343455000000000    0.6891780000000001 O
   0.4148300000000000    0.5343455000000000    0.1891780000000000 O
   0.4148300000000000    0.5343455000000000    0.6891780000000000 O
   0.9148300000000000    0.0343455000000000    0.1891780000000000 O
   0.9148300000000000    0.0343455000000000    0.6891780000000000 O
   0.9148300000000000    0.5343455000000000    0.1891780000000000 O
   0.9148300000000000    0.5343455000000000    0.6891780000000000 O
   0.1648300000000001    0.4656545000000000    0.0608220000000000 O
   0.1648300000000001    0.4656545000000000    0.5608220000000000 O
   0.1648300000000001    0.9656544999999999    0.0608220000000000 O
   0.1648300000000001    0.9656544999999999    0.5608220000000000 O
   0.6648300000000000    0.4656545000000000    0.0608220000000000 O
   0.6648300000000000    0.4656545000000000    0.5608220000000000 O
   0.6648300000000000    0.9656544999999999    0.0608220000000000 O
   0.6648300000000000    0.9656544999999999    0.5608219999999999 O
   0.0851700000000000    0.2843455000000000    0.3108220000000000 O
   0.0851700000000000    0.2843455000000000    0.8108220000000000 O
   0.0851700000000000    0.7843455000000000    0.3108219999999999 O
   0.0851700000000000    0.7843455000000000    0.8108220000000000 O
   0.5851700000000000    0.2843455000000000    0.3108220000000000 O
   0.5851700000000000    0.2843455000000000    0.8108220000000000 O
   0.5851700000000000    0.7843455000000000    0.3108220000000000 O
   0.5851700000000000    0.7843455000000000    0.8108219999999999 O
   0.3351700000000000    0.2156545000000000    0.4391780000000000 O
   0.3351700000000000    0.2156545000000000    0.9391780000000001 O
   0.3351700000000000    0.7156545000000000    0.4391780000000000 O
   0.3351700000000000    0.7156545000000000    0.9391780000000000 O
   0.8351700000000001    0.2156545000000000    0.4391780000000000 O
   0.8351700000000001    0.2156545000000000    0.9391780000000000 O
   0.8351700000000000    0.7156545000000000    0.4391780000000000 O
   0.8351700000000000    0.7156545000000000    0.9391780000000000 O
   0.0851700000000000    0.4656545000000000    0.3108220000000000 O
   0.0851700000000000    0.4656545000000000    0.8108220000000000 O
   0.0851700000000000    0.9656544999999999    0.3108219999999999 O
   0.0851700000000000    0.9656544999999999    0.8108219999999999 O
   0.5851700000000000    0.4656545000000000    0.3108219999999999 O
   0.5851700000000000    0.4656545000000000    0.8108220000000000 O
   0.5851700000000000    0.9656544999999999    0.3108220000000000 O
   0.5851700000000000    0.9656544999999999    0.8108219999999999 O
   0.3351700000000000    0.0343455000000000    0.4391780000000000 O
   0.3351700000000000    0.0343455000000000    0.9391780000000001 O
   0.3351700000000000    0.5343455000000000    0.4391780000000000 O
   0.3351700000000000    0.5343455000000000    0.9391780000000000 O
   0.8351700000000001    0.0343455000000000    0.4391780000000000 O
   0.8351700000000001    0.0343455000000000    0.9391780000000000 O
   0.8351700000000000    0.5343455000000000    0.4391780000000000 O
   0.8351700000000000    0.5343455000000000    0.9391780000000000 O
   0.4148300000000000    0.2156545000000000    0.1891780000000000 O
   0.4148300000000000    0.2156545000000000    0.6891780000000001 O
   0.4148300000000000    0.7156545000000000    0.1891780000000000 O
   0.4148300000000000    0.7156545000000000    0.6891780000000000 O
   0.9148300000000001    0.2156545000000000    0.1891780000000000 O
   0.9148300000000001    0.2156545000000000    0.6891780000000000 O
   0.9148300000000000    0.7156545000000000    0.1891780000000000 O
   0.9148300000000000    0.7156545000000000    0.6891780000000000 O
   0.1648300000000001    0.2843455000000000    0.0608220000000000 O
   0.1648300000000001    0.2843455000000000    0.5608220000000000 O
   0.1648300000000001    0.7843455000000000    0.0608220000000000 O
   0.1648300000000001    0.7843455000000000    0.5608220000000000 O
   0.6648300000000000    0.2843455000000000    0.0608220000000000 O
   0.6648300000000000    0.2843455000000000    0.5608220000000000 O
   0.6648300000000000    0.7843455000000000    0.0608220000000000 O
   0.6648300000000000    0.7843455000000000    0.5608219999999999 O
