Er16 Mg8 S32
1.0
       11.0433721542         0.0000000000         0.0000000000
        0.0000000000        11.0433721542         0.0000000000
        0.0000000000         0.0000000000        11.0433721542
Mg   Er   Mg    S
1   16    6   32
Direct
   0.2500000000000000    0.7500000000000000   -0.2500000000000000 Mg
     0.875000000         0.625000000         0.875000000
     0.875000000         0.875000000         0.625000000
     0.625000000         0.875000000         0.875000000
     0.625000000         0.625000000         0.625000000
     0.875000000         0.125000000         0.375000000
     0.875000000         0.375000000         0.125000000
     0.625000000         0.375000000         0.375000000
     0.625000000         0.125000000         0.125000000
     0.375000000         0.625000000         0.375000000
     0.375000000         0.875000000         0.125000000
     0.125000000         0.875000000         0.375000000
     0.125000000         0.625000000         0.125000000
     0.375000000         0.125000000         0.875000000
     0.375000000         0.375000000         0.625000000
     0.125000000         0.375000000         0.875000000
     0.125000000         0.125000000         0.625000000
     0.000000000         0.500000000         0.500000000
     0.250000000         0.250000000         0.250000000
     0.000000000         0.000000000         0.000000000
     0.750000000         0.250000000         0.750000000
     0.500000000         0.000000000         0.500000000
     0.750000000         0.750000000         0.250000000
     0.380194604         0.380194604         0.380194604
     0.380194604         0.119805388         0.119805388
     0.119805388         0.380194604         0.119805388
     0.119805388         0.119805388         0.380194604
     0.130194604         0.630194604         0.369805396
     0.130194604         0.369805396         0.630194604
     0.869805396         0.630194604         0.630194604
     0.869805396         0.369805396         0.369805396
     0.380194604         0.880194604         0.880194604
     0.380194604         0.619805396         0.619805396
     0.119805388         0.880194604         0.619805396
     0.119805388         0.619805396         0.880194604
     0.130194604         0.130194604         0.869805396
     0.130194604         0.869805396         0.130194604
     0.869805396         0.130194604         0.130194604
     0.869805396         0.869805396         0.869805396
     0.880194604         0.380194604         0.880194604
     0.880194604         0.119805388         0.619805396
     0.619805396         0.380194604         0.619805396
     0.619805396         0.119805388         0.880194604
     0.630194604         0.630194604         0.869805396
     0.630194604         0.369805396         0.130194604
     0.369805396         0.630194604         0.130194604
     0.369805396         0.369805396         0.869805396
     0.880194604         0.880194604         0.380194604
     0.880194604         0.619805396         0.119805388
     0.619805396         0.880194604         0.119805388
     0.619805396         0.619805396         0.380194604
     0.630194604         0.130194604         0.369805396
     0.630194604         0.869805396         0.630194604
     0.369805396         0.130194604         0.630194604
     0.369805396         0.869805396         0.369805396
