Ca8 V12 F42                             
   1.00000000000000     
     7.5117969999999996    0.0293550000000000    0.0612070000000000
    -3.7368860000000002    6.4944889999999997   -0.0633330000000000
    -0.4582510000000000    0.5890030000000001   18.4622670000000006
   Ca   V    F 
     8    12    42
Direct
  0.8437792114944539  0.0202217730187331  0.3432035218283265
  0.4910420634332208  0.8336306864226202  0.6702582421238906
  0.6083893952852094  0.1449338382092920  0.9985577370087803
  0.9863900261255075  0.8153860095983538  0.6633157344519668
  0.1389082372814191  0.6337742844148828  0.0062027872515006
  0.9360004203072638  0.7863153188005712  0.1698123124664838
  0.8559589625889071  0.0114198751359573  0.8401944506731920
  0.2170647964406797  0.2092728660900202  0.5031321660890813
  0.3300864940480249  1.0040746023661433  0.3316190783952038
 -0.0014315266078976  0.3204979219169408  0.6672701121103634
  0.6493919510692107  0.6607022042315577  0.9967078303626168
  0.3275562995270290  0.9918937377452879  0.8262740663415937
  0.9775538703069893  0.3114103134960628  0.1634199707587574
  0.6887393388420171  0.6833881009489918  0.4991696700391607
  0.4754713961135875  0.8187979914783410  0.1662213147097265
  0.1804777348432060  0.6788401409971138  0.5000716250645437
  0.3307785899961987  0.5000829729418247  0.8313420261927473
  0.8256790618555101  0.4933570321651351  0.8290237791192122
  0.6825569166424688  0.1750092901187178  0.4996886734173275
  0.4733039902867949  0.3123268490845030  0.1606594442281592
  0.7276146794162506  0.1625859971985859  0.6098391867871927
  0.8023604388007577  0.5180030391701926  0.9410798259724504
  0.4389797062837750  0.2432104522728405  0.2647094448702573
  0.2108421457712290  0.7596357892634266  0.3970076686937316
  0.4893210456905899  0.7780372880803625  0.0546659859217546
  0.2787024205495711  0.4813564693522872  0.7213457694882035
  0.7550417970957674  0.9555262449099563  0.9521956761628062
  0.0545881861756176  0.8919091408798046  0.2772819221436475
  0.1092135140869076  0.1510927171378819  0.6162581621274432
  0.9321431618356254  0.7635572989236262  0.0495154140082718
  0.8376080405756033  0.0172409818904565  0.7200847409657901
  0.1774442568512944  0.1197484314809655  0.3906624135974201
  0.5289845492052840  0.3807475031608500  0.0498394501198656
  0.6057746484413880  0.1232963105241400  0.3909831909367597
  0.8744264030782869  0.4829991331832429  0.7185408925428964
  0.3673139650295256  0.5508383048217143  0.9419155673155507
  0.1550977640766737  0.6175342634733648  0.6133442183705953
  0.4823007497408668  0.8933030814668919  0.2724960597503464
  0.7790678162494412  0.4217941953055246  0.1715468130529458
  0.5750509135620027  0.3733850283301412  0.5134067099140783
  0.6316081540780792  0.1844976615744678  0.8561933530558337
  0.4589189047281074  0.8146596423567393  0.8042550436622512
  0.3792162434817108  0.5696596256261790  0.4946301538182274
  0.1633979513796312  0.6335816852986002  0.1436193557649660
  0.9976214106143747  0.2947834045394098  0.2694979289510106
  0.6697643475682832  0.7113031392653649  0.6127488783388174
  0.3081880594709491  0.9316557842908240  0.9402408600152521
  0.3128751315915597  0.9815338276218044  0.7106458980331172
  0.7243678064985549  0.7003758950485605  0.3934061583570013
  0.9235225846768377  0.3150990351021314  0.0505595348989225
  0.1729979404288394  0.2034190897055724  0.1456711984271960
  0.8071183743417794  0.9920566255957386  0.4821193697869294
  0.0158588290313779  0.8073942299119850  0.8064936842407110
  0.2148630478795790  0.1860082675512763  0.8463249506553822
  0.9908738358330634  0.7908780301519605  0.5282209438847177
  0.7872357967894424  0.9990189737733318  0.1713855363729184
  0.0233241648032752  0.3852417132318711  0.8518124266039303
  0.5706337176937396  0.6099511951943649  0.1874924651124977
  0.3846407132934471  0.9718878839883076  0.5308537284374568
  0.4221291800487494  0.0397724487550032  0.1194514339591903
  0.6340309783822088  0.6080943320839137  0.8148166652829976
  0.9868135884658596  0.3758163573798234  0.4801188113817850
 
             NaN             NaN             NaN
             NaN             NaN             NaN
             NaN             NaN             NaN
             NaN             NaN             NaN
             NaN             NaN             NaN
             NaN             NaN             NaN
             NaN             NaN             NaN
             NaN             NaN             NaN
             NaN             NaN             NaN
             NaN             NaN             NaN
             NaN             NaN             NaN
             NaN             NaN             NaN
             NaN             NaN             NaN
             NaN             NaN             NaN
             NaN             NaN             NaN
             NaN             NaN             NaN
             NaN             NaN             NaN
             NaN             NaN             NaN
             NaN             NaN             NaN
             NaN             NaN             NaN
             NaN             NaN             NaN
             NaN             NaN             NaN
             NaN             NaN             NaN
             NaN             NaN             NaN
             NaN             NaN             NaN
             NaN             NaN             NaN
             NaN             NaN             NaN
             NaN             NaN             NaN
             NaN             NaN             NaN
             NaN             NaN             NaN
             NaN             NaN             NaN
             NaN             NaN             NaN
             NaN             NaN             NaN
             NaN             NaN             NaN
             NaN             NaN             NaN
             NaN             NaN             NaN
             NaN             NaN             NaN
             NaN             NaN             NaN
             NaN             NaN             NaN
             NaN             NaN             NaN
             NaN             NaN             NaN
             NaN             NaN             NaN
             NaN             NaN             NaN
             NaN             NaN             NaN
             NaN             NaN             NaN
             NaN             NaN             NaN
             NaN             NaN             NaN
             NaN             NaN             NaN
             NaN             NaN             NaN
             NaN             NaN             NaN
             NaN             NaN             NaN
             NaN             NaN             NaN
             NaN             NaN             NaN
             NaN             NaN             NaN
             NaN             NaN             NaN
             NaN             NaN             NaN
             NaN             NaN             NaN
             NaN             NaN             NaN
             NaN             NaN             NaN
             NaN             NaN             NaN
             NaN             NaN             NaN
             NaN             NaN             NaN
