Ca8 V12 F42
1.0
7.511797 0.029355 0.061207
-3.736886 6.494489 -0.063333
-0.458251 0.589003 18.462267
Ca V F
8 12 42
direct
0.829157 0.056906 0.335565 Ca
0.495829 0.847954 0.666256 Ca
0.609153 0.134096 0.998594 Ca
0.992571 0.824682 0.662939 Ca
0.139940 0.622792 0.005661 Ca
0.938850 0.777920 0.168952 Ca
0.857713 0.008752 0.839444 Ca
0.190666 0.218508 0.497335 Ca
0.325096 0.992950 0.331898 V
1.004839 0.328196 0.667599 V
0.650647 0.650839 0.996517 V
0.331018 0.990775 0.826763 V
0.977706 0.300442 0.163223 V
0.684775 0.682003 0.501339 V
0.475109 0.806573 0.166277 V
0.178893 0.683483 0.502026 V
0.334869 0.500082 0.830458 V
0.829067 0.492184 0.829406 V
0.677326 0.175866 0.499729 V
0.473674 0.301176 0.160274 V
0.736369 0.180657 0.609509 F
0.805550 0.510335 0.941663 F
0.444162 0.233777 0.264928 F
0.200920 0.749661 0.397712 F
0.491975 0.768933 0.054715 F
0.284577 0.486441 0.720911 F
0.756177 0.945555 0.951517 F
0.048931 0.869586 0.276693 F
0.114682 0.160628 0.614528 F
0.933454 0.753919 0.049273 F
0.842450 0.022646 0.719072 F
0.171557 0.107885 0.389186 F
0.528270 0.369455 0.049341 F
0.598658 0.113446 0.391748 F
0.878670 0.487696 0.719324 F
0.368535 0.542724 0.941624 F
0.153484 0.622759 0.614874 F
0.475414 0.877181 0.272848 F
0.779959 0.411994 0.170546 F
0.559025 0.366545 0.508586 F
0.635552 0.182357 0.856884 F
0.463209 0.815051 0.803574 F
0.376253 0.574832 0.496831 F
0.164489 0.620590 0.142420 F
-0.002829 0.294587 0.269451 F
0.672367 0.713543 0.614354 F
0.309524 0.922978 0.940356 F
0.317350 0.988951 0.711610 F
0.711475 0.689212 0.395681 F
0.925143 0.302633 0.050187 F
0.171302 0.188769 0.147228 F
0.805207 0.993407 0.487711 F
0.019067 0.807157 0.807021 F
0.218729 0.185755 0.846119 F
0.991471 0.796848 0.528571 F
0.786615 -0.011961 0.174985 F
0.027163 0.384250 0.850491 F
0.572703 0.599128 0.187209 F
0.396385 0.959648 0.539976 F
0.420455 0.027292 0.119626 F
0.638525 0.608487 0.817225 F
0.979720 0.383314 0.477492 F
