Na6 Zr12 P18 O72
1.0
        8.9436836243         0.0000000000         0.0000000000
       -4.4718418121         7.7454572220         0.0000000000
        0.0000000000         0.0000000000        23.0146369934
   Na   Zr    P    O
    5   12   18   72
Direct
     1.000000000         1.000000000         0.500000000
     0.333333343         0.666666687         0.166666672
     0.000000000         0.000000000         0.000000000
     0.666666687         0.333333343         0.333333343
     0.666666687         0.333333343         0.833333313
     0.000000000         0.000000000         0.145110995
     0.333333343         0.666666687         0.021555670
     0.333333343         0.666666687         0.311777681
     0.666666687         0.333333343         0.188222334
     0.666666687         0.333333343         0.478444338
     0.000000000         0.000000000         0.354889005
     0.000000000         0.000000000         0.645111024
     0.333333343         0.666666687         0.521555662
     0.333333343         0.666666687         0.811777651
     0.666666687         0.333333343         0.688222349
     0.666666687         0.333333343         0.978444338
     0.000000000         0.000000000         0.854888976
     0.666666687         0.624378324         0.083333328
     0.957711697         0.333333343         0.083333328
     0.000000000         0.708954990         0.250000000
     0.708954990         0.000000000         0.250000000
     0.375621676         0.042288329         0.083333328
     0.291045010         0.291045010         0.250000000
     0.333333343         0.957711697         0.416666657
     0.624378324         0.666666687         0.416666657
     0.666666687         0.042288329         0.583333313
     0.375621676         0.333333343         0.583333313
     0.042288329         0.375621676         0.416666657
     0.957711697         0.624378324         0.583333313
     0.000000000         0.291045010         0.750000000
     0.291045010         0.000000000         0.750000000
     0.333333343         0.375621676         0.916666687
     0.042288329         0.666666687         0.916666687
     0.708954990         0.708954990         0.750000000
     0.624378324         0.957711697         0.916666687
     0.472395986         0.309659988         0.247042000
     0.837264001         0.527603984         0.247042000
     0.690339983         0.162735999         0.247042000
     0.309659988         0.472395986         0.252958000
     0.162735999         0.690339983         0.252958000
     0.527603984         0.837264001         0.252958000
     0.194270670         0.023673330         0.086291328
     0.829402685         0.805729330         0.086291328
     0.976326644         0.170597330         0.086291328
     0.357006669         0.860937357         0.080375329
     0.503930688         0.642993331         0.080375329
     0.139062673         0.496069342         0.080375329
     0.814594984         0.013959000         0.304827988
     0.986041009         0.800635993         0.304827988
     0.199364007         0.185405001         0.304827988
     0.800635993         0.986041009         0.195171997
     0.013959000         0.814594984         0.195171997
     0.185405001         0.199364007         0.195171997
     0.852071643         0.319374323         0.028505331
     0.680625677         0.532697320         0.028505331
     0.467302680         0.147928327         0.028505331
     0.866030693         0.347292334         0.138161331
     0.652707696         0.518738329         0.138161331
     0.481261671         0.133969337         0.138161331
     0.139062673         0.642993331         0.580375314
     0.503930688         0.860937357         0.580375314
     0.357006669         0.496069342         0.580375314
     0.976326644         0.805729330         0.586291313
     0.829402685         0.023673330         0.586291313
     0.194270670         0.170597330         0.586291313
     0.860937357         0.357006669         0.419624656
     0.496069342         0.139062673         0.419624656
     0.642993331         0.503930688         0.419624656
     0.023673330         0.194270670         0.413708657
     0.170597330         0.976326644         0.413708657
     0.805729330         0.829402685         0.413708657
     0.481261671         0.347292334         0.638161302
     0.652707696         0.133969337         0.638161302
     0.866030693         0.518738329         0.638161302
     0.467302680         0.319374323         0.528505325
     0.680625677         0.147928327         0.528505325
     0.852071643         0.532697320         0.528505325
     0.518738329         0.652707696         0.361838669
     0.347292334         0.866030693         0.361838669
     0.133969337         0.481261671         0.361838669
     0.532697320         0.680625677         0.471494675
     0.319374323         0.852071643         0.471494675
     0.147928327         0.467302680         0.471494675
     0.805729330         0.976326644         0.913708687
     0.170597330         0.194270670         0.913708687
     0.023673330         0.829402685         0.913708687
     0.642993331         0.139062673         0.919624686
     0.496069342         0.357006669         0.919624686
     0.860937357         0.503930688         0.919624686
     0.527603984         0.690339983         0.752958000
     0.162735999         0.472395986         0.752958000
     0.309659988         0.837264001         0.752958000
     0.690339983         0.527603984         0.747042000
     0.837264001         0.309659988         0.747042000
     0.472395986         0.162735999         0.747042000
     0.147928327         0.680625677         0.971494675
     0.319374323         0.467302680         0.971494675
     0.532697320         0.852071643         0.971494675
     0.133969337         0.652707696         0.861838698
     0.347292334         0.481261671         0.861838698
     0.518738329         0.866030693         0.861838698
     0.185405001         0.986041009         0.695172012
     0.013959000         0.199364007         0.695172012
     0.800635993         0.814594984         0.695172012
     0.199364007         0.013959000         0.804827988
     0.986041009         0.185405001         0.804827988
     0.814594984         0.800635993         0.804827988
