Ca1 V12 F42                             
   1.00000000000000     
     7.3842150000000002   -0.0046200000000000   -0.1004050000000000
    -3.6816990000000001    6.3755389999999998    0.0771420000000000
     0.2802760000000000   -0.0184320000000000   17.6094079999999984
   Ca   V    F 
     1    12    42
Direct
  0.9290456096933563  0.4889025330382001  0.3408516029229360
  0.3039497942017977  0.0106601153838763  0.3330233194630937
  0.7154931197034426  0.7151215645614022  0.9976518159707102
  0.0029090976748236  0.2824977744066863  0.6704327582429854
  0.3569990502590381  0.9954788003811937  0.8346734935357586
  0.6557015224314422  0.6659377914467605  0.5064065430808462
  0.9936655320097947  0.3353142580658112  0.1499591706274069
  0.6504391709100555  0.1638792167599720  0.5053213061031826
  0.4932868162933703  0.3392044639361230  0.1563742544378576
  0.8568016661939357  0.4969894704711404  0.8349457977978679
  0.3556392128595447  0.4941516355397579  0.8346151079282405
  0.1625190490600769  0.6725343165450060  0.5162650499711832
  0.4934426969536606  0.8397070565948244  0.1633767454797109
  0.5567598120455214  0.8035871592546706  0.0594049759280821
  0.2501816647953452  0.4131340818613589  0.7326425479131272
  0.2020439220437958  0.7706796996362854  0.4080065981866869
  0.4229494638108423  0.2420872187758919  0.2609782338053872
  0.8336457646958774  0.5829611384760669  0.9361054630489594
  0.7602812491253090  0.1914973481338854  0.6063262373564576
  0.8803081224348038  0.0611640023232781  0.7294253458947378
  0.1778445562799843  0.1289491642408867  0.3812486560931846
  0.9219437113535836  0.8113056445451531  0.0636749281028929
  0.1227236963077132  0.2021542322628317  0.6017733050501036
  0.0643008418782628  0.8039879736567004  0.2821309072902271
  0.8067943975178118  0.9308834183704147  0.9357737564826335
  0.1202750820484281  0.5555370767683082  0.6158354758524625
  0.4467715188550763  0.8909356526537062  0.2698855046333937
  0.4575319327381648  0.5628159251558993  0.9366509092059838
  0.8866667752334240  0.4228765085127196  0.7332549760452061
  0.5740168200124597  0.1607957036564169  0.3927069626040900
  0.5770270638617592  0.4477788954134981  0.0558663494440278
  0.3637053369708400  0.5856548176648686  0.4870984930035591
  0.1996748276532667  0.6302693818115253  0.1451200497373337
  0.4369368590373329  0.7842740622396661  0.8145344850180084
  0.6471053979056445  0.2076942514405368  0.8558386718023422
  0.5721801264722057  0.3742691728060760  0.5249619427770829
  0.7832018876018214  0.4148633560701609  0.1839696166456629
  0.7124964657936698  0.6167395771324449  0.4060822782317385
  0.9232807424735785  0.3161064656611917  0.0539148936323742
  0.3957178621749204  0.0686006111122405  0.7375404528841764
  0.3191054176182667  0.9221318805409138  0.9317225670500321
  0.6144116232733110  0.7060423107729826  0.6025113250862706
  0.0570104572598017  0.3582206454193166  0.2567361896308478
  0.9468090290318425  0.7482883805602311  0.5287538348682319
  0.7914183004131093  0.0467542072404789  0.1736333786718404
  0.2735877938401746  0.2032631090326749  0.8546988906365253
  0.0668481855799214  0.7867084755325919  0.8135350445794666
  0.7285743025453534  0.9536857505595667  0.4803024002511216
  0.2069349031223448  0.2595227353349738  0.1314965497411405
  0.6309828862423112  0.5453644788339690  0.8044050458318895
  0.9341263831269101  0.3981791730977106  0.4698546286006964
  0.4426341222958837  0.0620175801775011  0.1308988820669285
  0.3811485977319942  0.9488441938506792  0.5432585960265768
  0.5424284649623649  0.6121864782553418  0.1915729867103894
  0.0812680015663010  0.4459660155961204  0.8647861647975637
 
             NaN             NaN             NaN
             NaN             NaN             NaN
             NaN             NaN             NaN
             NaN             NaN             NaN
             NaN             NaN             NaN
             NaN             NaN             NaN
             NaN             NaN             NaN
             NaN             NaN             NaN
             NaN             NaN             NaN
             NaN             NaN             NaN
             NaN             NaN             NaN
             NaN             NaN             NaN
             NaN             NaN             NaN
             NaN             NaN             NaN
             NaN             NaN             NaN
             NaN             NaN             NaN
             NaN             NaN             NaN
             NaN             NaN             NaN
             NaN             NaN             NaN
             NaN             NaN             NaN
             NaN             NaN             NaN
             NaN             NaN             NaN
             NaN             NaN             NaN
             NaN             NaN             NaN
             NaN             NaN             NaN
             NaN             NaN             NaN
             NaN             NaN             NaN
             NaN             NaN             NaN
             NaN             NaN             NaN
             NaN             NaN             NaN
             NaN             NaN             NaN
             NaN             NaN             NaN
             NaN             NaN             NaN
             NaN             NaN             NaN
             NaN             NaN             NaN
             NaN             NaN             NaN
             NaN             NaN             NaN
             NaN             NaN             NaN
             NaN             NaN             NaN
             NaN             NaN             NaN
             NaN             NaN             NaN
             NaN             NaN             NaN
             NaN             NaN             NaN
             NaN             NaN             NaN
             NaN             NaN             NaN
             NaN             NaN             NaN
             NaN             NaN             NaN
             NaN             NaN             NaN
             NaN             NaN             NaN
             NaN             NaN             NaN
             NaN             NaN             NaN
             NaN             NaN             NaN
             NaN             NaN             NaN
             NaN             NaN             NaN
             NaN             NaN             NaN
