Ca1 V12 F42
1.0
7.384215 -0.004620 -0.100405
-3.681699 6.375539 0.077142
0.280276 -0.018432 17.609408
Ca V F
1 12 42
direct
0.969326 0.505131 0.328467 Ca
0.297802 0.000960 0.334163 V
0.714563 0.714432 0.997787 V
0.000364 0.284941 0.668184 V
0.352195 0.998822 0.832982 V
0.649165 0.652841 0.507181 V
0.995909 0.343989 0.160542 V
0.650459 0.151267 0.501927 V
0.494343 0.345982 0.161111 V
0.852212 0.499038 0.832924 V
0.352390 0.498825 0.833703 V
0.149593 0.652054 0.505663 V
0.497733 0.846542 0.165398 V
0.571317 0.818798 0.061866 F
0.249457 0.425196 0.729809 F
0.176431 0.735963 0.396098 F
0.448354 0.260717 0.270684 F
0.827526 0.580959 0.934492 F
0.754653 0.179309 0.603842 F
0.878949 0.070753 0.730306 F
0.199175 0.130044 0.393144 F
0.924335 0.802614 0.062514 F
0.123096 0.198729 0.602952 F
0.058572 0.851703 0.276251 F
0.812348 0.934723 0.937720 F
0.107808 0.546466 0.607921 F
0.429472 0.876149 0.271352 F
0.459223 0.570705 0.936138 F
0.883423 0.430736 0.730237 F
0.567542 0.136195 0.392799 F
0.563088 0.450013 0.058516 F
0.356537 0.567300 0.485216 F
0.207099 0.633974 0.146108 F
0.434457 0.789993 0.813508 F
0.644277 0.209097 0.853633 F
0.571745 0.361245 0.520686 F
0.790663 0.436999 0.186803 F
0.676666 0.612719 0.401161 F
0.915791 0.314295 0.065873 F
0.391271 0.071074 0.736307 F
0.316155 0.928795 0.929904 F
0.614900 0.688736 0.604033 F
0.048846 0.384287 0.265459 F
0.940840 0.735647 0.519042 F
0.789663 0.056666 0.185102 F
0.268289 0.206264 0.853008 F
0.062064 0.790493 0.812034 F
0.728907 0.941252 0.481504 F
0.199451 0.259789 0.147444 F
0.624099 0.545979 0.803238 F
0.924679 0.380837 0.466526 F
0.447035 0.071152 0.136168 F
0.373615 0.929135 0.531332 F
0.546029 0.619258 0.198471 F
0.079606 0.450636 0.863957 F
