Mg16 Cu16 Si16 O64
1.0
   9.6199636677486566    0.0005430671336850    0.0000004281843670
   0.0005689551855558   10.0881089629149461   -0.0000009262893467
   0.0000005802869012   -0.0000011115347196   12.2869033549119244
Mg Cu Si O
15 16 16 64
direct
   0.5000046424495247    0.0000012647573499    0.7499994942077147 Mg
   0.2499964175121253    0.4999971685269857    0.2499998884139283 Mg
   0.2499964175121253    0.4999971685269857    0.7499998884139283 Mg
   0.7499964175121253    0.4999971685269858    0.2499998884139283 Mg
   0.7499964175121254    0.4999971685269857    0.7499998884139282 Mg
   0.2499964177039859    0.4999971681557950    0.0000001117955156 Mg
   0.2499964177039859    0.4999971681557950    0.5000001117955155 Mg
   0.7499964177039861    0.4999971681557951    0.0000001117955156 Mg
   0.7499964177039860    0.4999971681557950    0.5000001117955155 Mg
   0.0000046424495247    0.0000012647573499    0.2499994942077148 Mg
   0.0000046424495247    0.0000012647573499    0.7499994942077147 Mg
   0.5000046424495247    0.0000012647573499    0.2499994942077148 Mg
   0.0000046447011532    0.0000012666059289    0.0000005067287781 Mg
   0.0000046447011532    0.0000012666059289    0.5000005067287780 Mg
   0.5000046447011532    0.0000012666059289    0.0000005067287781 Mg
   0.4944336369332140    0.2789079517578656    0.1249999901498508 Cu
   0.4944336369332139    0.2789079517578656    0.6249999901498507 Cu
   0.9944336369332140    0.2789079517578656    0.1249999901498508 Cu
   0.9944336369332140    0.2789079517578656    0.6249999901498509 Cu
   0.2444348066776934    0.2211052338136019    0.3749999974110216 Cu
   0.2444348066776934    0.2211052338136019    0.8749999974110215 Cu
   0.7444348066776934    0.2211052338136019    0.3749999974110215 Cu
   0.7444348066776934    0.2211052338136019    0.8749999974110214 Cu
   0.0055568749205097    0.7210932233754351    0.3750000077191271 Cu
   0.0055568749205097    0.7210932233754351    0.8750000077191271 Cu
   0.5055568749205098    0.7210932233754352    0.3750000077191270 Cu
   0.5055568749205097    0.7210932233754352    0.8750000077191270 Cu
   0.2555722331808228    0.7788977088335124    0.1250000051926513 Cu
   0.2555722331808228    0.7788977088335123    0.6250000051926513 Cu
   0.7555722331808229    0.7788977088335125    0.1250000051926513 Cu
   0.7555722331808229    0.7788977088335124    0.6250000051926513 Cu
   0.0345417386348755    0.5950586691840071    0.1250000165174306 Si
   0.0345417386348755    0.5950586691840070    0.6250000165174305 Si
   0.5345417386348755    0.5950586691840071    0.1250000165174306 Si
   0.5345417386348755    0.5950586691840070    0.6250000165174305 Si
   0.2154614866974124    0.0950463096586729    0.1250000067174707 Si
   0.2154614866974124    0.0950463096586729    0.6250000067174707 Si
   0.7154614866974125    0.0950463096586729    0.1250000067174707 Si
   0.7154614866974125    0.0950463096586729    0.6250000067174706 Si
   0.4654490480099122    0.4049399951896534    0.3749999828047327 Si
   0.4654490480099122    0.4049399951896534    0.8749999828047327 Si
   0.9654490480099124    0.4049399951896534    0.3749999828047327 Si
   0.9654490480099122    0.4049399951896534    0.8749999828047328 Si
   0.2845442789914947    0.9049567871792505    0.3749999932321088 Si
   0.2845442789914947    0.9049567871792507    0.8749999932321088 Si
   0.7845442789914947    0.9049567871792504    0.3749999932321087 Si
   0.7845442789914947    0.9049567871792505    0.8749999932321088 Si
   0.3647289495664484    0.5908059184389030    0.1250000051993529 O
   0.3647289495664485    0.5908059184389030    0.6250000051993528 O
   0.8647289495664485    0.5908059184389030    0.1250000051993529 O
   0.8647289495664485    0.5908059184389030    0.6250000051993528 O
   0.3852608398669301    0.0907829812161518    0.1250000007844048 O
   0.3852608398669301    0.0907829812161518    0.6250000007844049 O
   0.8852608398669300    0.0907829812161518    0.1250000007844048 O
   0.8852608398669300    0.0907829812161518    0.6250000007844048 O
   0.1352664245340736    0.4091912208279230    0.3749999935877516 O
   0.1352664245340736    0.4091912208279230    0.8749999935877515 O
   0.6352664245340737    0.4091912208279231    0.3749999935877516 O
   0.6352664245340738    0.4091912208279230    0.8749999935877516 O
   0.1147433790707194    0.9092200195927143    0.3749999996177084 O
   0.1147433790707194    0.9092200195927143    0.8749999996177084 O
   0.6147433790707195    0.9092200195927141    0.3749999996177083 O
   0.6147433790707195    0.9092200195927141    0.8749999996177082 O
   0.1396282014197607    0.9446349901756439    0.1249999882090520 O
   0.1396282014197607    0.9446349901756439    0.6249999882090520 O
   0.6396282014197608    0.9446349901756438    0.1249999882090520 O
   0.6396282014197608    0.9446349901756438    0.6249999882090520 O
   0.1103847795514143    0.4446339132328264    0.1249999974312910 O
   0.1103847795514143    0.4446339132328264    0.6249999974312910 O
   0.6103847795514143    0.4446339132328265    0.1249999974312910 O
   0.6103847795514143    0.4446339132328264    0.6249999974312910 O
   0.3603817567359456    0.0553633677008276    0.3750000111937549 O
   0.3603817567359456    0.0553633677008276    0.8750000111937549 O
   0.8603817567359456    0.0553633677008276    0.3750000111937549 O
   0.8603817567359456    0.0553633677008276    0.8750000111937548 O
   0.3896029567827275    0.5553545422573980    0.3750000030520255 O
   0.3896029567827275    0.5553545422573981    0.8750000030520254 O
   0.8896029567827276    0.5553545422573981    0.3750000030520255 O
   0.8896029567827276    0.5553545422573981    0.8750000030520254 O
   0.1090646668064404    0.6622636510890821    0.0165693561492504 O
   0.1090646668064404    0.6622636510890823    0.5165693561492504 O
   0.6090646668064404    0.6622636510890823    0.0165693561492504 O
   0.6090646668064404    0.6622636510890823    0.5165693561492504 O
   0.1409294488989262    0.1622662798890034    0.2334341017580561 O
   0.1409294488989262    0.1622662798890034    0.7334341017580561 O
   0.6409294488989262    0.1622662798890034    0.2334341017580561 O
   0.6409294488989262    0.1622662798890034    0.7334341017580560 O
   0.3909339156007163    0.3377341424584773    0.2665685830814801 O
   0.3909339156007164    0.3377341424584773    0.7665685830814801 O
   0.8909339156007163    0.3377341424584773    0.2665685830814801 O
   0.8909339156007164    0.3377341424584773    0.7665685830814800 O
   0.3590752507836515    0.8377410651984676    0.4834347684331142 O
   0.3590752507836515    0.8377410651984676    0.9834347684331141 O
   0.8590752507836515    0.8377410651984675    0.4834347684331141 O
   0.8590752507836514    0.8377410651984675    0.9834347684331142 O
   0.3909338932828435    0.3377341366849523    0.4834313620491217 O
   0.3909338932828436    0.3377341366849523    0.9834313620491217 O
   0.8909338932828436    0.3377341366849523    0.4834313620491217 O
   0.8909338932828436    0.3377341366849523    0.9834313620491217 O
   0.3590752345387498    0.8377410827174129    0.2665651742508692 O
   0.3590752345387498    0.8377410827174130    0.7665651742508692 O
   0.8590752345387498    0.8377410827174128    0.2665651742508692 O
   0.8590752345387499    0.8377410827174129    0.7665651742508691 O
   0.1090646406853978    0.6622636454261694    0.2334307043839549 O
   0.1090646406853978    0.6622636454261694    0.7334307043839549 O
   0.6090646406853979    0.6622636454261694    0.2334307043839549 O
   0.6090646406853979    0.6622636454261694    0.7334307043839547 O
   0.1409294354625210    0.1622662960559949    0.0165659499284711 O
   0.1409294354625210    0.1622662960559949    0.5165659499284710 O
   0.6409294354625210    0.1622662960559949    0.0165659499284711 O
   0.6409294354625210    0.1622662960559949    0.5165659499284710 O
