Na2 Ca2 V4 P2 S4 O24                    
   1.00000000000000     
     8.9632699999999996    0.3553980000000000    0.2263760000000000
     4.2631699999999997    7.9131590000000003    0.2477160000000000
     4.1973430000000000    2.6339820000000000    7.4657929999999997
   Ca   Na   V    P    S    O 
     2     2     4     2     4    24
Direct
  0.2812615346409147  0.5678710350731182  0.7684725983746473
  0.9781759643113466  0.9682414410213099  0.0760820539825350
  0.4143398948869582  0.0888116332161437  0.7543290977827075
  0.5952866787316815  0.8446652253324690  0.2518984324821389
  0.3548796966314376  0.3661047749854571  0.3576864256865254
  0.6659832932792787  0.6657955095360266  0.6224934262683903
  0.1497158641294415  0.1493796726762195  0.1411281420761392
  0.8389365397645941  0.8534416134104114  0.8504100779977515
  0.7532626086575445  0.0435839136968836  0.4375415202909652
  0.4533004522714232  0.7542912489071232  0.0348888868234701
  0.0409064585471496  0.4444018849247160  0.7543284668226348
  0.9717123755441437  0.5516775069309835  0.2448771794329020
  0.2420953810710338  0.9679184397837725  0.5525736713368403
  0.5482158255549283  0.2497372989735846  0.9602739796778592
  0.2243677750313148  0.4509949392491153  0.6075528352797971
  0.8003770992484468  0.5441974337178047  0.4028004507787791
  0.5680124276802183  0.2005683739441782  0.4586220956134330
  0.4168035160315645  0.7969806549512941  0.5502308689994776
  0.4568828303759477  0.5728497321262580  0.1892092098966184
  0.5617077757792379  0.4298108311283357  0.8179065255975133
  0.9017827131773569  0.1146153810561147  0.2609201063918317
  0.1041302604953093  0.8947698387927686  0.7299818352491669
  0.0749184618167876  0.2565271582925991  0.8955631241671770
  0.9217845002318502  0.7331463829356542  0.0917840548029788
  0.2581796454439537  0.9095200752035193  0.0753386163911860
  0.7273742585176769  0.0981490388345210  0.9242598059767790
  0.4946074125336666  0.2418506168595911  0.1473777195646781
  0.4910636117266071  0.7568369733500216  0.8446460012362537
  0.1086062423224111  0.5611831328764916  0.2830603757584663
  0.9066797116709372  0.4795418624432111  0.6847043985614100
  0.2610763563008778  0.1171176857511548  0.5587251225256133
  0.7477840387380695  0.8908832642927519  0.4019021953048582
  0.4001126173703449  0.2304606115061321  0.9412979385954956
  0.5900932086951947  0.8247010461829523  0.0165181532462919
  0.2006616616987547  0.0164453989044978  0.3922072002202246
  0.8020220716308789  0.9618229810120494  0.6095624055816303
  0.0530869249628956  0.4036765382734034  0.1712091014544651
 -0.0148636191993113  0.5806499588047475  0.8380327156374425
 
             NaN             NaN             NaN
             NaN             NaN             NaN
             NaN             NaN             NaN
             NaN             NaN             NaN
             NaN             NaN             NaN
             NaN             NaN             NaN
             NaN             NaN             NaN
             NaN             NaN             NaN
             NaN             NaN             NaN
             NaN             NaN             NaN
             NaN             NaN             NaN
             NaN             NaN             NaN
             NaN             NaN             NaN
             NaN             NaN             NaN
             NaN             NaN             NaN
             NaN             NaN             NaN
             NaN             NaN             NaN
             NaN             NaN             NaN
             NaN             NaN             NaN
             NaN             NaN             NaN
             NaN             NaN             NaN
             NaN             NaN             NaN
             NaN             NaN             NaN
             NaN             NaN             NaN
             NaN             NaN             NaN
             NaN             NaN             NaN
             NaN             NaN             NaN
             NaN             NaN             NaN
             NaN             NaN             NaN
             NaN             NaN             NaN
             NaN             NaN             NaN
             NaN             NaN             NaN
             NaN             NaN             NaN
             NaN             NaN             NaN
             NaN             NaN             NaN
             NaN             NaN             NaN
             NaN             NaN             NaN
             NaN             NaN             NaN
