Na2 Ca2 V4 P2 S4 O24
1.0
8.963270 0.355398 0.226376
4.263170 7.913159 0.247716
4.197343 2.633982 7.465793
Ca Na V P S O
2 2 4 2 4 24
direct
0.385007 0.555837 0.681335 Ca
-0.024923 0.998283 0.048010 Ca
0.413781 0.092209 0.751736 Na
0.566906 0.710699 0.340923 Na
0.352238 0.359200 0.356094 V
0.654786 0.664638 0.630078 V
0.148581 0.151363 0.142676 V
0.844810 0.853178 0.857113 V
0.752480 0.049094 0.445701 P
0.449897 0.752838 0.045754 P
0.049963 0.458794 0.748923 S
0.960074 0.552627 0.249484 S
0.245096 0.962203 0.553018 S
0.544525 0.258899 0.941087 S
0.231393 0.433908 0.597789 O
0.778667 0.565736 0.399172 O
0.577237 0.225401 0.446977 O
0.405328 0.781200 0.559691 O
0.429636 0.588367 0.222780 O
0.572481 0.415053 0.765388 O
0.907978 0.100381 0.266718 O
0.094594 0.926168 0.733478 O
0.067640 0.275169 0.901434 O
0.937610 0.735482 0.092769 O
0.262425 0.919917 0.060748 O
0.721860 0.098561 0.938811 O
0.483820 0.311700 0.098551 O
0.487770 0.718444 0.875630 O
0.098813 0.530048 0.307099 O
0.900231 0.505271 0.693220 O
0.296756 0.101491 0.540310 O
0.722725 0.901067 0.432619 O
0.402548 0.210608 0.951586 O
0.598223 0.808659 0.020303 O
0.192398 0.016292 0.398359 O
0.788612 0.987815 0.620186 O
1.015058 0.409679 0.180604 O
0.025125 0.598311 0.809288 O
