Ca1 V16 F48                             
   1.00000000000000     
    15.6514749999999996   -0.0000490000000000   -0.0000450000000000
     0.0000080000000000    7.8235419999999998   -0.0001280000000000
    -0.0000420000000000   -0.0002770000000000    7.8218500000000004
   Ca   V    F 
     1    16    48
Direct
  0.5125311388793748  0.5000025266709263  0.4999944829368096
  0.1265530008340351  0.2498460804837401  0.2498446632696566
  0.6306057447262611  0.2461619886246725  0.2461796373428222
  0.1265520538086904  0.2498452736542616  0.7501546903618692
  0.6306024193421972  0.2461754954337729  0.7538099410019578
  0.1265540777819131  0.7501544751840949  0.2498439085955620
  0.6305989900546904  0.7538184186863960  0.2461897902366041
  0.1265514212089767  0.7501546586747938  0.7501548025736599
  0.6306080926395489  0.7538302875369917  0.7538233012852625
  0.3747721908730158  0.2474621459228027  0.2474694551563055
  0.8786517583849391  0.2498683060741445  0.2498679011212279
  0.3747695193637955  0.2474621366204093  0.7525319311529965
  0.8786482456367911  0.2498645207783647  0.7501355809879076
  0.3747712741061093  0.7525412150982593  0.2474691749935386
  0.8786447767670890  0.7501356150031618  0.2498638613222754
  0.3747674145104510  0.7525398398878056  0.7525312305871525
  0.8786551876370471  0.7501320508035763  0.7501320892692974
  0.0025583772659237  0.2534104641471235  0.2534444821887680
  0.5027651273923004  0.2773794519544436  0.2774695134477709
  0.0025621248347656  0.2534063837310378  0.7465555335664439
  0.5027737194580792  0.2773833398795011  0.7225254897247775
  0.0025600660978332  0.7465903763522010  0.2534415898234328
  0.5027774543355368  0.7226154961243267  0.2774705300178479
  0.0025666187892719  0.7465942030927333  0.7465586177117478
  0.5027634730791590  0.7226245170905027  0.7225374134729858
  0.2512101298942259  0.2427959249322029  0.2427389524498540
  0.7539859843785237  0.2437235697013177  0.2436701340404812
  0.2512012753058971  0.2427989128363344  0.7572579261792861
  0.7539832139803559  0.2437250468658717  0.7563362568005229
  0.2512078310985138  0.7572013157851502  0.2427432866578008
  0.7539783772468152  0.7562807528955108  0.2436688507233071
  0.2512056966140459  0.7572032920590765  0.7572586199444692
  0.7539824748194125  0.7562680996469924  0.7563255118765054
  0.1246942217877727  0.2503098571894817  1.0000069948758818
  0.6208514784119574  0.2521703087171855 -0.0000256642009491
  0.1292248369857972  0.2501700296778273  0.4999929604533756
  0.6271652613014606  0.2638366900785581  0.5000247380632034
  0.1246943252479223  0.7496906499228188 -0.0000248782550045
  0.6208558394396750  0.7478332990576012  1.0000280324086093
  0.1292225879305002  0.7498303693441701  0.5000240184237026
  0.6271643249310551  0.7361578437726772  0.4999729120256939
  0.3844907071388020  0.2515960734480202  0.9999940873529172
  0.8798425902704295  0.2500557558789446  1.0000111144577573
  0.3770600423865045  0.2603668628119933  0.5000035480305406
  0.8758298248605625  0.2501516776961544  0.4999910393428159
  0.3844923284340801  0.7484020475099714  0.0000121149872242
  0.8798381012214430  0.7499447640292138 -0.0000205611330839
  0.3770648901445948  0.7396346208267994  0.4999889633380843
  0.8758287958757776  0.7498490240312587  0.5000209712792142
  0.1247119786583084  1.0000153989027538  0.2502965101152473
  0.6209006403885002  0.9999677431688491  0.2523699100457202
  0.1247143907147194 -0.0000163064213828  0.7497029856741183
  0.6209028351356312  0.0000207594528228  0.7476304855853879
  0.1292049890920623  0.4999857276716754  0.2501832819785780
  0.6271099757578800  0.5000315130288646  0.2636626663233831
  0.1292053323189017  0.5000164600154012  0.7498162013641528
  0.6271062767284560  0.4999798863766364  0.7363396485887856
  0.3844528727831468  0.9999888259062804  0.2516851719015043
  0.8798217625702542  1.0000176784180912  0.2502249543949253
  0.3844556869910256  0.0000065307249662  0.7483101189818077
  0.8798142880248696 -0.0000143972100533  0.7497759311758670
  0.3771216202695247  0.5000098548275296  0.2603013118268063
  0.8758509277988160  0.4999839236439784  0.2499887231927458
  0.3771266740400497  0.4999955672594542  0.7396991918114902
  0.8758496297258154  0.5000143391091534  0.7500119895364538
 
             NaN             NaN             NaN
             NaN             NaN             NaN
             NaN             NaN             NaN
             NaN             NaN             NaN
             NaN             NaN             NaN
             NaN             NaN             NaN
             NaN             NaN             NaN
             NaN             NaN             NaN
             NaN             NaN             NaN
             NaN             NaN             NaN
             NaN             NaN             NaN
             NaN             NaN             NaN
             NaN             NaN             NaN
             NaN             NaN             NaN
             NaN             NaN             NaN
             NaN             NaN             NaN
             NaN             NaN             NaN
             NaN             NaN             NaN
             NaN             NaN             NaN
             NaN             NaN             NaN
             NaN             NaN             NaN
             NaN             NaN             NaN
             NaN             NaN             NaN
             NaN             NaN             NaN
             NaN             NaN             NaN
             NaN             NaN             NaN
             NaN             NaN             NaN
             NaN             NaN             NaN
             NaN             NaN             NaN
             NaN             NaN             NaN
             NaN             NaN             NaN
             NaN             NaN             NaN
             NaN             NaN             NaN
             NaN             NaN             NaN
             NaN             NaN             NaN
             NaN             NaN             NaN
             NaN             NaN             NaN
             NaN             NaN             NaN
             NaN             NaN             NaN
             NaN             NaN             NaN
             NaN             NaN             NaN
             NaN             NaN             NaN
             NaN             NaN             NaN
             NaN             NaN             NaN
             NaN             NaN             NaN
             NaN             NaN             NaN
             NaN             NaN             NaN
             NaN             NaN             NaN
             NaN             NaN             NaN
             NaN             NaN             NaN
             NaN             NaN             NaN
             NaN             NaN             NaN
             NaN             NaN             NaN
             NaN             NaN             NaN
             NaN             NaN             NaN
             NaN             NaN             NaN
             NaN             NaN             NaN
             NaN             NaN             NaN
             NaN             NaN             NaN
             NaN             NaN             NaN
             NaN             NaN             NaN
             NaN             NaN             NaN
             NaN             NaN             NaN
             NaN             NaN             NaN
             NaN             NaN             NaN
