Ca1 V16 F48
1.0
15.651475 -0.000049 -0.000045
0.000008 7.823542 -0.000128
-0.000042 -0.000277 7.821850
Ca V F
1 16 48
direct
0.531251 0.499994 0.500000 Ca
0.124236 0.250060 0.250033 V
0.627116 0.246700 0.246762 V
0.124239 0.250062 0.749966 V
0.627116 0.246705 0.753232 V
0.124238 0.749939 0.250034 V
0.627116 0.753292 0.246768 V
0.124237 0.749938 0.749967 V
0.627113 0.753293 0.753233 V
0.372407 0.247125 0.247177 V
0.876244 0.249642 0.249625 V
0.372406 0.247127 0.752820 V
0.876241 0.249642 0.750374 V
0.372405 0.752873 0.247174 V
0.876241 0.750357 0.249625 V
0.372407 0.752874 0.752825 V
0.876243 0.750358 0.750376 V
0.000153 0.249918 0.249933 F
0.499844 0.263112 0.263005 F
0.000152 0.249918 0.750069 F
0.499843 0.263104 0.737005 F
0.000152 0.750082 0.249927 F
0.499846 0.736901 0.262998 F
0.000153 0.750082 0.750072 F
0.499844 0.736891 0.736994 F
0.248923 0.250811 0.250852 F
0.751079 0.252695 0.252718 F
0.248927 0.250811 0.749146 F
0.751077 0.252693 0.747281 F
0.248927 0.749190 0.250854 F
0.751074 0.747306 0.252723 F
0.248923 0.749191 0.749146 F
0.751079 0.747307 0.747280 F
0.124634 0.250018 0.999997 F
0.624452 0.252671 0.000001 F
0.124664 0.250015 0.500003 F
0.619834 0.264937 0.500004 F
0.124636 0.749981 0.000003 F
0.624454 0.747331 -0.000002 F
0.124662 0.749984 0.499998 F
0.619838 0.735061 0.499995 F
0.375573 0.252347 -0.000002 F
0.875340 0.250352 -0.000004 F
0.380971 0.263078 0.500006 F
0.874531 0.251878 0.500004 F
0.375573 0.747654 1.000006 F
0.875338 0.749648 1.000002 F
0.380966 0.736933 0.499998 F
0.874533 0.748122 0.499999 F
0.124631 0.999997 0.250012 F
0.624436 0.999992 0.252898 F
0.124630 0.000004 0.749989 F
0.624437 0.000002 0.747102 F
0.124664 0.500001 0.250017 F
0.619906 0.500009 0.264652 F
0.124663 0.499997 0.749983 F
0.619909 0.499997 0.735345 F
0.375590 -0.000009 0.252539 F
0.875342 -0.000003 0.250362 F
0.375592 1.000005 0.747461 F
0.875341 1.000004 0.749635 F
0.380885 0.500003 0.262823 F
0.874545 0.500002 0.251852 F
0.380885 0.499996 0.737176 F
0.874543 0.499996 0.748147 F
