Ca24 Mn16 Si24 O96
1.0
  12.2385219999999979    0.0000000000000000    0.0000000000000007
   0.0000000000000020   12.2385219999999979    0.0000000000000007
   0.0000000000000000    0.0000000000000000   12.2385219999999979
Ca Mn Si O
23 16 24 96
direct
   0.2500000000000000    0.3750000000000000    0.5000000000000000 Ca
   0.1250000000000000    0.0000000000000000    0.2500000000000000 Ca2+
   0.8750000000000000    0.5000000000000000    0.2500000000000000 Ca2+
   0.0000000000000000    0.2500000000000000    0.1250000000000000 Ca2+
   0.5000000000000000    0.2500000000000000    0.8750000000000000 Ca2+
   0.6250000000000000    0.0000000000000000    0.2500000000000000 Ca2+
   0.2500000000000000    0.1250000000000000    0.0000000000000000 Ca2+
   0.2500000000000000    0.6250000000000000    0.0000000000000000 Ca2+
   0.3750000000000000    0.5000000000000000    0.2500000000000000 Ca2+
   0.0000000000000000    0.2500000000000000    0.6250000000000000 Ca2+
   0.5000000000000000    0.2500000000000000    0.3750000000000000 Ca2+
   0.2500000000000000    0.8750000000000000    0.5000000000000000 Ca2+
   0.6250000000000000    0.5000000000000000    0.7500000000000000 Ca2+
   0.3750000000000000    0.0000000000000000    0.7500000000000000 Ca2+
   0.5000000000000000    0.7500000000000000    0.6250000000000000 Ca2+
   0.0000000000000000    0.7500000000000000    0.3750000000000000 Ca2+
   0.7500000000000000    0.6250000000000000    0.5000000000000000 Ca2+
   0.7500000000000000    0.1250000000000000    0.5000000000000000 Ca2+
   0.8750000000000000    0.0000000000000000    0.7500000000000000 Ca2+
   0.7500000000000000    0.8750000000000000    0.0000000000000000 Ca2+
   0.5000000000000000    0.7500000000000000    0.1250000000000000 Ca2+
   0.0000000000000000    0.7500000000000000    0.8750000000000000 Ca2+
   0.7500000000000000    0.3750000000000000    0.0000000000000000 Ca2+
   0.7500000000000000    0.2500000000000000    0.2500000000000000 Mn3+
   0.0000000000000000    0.0000000000000000    0.5000000000000000 Mn3+
   0.5000000000000000    0.0000000000000000    0.0000000000000000 Mn3+
   0.2500000000000000    0.2500000000000000    0.7500000000000000 Mn3+
   0.2500000000000000    0.2500000000000000    0.2500000000000000 Mn3+
   0.2500000000000000    0.7500000000000000    0.2500000000000000 Mn3+
   0.0000000000000000    0.5000000000000000    0.0000000000000000 Mn3+
   0.0000000000000000    0.0000000000000000    0.0000000000000000 Mn3+
   0.2500000000000000    0.7500000000000000    0.7500000000000000 Mn3+
   0.5000000000000000    0.5000000000000000    0.0000000000000000 Mn3+
   0.0000000000000000    0.5000000000000000    0.5000000000000000 Mn3+
   0.7500000000000000    0.7500000000000000    0.2500000000000000 Mn3+
   0.7500000000000000    0.7500000000000000    0.7500000000000000 Mn3+
   0.7500000000000000    0.2500000000000000    0.7500000000000000 Mn3+
   0.5000000000000000    0.0000000000000000    0.5000000000000000 Mn3+
   0.5000000000000000    0.5000000000000000    0.5000000000000000 Mn3+
   0.7500000000000000    0.1250000000000000    0.0000000000000000 Si4+
   0.7500000000000000    0.3750000000000000    0.5000000000000000 Si4+
   0.1250000000000000    0.5000000000000000    0.2500000000000000 Si4+
   0.5000000000000000    0.7500000000000000    0.3750000000000000 Si4+
   0.3750000000000000    0.5000000000000000    0.7500000000000000 Si4+
   0.5000000000000000    0.2500000000000000    0.1250000000000000 Si4+
   0.2500000000000000    0.3750000000000000    0.0000000000000000 Si4+
   0.0000000000000000    0.7500000000000000    0.1250000000000000 Si4+
   0.0000000000000000    0.2500000000000000    0.3750000000000000 Si4+
   0.1250000000000000    0.0000000000000000    0.7500000000000000 Si4+
   0.3750000000000000    0.0000000000000000    0.2500000000000000 Si4+
   0.2500000000000000    0.1250000000000000    0.5000000000000000 Si4+
   0.2500000000000000    0.6250000000000000    0.5000000000000000 Si4+
   0.2500000000000000    0.8750000000000000    0.0000000000000000 Si4+
   0.6250000000000000    0.0000000000000000    0.7500000000000000 Si4+
   0.0000000000000000    0.2500000000000000    0.8750000000000000 Si4+
   0.8750000000000000    0.0000000000000000    0.2500000000000000 Si4+
   0.0000000000000000    0.7500000000000000    0.6250000000000000 Si4+
   0.7500000000000000    0.8750000000000000    0.5000000000000000 Si4+
   0.5000000000000000    0.2500000000000000    0.6250000000000000 Si4+
   0.5000000000000000    0.7500000000000000    0.8750000000000000 Si4+
   0.6250000000000000    0.5000000000000000    0.2500000000000000 Si4+
   0.8750000000000000    0.5000000000000000    0.7500000000000000 Si4+
   0.7500000000000000    0.6250000000000000    0.0000000000000000 Si4+
   0.3431725000000000    0.0391715000000000    0.5488345000000000 O2-
   0.5488345000000000    0.3431725000000000    0.0391715000000000 O2-
   0.4608285000000000    0.4511655000000000    0.8431725000000000 O2-
   0.1568275000000000    0.0391715000000000    0.4511655000000000 O2-
   0.2988344999999999    0.7108285000000000    0.5931725000000000 O2-
   0.0488344999999999    0.1568275000000000    0.9608285000000000 O2-
   0.2011655000000000    0.2891715000000000    0.0931725000000001 O2-
   0.0391715000000000    0.5488345000000000    0.3431725000000000 O2-
   0.2988344999999999    0.2891715000000000    0.9068275000000000 O2-
   0.0931725000000001    0.2011655000000000    0.2891715000000000 O2-
   0.7108285000000000    0.5931725000000000    0.2988344999999999 O2-
   0.2108285000000000    0.9068275000000000    0.7011655000000000 O2-
   0.9068275000000000    0.7011655000000000    0.2108285000000000 O2-
   0.2891715000000000    0.0931725000000001    0.2011655000000000 O2-
   0.9068275000000000    0.2988344999999999    0.2891715000000000 O2-
   0.2891715000000000    0.9068275000000000    0.2988344999999999 O2-
   0.5931725000000000    0.2988344999999999    0.7108285000000000 O2-
   0.8431725000000000    0.4608285000000000    0.4511655000000000 O2-
   0.1568275000000000    0.9608285000000000    0.0488344999999999 O2-
   0.2011655000000000    0.2108285000000000    0.5931725000000000 O2-
   0.4511655000000000    0.1568275000000000    0.0391715000000000 O2-
   0.0391715000000000    0.4511655000000000    0.1568275000000000 O2-
   0.9608285000000000    0.0488344999999999    0.1568275000000000 O2-
   0.7011655000000000    0.2108285000000000    0.9068275000000000 O2-
   0.1568275000000000    0.4608285000000000    0.9511655000000000 O2-
   0.9511655000000000    0.1568275000000000    0.4608285000000000 O2-
   0.0391715000000000    0.0488344999999999    0.6568275000000000 O2-
   0.3431725000000000    0.4608285000000000    0.0488344999999999 O2-
   0.2011655000000000    0.7891715000000000    0.9068275000000000 O2-
   0.4511655000000000    0.3431725000000000    0.5391715000000000 O2-
   0.2988344999999999    0.2108285000000000    0.4068275000000000 O2-
   0.4608285000000000    0.9511655000000000    0.1568275000000000 O2-
   0.7988345000000000    0.2891715000000000    0.5931725000000000 O2-
   0.5391715000000000    0.4511655000000000    0.3431725000000000 O2-
   0.4608285000000000    0.0488344999999999    0.3431725000000000 O2-
   0.0488344999999999    0.6568275000000000    0.0391715000000000 O2-
   0.0488344999999999    0.3431725000000000    0.4608285000000000 O2-
   0.3431725000000000    0.5391715000000000    0.4511655000000000 O2-
   0.6568275000000000    0.0391715000000000    0.0488344999999999 O2-
   0.9068275000000000    0.2011655000000000    0.7891715000000000 O2-
   0.2108285000000000    0.5931725000000000    0.2011655000000000 O2-
   0.5931725000000000    0.2011655000000000    0.2108285000000000 O2-
   0.2108285000000000    0.4068275000000000    0.2988344999999999 O2-
   0.5931725000000000    0.7988345000000000    0.2891715000000000 O2-
   0.2891715000000000    0.5931725000000000    0.7988345000000000 O2-
   0.7891715000000000    0.9068275000000000    0.2011655000000000 O2-
   0.4068275000000000    0.2988344999999999    0.2108285000000000 O2-
   0.4511655000000000    0.8431725000000000    0.4608285000000000 O2-
   0.8431725000000000    0.5391715000000000    0.0488344999999999 O2-
   0.0488344999999999    0.8431725000000000    0.5391715000000000 O2-
   0.9608285000000000    0.9511655000000000    0.3431725000000001 O2-
   0.6568275000000000    0.5391715000000000    0.9511655000000000 O2-
   0.7988344999999999    0.2108284999999999    0.0931725000000001 O2-
   0.5488344999999999    0.6568275000000000    0.4608284999999999 O2-
   0.7011655000000000    0.7891715000000000    0.5931725000000001 O2-
   0.5391715000000000    0.0488344999999999    0.8431725000000000 O2-
   0.7988344999999999    0.7891715000000000    0.4068274999999999 O2-
   0.5931725000000001    0.7011655000000000    0.7891715000000000 O2-
   0.2108284999999999    0.0931725000000001    0.7988344999999999 O2-
   0.7108285000000000    0.4068274999999999    0.2011655000000001 O2-
   0.4068274999999999    0.2011655000000001    0.7108285000000000 O2-
   0.7891715000000000    0.5931725000000001    0.7011655000000000 O2-
   0.4068274999999999    0.7988344999999999    0.7891715000000000 O2-
   0.7891715000000000    0.4068274999999999    0.7988344999999999 O2-
   0.0931725000000001    0.7988344999999999    0.2108284999999999 O2-
   0.3431725000000001    0.9608285000000000    0.9511655000000000 O2-
   0.6568275000000000    0.4608284999999999    0.5488344999999999 O2-
   0.7011655000000000    0.7108285000000000    0.0931725000000001 O2-
   0.9511655000000000    0.6568275000000000    0.5391715000000000 O2-
   0.5391715000000000    0.9511655000000000    0.6568275000000000 O2-
   0.4608284999999999    0.5488344999999999    0.6568275000000000 O2-
   0.2011655000000001    0.7108285000000000    0.4068274999999999 O2-
   0.6568275000000000    0.9608285000000000    0.4511655000000001 O2-
   0.4511655000000001    0.6568275000000000    0.9608285000000000 O2-
   0.5391715000000000    0.5488344999999999    0.1568274999999999 O2-
   0.8431725000000000    0.9608285000000000    0.5488344999999999 O2-
   0.7011655000000000    0.2891715000000001    0.4068274999999999 O2-
   0.9511655000000000    0.8431725000000000    0.0391715000000001 O2-
   0.7988344999999999    0.7108285000000000    0.9068275000000000 O2-
   0.9608285000000000    0.4511655000000001    0.6568275000000000 O2-
   0.2988344999999999    0.7891715000000000    0.0931725000000001 O2-
   0.0391715000000001    0.9511655000000000    0.8431725000000000 O2-
   0.9608285000000000    0.5488344999999999    0.8431725000000000 O2-
   0.5488344999999999    0.1568274999999999    0.5391715000000000 O2-
   0.5488344999999999    0.8431725000000000    0.9608285000000000 O2-
   0.8431725000000000    0.0391715000000001    0.9511655000000000 O2-
   0.1568274999999999    0.5391715000000000    0.5488344999999999 O2-
   0.4068274999999999    0.7011655000000000    0.2891715000000001 O2-
   0.7108285000000000    0.0931725000000001    0.7011655000000000 O2-
   0.0931725000000001    0.7011655000000000    0.7108285000000000 O2-
   0.7108285000000000    0.9068275000000000    0.7988344999999999 O2-
   0.0931725000000001    0.2988344999999999    0.7891715000000000 O2-
   0.7891715000000000    0.0931725000000001    0.2988344999999999 O2-
   0.2891715000000001    0.4068274999999999    0.7011655000000000 O2-
   0.9068275000000000    0.7988344999999999    0.7108285000000000 O2-
   0.9511655000000000    0.3431725000000001    0.9608285000000000 O2-
