Li16 Mg16 S16 O64 F16
1.0
9.953860 0.109325 -3.116983
-2.448280 10.142826 -3.171901
-0.075490 -0.092510 14.473868
Li Mg S O F
15 16 16 64 16
direct
0.370248 0.686069 0.611222 Li
0.129752 0.313931 0.388778 Li
0.129752 0.313931 0.888778 Li
0.129752 0.813931 0.888778 Li
0.629752 0.313931 0.388778 Li
0.629752 0.313931 0.888778 Li
0.629752 0.813931 0.388778 Li
0.629752 0.813931 0.888778 Li
0.370248 0.186069 0.111222 Li
0.370248 0.186069 0.611222 Li
0.370248 0.686069 0.111222 Li
0.870248 0.186069 0.111222 Li
0.870248 0.186069 0.611222 Li
0.870248 0.686069 0.111222 Li
0.870248 0.686069 0.611222 Li
0.500000 0.500000 0.250000 Mg
0.500000 0.500000 0.750000 Mg
0.500000 1.000000 0.250000 Mg
0.500000 1.000000 0.750000 Mg
1.000000 0.500000 0.250000 Mg
1.000000 0.500000 0.750000 Mg
1.000000 1.000000 0.250000 Mg
1.000000 1.000000 0.750000 Mg
0.000000 0.500000 0.500000 Mg
0.000000 0.500000 1.000000 Mg
0.000000 1.000000 0.500000 Mg
0.000000 1.000000 1.000000 Mg
0.500000 0.500000 0.500000 Mg
0.500000 0.500000 1.000000 Mg
0.500000 1.000000 0.500000 Mg
0.500000 1.000000 1.000000 Mg
0.165024 0.316765 0.122556 S
0.165024 0.316765 0.622556 S
0.165024 0.816765 0.122556 S
0.165024 0.816765 0.622556 S
0.665024 0.316765 0.122556 S
0.665024 0.316765 0.622556 S
0.665024 0.816765 0.122556 S
0.665024 0.816765 0.622556 S
0.334976 0.183235 0.377444 S
0.334976 0.183235 0.877444 S
0.334976 0.683235 0.377444 S
0.334976 0.683235 0.877444 S
0.834976 0.183235 0.377444 S
0.834976 0.183235 0.877444 S
0.834976 0.683235 0.377444 S
0.834976 0.683235 0.877444 S
0.306879 0.375696 0.198687 O
0.306879 0.375696 0.698687 O
0.306879 0.875696 0.198687 O
0.306879 0.875696 0.698687 O
0.806879 0.375696 0.198687 O
0.806879 0.375696 0.698687 O
0.806879 0.875696 0.198687 O
0.806879 0.875696 0.698687 O
0.193121 0.124304 0.301313 O
0.193121 0.124304 0.801313 O
0.193121 0.624304 0.301313 O
0.193121 0.624304 0.801313 O
0.693121 0.124304 0.301313 O
0.693121 0.124304 0.801313 O
0.693121 0.624304 0.301313 O
0.693121 0.624304 0.801313 O
0.061113 0.329776 0.174580 O
0.061113 0.329776 0.674580 O
0.061113 0.829776 0.174580 O
0.061113 0.829776 0.674580 O
0.561113 0.329776 0.174580 O
0.561113 0.329776 0.674580 O
0.561113 0.829776 0.174580 O
0.561113 0.829776 0.674580 O
0.438887 0.170224 0.325420 O
0.438887 0.170224 0.825420 O
0.438887 0.670224 0.325420 O
0.438887 0.670224 0.825420 O
0.938887 0.170224 0.325420 O
0.938887 0.170224 0.825420 O
0.938887 0.670224 0.325420 O
0.938887 0.670224 0.825420 O
0.160713 0.174651 0.072002 O
0.160713 0.174651 0.572002 O
0.160713 0.674651 0.072002 O
0.160713 0.674651 0.572002 O
0.660713 0.174651 0.072002 O
0.660713 0.174651 0.572002 O
0.660713 0.674651 0.072002 O
0.660713 0.674651 0.572002 O
0.339287 0.325349 0.427998 O
0.339287 0.325349 0.927998 O
0.339287 0.825349 0.427998 O
0.339287 0.825349 0.927998 O
0.839287 0.325349 0.427998 O
0.839287 0.325349 0.927998 O
0.839287 0.825349 0.427998 O
0.839287 0.825349 0.927998 O
0.133454 0.380568 0.042728 O
0.133454 0.380568 0.542728 O
0.133454 0.880568 0.042728 O
0.133454 0.880568 0.542728 O
0.633454 0.380568 0.042728 O
0.633454 0.380568 0.542728 O
0.633454 0.880568 0.042728 O
0.633454 0.880568 0.542728 O
0.366546 0.119432 0.457272 O
0.366546 0.119432 0.957272 O
0.366546 0.619432 0.457272 O
0.366546 0.619432 0.957272 O
0.866546 0.119432 0.457272 O
0.866546 0.119432 0.957272 O
0.866546 0.619432 0.457272 O
0.866546 0.619432 0.957272 O
0.051234 0.455125 0.376199 F
0.051234 0.455125 0.876199 F
0.051234 0.955125 0.376199 F
0.051234 0.955125 0.876199 F
0.551234 0.455125 0.376199 F
0.551234 0.455125 0.876199 F
0.551234 0.955125 0.376199 F
0.551234 0.955125 0.876199 F
0.448766 0.044875 0.123801 F
0.448766 0.044875 0.623801 F
0.448766 0.544875 0.123801 F
0.448766 0.544875 0.623801 F
0.948766 0.044875 0.123801 F
0.948766 0.044875 0.623801 F
0.948766 0.544875 0.123801 F
0.948766 0.544875 0.623801 F
