Ca32 Fe16 Si32 O112
1.0
  15.8163195002420611    0.0000000000000000    0.0000000000000010
   0.0000000000000026   15.8163195002420611    0.0000000000000010
   0.0000000000000000    0.0000000000000000   10.1347113823831947
Ca Fe Si O
31 16 32 112
direct
   0.0840294603578783    0.3340513713500810    0.7484313104304833 Ca
   0.1659490539993559    0.0840301083222174    0.2515677316004672 Ca
   0.1659490539993559    0.5840301083222174    0.2515677316004672 Ca
   0.1659490539993559    0.5840301083222174    0.7515677316004672 Ca
   0.6659490539993558    0.0840301083222174    0.2515677316004672 Ca
   0.6659490539993558    0.0840301083222174    0.7515677316004672 Ca
   0.6659490539993558    0.5840301083222174    0.2515677316004671 Ca
   0.6659490539993558    0.5840301083222174    0.7515677316004671 Ca
   0.0840294603578783    0.3340513713500810    0.2484313104304833 Ca
   0.0840294603578783    0.8340513713500809    0.2484313104304833 Ca
   0.0840294603578783    0.8340513713500809    0.7484313104304833 Ca
   0.5840294603578784    0.3340513713500810    0.2484313104304833 Ca
   0.5840294603578784    0.3340513713500810    0.7484313104304833 Ca
   0.5840294603578783    0.8340513713500809    0.2484313104304833 Ca
   0.5840294603578783    0.8340513713500809    0.7484313104304833 Ca
   0.3340509482646261    0.4159698938484584    0.2515677319083325 Ca
   0.3340509482646261    0.4159698938484584    0.7515677319083325 Ca
   0.3340509482646261    0.9159698938484584    0.2515677319083325 Ca
   0.3340509482646261    0.9159698938484584    0.7515677319083325 Ca
   0.8340509482646261    0.4159698938484584    0.2515677319083325 Ca
   0.8340509482646261    0.4159698938484584    0.7515677319083325 Ca
   0.8340509482646261    0.9159698938484584    0.2515677319083325 Ca
   0.8340509482646261    0.9159698938484584    0.7515677319083325 Ca
   0.4159705432066298    0.1659486324153584    0.2484312953068565 Ca
   0.4159705432066298    0.1659486324153584    0.7484312953068564 Ca
   0.4159705432066297    0.6659486324153584    0.2484312953068565 Ca
   0.4159705432066297    0.6659486324153584    0.7484312953068565 Ca
   0.9159705432066297    0.1659486324153584    0.2484312953068565 Ca
   0.9159705432066297    0.1659486324153584    0.7484312953068565 Ca
   0.9159705432066297    0.6659486324153584    0.2484312953068564 Ca
   0.9159705432066297    0.6659486324153584    0.7484312953068564 Ca
   0.2500000013540096    0.2500000022986673    0.0000020131769680 Fe
   0.2500000013540096    0.2500000022986673    0.5000020131769679 Fe
   0.2500000013540096    0.7500000022986673    0.0000020131769680 Fe
   0.2500000013540096    0.7500000022986673    0.5000020131769680 Fe
   0.7500000013540096    0.2500000022986673    0.0000020131769680 Fe
   0.7500000013540096    0.2500000022986673    0.5000020131769680 Fe
   0.7500000013540096    0.7500000022986673    0.0000020131769680 Fe
   0.7500000013540096    0.7500000022986673    0.5000020131769679 Fe
   0.0000000022088626    0.0000000017167462    0.4999980181347869 Fe
   0.0000000022088626    0.0000000017167462    0.9999980181347869 Fe
   0.0000000022088626    0.5000000017167462    0.4999980181347870 Fe
   0.0000000022088626    0.5000000017167462    0.9999980181347871 Fe
   0.5000000022088625    0.0000000017167462    0.4999980181347870 Fe
   0.5000000022088625    0.0000000017167462    0.9999980181347871 Fe
   0.5000000022088625    0.5000000017167462    0.4999980181347869 Fe
   0.5000000022088625    0.5000000017167462    0.9999980181347869 Fe
   0.0700487391633730    0.1799351026498870    0.4643848561749768 Si
   0.0700487391633730    0.1799351026498870    0.9643848561749768 Si
   0.0700487391633730    0.6799351026498870    0.4643848561749769 Si
   0.0700487391633730    0.6799351026498870    0.9643848561749769 Si
   0.5700487391633731    0.1799351026498870    0.4643848561749769 Si
   0.5700487391633731    0.1799351026498870    0.9643848561749769 Si
   0.5700487391633730    0.6799351026498870    0.4643848561749768 Si
   0.5700487391633730    0.6799351026498870    0.9643848561749769 Si
   0.1799334931377921    0.4299518494255994    0.0356130646552051 Si
   0.1799334931377921    0.4299518494255994    0.5356130646552051 Si
   0.1799334931377921    0.9299518494255994    0.0356130646552051 Si
   0.1799334931377921    0.9299518494255994    0.5356130646552051 Si
   0.6799334931377921    0.4299518494255994    0.0356130646552051 Si
   0.6799334931377921    0.4299518494255994    0.5356130646552051 Si
   0.6799334931377922    0.9299518494255994    0.0356130646552051 Si
   0.6799334931377922    0.9299518494255994    0.5356130646552051 Si
   0.4299512557500895    0.3200648919256486    0.4643848570064621 Si
   0.4299512557500895    0.3200648919256486    0.9643848570064621 Si
   0.4299512557500895    0.8200648919256486    0.4643848570064621 Si
   0.4299512557500895    0.8200648919256486    0.9643848570064621 Si
   0.9299512557500894    0.3200648919256486    0.4643848570064621 Si
   0.9299512557500894    0.3200648919256486    0.9643848570064621 Si
   0.9299512557500894    0.8200648919256486    0.4643848570064621 Si
   0.9299512557500894    0.8200648919256486    0.9643848570064620 Si
   0.3200665035554484    0.0700481472677268    0.0356130533861874 Si
   0.3200665035554484    0.0700481472677268    0.5356130533861874 Si
   0.3200665035554483    0.5700481472677268    0.0356130533861874 Si
   0.3200665035554483    0.5700481472677268    0.5356130533861875 Si
   0.8200665035554483    0.0700481472677268    0.0356130533861874 Si
   0.8200665035554483    0.0700481472677268    0.5356130533861875 Si
   0.8200665035554483    0.5700481472677268    0.0356130533861874 Si
   0.8200665035554483    0.5700481472677268    0.5356130533861875 Si
   0.9999999994261014    0.2499999994319251    0.4056019060823480 O
   0.9999999994261014    0.2499999994319251    0.9056019060823479 O
   0.9999999994261014    0.7499999994319251    0.4056019060823480 O
   0.9999999994261014    0.7499999994319251    0.9056019060823479 O
   0.4999999994261013    0.2499999994319251    0.4056019060823480 O
   0.4999999994261013    0.2499999994319251    0.9056019060823479 O
   0.4999999994261013    0.7499999994319251    0.4056019060823480 O
   0.4999999994261013    0.7499999994319251    0.9056019060823478 O
   0.2499999993228615    0.9999999994642353    0.0943989341636493 O
   0.2499999993228615    0.9999999994642353    0.5943989341636493 O
   0.2499999993228615    0.4999999994642353    0.0943989341636493 O
   0.2499999993228615    0.4999999994642353    0.5943989341636493 O
   0.7499999993228614    0.9999999994642353    0.0943989341636493 O
   0.7499999993228614    0.9999999994642353    0.5943989341636493 O
   0.7499999993228614    0.4999999994642353    0.0943989341636493 O
   0.7499999993228614    0.4999999994642353    0.5943989341636493 O
   0.0710720510935615    0.1788947391173777    0.1235433071643584 O
   0.0710720510935615    0.1788947391173777    0.6235433071643584 O
   0.0710720510935615    0.6788947391173776    0.1235433071643584 O
   0.0710720510935615    0.6788947391173776    0.6235433071643584 O
   0.5710720510935615    0.1788947391173777    0.1235433071643584 O
   0.5710720510935615    0.1788947391173777    0.6235433071643584 O
   0.5710720510935614    0.6788947391173776    0.1235433071643584 O
   0.5710720510935614    0.6788947391173776    0.6235433071643584 O
   0.1788920299749900    0.4289324703810248    0.3764565253524356 O
   0.1788920299749900    0.4289324703810248    0.8764565253524356 O
   0.1788920299749900    0.9289324703810248    0.3764565253524356 O
   0.1788920299749900    0.9289324703810248    0.8764565253524356 O
   0.6788920299749900    0.4289324703810248    0.3764565253524356 O
   0.6788920299749900    0.4289324703810248    0.8764565253524356 O
   0.6788920299749900    0.9289324703810248    0.3764565253524356 O
   0.6788920299749900    0.9289324703810248    0.8764565253524355 O
   0.4289279447973917    0.3211052564128972    0.1235433082135799 O
   0.4289279447973917    0.3211052564128972    0.6235433082135798 O
   0.4289279447973917    0.8211052564128971    0.1235433082135799 O
   0.4289279447973917    0.8211052564128971    0.6235433082135799 O
   0.9289279447973917    0.3211052564128972    0.1235433082135799 O
   0.9289279447973917    0.3211052564128972    0.6235433082135799 O
   0.9289279447973916    0.8211052564128971    0.1235433082135799 O
   0.9289279447973916    0.8211052564128971    0.6235433082135798 O
   0.3211079674322677    0.0710675268710669    0.3764565172737093 O
   0.3211079674322677    0.0710675268710669    0.8764565172737092 O
   0.3211079674322676    0.5710675268710670    0.3764565172737093 O
   0.3211079674322676    0.5710675268710670    0.8764565172737093 O
   0.8211079674322675    0.0710675268710669    0.3764565172737093 O
   0.8211079674322675    0.0710675268710669    0.8764565172737093 O
   0.8211079674322675    0.5710675268710670    0.3764565172737092 O
   0.8211079674322675    0.5710675268710670    0.8764565172737092 O
   0.1562141490178927    0.2090746343394982    0.3859975167287763 O
   0.1562141490178927    0.2090746343394982    0.8859975167287764 O
   0.1562141490178927    0.7090746343394981    0.3859975167287763 O
   0.1562141490178927    0.7090746343394981    0.8859975167287762 O
   0.6562141490178927    0.2090746343394982    0.3859975167287763 O
   0.6562141490178927    0.2090746343394982    0.8859975167287762 O
   0.6562141490178927    0.7090746343394981    0.3859975167287763 O
   0.6562141490178927    0.7090746343394981    0.8859975167287762 O
   0.0937646199491348    0.4591062306515663    0.1140256839884098 O
   0.0937646199491348    0.4591062306515663    0.6140256839884098 O
   0.0937646199491348    0.9591062306515663    0.1140256839884098 O
   0.0937646199491348    0.9591062306515663    0.6140256839884098 O
   0.5937646199491347    0.4591062306515663    0.1140256839884098 O
   0.5937646199491347    0.4591062306515663    0.6140256839884098 O
   0.5937646199491348    0.9591062306515663    0.1140256839884099 O
   0.5937646199491348    0.9591062306515663    0.6140256839884098 O
   0.3437858504215152    0.2909253707626894    0.3859974877539417 O
   0.3437858504215152    0.2909253707626894    0.8859974877539418 O
   0.3437858504215152    0.7909253707626894    0.3859974877539417 O
   0.3437858504215152    0.7909253707626894    0.8859974877539417 O
   0.8437858504215152    0.2909253707626894    0.3859974877539417 O
   0.8437858504215152    0.2909253707626894    0.8859974877539417 O
   0.8437858504215152    0.7909253707626894    0.3859974877539417 O
   0.8437858504215152    0.7909253707626894    0.8859974877539417 O
   0.4062353817478908    0.0408937697932749    0.1140256604784417 O
   0.4062353817478908    0.0408937697932749    0.6140256604784416 O
   0.4062353817478907    0.5408937697932749    0.1140256604784417 O
   0.4062353817478907    0.5408937697932749    0.6140256604784416 O
   0.9062353817478908    0.0408937697932749    0.1140256604784417 O
   0.9062353817478908    0.0408937697932749    0.6140256604784416 O
   0.9062353817478906    0.5408937697932749    0.1140256604784417 O
   0.9062353817478906    0.5408937697932749    0.6140256604784416 O
   0.2909250738993133    0.1562127661411345    0.1140025131885972 O
   0.2909250738993133    0.1562127661411345    0.6140025131885971 O
   0.2909250738993133    0.6562127661411344    0.1140025131885971 O
   0.2909250738993133    0.6562127661411344    0.6140025131885971 O
   0.7909250738993132    0.1562127661411345    0.1140025131885971 O
   0.7909250738993132    0.1562127661411345    0.6140025131885971 O
   0.7909250738993132    0.6562127661411344    0.1140025131885972 O
   0.7909250738993132    0.6562127661411344    0.6140025131885971 O
   0.4591135684429827    0.4062322283796260    0.3859771009985448 O
   0.4591135684429827    0.4062322283796260    0.8859771009985448 O
   0.4591135684429827    0.9062322283796260    0.3859771009985448 O
   0.4591135684429827    0.9062322283796260    0.8859771009985448 O
   0.9591135684429827    0.4062322283796260    0.3859771009985448 O
   0.9591135684429827    0.4062322283796260    0.8859771009985448 O
   0.9591135684429827    0.9062322283796260    0.3859771009985448 O
   0.9591135684429827    0.9062322283796260    0.8859771009985448 O
   0.2090749269298008    0.3437872359704651    0.1140025371201444 O
   0.2090749269298008    0.3437872359704651    0.6140025371201444 O
   0.2090749269298008    0.8437872359704651    0.1140025371201444 O
   0.2090749269298008    0.8437872359704651    0.6140025371201444 O
   0.7090749269298007    0.3437872359704651    0.1140025371201444 O
   0.7090749269298007    0.3437872359704651    0.6140025371201444 O
   0.7090749269298009    0.8437872359704651    0.1140025371201444 O
   0.7090749269298009    0.8437872359704651    0.6140025371201444 O
   0.0408864365462272    0.0937677710628245    0.3859770697123373 O
   0.0408864365462272    0.0937677710628245    0.8859770697123373 O
   0.0408864365462272    0.5937677710628245    0.3859770697123373 O
   0.0408864365462272    0.5937677710628245    0.8859770697123374 O
   0.5408864365462273    0.0937677710628245    0.3859770697123373 O
   0.5408864365462273    0.0937677710628245    0.8859770697123374 O
   0.5408864365462271    0.5937677710628245    0.3859770697123373 O
   0.5408864365462271    0.5937677710628245    0.8859770697123373 O
