Er16 Mg8 Se32
1.0
       11.5398550034         0.0000000000         0.0000000000
        0.0000000000        11.5398550034         0.0000000000
        0.0000000000         0.0000000000        11.5398550034
Mg   Er   Mg   Se
1   16    6   32
Direct
   0.7500000000000000    0.2500000000000000    0.2500000000000000 Mg
     0.625000000         0.875000000         0.375000000
     0.375000000         0.125000000         0.375000000
     0.875000000         0.875000000         0.125000000
     0.125000000         0.125000000         0.125000000
     0.625000000         0.375000000         0.875000000
     0.375000000         0.625000000         0.875000000
     0.875000000         0.375000000         0.625000000
     0.125000000         0.625000000         0.625000000
     0.125000000         0.875000000         0.875000000
     0.875000000         0.125000000         0.875000000
     0.375000000         0.875000000         0.625000000
     0.625000000         0.125000000         0.625000000
     0.125000000         0.375000000         0.375000000
     0.875000000         0.625000000         0.375000000
     0.375000000         0.375000000         0.125000000
     0.625000000         0.625000000         0.125000000
     0.250000000         0.750000000         0.250000000
     0.000000000         0.000000000         0.500000000
     0.250000000         0.250000000         0.750000000
     0.000000000         0.500000000         0.000000000
     0.750000000         0.750000000         0.750000000
     0.500000000         0.000000000         0.000000000
     0.880121768         0.119878240         0.119878240
     0.119878240         0.880121768         0.119878240
     0.619878232         0.119878240         0.380121768
     0.380121768         0.880121768         0.380121768
     0.369878232         0.130121753         0.130121753
     0.130121753         0.369878232         0.130121753
     0.130121753         0.130121753         0.369878232
     0.369878232         0.369878232         0.369878232
     0.880121768         0.619878232         0.619878232
     0.119878240         0.380121768         0.619878232
     0.619878232         0.619878232         0.880121768
     0.380121768         0.380121768         0.880121768
     0.369878232         0.630121768         0.630121768
     0.130121753         0.869878232         0.630121768
     0.130121753         0.630121768         0.869878232
     0.369878232         0.869878232         0.869878232
     0.380121768         0.119878240         0.619878232
     0.619878232         0.880121768         0.619878232
     0.119878240         0.119878240         0.880121768
     0.880121768         0.880121768         0.880121768
     0.869878232         0.130121753         0.630121768
     0.630121768         0.369878232         0.630121768
     0.630121768         0.130121753         0.869878232
     0.869878232         0.369878232         0.869878232
     0.380121768         0.619878232         0.119878240
     0.619878232         0.380121768         0.119878240
     0.119878240         0.619878232         0.380121768
     0.880121768         0.380121768         0.380121768
     0.869878232         0.630121768         0.130121753
     0.630121768         0.869878232         0.130121753
     0.630121768         0.630121768         0.369878232
     0.869878232         0.869878232         0.369878232
