Ca16 Co32 O64
1.0
   9.5626642078137625    0.0000034515345368   -2.7225932824392083
  -0.0000086144470328   11.4673736687281149   -0.0000449348169738
  -0.0257631731891570   -0.0000437544578836   11.2139244343056497
Ca Co O
15 32 64
direct
   0.3501996297582765    0.8749999494284634    0.5043034640774522 Ca
   0.1498017994074200    0.1250000646460976    0.4956951459011146 Ca
   0.1498017994074200    0.1250000646460976    0.9956951459011146 Ca
   0.1498017994074200    0.6250000646460976    0.4956951459011147 Ca
   0.1498017994074200    0.6250000646460975    0.9956951459011146 Ca
   0.6498017994074200    0.1250000646460976    0.4956951459011146 Ca
   0.6498017994074200    0.1250000646460976    0.9956951459011147 Ca
   0.6498017994074201    0.6250000646460976    0.9956951459011146 Ca
   0.3501996297582765    0.3749999494284635    0.0043034640774522 Ca
   0.3501996297582765    0.3749999494284634    0.5043034640774522 Ca
   0.3501996297582765    0.8749999494284634    0.0043034640774523 Ca
   0.8501996297582765    0.3749999494284635    0.0043034640774522 Ca
   0.8501996297582763    0.3749999494284634    0.5043034640774522 Ca
   0.8501996297582765    0.8749999494284635    0.0043034640774522 Ca
   0.8501996297582763    0.8749999494284635    0.5043034640774522 Ca
   0.9999989828750919    0.2500094231391403    0.2500005610536213 Co
   0.9999989828750919    0.2500094231391403    0.7500005610536212 Co
   0.9999989828750919    0.7500094231391403    0.2500005610536213 Co
   0.9999989828750919    0.7500094231391403    0.7500005610536213 Co
   0.4999989828750919    0.2500094231391403    0.2500005610536213 Co
   0.4999989828750919    0.2500094231391403    0.7500005610536213 Co
   0.4999989828750919    0.7500094231391404    0.2500005610536213 Co
   0.4999989828750919    0.7500094231391403    0.7500005610536212 Co
   0.9999991728869650    0.4999907212121054    0.2500004877587995 Co
   0.9999991728869650    0.4999907212121054    0.7500004877587995 Co
   0.9999991728869650    0.9999907212121056    0.2500004877587995 Co
   0.9999991728869650    0.9999907212121055    0.7500004877587995 Co
   0.4999991728869650    0.4999907212121055    0.2500004877587994 Co
   0.4999991728869650    0.4999907212121054    0.7500004877587995 Co
   0.4999991728869650    0.9999907212121055    0.2500004877587995 Co
   0.4999991728869650    0.9999907212121054    0.7500004877587994 Co
   0.2523309710721415    0.1249995348969505    0.2544809291256869 Co
   0.2523309710721415    0.1249995348969505    0.7544809291256869 Co
   0.2523309710721415    0.6249995348969506    0.2544809291256869 Co
   0.2523309710721415    0.6249995348969506    0.7544809291256870 Co
   0.7523309710721414    0.1249995348969505    0.2544809291256869 Co
   0.7523309710721415    0.1249995348969505    0.7544809291256870 Co
   0.7523309710721413    0.6249995348969506    0.2544809291256869 Co
   0.7523309710721415    0.6249995348969505    0.7544809291256869 Co
   0.2476700338194232    0.3750005364883954    0.2455192309851846 Co
   0.2476700338194232    0.3750005364883953    0.7455192309851846 Co
   0.2476700338194232    0.8750005364883954    0.2455192309851846 Co
   0.2476700338194232    0.8750005364883955    0.7455192309851846 Co
   0.7476700338194232    0.3750005364883954    0.2455192309851846 Co
   0.7476700338194231    0.3750005364883954    0.7455192309851846 Co
   0.7476700338194231    0.8750005364883954    0.2455192309851846 Co
   0.7476700338194232    0.8750005364883954    0.7455192309851846 Co
   0.0580426956607944    0.1249944816234708    0.1624526313675444 O
   0.0580426956607944    0.1249944816234708    0.6624526313675444 O
   0.0580426956607944    0.6249944816234709    0.1624526313675444 O
   0.0580426956607944    0.6249944816234708    0.6624526313675444 O
   0.5580426956607943    0.1249944816234708    0.1624526313675444 O
   0.5580426956607945    0.1249944816234708    0.6624526313675444 O
   0.5580426956607945    0.6249944816234709    0.1624526313675444 O
   0.5580426956607943    0.6249944816234708    0.6624526313675444 O
   0.4419503848771037    0.3750054847410664    0.3375410980264183 O
   0.4419503848771036    0.3750054847410664    0.8375410980264183 O
   0.4419503848771036    0.8750054847410664    0.3375410980264183 O
   0.4419503848771036    0.8750054847410665    0.8375410980264183 O
   0.9419503848771035    0.3750054847410665    0.3375410980264183 O
   0.9419503848771036    0.3750054847410664    0.8375410980264183 O
   0.9419503848771035    0.8750054847410667    0.3375410980264183 O
   0.9419503848771036    0.8750054847410665    0.8375410980264183 O
   0.4460381077386665    0.1249955923381680    0.3426030656437493 O
   0.4460381077386666    0.1249955923381680    0.8426030656437492 O
   0.4460381077386665    0.6249955923381680    0.3426030656437493 O
   0.4460381077386666    0.6249955923381679    0.8426030656437494 O
   0.9460381077386665    0.1249955923381680    0.3426030656437493 O
   0.9460381077386667    0.1249955923381680    0.8426030656437493 O
   0.9460381077386666    0.6249955923381681    0.3426030656437493 O
   0.9460381077386666    0.6249955923381680    0.8426030656437493 O
   0.0539670969615288    0.3750042632256160    0.1574029890278901 O
   0.0539670969615288    0.3750042632256159    0.6574029890278901 O
   0.0539670969615288    0.8750042632256160    0.1574029890278901 O
   0.0539670969615288    0.8750042632256160    0.6574029890278901 O
   0.5539670969615289    0.3750042632256160    0.1574029890278901 O
   0.5539670969615288    0.3750042632256160    0.6574029890278901 O
   0.5539670969615288    0.8750042632256161    0.1574029890278901 O
   0.5539670969615287    0.8750042632256161    0.6574029890278901 O
   0.1971147194038843    0.2517304498508278    0.3452452094640640 O
   0.1971147194038843    0.2517304498508278    0.8452452094640640 O
   0.1971147194038843    0.7517304498508279    0.3452452094640640 O
   0.1971147194038843    0.7517304498508278    0.8452452094640640 O
   0.6971147194038843    0.2517304498508278    0.3452452094640640 O
   0.6971147194038843    0.2517304498508278    0.8452452094640640 O
   0.6971147194038841    0.7517304498508278    0.3452452094640640 O
   0.6971147194038844    0.7517304498508278    0.8452452094640640 O
   0.3028906627043644    0.0017067935596519    0.1547584600006197 O
   0.3028906627043644    0.0017067935596519    0.6547584600006198 O
   0.3028906627043644    0.5017067935596520    0.1547584600006197 O
   0.3028906627043644    0.5017067935596519    0.6547584600006198 O
   0.8028906627043643    0.0017067935596519    0.1547584600006197 O
   0.8028906627043644    0.0017067935596519    0.6547584600006198 O
   0.8028906627043643    0.5017067935596520    0.1547584600006197 O
   0.8028906627043644    0.5017067935596520    0.6547584600006198 O
   0.3028856796516154    0.2482915930605427    0.1547548130579014 O
   0.3028856796516154    0.2482915930605427    0.6547548130579014 O
   0.3028856796516154    0.7482915930605428    0.1547548130579014 O
   0.3028856796516154    0.7482915930605428    0.6547548130579014 O
   0.8028856796516154    0.2482915930605427    0.1547548130579014 O
   0.8028856796516154    0.2482915930605427    0.6547548130579014 O
   0.8028856796516155    0.7482915930605428    0.1547548130579014 O
   0.8028856796516154    0.7482915930605427    0.6547548130579013 O
   0.1971100631827242    0.4982711117895077    0.3452419145099498 O
   0.1971100631827242    0.4982711117895076    0.8452419145099499 O
   0.1971100631827242    0.9982711117895077    0.3452419145099498 O
   0.1971100631827242    0.9982711117895077    0.8452419145099498 O
   0.6971100631827242    0.4982711117895077    0.3452419145099498 O
   0.6971100631827242    0.4982711117895077    0.8452419145099498 O
   0.6971100631827241    0.9982711117895077    0.3452419145099498 O
   0.6971100631827242    0.9982711117895076    0.8452419145099498 O
