Ca36 Ni36 O72
1.0
  12.9796213444850821   -0.0000163681790632    0.0000123189231148
  -4.8673686402440337    8.4305053234895428   -0.0000089325546462
   0.0000158101333516   -0.0000085595685443   14.8775939930358998
Ca Ni O
35 36 72
direct
   0.4166667381736809    0.4444443584353426    0.3333351007718804 Ca
   0.0000000637839019    0.3333332462407785    0.9999999848260523 Ca
   0.0000000637839019    0.6666665795741119    0.9999999848260523 Ca
   0.0000000637839019    0.9999999129074451    0.9999999848260523 Ca
   0.5000000637839019    0.3333332462407785    0.9999999848260523 Ca
   0.5000000637839018    0.6666665795741118    0.9999999848260523 Ca
   0.5000000637839018    0.9999999129074453    0.9999999848260523 Ca
   0.2500000637839019    0.3333332462407785    0.9999999848260523 Ca
   0.2500000637839018    0.6666665795741119    0.9999999848260522 Ca
   0.2500000637839018    0.9999999129074452    0.9999999848260523 Ca
   0.7500000637839018    0.3333332462407785    0.9999999848260523 Ca
   0.7500000637839019    0.6666665795741119    0.9999999848260522 Ca
   0.7500000637839017    0.9999999129074452    0.9999999848260522 Ca
   0.1666667381736809    0.1111110251020092    0.3333351007718805 Ca
   0.1666667381736809    0.4444443584353426    0.3333351007718805 Ca
   0.1666667381736809    0.7777776917686759    0.3333351007718805 Ca
   0.6666667381736809    0.1111110251020092    0.3333351007718805 Ca
   0.6666667381736808    0.7777776917686758    0.3333351007718805 Ca
   0.4166667381736809    0.1111110251020092    0.3333351007718804 Ca
   0.4166667381736808    0.7777776917686759    0.3333351007718804 Ca
   0.9166667381736808    0.1111110251020092    0.3333351007718804 Ca
   0.9166667381736809    0.4444443584353426    0.3333351007718804 Ca
   0.9166667381736809    0.7777776917686759    0.3333351007718804 Ca
   0.0833333931475416    0.2222221311998793    0.6666653792954949 Ca
   0.0833333931475416    0.5555554645332126    0.6666653792954947 Ca
   0.0833333931475416    0.8888887978665460    0.6666653792954949 Ca
   0.5833333931475416    0.2222221311998793    0.6666653792954949 Ca
   0.5833333931475417    0.5555554645332126    0.6666653792954947 Ca
   0.5833333931475416    0.8888887978665460    0.6666653792954947 Ca
   0.3333333931475417    0.2222221311998793    0.6666653792954946 Ca
   0.3333333931475417    0.5555554645332127    0.6666653792954946 Ca
   0.3333333931475417    0.8888887978665461    0.6666653792954946 Ca
   0.8333333931475416    0.2222221311998793    0.6666653792954946 Ca
   0.8333333931475417    0.5555554645332127    0.6666653792954946 Ca
   0.8333333931475417    0.8888887978665461    0.6666653792954946 Ca
   0.1666667332507303    0.1111110300761090    0.8333317164759325 Ni
   0.1666667332507303    0.4444443634094423    0.8333317164759324 Ni
   0.1666667332507303    0.7777776967427756    0.8333317164759325 Ni
   0.6666667332507302    0.1111110300761090    0.8333317164759325 Ni
   0.6666667332507302    0.4444443634094423    0.8333317164759325 Ni
   0.6666667332507302    0.7777776967427757    0.8333317164759324 Ni
   0.4166667332507303    0.1111110300761090    0.8333317164759323 Ni
   0.4166667332507303    0.4444443634094423    0.8333317164759323 Ni
   0.4166667332507303    0.7777776967427756    0.8333317164759324 Ni
   0.9166667332507303    0.1111110300761090    0.8333317164759323 Ni
   0.9166667332507302    0.4444443634094423    0.8333317164759323 Ni
   0.9166667332507303    0.7777776967427757    0.8333317164759323 Ni
   0.0833326187056221    0.2222231784132727    0.1666666719017983 Ni
   0.0833326187056221    0.5555565117466060    0.1666666719017983 Ni
   0.0833326187056221    0.8888898450799394    0.1666666719017983 Ni
   0.5833326187056221    0.2222231784132727    0.1666666719017983 Ni
   0.5833326187056221    0.5555565117466060    0.1666666719017983 Ni
   0.5833326187056221    0.8888898450799394    0.1666666719017983 Ni
   0.3333326187056221    0.2222231784132727    0.1666666719017983 Ni
   0.3333326187056221    0.5555565117466060    0.1666666719017983 Ni
   0.3333326187056221    0.8888898450799394    0.1666666719017983 Ni
   0.8333326187056223    0.2222231784132727    0.1666666719017983 Ni
   0.8333326187056220    0.5555565117466060    0.1666666719017983 Ni
   0.8333326187056221    0.8888898450799394    0.1666666719017983 Ni
   0.0000000652368397    0.3333332392504710    0.5000002054634397 Ni
   0.0000000652368396    0.6666665725838044    0.5000002054634398 Ni
   0.0000000652368397    0.9999999059171377    0.5000002054634397 Ni
   0.5000000652368396    0.3333332392504711    0.5000002054634398 Ni
   0.5000000652368397    0.6666665725838046    0.5000002054634397 Ni
   0.5000000652368396    0.9999999059171377    0.5000002054634397 Ni
   0.2500000652368397    0.3333332392504710    0.5000002054634398 Ni
   0.2500000652368397    0.6666665725838044    0.5000002054634398 Ni
   0.2500000652368397    0.9999999059171378    0.5000002054634397 Ni
   0.7500000652368397    0.3333332392504711    0.5000002054634398 Ni
   0.7500000652368398    0.6666665725838045    0.5000002054634397 Ni
   0.7500000652368396    0.9999999059171377    0.5000002054634398 Ni
   0.0833333125232389    0.2222222806300206    0.9066532816108328 O
   0.0833333125232389    0.5555556139633540    0.9066532816108327 O
   0.0833333125232389    0.8888889472966873    0.9066532816108328 O
   0.5833333125232389    0.2222222806300206    0.9066532816108328 O
   0.5833333125232389    0.5555556139633541    0.9066532816108327 O
   0.5833333125232389    0.8888889472966873    0.9066532816108327 O
   0.3333333125232389    0.2222222806300206    0.9066532816108326 O
   0.3333333125232389    0.5555556139633540    0.9066532816108326 O
   0.3333333125232389    0.8888889472966873    0.9066532816108326 O
   0.8333333125232388    0.2222222806300206    0.9066532816108326 O
   0.8333333125232389    0.5555556139633541    0.9066532816108326 O
   0.8333333125232389    0.8888889472966872    0.9066532816108325 O
   0.0000001486548810    0.3333331052236987    0.7600143077742959 O
   0.0000001486548810    0.6666664385570321    0.7600143077742959 O
   0.0000001486548810    0.9999997718903654    0.7600143077742959 O
   0.5000001486548811    0.3333331052236988    0.7600143077742959 O
   0.5000001486548810    0.6666664385570322    0.7600143077742959 O
   0.5000001486548811    0.9999997718903655    0.7600143077742958 O
   0.2500001486548810    0.3333331052236987    0.7600143077742960 O
   0.2500001486548810    0.6666664385570321    0.7600143077742959 O
   0.2500001486548810    0.9999997718903654    0.7600143077742960 O
   0.7500001486548810    0.3333331052236988    0.7600143077742960 O
   0.7500001486548810    0.6666664385570321    0.7600143077742959 O
   0.7500001486548810    0.9999997718903655    0.7600143077742959 O
   0.4999999808595947    0.0000000600801344    0.2399859150341364 O
   0.4999999808595947    0.3333333934134677    0.2399859150341364 O
   0.4999999808595947    0.6666667267468011    0.2399859150341364 O
   0.9999999808595946    0.0000000600801344    0.2399859150341364 O
   0.9999999808595945    0.3333333934134677    0.2399859150341364 O
   0.9999999808595947    0.6666667267468011    0.2399859150341364 O
   0.2499999808595947    0.0000000600801344    0.2399859150341364 O
   0.2499999808595946    0.3333333934134677    0.2399859150341364 O
   0.2499999808595946    0.6666667267468011    0.2399859150341364 O
   0.7499999808595947    0.0000000600801344    0.2399859150341364 O
   0.7499999808595946    0.3333333934134677    0.2399859150341364 O
   0.7499999808595946    0.6666667267468011    0.2399859150341364 O
   0.1666668145538168    0.1111108869555409    0.0933469576293780 O
   0.1666668145538168    0.4444442202888743    0.0933469576293780 O
   0.1666668145538168    0.7777775536222076    0.0933469576293780 O
   0.6666668145538168    0.1111108869555409    0.0933469576293780 O
   0.6666668145538167    0.4444442202888743    0.0933469576293780 O
   0.6666668145538168    0.7777775536222076    0.0933469576293780 O
   0.4166668145538169    0.1111108869555409    0.0933469576293780 O
   0.4166668145538168    0.4444442202888743    0.0933469576293780 O
   0.4166668145538169    0.7777775536222076    0.0933469576293780 O
   0.9166668145538169    0.1111108869555409    0.0933469576293780 O
   0.9166668145538169    0.4444442202888743    0.0933469576293780 O
   0.9166668145538169    0.7777775536222077    0.0933469576293780 O
   0.1666666427758893    0.1111111584066949    0.5733192009369026 O
   0.1666666427758892    0.4444444917400283    0.5733192009369025 O
   0.1666666427758892    0.7777778250733617    0.5733192009369026 O
   0.6666666427758893    0.1111111584066949    0.5733192009369026 O
   0.6666666427758893    0.4444444917400283    0.5733192009369025 O
   0.6666666427758893    0.7777778250733617    0.5733192009369025 O
   0.4166666427758893    0.1111111584066950    0.5733192009369024 O
   0.4166666427758893    0.4444444917400283    0.5733192009369024 O
   0.4166666427758893    0.7777778250733617    0.5733192009369024 O
   0.9166666427758894    0.1111111584066949    0.5733192009369024 O
   0.9166666427758892    0.4444444917400283    0.5733192009369024 O
   0.9166666427758893    0.7777778250733617    0.5733192009369023 O
   0.0833334883342629    0.2222219917547242    0.4266812782798630 O
   0.0833334883342629    0.5555553250880576    0.4266812782798630 O
   0.0833334883342629    0.8888886584213909    0.4266812782798630 O
   0.5833334883342629    0.2222219917547242    0.4266812782798630 O
   0.5833334883342629    0.5555553250880575    0.4266812782798630 O
   0.5833334883342630    0.8888886584213910    0.4266812782798630 O
   0.3333334883342629    0.2222219917547242    0.4266812782798631 O
   0.3333334883342629    0.5555553250880575    0.4266812782798631 O
   0.3333334883342629    0.8888886584213909    0.4266812782798630 O
   0.8333334883342629    0.2222219917547242    0.4266812782798631 O
   0.8333334883342629    0.5555553250880576    0.4266812782798630 O
   0.8333334883342629    0.8888886584213910    0.4266812782798631 O
