Ca8 Ni12 F42                            
   1.00000000000000     
     7.2804279999999997   -0.0192960000000000    0.0159020000000000
    -3.6811039999999999    6.3754790000000003   -0.0006410000000000
     0.0473510000000000    0.0224610000000000   18.2722669999999994
   Ca   Ni   F 
     8    12    42
Direct
  0.4649445774792109  0.8531587074487137  0.6592586787132999
  0.1490266727744533  0.6442577997908452  0.9841954654282864
  0.3469779670887672  0.5054129314629062  0.3299625358515147
  0.8362860820102459  0.0176291461726329  0.3455826346003145
  0.1800440694014535  0.1668734940444862  0.0050916856567368
  0.9777764014684548  0.7891998742348747  0.1743627818176055
  0.8181389915571080  0.9790224697669341  0.8331737278929034
  0.1938821905225762  0.1518822361590969  0.5144357408279034
  0.3303781249699938  0.0030583147595372  0.3335642358164035
  0.9787896863876347  0.3408616342330217  0.6674890407574183
  0.6668554848851544  0.6677925969949032  0.0011449376375843
  0.3329120551739172  0.0165617458216240  0.8304091250932319
  0.9941203572821699  0.3120777146533195  0.1622565415653126
  0.6688451976928418  0.6710115840703937  0.4950119634909058
  0.4939771541133527  0.8180108281470191  0.1642536550215497
  0.1644598398409138  0.6577157754437063  0.4941372777844243
  0.3243978569796564  0.5055941116302543  0.8296912799211916
  0.8265039024926775  0.5064664371484556  0.8279735231960291
  0.6782501443454505  0.1763488024834478  0.4961674911951438
  0.4902585413690876  0.3110591143060317  0.1636112054106752
  0.7279039871813454  0.1936801810848098  0.6017419230494861
  0.8133528150503472  0.5614140379150118  0.9377353227436622
  0.4352448955220404  0.2605302308258370  0.2721381455129576
  0.2288912472358358  0.7317384234524329  0.3864799356756692
  0.4851107698027708  0.7555320698127520  0.0575673883562120
  0.2505859617048228  0.5085191674487082  0.7266503986098485
  0.8346304300931933  0.9552175186497978  0.9547239742140137
  0.0424230140160493  0.8873028149373370  0.2875208495994852
  0.1135556324485101  0.2114936582726247  0.6188797377229169
  0.9746700257173900  0.7976836234827356  0.0529951984720054
  0.7995338706522240  0.0660642250155470  0.7215976571727407
  0.1975889841436025  0.1656983769306673  0.3898757525130922
  0.5215497901371663  0.3879375253439966  0.0549199432409933
  0.6025251448072023  0.1263384970880601  0.3880877873987824
  0.8594294543111337  0.4759694807015653  0.7247144375702138
  0.3831518810334933  0.5201772302481396  0.9433461963243840
  0.1387042290379729  0.6012209137463511  0.6017596687757296
  0.4937233581136184  0.8650550234522310  0.2769173659808848
  0.7944599838202976  0.4196138238898011  0.1730866646491557
  0.5629650145110739  0.3645107237077534  0.5040114239165921
  0.6379175360901459  0.2090589786103490  0.8465917533055772
  0.4432500189163950  0.8152434556931762  0.8296744160722704
  0.3554892135187506  0.5413750746023098  0.4781878081295747
  0.1863215833332060  0.6217074767152758  0.1725502160699871
  0.0282743758601879  0.3030891862845618  0.2733919536252872
  0.6276107420305391  0.7168960732503972  0.5947098479582440
  0.2939801409058883  0.9753451118692196  0.9424749942610987
  0.3579425929214508  0.0355146101302485  0.7263637824344497
  0.6675722499263733  0.6743879291422201  0.3811977768050362
  0.0197208355405828  0.3476934358215951  0.0505047036171420
  0.1858231001740056  0.1978679591550178  0.1415099215762455
  0.7959007992012138  0.9852217508082670  0.4759753755780202
  0.0252304970476035  0.8131005301059842  0.8220820729619676
  0.2020181646455120  0.2013640589213453  0.8477840143354580
  0.9787319450548407  0.7793635714699171  0.4986926811682179
  0.8023350029245517  0.0015531535430677  0.1659090252679278
  0.0476522227942309  0.4494579732108833  0.8703332300540206
  0.5773165454649513  0.6074073825430790  0.1971496646001185
  0.3798351318911182  0.9548712972265219  0.5296778985859829
  0.3883300119680811  0.0112263816645815  0.1410672852897525
  0.6236574671694203  0.6044613610363241  0.8063979695999730
  0.9621017570724947  0.3751109915959080  0.4595656554636715
 
             NaN             NaN             NaN
             NaN             NaN             NaN
             NaN             NaN             NaN
             NaN             NaN             NaN
             NaN             NaN             NaN
             NaN             NaN             NaN
             NaN             NaN             NaN
             NaN             NaN             NaN
             NaN             NaN             NaN
             NaN             NaN             NaN
             NaN             NaN             NaN
             NaN             NaN             NaN
             NaN             NaN             NaN
             NaN             NaN             NaN
             NaN             NaN             NaN
             NaN             NaN             NaN
             NaN             NaN             NaN
             NaN             NaN             NaN
             NaN             NaN             NaN
             NaN             NaN             NaN
             NaN             NaN             NaN
             NaN             NaN             NaN
             NaN             NaN             NaN
             NaN             NaN             NaN
             NaN             NaN             NaN
             NaN             NaN             NaN
             NaN             NaN             NaN
             NaN             NaN             NaN
             NaN             NaN             NaN
             NaN             NaN             NaN
             NaN             NaN             NaN
             NaN             NaN             NaN
             NaN             NaN             NaN
             NaN             NaN             NaN
             NaN             NaN             NaN
             NaN             NaN             NaN
             NaN             NaN             NaN
             NaN             NaN             NaN
             NaN             NaN             NaN
             NaN             NaN             NaN
             NaN             NaN             NaN
             NaN             NaN             NaN
             NaN             NaN             NaN
             NaN             NaN             NaN
             NaN             NaN             NaN
             NaN             NaN             NaN
             NaN             NaN             NaN
             NaN             NaN             NaN
             NaN             NaN             NaN
             NaN             NaN             NaN
             NaN             NaN             NaN
             NaN             NaN             NaN
             NaN             NaN             NaN
             NaN             NaN             NaN
             NaN             NaN             NaN
             NaN             NaN             NaN
             NaN             NaN             NaN
             NaN             NaN             NaN
             NaN             NaN             NaN
             NaN             NaN             NaN
             NaN             NaN             NaN
             NaN             NaN             NaN
