Ca8 Ni12 F42
1.0
7.280428 -0.019296 0.015902
-3.681104 6.375479 -0.000641
0.047351 0.022461 18.272267
Ca Ni F
8 12 42
direct
0.424249 0.853940 0.656219 Ca
0.156288 0.648728 0.979117 Ca
0.349081 0.508624 0.329211 Ca
0.842054 0.018000 0.345379 Ca
0.173032 0.164867 0.010420 Ca
0.980787 0.787604 0.174153 Ca
0.813021 0.982776 0.834387 Ca
0.202888 0.157835 0.514305 Ca
0.337769 0.007586 0.333061 Ni
0.990381 0.346417 0.667698 Ni
0.665082 0.660290 0.000752 Ni
0.326774 0.008824 0.831075 Ni
0.996941 0.314730 0.162588 Ni
0.679837 0.673133 0.492686 Ni
0.497281 0.819293 0.162981 Ni
0.174026 0.662466 0.493601 Ni
0.322439 0.501220 0.829595 Ni
0.820979 0.501299 0.827339 Ni
0.688465 0.181022 0.495078 Ni
0.494138 0.312066 0.164030 Ni
0.743471 0.197201 0.600064 F
0.811042 0.553369 0.937588 F
0.439857 0.264683 0.272043 F
0.237244 0.735926 0.385757 F
0.482149 0.750782 0.055924 F
0.258688 0.521217 0.727438 F
0.833780 0.951207 0.955518 F
0.049403 0.891532 0.286772 F
0.130437 0.216410 0.620091 F
0.974480 0.792925 0.052807 F
0.815537 0.066903 0.721442 F
0.204467 0.169249 0.389635 F
0.524415 0.385104 0.056023 F
0.610466 0.130720 0.387294 F
0.857031 0.473516 0.723637 F
0.374852 0.496474 0.943846 F
0.143859 0.604504 0.600731 F
0.503171 0.870935 0.275948 F
0.797573 0.420326 0.174887 F
0.571701 0.367253 0.502482 F
0.632248 0.202909 0.843827 F
0.429860 0.803972 0.849932 F
0.366434 0.548009 0.479308 F
0.191633 0.622509 0.177176 F
0.030170 0.300521 0.273131 F
0.654474 0.713932 0.593440 F
0.286018 0.986128 0.942826 F
0.353892 0.004294 0.727822 F
0.671432 0.674595 0.379620 F
0.024196 0.359531 0.051532 F
0.189241 0.201027 0.142317 F
0.804008 0.988025 0.475226 F
0.018822 0.806539 0.823900 F
0.200055 0.197058 0.834162 F
0.989591 0.784379 0.496034 F
0.805269 0.003527 0.160953 F
0.038342 0.432542 0.869012 F
0.584516 0.611260 0.196080 F
0.389713 0.960207 0.528469 F
0.387415 0.010077 0.141001 F
0.623104 0.609552 0.806066 F
0.972977 0.379393 0.458264 F
