Mg V32 O80                              
   1.00000000000000     
    22.9942757419433335    0.0000033040575203    0.0000783362715702
     0.0000005972696741    7.1627922152077561    0.0003227401072710
     0.0000358594319262    0.0008070204609611    9.7367046481434265
   K    V    O 
     1    32    80
Direct
  0.3749937612457132  0.1248090957395070  0.5455781425396041
  0.1994439648360123  0.1250336791444771  0.2014685717341311
  0.2000347114103641  0.1251947755993836  0.6933912522488042
  0.1988682460884264  0.6249860067218398  0.1912072210576693
  0.1995512676282652  0.6252289137832970  0.6989986214910964
  0.6989135222983450  0.1248120958703211  0.1970016925588593
  0.6995017156819227  0.1249687964713764  0.6932541057180180
  0.6996071925054513  0.6247876200386651  0.1943842411380268
  0.6993623515560629  0.6249232841306740  0.6951699071193463
  0.3000983523769717  0.3804249704984809  0.2970454461558338
  0.2998173260437474  0.3752508601882770  0.8120893092968789
  0.3000958368925542  0.8695047359663686  0.2970104965492377
  0.2998164954575007  0.8750182364678297  0.8121271381941912
  0.8005682116444742  0.3749025714626834  0.3047494940983246
  0.8004995669786169  0.3749063278045094  0.8056647578650243
  0.8005645768899222  0.8748596452853764  0.3047571329565520
  0.8004981713451100  0.8751016320572518  0.8056100902458173
  0.0510857348463919  0.1248078867736202  0.1969908369451513
  0.0504952398552240  0.1249714347720273  0.6932620344311311
  0.0503884695577361  0.6247888419865871  0.1943667206173240
  0.0506334804605927  0.6249251290957679  0.6951606055321248
  0.5505531040876854  0.1250317789136458  0.2014753918394941
  0.5499621834993308  0.1252067898276727  0.6933931827536204
  0.5511290235988803  0.6249875419596196  0.1912121955715620
  0.5504445974849638  0.6252449670840819  0.6989988565456851
  0.4498980451315075  0.3804247351727016  0.2970459606779484
  0.4501803367929547  0.3752409699922971  0.8121011639058751
  0.4498978072799797  0.8695043542346098  0.2970140408017162
  0.4501752353424517  0.8750139908825962  0.8121246658424474
  0.9494411563446803  0.3749026210485221  0.3047413160173434
  0.9495169958565113  0.3749154863992029  0.8056750622174431
  0.9494451745003021  0.8748560365547412  0.3047403191651563
  0.9495143840674491  0.8751045777842070  0.8056221297844159
  0.1985489453813978  0.1251283069131347  0.0383724764344514
  0.1990859835200883  0.1252067527843228  0.5297594285733666
  0.1958877478306224  0.6250040087039650  0.0280002495815389
  0.1972086586398155  0.6254126172804387  0.5361041251128044
  0.6951449733455711  0.1246938290466777  0.0340106506417042
  0.6980500176669200  0.1250363517277441  0.5300619485944564
  0.6974184439198655  0.6247978860148552  0.0312643230260940
  0.6966542499196712  0.6248559283211348  0.5320727475459447
  0.3030429662538327  0.3973705276218413  0.4611079841127392
  0.3015315416596289  0.3686849191739174  0.9753592627509616
  0.3030160259518771  0.8524731797758986  0.4610070207422900
  0.3015320426403300  0.8816445804229287  0.9753243808331094
  0.8027897653569795  0.3752768872126019  0.4679114538034301
  0.8022276739449421  0.3738884088286636  0.9688690715543747
  0.8027828626175416  0.8743893747868042  0.4679105170320147
  0.8022182385876732  0.8760847102956142  0.9687966688742446
  0.0548608053666439  0.1246917529021648  0.0339954325030947
  0.0519611018889529  0.1250380317134068  0.5300718182253041
  0.0525877832548820  0.6247932402912431  0.0312472827556113
  0.0533542332083049  0.6248624499763117  0.5320764225753257
  0.5514447023952741  0.1251220950753212  0.0383723868572203
  0.5509020508400420  0.1252140473634583  0.5297568294125019
  0.5541045977732381  0.6250094534832705  0.0280044206579805
  0.5527750014850223  0.6254138979685520  0.5361079264810490
  0.4469511773532619  0.3973615616852725  0.4610773765579625
  0.4484591023140250  0.3686757959452112  0.9753688492651594
  0.4469693043410209  0.8524942393840427  0.4610047521708046
  0.4484541820819867  0.8816323064746342  0.9753232697520873
  0.9472238162326729  0.3752943412801952  0.4679057994225493
  0.9477856454806844  0.3739030281089419  0.9688898928917065
  0.9472292031321676  0.8743846134310186  0.4679010581126554
  0.9477932680081816  0.8760738160509550  0.9688098138399331
  0.2836775008330431  0.1249842648278207  0.2601860549973978
  0.2853840776388890  0.1251499827552596  0.7531054898928126
  0.2870712750007088  0.6249698013100987  0.2346931824801280
  0.2852057912883937  0.6251705500121332  0.7626694491086893
  0.7839973631392698  0.1248373390583654  0.2545866511330290
  0.7843489038224128  0.1250150687630434  0.7543784239323507
  0.7844269331181153  0.6248357159422668  0.2540081755495054
  0.7841537160436263  0.6249890432525467  0.7553411697533701
  0.2151684264513979  0.3784155197178198  0.2471569035194834
  0.2165304938756530  0.3738660486560077  0.7472893251566838
  0.2151537155192221  0.8715364164800167  0.2471430517815331
  0.2165209722593995  0.8765188635525474  0.7473242004787015
  0.7154893853769553  0.3751023684039556  0.2459677986507263
  0.7155690783898522  0.3744828429879347  0.7446584167864987
  0.7154796655114063  0.8745425902723289  0.2460104908846659
  0.7155692592144224  0.8755112814213097  0.7445516755238424
  0.4663220871504529  0.1249833355884355  0.2601741407455119
  0.4646153740312938  0.1251512165087565  0.7531055983924044
  0.4629295330856667  0.6249698791918252  0.2346957217942018
  0.4647949434462176  0.6251649747781517  0.7626741539103848
  0.9660024552988444  0.1248354663911841  0.2545794844466233
  0.9656485805999639  0.1250173294880426  0.7543916059474480
  0.9655739729803502  0.6248354127508768  0.2539935398331812
  0.9658432375538433  0.6249970002663554  0.7553404024332078
  0.0345072370479006  0.3750989501895368  0.2459529580086731
  0.0344255907094610  0.3744898773832340  0.7446499742762848
  0.0345208538037435  0.8745432154568122  0.2459963542589325
  0.0344278291832881  0.8755128645703109  0.7445437807460592
  0.5348352152892225  0.3784116511160835  0.2471675251666861
  0.5334736948343842  0.3738625761854766  0.7473167453692861
  0.5348476599502864  0.8715339640602687  0.2471552179737151
  0.5334783424731128  0.8765245609413874  0.7473337275133571
  0.1251915623353015  0.1250206087914969  0.2554317286956663
  0.1256001159956374  0.1252526843103719  0.7446202483547679
  0.1250188608354475  0.6249394234082698  0.2478037127359760
  0.1251810652444983  0.6251565796786411  0.7508392705752099
  0.6248150458248630  0.1250167839795787  0.2554237678659007
  0.6244055740266076  0.1252439647551114  0.7446178383574922
  0.6249877132989210  0.6249447494868622  0.2478013135660028
  0.6248251697168565  0.6251555101511017  0.7508440033137693
  0.3749958628737110  0.3630608495164762  0.2474783487197728
  0.3749974816304673  0.3714011714426675  0.7583687532030433
  0.3749970524270950  0.8870025061531925  0.2473656435494199
  0.3749962170348836  0.8788397072274874  0.7583464786311866
  0.8749993007684168  0.3739982858920678  0.2505595593296652
  0.8750019962215583  0.3754550720171819  0.7522458600189008
  0.8749995645866154  0.8756296542995738  0.2505614935473645
  0.8750019002792353  0.8744691468529376  0.7522228447802354
 
  0.00000000E+00  0.00000000E+00  0.00000000E+00
  0.00000000E+00  0.00000000E+00  0.00000000E+00
  0.00000000E+00  0.00000000E+00  0.00000000E+00
  0.00000000E+00  0.00000000E+00  0.00000000E+00
  0.00000000E+00  0.00000000E+00  0.00000000E+00
  0.00000000E+00  0.00000000E+00  0.00000000E+00
  0.00000000E+00  0.00000000E+00  0.00000000E+00
  0.00000000E+00  0.00000000E+00  0.00000000E+00
  0.00000000E+00  0.00000000E+00  0.00000000E+00
  0.00000000E+00  0.00000000E+00  0.00000000E+00
  0.00000000E+00  0.00000000E+00  0.00000000E+00
  0.00000000E+00  0.00000000E+00  0.00000000E+00
  0.00000000E+00  0.00000000E+00  0.00000000E+00
  0.00000000E+00  0.00000000E+00  0.00000000E+00
  0.00000000E+00  0.00000000E+00  0.00000000E+00
  0.00000000E+00  0.00000000E+00  0.00000000E+00
  0.00000000E+00  0.00000000E+00  0.00000000E+00
  0.00000000E+00  0.00000000E+00  0.00000000E+00
  0.00000000E+00  0.00000000E+00  0.00000000E+00
  0.00000000E+00  0.00000000E+00  0.00000000E+00
  0.00000000E+00  0.00000000E+00  0.00000000E+00
  0.00000000E+00  0.00000000E+00  0.00000000E+00
  0.00000000E+00  0.00000000E+00  0.00000000E+00
  0.00000000E+00  0.00000000E+00  0.00000000E+00
  0.00000000E+00  0.00000000E+00  0.00000000E+00
  0.00000000E+00  0.00000000E+00  0.00000000E+00
  0.00000000E+00  0.00000000E+00  0.00000000E+00
  0.00000000E+00  0.00000000E+00  0.00000000E+00
  0.00000000E+00  0.00000000E+00  0.00000000E+00
  0.00000000E+00  0.00000000E+00  0.00000000E+00
  0.00000000E+00  0.00000000E+00  0.00000000E+00
  0.00000000E+00  0.00000000E+00  0.00000000E+00
  0.00000000E+00  0.00000000E+00  0.00000000E+00
  0.00000000E+00  0.00000000E+00  0.00000000E+00
  0.00000000E+00  0.00000000E+00  0.00000000E+00
  0.00000000E+00  0.00000000E+00  0.00000000E+00
  0.00000000E+00  0.00000000E+00  0.00000000E+00
  0.00000000E+00  0.00000000E+00  0.00000000E+00
  0.00000000E+00  0.00000000E+00  0.00000000E+00
  0.00000000E+00  0.00000000E+00  0.00000000E+00
  0.00000000E+00  0.00000000E+00  0.00000000E+00
  0.00000000E+00  0.00000000E+00  0.00000000E+00
  0.00000000E+00  0.00000000E+00  0.00000000E+00
  0.00000000E+00  0.00000000E+00  0.00000000E+00
  0.00000000E+00  0.00000000E+00  0.00000000E+00
  0.00000000E+00  0.00000000E+00  0.00000000E+00
  0.00000000E+00  0.00000000E+00  0.00000000E+00
  0.00000000E+00  0.00000000E+00  0.00000000E+00
  0.00000000E+00  0.00000000E+00  0.00000000E+00
  0.00000000E+00  0.00000000E+00  0.00000000E+00
  0.00000000E+00  0.00000000E+00  0.00000000E+00
  0.00000000E+00  0.00000000E+00  0.00000000E+00
  0.00000000E+00  0.00000000E+00  0.00000000E+00
  0.00000000E+00  0.00000000E+00  0.00000000E+00
  0.00000000E+00  0.00000000E+00  0.00000000E+00
  0.00000000E+00  0.00000000E+00  0.00000000E+00
  0.00000000E+00  0.00000000E+00  0.00000000E+00
  0.00000000E+00  0.00000000E+00  0.00000000E+00
  0.00000000E+00  0.00000000E+00  0.00000000E+00
  0.00000000E+00  0.00000000E+00  0.00000000E+00
  0.00000000E+00  0.00000000E+00  0.00000000E+00
  0.00000000E+00  0.00000000E+00  0.00000000E+00
  0.00000000E+00  0.00000000E+00  0.00000000E+00
  0.00000000E+00  0.00000000E+00  0.00000000E+00
  0.00000000E+00  0.00000000E+00  0.00000000E+00
  0.00000000E+00  0.00000000E+00  0.00000000E+00
  0.00000000E+00  0.00000000E+00  0.00000000E+00
  0.00000000E+00  0.00000000E+00  0.00000000E+00
  0.00000000E+00  0.00000000E+00  0.00000000E+00
  0.00000000E+00  0.00000000E+00  0.00000000E+00
  0.00000000E+00  0.00000000E+00  0.00000000E+00
  0.00000000E+00  0.00000000E+00  0.00000000E+00
  0.00000000E+00  0.00000000E+00  0.00000000E+00
  0.00000000E+00  0.00000000E+00  0.00000000E+00
  0.00000000E+00  0.00000000E+00  0.00000000E+00
  0.00000000E+00  0.00000000E+00  0.00000000E+00
  0.00000000E+00  0.00000000E+00  0.00000000E+00
  0.00000000E+00  0.00000000E+00  0.00000000E+00
  0.00000000E+00  0.00000000E+00  0.00000000E+00
  0.00000000E+00  0.00000000E+00  0.00000000E+00
  0.00000000E+00  0.00000000E+00  0.00000000E+00
  0.00000000E+00  0.00000000E+00  0.00000000E+00
  0.00000000E+00  0.00000000E+00  0.00000000E+00
  0.00000000E+00  0.00000000E+00  0.00000000E+00
  0.00000000E+00  0.00000000E+00  0.00000000E+00
  0.00000000E+00  0.00000000E+00  0.00000000E+00
  0.00000000E+00  0.00000000E+00  0.00000000E+00
  0.00000000E+00  0.00000000E+00  0.00000000E+00
  0.00000000E+00  0.00000000E+00  0.00000000E+00
  0.00000000E+00  0.00000000E+00  0.00000000E+00
  0.00000000E+00  0.00000000E+00  0.00000000E+00
  0.00000000E+00  0.00000000E+00  0.00000000E+00
  0.00000000E+00  0.00000000E+00  0.00000000E+00
  0.00000000E+00  0.00000000E+00  0.00000000E+00
  0.00000000E+00  0.00000000E+00  0.00000000E+00
  0.00000000E+00  0.00000000E+00  0.00000000E+00
  0.00000000E+00  0.00000000E+00  0.00000000E+00
  0.00000000E+00  0.00000000E+00  0.00000000E+00
  0.00000000E+00  0.00000000E+00  0.00000000E+00
  0.00000000E+00  0.00000000E+00  0.00000000E+00
  0.00000000E+00  0.00000000E+00  0.00000000E+00
  0.00000000E+00  0.00000000E+00  0.00000000E+00
  0.00000000E+00  0.00000000E+00  0.00000000E+00
  0.00000000E+00  0.00000000E+00  0.00000000E+00
  0.00000000E+00  0.00000000E+00  0.00000000E+00
  0.00000000E+00  0.00000000E+00  0.00000000E+00
  0.00000000E+00  0.00000000E+00  0.00000000E+00
  0.00000000E+00  0.00000000E+00  0.00000000E+00
  0.00000000E+00  0.00000000E+00  0.00000000E+00
  0.00000000E+00  0.00000000E+00  0.00000000E+00
  0.00000000E+00  0.00000000E+00  0.00000000E+00
  0.00000000E+00  0.00000000E+00  0.00000000E+00
  0.00000000E+00  0.00000000E+00  0.00000000E+00
