Ca1 Mn4 P6 O24                          
   1.00000000000000     
     2.6865540000000001    6.9991329999999996    4.5023049999999998
     0.3772040000000000    0.2238290000000000    8.7242879999999996
     7.4764450000000000    0.2242550000000000    4.4488940000000001
   Ca   Mn   P    O 
     1     4     6    24
Direct
  0.2654493407499956  0.7760702999096551  0.5564073191869170
  0.6479939899171185  0.6395082696156038  0.6426679116321665
  0.1406056154669457  0.1576352539563786  0.1378052017994449
  0.8386630493991731  0.8476549563956652  0.8569714671816726
  0.3585091090831725  0.3490150353419494  0.3631720538373955
  0.2516871499268518  0.5213091266231729  0.9701195760327934
  0.0191446625749663  0.7481091575147545  0.4648799577096270
  0.9704377684431122  0.2522138713903530  0.5192460513112565
  0.4539898169256347  0.0282400296039640  0.7550669591843402
  0.5463225566381027  0.9745478002465617  0.2378583002366668
  0.7439889510529198  0.4685711737126610  0.0427158142797168
  0.5847446973859007  0.7675792585597989  0.4039628458148172
  0.2974381849032852  0.0158895062281914  0.9621487558445310
  0.4216226439562476  0.5727871750030715  0.7728411037212624
  0.9468518601827682  0.3029841425398772  0.0268042223164642
  0.7750577949926409  0.3988446308125546  0.6022456490512837
  0.0267030822040581  0.9542745972797988  0.3348252787275499
  0.9811233325715065  0.0369407001801179  0.6546069231536080
  0.5868180015463338  0.4073634065725713  0.2407699911237842
  0.7055743875715166  0.9783018739094871  0.0353339400854722
  0.2253810007534014  0.5976651375440198  0.4026761936078813
  0.0671335378184281  0.7004312283134055  0.9380735677915766
  0.3947097042360710  0.2347043132945856  0.6023134354254580
  0.2630907244424350  0.3395514201380863  0.9655739510500467
  0.8596266936175425  0.7220321628864497  0.4664688008303841
  0.9863421220096669  0.2948787734030205  0.3131481832782157
  0.4765595118153172  0.8734142124900188  0.7005270535435031
  0.3443170532253319  0.0066084511785931  0.2529266068995213
  0.7027517032473654  0.5130747990556088  0.8687728135066379
  0.2840306773486176  0.4908325798624347  0.1404991005183902
  0.9897223027198336  0.7082939916941626  0.6782118954955010
  0.1430378954121139  0.2677017434080753  0.5108281905288621
  0.6520581824204399  0.0003008585126381  0.7423091945123375
  0.5309929740003838  0.1261313050208415  0.2885061643229321
  0.7329644464723302  0.6550266560176823  0.0404549862715342
 
             NaN             NaN             NaN
             NaN             NaN             NaN
             NaN             NaN             NaN
             NaN             NaN             NaN
             NaN             NaN             NaN
             NaN             NaN             NaN
             NaN             NaN             NaN
             NaN             NaN             NaN
             NaN             NaN             NaN
             NaN             NaN             NaN
             NaN             NaN             NaN
             NaN             NaN             NaN
             NaN             NaN             NaN
             NaN             NaN             NaN
             NaN             NaN             NaN
             NaN             NaN             NaN
             NaN             NaN             NaN
             NaN             NaN             NaN
             NaN             NaN             NaN
             NaN             NaN             NaN
             NaN             NaN             NaN
             NaN             NaN             NaN
             NaN             NaN             NaN
             NaN             NaN             NaN
             NaN             NaN             NaN
             NaN             NaN             NaN
             NaN             NaN             NaN
             NaN             NaN             NaN
             NaN             NaN             NaN
             NaN             NaN             NaN
             NaN             NaN             NaN
             NaN             NaN             NaN
             NaN             NaN             NaN
             NaN             NaN             NaN
             NaN             NaN             NaN
