Ca1 Mn4 P6 O24                          
   1.00000000000000     
     2.6865540000000001    6.9991329999999996    4.5023049999999998
     0.3772040000000000    0.2238290000000000    8.7242879999999996
     7.4764450000000000    0.2242550000000000    4.4488940000000001
   Ca   Mn   P    O 
     1     4     6    24
Direct
  0.2654493407499956  0.7760702999096573  0.5564073191869163
  0.6479939899171188  0.6395082696156026  0.6426679116321659
  0.1406056154669487  0.1576352539563755  0.1378052017994463
  0.8386630493991739  0.8476549563956682  0.8569714671816695
  0.3585091090831748  0.3490150353419491  0.3631720538373960
  0.2516871499268490  0.5213091266231753  0.9701195760327921
  0.0191446625749688  0.7481091575147549  0.4648799577096280
  0.9704377684431132  0.2522138713903526  0.5192460513112555
  0.4539898169256316  0.0282400296039644  0.7550669591843416
  0.5463225566381024  0.9745478002465584  0.2378583002366670
  0.7439889510529171  0.4685711737126603  0.0427158142797164
  0.5847446973858975  0.7675792585597981  0.4039628458148160
  0.2974381849032831  0.0158895062281926  0.9621487558445299
  0.4216226439562497  0.5727871750030747  0.7728411037212659
  0.9468518601827710  0.3029841425398786  0.0268042223164618
  0.7750577949926409  0.3988446308125541  0.6022456490512810
  0.0267030822040582  0.9542745972798000  0.3348252787275526
  0.9811233325715066  0.0369407001801148  0.6546069231536051
  0.5868180015463311  0.4073634065725729  0.2407699911237862
  0.7055743875715186  0.9783018739094853  0.0353339400854710
  0.2253810007534044  0.5976651375440186  0.4026761936078846
  0.0671335378184300  0.7004312283134044  0.9380735677915777
  0.3947097042360677  0.2347043132945869  0.6023134354254576
  0.2630907244424354  0.3395514201380841  0.9655739510500472
  0.8596266936175418  0.7220321628864484  0.4664688008303861
  0.9863421220096683  0.2948787734030206  0.3131481832782143
  0.4765595118153205  0.8734142124900215  0.7005270535435003
  0.3443170532253337  0.0066084511785905  0.2529266068995246
  0.7027517032473658  0.5130747990556098  0.8687728135066369
  0.2840306773486176  0.4908325798624337  0.1404991005183928
  0.9897223027198340  0.7082939916941613  0.6782118954955018
  0.1430378954121151  0.2677017434080724  0.5108281905288649
  0.6520581824204397  1.0003008585126394  0.7423091945123396
  0.5309929740003827  0.1261313050208383  0.2885061643229344
  0.7329644464723287  0.6550266560176834  0.0404549862715368
 
             NaN             NaN             NaN
             NaN             NaN             NaN
             NaN             NaN             NaN
             NaN             NaN             NaN
             NaN             NaN             NaN
             NaN             NaN             NaN
             NaN             NaN             NaN
             NaN             NaN             NaN
             NaN             NaN             NaN
             NaN             NaN             NaN
             NaN             NaN             NaN
             NaN             NaN             NaN
             NaN             NaN             NaN
             NaN             NaN             NaN
             NaN             NaN             NaN
             NaN             NaN             NaN
             NaN             NaN             NaN
             NaN             NaN             NaN
             NaN             NaN             NaN
             NaN             NaN             NaN
             NaN             NaN             NaN
             NaN             NaN             NaN
             NaN             NaN             NaN
             NaN             NaN             NaN
             NaN             NaN             NaN
             NaN             NaN             NaN
             NaN             NaN             NaN
             NaN             NaN             NaN
             NaN             NaN             NaN
             NaN             NaN             NaN
             NaN             NaN             NaN
             NaN             NaN             NaN
             NaN             NaN             NaN
             NaN             NaN             NaN
             NaN             NaN             NaN
