Ca9 Cr12 F42                            
   1.00000000000000     
     7.4654489999999996    0.0909720000000000   -0.5798640000000000
    -3.5358160000000001    6.6079509999999999    0.2169830000000000
     0.7813930000000000    0.1080760000000000   18.7364169999999994
   Ca   Cr   F 
     9    12    42
Direct
  0.4595009328210580  0.4757449381008669  0.3455718150698459
  0.5223409047965788  0.8443693518908688  0.6771530250334337
  0.5918716355289249  0.0927415605577835  0.0050539058228267
  0.0097156093075483  0.8212054783478919  0.6608866486631371
  0.8415118224166065  0.0599410307557875  0.3512534597004446
  0.1192029487787565  0.6080653855508800  0.9819033899052698
  0.9769731980692811  0.8226707546976328  0.1698090013764002
  0.8455796635511632  0.9038920613447630  0.8450693035733607
  0.2056389233898983  0.1976004508354308  0.5058061934137399
  0.2708133666040027  0.9049593228530242  0.3289885644912900
  0.0059462701187911  0.3170223740230540  0.6577822122970218
  0.6512240074411864  0.6379973567193886  0.9993871865714183
  0.3423262832936658  0.9813531859627460  0.8264309076204057
  0.9535447884822403  0.3088761474461492  0.1580240059433535
  0.6981903787452026  0.6880420057050429  0.5038287559944123
  0.4622380408800169  0.8004537534457796  0.1710133606894573
  0.1985954523175621  0.6988594171729758  0.4905186798970718
  0.3227768658295531  0.4750343162720441  0.8273137964002970
  0.8182282605664071  0.4563962332504303  0.8233296848315703
  0.7004076564692028  0.1976640019428970  0.5037217397775393
  0.4635224849099018  0.3100678472448735  0.1665236330647062
  0.7373090846540791  0.1296914256015427  0.6075047783513199
  0.8828274302180290  0.6632924735000501  0.9175489265112162
  0.4100460473635366  0.1756054288115294  0.2818276522098273
  0.1474667991114842  0.6497093426535585  0.3840822652364011
  0.4040841069854864  0.7535541906319025  0.0498604670873348
  0.2531108217473204  0.4926653003681380  0.7217618400911050
  0.7459240453136218  0.9183758033854446  0.9602640324431420
  0.0062942724378914  0.8880461026529147  0.2879511141372078
  0.1328449162383123  0.1550147444630952  0.6241573127146367
  0.9198678702346612  0.7231831943895983  0.0544278390401445
  0.8413526852239599  0.9668279239522519  0.7269042387542655
  0.1757155783229649  0.2288278044079348  0.3856226157524318
  0.5451480384851735  0.3614257306849709  0.0336728233774437
  0.6913982089282840  0.2540807865786903  0.4014743044495503
  0.8852327111493636  0.4846186580932894  0.6813275657731310
  0.3998976078111269  0.5390450658728838  0.9324791200521005
  0.2753729240676250  0.7756642268028742  0.5951074262208635
  0.5080688211009488  0.8438658051415331  0.3178559752150250
  0.7673942755736860  0.4412514385999629  0.1717301557380324
  0.5435750665467864  0.3275433838650770  0.5336835299195215
  0.6657684146660969  0.2247485481978799  0.8859148640477983
  0.5158926963354276  0.8479913683604821  0.8105392497323720
  0.4151457517764214  0.5525099800213624  0.4658021321551544
  0.1734710594728597  0.6711298418213332  0.1843351366457213
  0.9501075611400154  0.2649236638913877  0.2583332201596349
  0.6628073981279528  0.7029308644157410  0.6088261451609966
  0.3156874981672786  0.9155496079248095  0.9310282733706003
  0.3367031751295499  0.9930791914098478  0.7211205266426006
  0.7479711390779116  0.7083958979921334  0.3991419201904591
  0.9271772212454863  0.3245578719502120  0.0500004896682285
  0.1581838980375707  0.1903224588046157  0.1506566121299642
  0.8482625044112453  0.0510111822441175  0.4738179320629641
  0.9966690740866895  0.7322887919285535  0.7864986496042832
  0.1804138369719510  0.1265177806180589  0.8397280646817293
  0.9849904178286550  0.8196246102886064  0.5346418192315880
  0.7485408563705391  0.9330588190116273  0.1511463747949549
  0.0582358421287097  0.4337457905647781  0.8631234500300238
  0.4853203810863889  0.5585476622808443  0.2164176066073082
  0.3220096405908563  0.9802560155908324  0.4583056560749839
  0.4501087637381431  0.0527263771330198  0.1304799648516806
  0.5980072488217161  0.5301079821974710  0.8008317688868161
  0.0596906378803084  0.4192172364653075  0.5277587800537162
 
             NaN             NaN             NaN
             NaN             NaN             NaN
             NaN             NaN             NaN
             NaN             NaN             NaN
             NaN             NaN             NaN
             NaN             NaN             NaN
             NaN             NaN             NaN
             NaN             NaN             NaN
             NaN             NaN             NaN
             NaN             NaN             NaN
             NaN             NaN             NaN
             NaN             NaN             NaN
             NaN             NaN             NaN
             NaN             NaN             NaN
             NaN             NaN             NaN
             NaN             NaN             NaN
             NaN             NaN             NaN
             NaN             NaN             NaN
             NaN             NaN             NaN
             NaN             NaN             NaN
             NaN             NaN             NaN
             NaN             NaN             NaN
             NaN             NaN             NaN
             NaN             NaN             NaN
             NaN             NaN             NaN
             NaN             NaN             NaN
             NaN             NaN             NaN
             NaN             NaN             NaN
             NaN             NaN             NaN
             NaN             NaN             NaN
             NaN             NaN             NaN
             NaN             NaN             NaN
             NaN             NaN             NaN
             NaN             NaN             NaN
             NaN             NaN             NaN
             NaN             NaN             NaN
             NaN             NaN             NaN
             NaN             NaN             NaN
             NaN             NaN             NaN
             NaN             NaN             NaN
             NaN             NaN             NaN
             NaN             NaN             NaN
             NaN             NaN             NaN
             NaN             NaN             NaN
             NaN             NaN             NaN
             NaN             NaN             NaN
             NaN             NaN             NaN
             NaN             NaN             NaN
             NaN             NaN             NaN
             NaN             NaN             NaN
             NaN             NaN             NaN
             NaN             NaN             NaN
             NaN             NaN             NaN
             NaN             NaN             NaN
             NaN             NaN             NaN
             NaN             NaN             NaN
             NaN             NaN             NaN
             NaN             NaN             NaN
             NaN             NaN             NaN
             NaN             NaN             NaN
             NaN             NaN             NaN
             NaN             NaN             NaN
             NaN             NaN             NaN
