Zn8 Ni16 O32
1.0
        8.1829175949         0.0000000000         0.0000000000
        0.0000000000         8.1829175949         0.0000000000
        0.0000000000         0.0000000000         8.1829175949
   Zn   Ni    O
    7   16   32
Direct
     0.750000000         0.750000000         0.750000000
     0.000000000         0.000000000         0.500000000
     0.250000000         0.250000000         0.750000000
     0.000000000         0.500000000         0.000000000
     0.250000000         0.750000000         0.250000000
     0.500000000         0.000000000         0.000000000
     0.750000000         0.250000000         0.250000000
     0.625000000         0.625000000         0.125000000
     0.625000000         0.875000000         0.375000000
     0.875000000         0.625000000         0.375000000
     0.875000000         0.875000000         0.125000000
     0.625000000         0.125000000         0.625000000
     0.625000000         0.375000000         0.875000000
     0.875000000         0.125000000         0.875000000
     0.875000000         0.375000000         0.625000000
     0.125000000         0.625000000         0.625000000
     0.125000000         0.875000000         0.875000000
     0.375000000         0.625000000         0.875000000
     0.375000000         0.875000000         0.625000000
     0.125000000         0.125000000         0.125000000
     0.125000000         0.375000000         0.375000000
     0.375000000         0.125000000         0.375000000
     0.375000000         0.375000000         0.125000000
     0.387916058         0.387916058         0.887916088
     0.862083912         0.137916058         0.637916088
     0.137916058         0.862083912         0.637916088
     0.137916058         0.137916058         0.362083942
     0.112083942         0.387916058         0.612083912
     0.112083942         0.112083942         0.887916088
     0.387916058         0.112083942         0.612083912
     0.862083912         0.862083912         0.362083942
     0.387916058         0.887916088         0.387916058
     0.862083912         0.637916088         0.137916058
     0.137916058         0.362083942         0.137916058
     0.137916058         0.637916088         0.862083912
     0.112083942         0.887916088         0.112083942
     0.112083942         0.612083912         0.387916058
     0.387916058         0.612083912         0.112083942
     0.862083912         0.362083942         0.862083912
     0.887916088         0.387916058         0.387916058
     0.362083942         0.137916058         0.137916058
     0.637916088         0.862083912         0.137916058
     0.637916088         0.137916058         0.862083912
     0.612083912         0.387916058         0.112083942
     0.612083912         0.112083942         0.387916058
     0.887916088         0.112083942         0.112083942
     0.362083942         0.862083912         0.862083912
     0.887916088         0.887916088         0.887916088
     0.362083942         0.637916088         0.637916088
     0.637916088         0.362083942         0.637916088
     0.637916088         0.637916088         0.362083942
     0.612083912         0.887916088         0.612083912
     0.612083912         0.612083912         0.887916088
     0.887916088         0.612083912         0.612083912
     0.362083942         0.362083942         0.362083942
