Ca1 Mn4 P6 O24
1.0
2.662967 7.052733 4.475028
0.329320 0.197883 8.742167
7.491504 0.199043 4.415656
Ca Mn P O
1 4 6 24
direct
0.249575 0.874406 0.617258 Ca
0.649930 0.641731 0.643509 Mn
0.139522 0.150776 0.141489 Mn
0.840584 0.845002 0.852762 Mn
0.359658 0.349254 0.356483 Mn
0.252131 0.520668 0.966664 P
0.034206 0.748878 0.464281 P
0.958136 0.262142 0.515601 P
0.456060 0.029079 0.752359 P
0.537520 0.971861 0.238856 P
0.748106 0.458884 0.040074 P
0.579953 0.775505 0.408450 O
0.308725 0.018178 0.959193 O
0.420252 0.570632 0.771367 O
0.947932 0.294913 0.024397 O
0.778505 0.426656 0.574416 O
0.031249 0.951190 0.311122 O
0.938514 0.065396 0.676433 O
0.589474 0.404597 0.237485 O
0.688186 0.971929 0.037403 O
0.221212 0.587729 0.402732 O
0.068527 0.706782 0.942070 O
0.395407 0.229272 0.599202 O
0.252770 0.340847 0.973336 O
0.853543 0.728287 0.497312 O
0.974645 0.286096 0.318080 O
0.463528 0.870934 0.711162 O
0.331106 1.001004 0.268587 O
0.699031 0.499367 0.872728 O
0.283604 0.491192 0.138466 O
0.028763 0.730156 0.657612 O
0.148242 0.247499 0.506719 O
0.661894 -0.013103 0.729218 O
0.525340 0.129166 0.281033 O
0.747193 0.645723 0.024995 O
