Ca7 Ni16 F48
1.0
11.203369 -0.000037 -0.014287
-0.000017 7.680293 0.000148
-0.012757 0.000209 10.719585
Ca Ni F
7 16 48
direct
0.477788 0.750007 0.512155 Ca
0.030883 0.250002 0.489411 Ca
0.037442 0.249994 0.983444 Ca
0.540344 0.249983 0.988441 Ca
0.209643 0.749994 0.232454 Ca
0.210017 0.749983 0.742668 Ca
0.715868 0.750007 0.237876 Ca
0.497417 0.489974 0.253128 Ni
0.505865 0.496639 0.751004 Ni
0.990630 0.499234 0.249392 Ni
0.984730 0.504641 0.744412 Ni
0.253926 0.008724 0.497511 Ni
0.259268 0.001157 0.999365 Ni
0.750211 0.007103 0.504712 Ni
0.755193 0.994960 0.995036 Ni
0.497414 0.010020 0.253126 Ni
0.505868 0.003373 0.751000 Ni
0.990628 0.000771 0.249401 Ni
0.984728 0.995354 0.744413 Ni
0.253934 0.491278 0.497513 Ni
0.259276 0.498843 0.999373 Ni
0.750215 0.492893 0.504723 Ni
0.755188 0.505047 0.995037 Ni
0.482390 0.250001 0.192611 F
0.488192 0.249998 0.712419 F
0.985469 0.250007 0.189408 F
0.987991 0.249995 0.694930 F
0.234487 0.249997 0.044452 F
0.228846 0.249999 0.550952 F
0.741191 0.250000 0.042849 F
0.738193 0.250005 0.548026 F
0.014674 0.749998 0.297736 F
0.014077 0.749998 0.794964 F
0.513523 0.749995 0.298875 F
0.503275 0.750003 0.783990 F
0.267911 0.750002 0.440603 F
0.264054 0.750004 0.946796 F
0.753355 0.749996 0.448844 F
0.760980 0.749998 0.953573 F
0.346736 0.554197 0.159473 F
0.351676 0.568642 0.647497 F
0.848348 0.555945 0.150611 F
0.843617 0.552263 0.650545 F
0.106523 0.953607 0.103150 F
0.106128 0.950312 0.603039 F
0.605143 0.962118 0.103276 F
0.597929 0.952751 0.596822 F
0.142348 0.053107 0.352835 F
0.143384 0.040800 0.851697 F
0.656346 0.018884 0.342778 F
0.643171 0.055621 0.859542 F
0.410401 0.476083 0.413581 F
0.407413 0.447418 0.907073 F
0.901503 0.444063 0.405905 F
0.903630 0.445708 0.902952 F
0.142350 0.446919 0.352835 F
0.143394 0.459220 0.851695 F
0.656336 0.481118 0.342781 F
0.643181 0.444375 0.859549 F
0.410406 0.023927 0.413590 F
0.407408 0.052579 0.907063 F
0.901513 0.055934 0.405916 F
0.903629 0.054287 0.902945 F
0.346729 0.945800 0.159476 F
0.351678 0.931357 0.647502 F
0.848353 0.944059 0.150617 F
0.843634 0.947720 0.650558 F
0.106530 0.546404 0.103147 F
0.106132 0.549673 0.603033 F
0.605144 0.537878 0.103280 F
0.597935 0.547255 0.596816 F
