Ca1 Ti12 F42                            
   1.00000000000000     
     7.5130650000000001    0.0020790000000000    0.0448770000000000
    -3.7442679999999999    6.4956589999999998   -0.0185040000000000
    -0.0177200000000000   -0.0074810000000000   17.6857739999999986
   Ca   Ti   F 
     1    12    42
Direct
  0.8287519346765055  0.5028767500348171  0.3222091149835205
  0.2789287763909613  0.0038603064169390  0.3352404341765397
  0.7265938138510046  0.7308264686186532  0.9973887882737931
 -0.0010665007147133  0.2685360884265642  0.6684004938117717
  0.3579997204184872  1.0011116231714468  0.8321085422906961
  0.6458419700218390  0.6635686780367055  0.5099248611771270
  0.9769007726330130  0.3316301408407930  0.1604524511338506
  0.6465531663792270  0.1619296751523746  0.5012125130173674
  0.4780026537750495  0.3389527518317619  0.1562705231011988
  0.8579980867113435  0.5001506560300247  0.8319143750930249
  0.3591459256332320  0.5020722721735686  0.8329461846606692
  0.1475736183418400  0.6582843493253595  0.5083338720047287
  0.4800019327034950  0.8374038973550644  0.1652973614313760
  0.5677585854543161  0.8135297263402157  0.0620364328084970
  0.2471547017560493  0.4172121340357619  0.7286725424236711
  0.1650812601627521  0.7474373209701605  0.4000438320259537
  0.4289053075767841  0.2526748502533938  0.2664886171903197
  0.8274702944862757  0.5818989949978162  0.9358160317260484
  0.7590375666383065  0.1869955772995971  0.6042108332622806
  0.8810676969737424  0.0581520859874795  0.7318021462432499
  0.1910663000348340  0.1334260463275439  0.3961433216637554
  0.9222357298928089  0.8051763966827357  0.0666994921472282
  0.1111716607484508  0.1776470060855159  0.6010176151753159
  0.0313164933145355  0.8326238953282349  0.2798697539911212
  0.8281099603383811  0.9474626059653899  0.9367085209553884
  0.1148696229662081  0.5400373423969164  0.6064319075054638
  0.4114237110511876  0.8779404698695545  0.2706466560464809
  0.4662853908817141  0.5802914644712946  0.9350984630824157
  0.8884444082942099  0.4239479577886986  0.7293316103835071
  0.5647426937673817  0.1538614774387712  0.3910657520687799
  0.5584562870221019  0.4498143780214051  0.0583384346242707
  0.3570471992183016  0.5823540795060262  0.4839583499210920
  0.1993090965934110  0.6266074131427309  0.1449937794679083
  0.4334307467033625  0.7839616572478476  0.8098833542793655
  0.6494738305889628  0.2171119349641512  0.8537030654564159
  0.5714174703643071  0.3687446330406260  0.5251563994265455
  0.7679737132379620  0.4294027856777640  0.1887148424431857
  0.6908659441963740  0.6189203451362939  0.4048912549108747
  0.8859806307653030  0.3006228113545579  0.0655015919358263
  0.3949336628570164  0.0767663373158702  0.7332431590550565
  0.3194027057408083  0.9243185676716985  0.9309255011301958
  0.6089961166112493  0.7036739230731999  0.6069397026668698
  0.0191121687310366  0.3814025216175768  0.2685068298102060
  0.9373294732700592  0.7341073873978167  0.5272646940873755
  0.7644009165516685  0.0411432044246070  0.1873690942051874
  0.2819468212793929  0.2177124429219795  0.8539386766896104
  0.0656502675894538  0.7852924072915091  0.8114590611272829
  0.7231362533636163  0.9525195088053996  0.4807308149025991
  0.1851610907213952  0.2474303230584480  0.1462734625045949
  0.6334713828290559  0.5504068200647124  0.8021381195125058
  0.9188288295054319  0.3939683792341777  0.4624831190205893
  0.4357450165157595  0.0642271041303769  0.1354128596614540
  0.3713031933829196  0.9355803335081048  0.5285997010505344
  0.5281978713617800  0.6094640118490690  0.1966117820133965
  0.0831456642166814  0.4519881001777784  0.8619646977557911
 
             NaN             NaN             NaN
             NaN             NaN             NaN
             NaN             NaN             NaN
             NaN             NaN             NaN
             NaN             NaN             NaN
             NaN             NaN             NaN
             NaN             NaN             NaN
             NaN             NaN             NaN
             NaN             NaN             NaN
             NaN             NaN             NaN
             NaN             NaN             NaN
             NaN             NaN             NaN
             NaN             NaN             NaN
             NaN             NaN             NaN
             NaN             NaN             NaN
             NaN             NaN             NaN
             NaN             NaN             NaN
             NaN             NaN             NaN
             NaN             NaN             NaN
             NaN             NaN             NaN
             NaN             NaN             NaN
             NaN             NaN             NaN
             NaN             NaN             NaN
             NaN             NaN             NaN
             NaN             NaN             NaN
             NaN             NaN             NaN
             NaN             NaN             NaN
             NaN             NaN             NaN
             NaN             NaN             NaN
             NaN             NaN             NaN
             NaN             NaN             NaN
             NaN             NaN             NaN
             NaN             NaN             NaN
             NaN             NaN             NaN
             NaN             NaN             NaN
             NaN             NaN             NaN
             NaN             NaN             NaN
             NaN             NaN             NaN
             NaN             NaN             NaN
             NaN             NaN             NaN
             NaN             NaN             NaN
             NaN             NaN             NaN
             NaN             NaN             NaN
             NaN             NaN             NaN
             NaN             NaN             NaN
             NaN             NaN             NaN
             NaN             NaN             NaN
             NaN             NaN             NaN
             NaN             NaN             NaN
             NaN             NaN             NaN
             NaN             NaN             NaN
             NaN             NaN             NaN
             NaN             NaN             NaN
             NaN             NaN             NaN
             NaN             NaN             NaN
