Ca1 Ti12 F42
1.0
7.513065 0.002079 0.044877
-3.744268 6.495659 -0.018504
-0.017720 -0.007481 17.685774
Ca Ti F
1 12 42
direct
0.800160 0.499299 0.331494 Ca
0.283946 0.004261 0.334700 Ti
0.729374 0.729536 0.997679 Ti
0.000768 0.265328 0.668726 Ti
0.357547 0.997026 0.833162 Ti
0.650166 0.659964 0.506569 Ti
0.988724 0.343804 0.159721 Ti
0.650400 0.157410 0.500189 Ti
0.487578 0.346065 0.159625 Ti
0.857417 0.496590 0.832101 Ti
0.357851 0.497650 0.834627 Ti
0.152680 0.655215 0.508172 Ti
0.492062 0.846708 0.165435 Ti
0.571628 0.816553 0.061769 F
0.247140 0.414084 0.730597 F
0.174762 0.745016 0.399007 F
0.401062 0.244199 0.265374 F
0.829853 0.581296 0.935953 F
0.762390 0.180532 0.602480 F
0.879652 0.052830 0.731141 F
0.197107 0.125766 0.400819 F
0.932096 0.820125 0.064767 F
0.120072 0.180621 0.601674 F
0.045543 0.834917 0.278678 F
0.819792 0.939833 0.934088 F
0.114304 0.536787 0.606234 F
0.429017 0.886809 0.271837 F
0.463505 0.572815 0.936716 F
0.888689 0.419861 0.729852 F
0.569246 0.152716 0.389726 F
0.576008 0.460266 0.060766 F
0.358634 0.575264 0.481074 F
0.206958 0.638904 0.147201 F
0.432775 0.780149 0.811287 F
0.648779 0.213755 0.854996 F
0.577616 0.366759 0.522963 F
0.770840 0.422942 0.196972 F
0.691284 0.613227 0.401551 F
0.892331 0.323759 0.066436 F
0.397726 0.074426 0.734480 F
0.317929 0.919329 0.931801 F
0.610171 0.700390 0.603071 F
0.048252 0.382361 0.266980 F
0.941118 0.731269 0.523955 F
0.779766 0.053053 0.184345 F
0.279768 0.211923 0.855034 F
0.066147 0.781806 0.811320 F
0.725410 0.947387 0.476997 F
0.202333 0.273388 0.138813 F
0.631245 0.545642 0.803573 F
0.924526 0.389922 0.460867 F
0.445477 0.073612 0.135993 F
0.377405 0.931214 0.528332 F
0.538756 0.617942 0.198116 F
0.082309 0.448456 0.863541 F
