Na48 P16 Se64
1.0
14.548007 0.000000 0.000000
0.000000 14.548007 0.000000
0.000000 0.000000 14.548007
Na P Se
47 16 64
direct
0.750000 0.750000 0.500000 Na
0.250000 0.000000 0.000000 Na
0.250000 0.000000 0.500000 Na
0.250000 0.500000 0.000000 Na
0.250000 0.500000 0.500000 Na
0.750000 0.000000 0.000000 Na
0.750000 0.000000 0.500000 Na
0.750000 0.500000 0.000000 Na
0.750000 0.500000 0.500000 Na
0.000000 0.250000 0.000000 Na
0.000000 0.250000 0.500000 Na
0.000000 0.750000 0.000000 Na
0.000000 0.750000 0.500000 Na
0.500000 0.250000 0.000000 Na
0.500000 0.250000 0.500000 Na
0.500000 0.750000 0.000000 Na
0.000000 0.000000 0.250000 Na
0.000000 0.000000 0.750000 Na
0.000000 0.500000 0.250000 Na
0.000000 0.500000 0.750000 Na
0.500000 0.000000 0.250000 Na
0.500000 0.000000 0.750000 Na
0.500000 0.500000 0.250000 Na
0.500000 0.500000 0.750000 Na
0.000000 0.250000 0.250000 Na
0.000000 0.250000 0.750000 Na
0.000000 0.750000 0.250000 Na
0.000000 0.750000 0.750000 Na
0.500000 0.250000 0.250000 Na
0.500000 0.250000 0.750000 Na
0.500000 0.750000 0.250000 Na
0.500000 0.750000 0.750000 Na
0.250000 0.000000 0.250000 Na
0.250000 0.000000 0.750000 Na
0.250000 0.500000 0.250000 Na
0.250000 0.500000 0.750000 Na
0.750000 0.000000 0.250000 Na
0.750000 0.000000 0.750000 Na
0.750000 0.500000 0.250000 Na
0.750000 0.500000 0.750000 Na
0.250000 0.250000 0.000000 Na
0.250000 0.250000 0.500000 Na
0.250000 0.750000 0.000000 Na
0.250000 0.750000 0.500000 Na
0.750000 0.250000 0.000000 Na
0.750000 0.250000 0.500000 Na
0.750000 0.750000 0.000000 Na
0.000000 0.000000 0.000000 P
0.000000 0.000000 0.500000 P
0.000000 0.500000 0.000000 P
0.000000 0.500000 0.500000 P
0.500000 0.000000 0.000000 P
0.500000 0.000000 0.500000 P
0.500000 0.500000 0.000000 P
0.500000 0.500000 0.500000 P
0.250000 0.250000 0.250000 P
0.250000 0.250000 0.750000 P
0.250000 0.750000 0.250000 P
0.250000 0.750000 0.750000 P
0.750000 0.250000 0.250000 P
0.750000 0.250000 0.750000 P
0.750000 0.750000 0.250000 P
0.750000 0.750000 0.750000 P
0.411795 0.088205 0.088205 Se
0.411795 0.088205 0.588205 Se
0.411795 0.588205 0.088205 Se
0.411795 0.588205 0.588205 Se
0.911795 0.088205 0.088205 Se
0.911795 0.088205 0.588205 Se
0.911795 0.588205 0.088205 Se
0.911795 0.588205 0.588205 Se
0.088205 0.411795 0.088205 Se
0.088205 0.411795 0.588205 Se
0.088205 0.911795 0.088205 Se
0.088205 0.911795 0.588205 Se
0.588205 0.411795 0.088205 Se
0.588205 0.411795 0.588205 Se
0.588205 0.911795 0.088205 Se
0.588205 0.911795 0.588205 Se
0.088205 0.088205 0.411795 Se
0.088205 0.088205 0.911795 Se
0.088205 0.588205 0.411795 Se
0.088205 0.588205 0.911795 Se
0.588205 0.088205 0.411795 Se
0.588205 0.088205 0.911795 Se
0.588205 0.588205 0.411795 Se
0.588205 0.588205 0.911795 Se
0.161795 0.161795 0.161795 Se
0.161795 0.161795 0.661795 Se
0.161795 0.661795 0.161795 Se
0.161795 0.661795 0.661795 Se
0.661795 0.161795 0.161795 Se
0.661795 0.161795 0.661795 Se
0.661795 0.661795 0.161795 Se
0.661795 0.661795 0.661795 Se
0.161795 0.338205 0.338205 Se
0.161795 0.338205 0.838205 Se
0.161795 0.838205 0.338205 Se
0.161795 0.838205 0.838205 Se
0.661795 0.338205 0.338205 Se
0.661795 0.338205 0.838205 Se
0.661795 0.838205 0.338205 Se
0.661795 0.838205 0.838205 Se
0.338205 0.161795 0.338205 Se
0.338205 0.161795 0.838205 Se
0.338205 0.661795 0.338205 Se
0.338205 0.661795 0.838205 Se
0.838205 0.161795 0.338205 Se
0.838205 0.161795 0.838205 Se
0.838205 0.661795 0.338205 Se
0.838205 0.661795 0.838205 Se
0.338205 0.338205 0.161795 Se
0.338205 0.338205 0.661795 Se
0.338205 0.838205 0.161795 Se
0.338205 0.838205 0.661795 Se
0.838205 0.338205 0.161795 Se
0.838205 0.338205 0.661795 Se
0.838205 0.838205 0.161795 Se
0.838205 0.838205 0.661795 Se
0.411795 0.411795 0.411795 Se
0.411795 0.411795 0.911795 Se
0.411795 0.911795 0.411795 Se
0.411795 0.911795 0.911795 Se
0.911795 0.411795 0.411795 Se
0.911795 0.411795 0.911795 Se
0.911795 0.911795 0.411795 Se
0.911795 0.911795 0.911795 Se
