Ca9 Mn12 F42                            
   1.00000000000000     
     7.5999450000000000   -0.0690080000000000    0.0179250000000000
    -3.8647689999999999    6.6379580000000002    0.0210950000000000
     0.0618320000000000    0.0996710000000000   18.6785700000000006
   Ca   Mn   F 
     9    12    42
Direct
  0.5663441264896933  0.4124118973999654  0.3268898981568052
  0.5155515007070085  0.8809767987502387  0.6789446522814004
  0.2081296153025534  0.6804271855216868  0.0244390856814855
  0.5373183331981026  0.3842893541291724  0.6711381819357242
  0.8013490542977206  1.0117801028851832  0.3308045601287943
  0.1565365291973190  0.1377862236873386  0.0042302990772643
  0.8673267112878068  0.0568850334581676  0.8352256509368020
  0.0396530786435426  0.8428167705479375  0.1804500080881960
  0.1870164456397369  0.2228360160238335  0.4990927356033433
  0.2470072124842464  0.8998588143700587  0.3523996684739807
  0.0480345030892126  0.3807584882095255  0.6604044180241578
  0.6836674094289578  0.6563695402827894  0.0002433795603483
  0.3518738481976061  0.0272471273975938  0.8439498517557023
  0.9757870093297136  0.2944986430263560  0.1656946654062688
  0.6858365371553333  0.7161781131646600  0.4996223429030737
  0.4750925583284730  0.7762148550592877  0.1837703094786671
  0.1611321493554491  0.6924760864546792  0.5116958718656317
  0.3634787264169964  0.5278359703981330  0.8362498093137625
  0.8601314969209718  0.5243649455803103  0.8327849303994905
  0.6827769896278241  0.1990443805003689  0.4898603845546066
  0.4788912665779683  0.2828817039176345  0.1525653391739372
  0.5812066486495880  0.1381669402836072  0.5995151727929299
  0.8686985231877665  0.5731168003103299  0.9444621785336109
  0.3684709447998090  0.1250257885275596  0.2541770207560548
  0.0484542119363861  0.6407565935955377  0.4085375162953664
  0.5170801036467210  0.7258029509429571  0.0761647629178141
  0.3256736649125004  0.5223895619638035  0.7201674469427651
  0.8423245349927069  0.9472177927649379  0.9502296877380226
 -0.0290992736714274  0.8242817693015092  0.2953115495833784
  0.2273769406434601  0.2606403899292833  0.6161228706497722
  0.9715417188629114  0.7958250000967900  0.0628101633633348
  0.8551685256318300  0.0946881943114646  0.7141627768602381
  0.2619371986262978  0.1774292463382411  0.3854884643221855
  0.4899121424722255  0.3584986332215581  0.0426840021806554
  0.6943808707572963  0.2305971987097687  0.3715760693708532
  0.8566727947815758  0.4630231285342977  0.7094071976424361
  0.3971734665268353  0.5966141745658324  0.9451118706349568
  0.2167025362835818  0.6986225900209397  0.6200125540415369
  0.4520715616777116  0.8399632743077292  0.2934099180734550
  0.7770239913104706  0.4097717240129489  0.1812982519325763
  0.5745707654496057  0.3968667900718791  0.4952226483304732
  0.6650497937383280  0.2054240427455626  0.8603318616170180
  0.5153209849806456  0.8387515575236532  0.8095882518077020
  0.3581430708852806  0.5751633922580691  0.4933403261949306
  0.1626539485797086  0.6179755044753021  0.1587585872862785
  0.0258067316297730  0.2899160597807050  0.2710204323601437
  0.6358234291440999  0.6997147249568859  0.6118451727249258
  0.2887744359841999  0.9468110535297707  0.9532879533968749
  0.4061244827587867  0.0848931623816609  0.7350565409813046
  0.6539508394304696  0.6936204721658191  0.3869764393602120
  0.0333623872468302  0.3418984413294027  0.0489068710745396
  0.1590735188486173  0.1627210438407021  0.1342334570120150
  0.8421094076345923  1.0470670657818024  0.4570486912387213
  0.0259897121447066  0.8436009610477242  0.8207620940674875
  0.2301953735372019  0.2173574504817626  0.8796629848923648
  1.0076866139172318  0.8610531184319751  0.5204785463582858
  0.7884043881347167  0.9637608191144451  0.1949362940785010
  0.0545759543574007  0.4116754359356166  0.8338795620873622
  0.5157197115982841  0.5340268025644646  0.2192452806631177
  0.4006482851368804  0.9523379232651090  0.4577719040288638
  0.3813453702787241 -0.0208435449586348  0.1226722961804418
  0.6001531542080716  0.5071183424723558  0.7938870685465373
  0.9696602355025842  0.3636869750687515  0.5436513150808415
 
             NaN             NaN             NaN
             NaN             NaN             NaN
             NaN             NaN             NaN
             NaN             NaN             NaN
             NaN             NaN             NaN
             NaN             NaN             NaN
             NaN             NaN             NaN
             NaN             NaN             NaN
             NaN             NaN             NaN
             NaN             NaN             NaN
             NaN             NaN             NaN
             NaN             NaN             NaN
             NaN             NaN             NaN
             NaN             NaN             NaN
             NaN             NaN             NaN
             NaN             NaN             NaN
             NaN             NaN             NaN
             NaN             NaN             NaN
             NaN             NaN             NaN
             NaN             NaN             NaN
             NaN             NaN             NaN
             NaN             NaN             NaN
             NaN             NaN             NaN
             NaN             NaN             NaN
             NaN             NaN             NaN
             NaN             NaN             NaN
             NaN             NaN             NaN
             NaN             NaN             NaN
             NaN             NaN             NaN
             NaN             NaN             NaN
             NaN             NaN             NaN
             NaN             NaN             NaN
             NaN             NaN             NaN
             NaN             NaN             NaN
             NaN             NaN             NaN
             NaN             NaN             NaN
             NaN             NaN             NaN
             NaN             NaN             NaN
             NaN             NaN             NaN
             NaN             NaN             NaN
             NaN             NaN             NaN
             NaN             NaN             NaN
             NaN             NaN             NaN
             NaN             NaN             NaN
             NaN             NaN             NaN
             NaN             NaN             NaN
             NaN             NaN             NaN
             NaN             NaN             NaN
             NaN             NaN             NaN
             NaN             NaN             NaN
             NaN             NaN             NaN
             NaN             NaN             NaN
             NaN             NaN             NaN
             NaN             NaN             NaN
             NaN             NaN             NaN
             NaN             NaN             NaN
             NaN             NaN             NaN
             NaN             NaN             NaN
             NaN             NaN             NaN
             NaN             NaN             NaN
             NaN             NaN             NaN
             NaN             NaN             NaN
             NaN             NaN             NaN
