Ca9 Mn12 F42
1.0
7.599945 -0.069008 0.017925
-3.864769 6.637958 0.021095
0.061832 0.099671 18.678570
Ca Mn F
9 12 42
direct
0.637770 0.488799 0.329375 Ca
0.510777 0.853865 0.682565 Ca
0.164215 0.644889 1.004451 Ca
0.530577 0.356616 0.664475 Ca
0.827083 -0.001651 0.334617 Ca
0.184899 0.155014 0.001818 Ca
0.864993 0.067043 0.838063 Ca
1.003639 0.813946 0.171259 Ca
0.161214 0.159197 0.505327 Ca
0.318761 0.975187 0.343185 Mn
0.030719 0.369710 0.654641 Mn
0.679722 0.672301 0.001719 Mn
0.338773 0.016100 0.838258 Mn
-0.014480 0.305588 0.158372 Mn
0.662771 0.670791 0.503206 Mn
0.486632 0.807475 0.173436 Mn
0.167846 0.670623 0.497899 Mn
0.354128 0.517367 0.834270 Mn
0.844406 0.522594 0.826941 Mn
0.664727 0.170404 0.499444 Mn
0.483850 0.312092 0.172410 Mn
0.609519 0.123835 0.609545 F
0.844727 0.569339 0.942024 F
0.463491 0.252385 0.287820 F
0.137502 0.668923 0.385597 F
0.521933 0.782322 0.061856 F
0.279342 0.517815 0.725379 F
0.855095 0.958425 0.950308 F
0.025547 0.855395 0.285583 F
0.204884 0.239418 0.620140 F
0.995748 0.815273 0.053778 F
0.851906 0.093901 0.718260 F
0.130745 0.140806 0.388896 F
0.506947 0.380981 0.054784 F
0.706608 0.189546 0.388811 F
0.857446 0.465550 0.708030 F
0.386948 0.556629 0.946604 F
0.239588 0.689771 0.606178 F
0.488288 0.856397 0.290352 F
0.802684 0.444549 0.180212 F
0.548280 0.360265 0.526018 F
0.654196 0.207486 0.852141 F
0.517568 0.830278 0.814247 F
0.346177 0.533435 0.478527 F
0.173024 0.625758 0.138061 F
0.006518 0.311718 0.268077 F
0.620591 0.672539 0.617954 F
0.295954 0.946214 0.948089 F
0.387277 0.055521 0.730333 F
0.696737 0.681071 0.388113 F
0.022763 0.321384 0.042708 F
0.174468 0.177250 0.139174 F
0.786441 0.983352 0.486528 F
0.010731 0.836702 0.818641 F
0.223972 0.208642 0.872739 F
0.979626 0.791416 0.517903 F
0.803324 -0.006587 0.182844 F
0.053264 0.433219 0.856334 F
0.570506 0.600485 0.202012 F
0.356087 -0.006417 0.462946 F
0.375500 1.002356 0.168257 F
0.578059 0.490518 0.782785 F
0.969185 0.359562 0.536013 F
