Ca8 Cr16 O32                            
   1.00000000000000     
     8.1919339765255703    0.0002342655626602    0.0004199856499677
     0.0002342689787504    8.1919356557023644    0.0000678308882934
     0.0004199827188533    0.0000678234485752    8.1920470878813134
Ca   Cr   O 
 1   16    32
Direct
  0.5000000000000000  0.5000000000000000  1.0000000000000000
  0.3750070016643330  0.8750061696236738  0.1249974347231363
  0.3750061179374181  0.1249908279455228  0.8750031298623941
  0.1249955982406675  0.3750037175112959  0.8750022223249785
  0.1249952840995649  0.1249916618509521  0.6249902693705709
  0.3750065849015149  0.3750040027446414  0.6249903201627084
  0.3750075110289042  0.6249964954524991  0.3750074153160433
  0.1249962613344365  0.8750077764177892  0.3750081113296017
  0.1249969183593103  0.6249976140829305  0.1249975792075551
  0.8750049361755896  0.8750075265587601  0.6249912249034277
  0.8750046170242218  0.1249924529797132  0.3750087773159808
  0.6249927853484080  0.3750041594298423  0.3750079603904349
  0.6249924744346935  0.1249915454568269  0.1249984232013266
  0.8750036141342528  0.3750037627375196  0.1249979318003113
  0.8750037172383726  0.6249967788663758  0.8750027818767028
  0.6249922404160102  0.8750058944711057  0.8750039406414705
  0.6249926029626752  0.6249960500688336  0.6249908988548719
  0.3590051855764912  0.8590044809619678  0.3590036689916888
  0.8909673754460645  0.1090309600465777  0.6090337145598174
  0.1090315585346335  0.1090313290944964  0.3909671581593843
  0.1090310771539323  0.8909662885297831  0.6090323731497134
  0.1409922798389804  0.1409926157303097  0.8590093661857476
  0.1409950283089541  0.3590074863976606  0.6409934047587827
  0.8909719679471215  0.3909722783473288  0.8909720713998569
  0.3590087655135413  0.1409932860190056  0.6409925441065487
  0.3590046682849823  0.3590031045195778  0.8590036805067760
  0.8909683279422663  0.6090308959136068  0.1090310918567564
  0.1090290489307274  0.6090284847747154  0.8909688107387492
  0.1090275925158661  0.3909705437532933  0.1090279658778977
  0.1409929541985749  0.6409936188215414  0.3590103798940643
  0.1409950728052627  0.8590102740889016  0.1409942050024944
  0.8909714413977780  0.8909698648568812  0.3909715726365627
  0.3590104968215481  0.6409938400224473  0.1409916688596291
  0.8590050588366187  0.8590066666037933  0.8590056161614688
  0.3909658760789058  0.1090308771983670  0.1090320031309985
  0.6090315519490418  0.1090315208406629  0.8909670331740425
  0.6090292226880717  0.8909679326501215  0.1090305648189912
  0.6409947738711340  0.1409957770876858  0.3590073377532167
  0.6409929400547922  0.3590085735426215  0.1409935953773108
  0.3909695611421430  0.3909700114715058  0.3909684155299636
  0.8590065422348420  0.1409947078320253  0.1409940555097103
  0.8590033228475321  0.3590048788085573  0.3590051407935184
  0.3909685507444038  0.6090300310679567  0.6090307387767404
  0.6090323445719975  0.6090319512959087  0.3909665979180322
  0.6090308471719053  0.3909682297890878  0.6090315650995001
  0.6409920727282276  0.6409932224198522  0.8590084046321051
  0.6409966240363136  0.8590067691345964  0.6409948900778755
  0.3909704158229277  0.8909690952960789  0.8909714536462355
  0.8590091887040452  0.6409939668848161  0.6409904896342922
 
  0.00000000E+00  0.00000000E+00  0.00000000E+00
  0.00000000E+00  0.00000000E+00  0.00000000E+00
  0.00000000E+00  0.00000000E+00  0.00000000E+00
  0.00000000E+00  0.00000000E+00  0.00000000E+00
  0.00000000E+00  0.00000000E+00  0.00000000E+00
  0.00000000E+00  0.00000000E+00  0.00000000E+00
  0.00000000E+00  0.00000000E+00  0.00000000E+00
  0.00000000E+00  0.00000000E+00  0.00000000E+00
  0.00000000E+00  0.00000000E+00  0.00000000E+00
  0.00000000E+00  0.00000000E+00  0.00000000E+00
  0.00000000E+00  0.00000000E+00  0.00000000E+00
  0.00000000E+00  0.00000000E+00  0.00000000E+00
  0.00000000E+00  0.00000000E+00  0.00000000E+00
  0.00000000E+00  0.00000000E+00  0.00000000E+00
  0.00000000E+00  0.00000000E+00  0.00000000E+00
  0.00000000E+00  0.00000000E+00  0.00000000E+00
  0.00000000E+00  0.00000000E+00  0.00000000E+00
  0.00000000E+00  0.00000000E+00  0.00000000E+00
  0.00000000E+00  0.00000000E+00  0.00000000E+00
  0.00000000E+00  0.00000000E+00  0.00000000E+00
  0.00000000E+00  0.00000000E+00  0.00000000E+00
  0.00000000E+00  0.00000000E+00  0.00000000E+00
  0.00000000E+00  0.00000000E+00  0.00000000E+00
  0.00000000E+00  0.00000000E+00  0.00000000E+00
  0.00000000E+00  0.00000000E+00  0.00000000E+00
  0.00000000E+00  0.00000000E+00  0.00000000E+00
  0.00000000E+00  0.00000000E+00  0.00000000E+00
  0.00000000E+00  0.00000000E+00  0.00000000E+00
  0.00000000E+00  0.00000000E+00  0.00000000E+00
  0.00000000E+00  0.00000000E+00  0.00000000E+00
  0.00000000E+00  0.00000000E+00  0.00000000E+00
  0.00000000E+00  0.00000000E+00  0.00000000E+00
  0.00000000E+00  0.00000000E+00  0.00000000E+00
  0.00000000E+00  0.00000000E+00  0.00000000E+00
  0.00000000E+00  0.00000000E+00  0.00000000E+00
  0.00000000E+00  0.00000000E+00  0.00000000E+00
  0.00000000E+00  0.00000000E+00  0.00000000E+00
  0.00000000E+00  0.00000000E+00  0.00000000E+00
  0.00000000E+00  0.00000000E+00  0.00000000E+00
  0.00000000E+00  0.00000000E+00  0.00000000E+00
  0.00000000E+00  0.00000000E+00  0.00000000E+00
  0.00000000E+00  0.00000000E+00  0.00000000E+00
  0.00000000E+00  0.00000000E+00  0.00000000E+00
  0.00000000E+00  0.00000000E+00  0.00000000E+00
  0.00000000E+00  0.00000000E+00  0.00000000E+00
  0.00000000E+00  0.00000000E+00  0.00000000E+00
  0.00000000E+00  0.00000000E+00  0.00000000E+00
  0.00000000E+00  0.00000000E+00  0.00000000E+00
