Ca8 Ni12 F42                            
   1.00000000000000     
     7.2769830000000004   -0.0093290000000000   -0.0001390000000000
    -3.6707010000000002    6.3199680000000003    0.0018040000000000
     0.0070910000000000    0.0052950000000000   18.1940820000000016
   Ca   Ni   F 
     8    12    42
Direct
  0.9377514050733005  0.8665727803353752  0.7217234209771285
  0.4750553847897395  0.8656507413616974  0.6539949430009169
  0.1766349858081363  0.6577320922015499  0.9751054835945585
  0.3529583644894482  0.5131170253501537  0.3194398662840272
  0.8375771081431449  0.0198995537061990  0.3471611246924019
  0.1464782347765025  0.1525149533580152  0.0003527298930807
  0.9917024211668363  0.7976832022177124  0.1716693480733623
  0.1935824966497281  0.1783814188640421  0.5153098492179694
  0.3337962113482886  0.0078554914318758  0.3332174776107142
  0.9864107067008190  0.3483880847596458  0.6710224998137655
  0.6695531551898424  0.6529221950519700  0.9973301953219621
  0.3357689360843027  0.0042962984588879  0.8357152335603486
  0.9967458781311743  0.3150231637901630  0.1596804684773380
  0.6778305296993343  0.6839757605696181  0.5000499901035699
  0.4990975711966276  0.8191759664204191  0.1602304070807214
  0.1702065141238212  0.6721204325363019  0.4943238093046476
  0.3355764850590152  0.5018334770170372  0.8286229638423491
  0.8246079568043263  0.4912715714215405  0.8346634772199900
  0.6811863753391786  0.1890608148051727  0.4965762681053520
  0.4941452628084266  0.3127865882856188  0.1609757999605690
  0.7349773471733232  0.2067582360633449  0.6037696007307347
  0.8035435031006302  0.5192555744148323  0.9421264894374636
  0.4374783327080033  0.2626635366660133  0.2702918744968631
  0.2388950480978496  0.7352354566202319  0.3862881581990215
  0.4861587164349321  0.7473148179070354  0.0533191477006991
  0.2692070225885796  0.5250439309472712  0.7249631354839986
  0.8263246765879305  0.9248119812979817  0.9517909873143584
  0.0421212300542762  0.8880508483517190  0.2878213682952511
  0.1005941273800555  0.1689206537917790  0.6304371554003606
  0.9824135649589495  0.7885425166669839  0.0503024358524220
  0.7887601606336608  0.0642402208093329  0.7244785295073030
  0.2030608641596001  0.1781665565946570  0.3903098154343460
  0.5182962786259593  0.3848777763832045  0.0554813204378038
  0.6070694088605413  0.1368647391316881  0.3885014918986855
  0.8853323937665792  0.5156195360497565  0.7258346314810706
  0.3837214888050260  0.4875328204226640  0.9398937739287473
  0.1398322815609734  0.6092466090078423  0.6034366833920626
  0.5058180726961518  0.8774039231379874  0.2751199525266210
  0.7989413772996464  0.4239811096377814  0.1720574767879448
  0.5651036519686793  0.3754808612488626  0.5086183536362792
  0.6235159812682822  0.2024146984478956  0.8294914359548019
  0.4122961043202206  0.7919170221062559  0.8525539140591446
  0.3636101299116709  0.5580102063817739  0.4950237360393885
  0.1951816438165722  0.6220706054068673  0.1785726491655789
  0.0228441106294188  0.2964289318744081  0.2716928138042922
  0.6838767621542677  0.7408143682638241  0.6101178034985811
  0.3179262389909646  1.0065601525030066  0.9468861413755358
  0.2899875567496505  0.9619592090998459  0.7243835607587928
  0.6541485213118273  0.6760724333141137  0.3851537518562192
  0.0311693060550329  0.3661973384404714  0.0495171138919879
  0.1871283735908549  0.1973991954888125  0.1414708370067075
  0.7972186965453703  0.9949906205354683  0.4801293960591286
  0.0387213510887447  0.7927942177773959  0.8394498070990974
  0.2322663873470346  0.1984180710234897  0.8228065597535650
  0.9889991491139782  0.7987636737094108  0.4979291361021914
  0.8054072738627214  0.0021159472710674  0.1563158779482648
  0.0495051495561462  0.4267968367353120  0.8692111007687935
  0.5798608481119831  0.6098980749258833  0.1975123514764153
  0.3844509137832682  0.9680665814455540  0.5327948120958693
  0.3890309226946505  0.0094491385003204  0.1391647789460785
  0.6365198839530155  0.6030866950326782  0.8007599266642342
  0.9714972024480298  0.3826750048275596  0.4617487770917479
 
             NaN             NaN             NaN
             NaN             NaN             NaN
             NaN             NaN             NaN
             NaN             NaN             NaN
             NaN             NaN             NaN
             NaN             NaN             NaN
             NaN             NaN             NaN
             NaN             NaN             NaN
             NaN             NaN             NaN
             NaN             NaN             NaN
             NaN             NaN             NaN
             NaN             NaN             NaN
             NaN             NaN             NaN
             NaN             NaN             NaN
             NaN             NaN             NaN
             NaN             NaN             NaN
             NaN             NaN             NaN
             NaN             NaN             NaN
             NaN             NaN             NaN
             NaN             NaN             NaN
             NaN             NaN             NaN
             NaN             NaN             NaN
             NaN             NaN             NaN
             NaN             NaN             NaN
             NaN             NaN             NaN
             NaN             NaN             NaN
             NaN             NaN             NaN
             NaN             NaN             NaN
             NaN             NaN             NaN
             NaN             NaN             NaN
             NaN             NaN             NaN
             NaN             NaN             NaN
             NaN             NaN             NaN
             NaN             NaN             NaN
             NaN             NaN             NaN
             NaN             NaN             NaN
             NaN             NaN             NaN
             NaN             NaN             NaN
             NaN             NaN             NaN
             NaN             NaN             NaN
             NaN             NaN             NaN
             NaN             NaN             NaN
             NaN             NaN             NaN
             NaN             NaN             NaN
             NaN             NaN             NaN
             NaN             NaN             NaN
             NaN             NaN             NaN
             NaN             NaN             NaN
             NaN             NaN             NaN
             NaN             NaN             NaN
             NaN             NaN             NaN
             NaN             NaN             NaN
             NaN             NaN             NaN
             NaN             NaN             NaN
             NaN             NaN             NaN
             NaN             NaN             NaN
             NaN             NaN             NaN
             NaN             NaN             NaN
             NaN             NaN             NaN
             NaN             NaN             NaN
             NaN             NaN             NaN
             NaN             NaN             NaN
