Ca8 Ni12 F42
1.0
7.276983 -0.009329 -0.000139
-3.670701 6.319968 0.001804
0.007091 0.005295 18.194082
Ca Ni F
8 12 42
direct
0.929903 0.881919 0.732477 Ca
0.487350 0.848958 0.652970 Ca
0.167920 0.656351 0.975208 Ca
0.347873 0.510001 0.316318 Ca
0.840035 0.010631 0.347580 Ca
0.143268 0.154015 0.002988 Ca
0.991283 0.796406 0.172721 Ca
0.204947 0.181291 0.512334 Ca
0.342316 0.008221 0.333531 Ni
0.987637 0.337750 0.669994 Ni
0.662457 0.654568 -0.001707 Ni
0.331058 0.007251 0.830636 Ni
0.994675 0.313523 0.160271 Ni
0.685471 0.680347 0.496700 Ni
0.498156 0.818911 0.161083 Ni
0.177841 0.673315 0.495908 Ni
0.329752 0.502400 0.827871 Ni
0.818843 0.495419 0.829937 Ni
0.689469 0.186519 0.495882 Ni
0.494707 0.311435 0.160152 Ni
0.739768 0.190247 0.602309 F
0.812085 0.547069 0.937568 F
0.438032 0.259619 0.268981 F
0.252934 0.735335 0.387559 F
0.473084 0.738757 0.055227 F
0.265756 0.523246 0.723183 F
0.814437 0.936220 0.956143 F
0.046916 0.882219 0.289362 F
0.119829 0.182812 0.624784 F
0.976735 0.790054 0.051288 F
0.807393 0.047894 0.720989 F
0.209477 0.181761 0.388259 F
0.520080 0.380286 0.053570 F
0.619016 0.142363 0.387545 F
0.861651 0.481409 0.722956 F
0.375009 0.489072 0.940709 F
0.128161 0.620412 0.605914 F
0.513055 0.880891 0.275053 F
0.799437 0.424251 0.172084 F
0.574626 0.374419 0.505727 F
0.624825 0.202349 0.839856 F
0.410691 0.793887 0.850002 F
0.375693 0.567243 0.506971 F
0.196483 0.618634 0.184903 F
0.016712 0.284235 0.271092 F
0.696541 0.729305 0.604179 F
0.288418 0.995339 0.941432 F
0.332210 -0.017510 0.721039 F
0.644695 0.665959 0.384091 F
0.025475 0.368419 0.050441 F
0.188044 0.199810 0.140602 F
0.801303 0.990442 0.478026 F
0.028963 0.799201 0.822340 F
0.227766 0.204068 0.821468 F
0.996270 0.798078 0.488923 F
0.804399 0.000650 0.152910 F
0.045311 0.433577 0.866642 F
0.583459 0.610812 0.197270 F
0.389286 0.970173 0.531439 F
0.382962 0.004722 0.138913 F
0.621956 0.594928 0.799307 F
0.987780 0.379257 0.465523 F
