Na27 Co27 O54
1.0
   8.6690998077000003    0.0000000000000000    0.0000000000000000
  -4.3345499040000002    7.5076606613999992    0.0000000000000000
   0.0000000000000000    0.0000000000000000   15.6090002059999993
Na Co O
26 27 54
direct
   0.4444444476666667    0.2222222290000000    0.6666666870000000 Na
   0.0000000000000000    0.0000000000000000    0.0000000000000000 Na
   0.0000000000000000    0.3333333333333333    0.0000000000000000 Na
   0.0000000000000000    0.6666666666666666    0.0000000000000000 Na
   0.3333333333333333    0.0000000000000000    0.0000000000000000 Na
   0.3333333333333333    0.3333333333333333    0.0000000000000000 Na
   0.3333333333333333    0.6666666666666666    0.0000000000000000 Na
   0.6666666666666666    0.0000000000000000    0.0000000000000000 Na
   0.6666666666666666    0.3333333333333333    0.0000000000000000 Na
   0.6666666666666666    0.6666666666666666    0.0000000000000000 Na
   0.2222222290000000    0.1111111143333333    0.3333333430000001 Na
   0.2222222290000000    0.4444444476666667    0.3333333430000001 Na
   0.2222222289999999    0.7777777809999999    0.3333333430000001 Na
   0.5555555623333333    0.1111111143333333    0.3333333430000001 Na
   0.5555555623333333    0.4444444476666667    0.3333333430000001 Na
   0.5555555623333333    0.7777777809999999    0.3333333430000001 Na
   0.8888888956666666    0.1111111143333333    0.3333333430000001 Na
   0.8888888956666666    0.4444444476666667    0.3333333430000001 Na
   0.8888888956666666    0.7777777809999999    0.3333333430000001 Na
   0.1111111143333333    0.2222222290000000    0.6666666870000000 Na
   0.1111111143333333    0.5555555623333334    0.6666666870000000 Na
   0.1111111143333333    0.8888888956666667    0.6666666870000000 Na
   0.4444444476666666    0.8888888956666667    0.6666666870000000 Na
   0.7777777809999999    0.2222222290000000    0.6666666870000000 Na
   0.7777777810000001    0.5555555623333334    0.6666666870000000 Na
   0.7777777809999999    0.8888888956666667    0.6666666870000000 Na
   0.0000000000000000    0.0000000000000000    0.5000000000000000 Co
   0.0000000000000000    0.3333333333333333    0.5000000000000000 Co
   0.0000000000000000    0.6666666666666666    0.5000000000000000 Co
   0.3333333333333333    0.0000000000000000    0.5000000000000000 Co
   0.3333333333333333    0.3333333333333333    0.5000000000000000 Co
   0.3333333333333333    0.6666666666666666    0.5000000000000000 Co
   0.6666666666666666    0.0000000000000000    0.5000000000000000 Co
   0.6666666666666666    0.3333333333333333    0.5000000000000000 Co
   0.6666666666666666    0.6666666666666666    0.5000000000000000 Co
   0.2222222290000000    0.1111111143333333    0.8333333130000000 Co
   0.2222222290000000    0.4444444476666667    0.8333333130000000 Co
   0.2222222289999999    0.7777777809999999    0.8333333130000000 Co
   0.5555555623333333    0.1111111143333333    0.8333333130000000 Co
   0.5555555623333333    0.4444444476666667    0.8333333130000000 Co
   0.5555555623333333    0.7777777809999999    0.8333333130000000 Co
   0.8888888956666666    0.1111111143333333    0.8333333130000000 Co
   0.8888888956666666    0.4444444476666667    0.8333333130000000 Co
   0.8888888956666666    0.7777777809999999    0.8333333130000000 Co
   0.1111111143333333    0.2222222290000000    0.1666666720000000 Co
   0.1111111143333333    0.5555555623333334    0.1666666720000000 Co
   0.1111111143333333    0.8888888956666667    0.1666666720000000 Co
   0.4444444476666667    0.2222222290000000    0.1666666720000000 Co
   0.4444444476666666    0.5555555623333334    0.1666666720000000 Co
   0.4444444476666666    0.8888888956666667    0.1666666720000000 Co
   0.7777777809999999    0.2222222290000000    0.1666666720000000 Co
   0.7777777810000001    0.5555555623333334    0.1666666720000000 Co
   0.7777777809999999    0.8888888956666667    0.1666666720000000 Co
   0.0000000000000000    0.0000000000000000    0.2302300040000000 O
   0.0000000000000000    0.3333333333333333    0.2302300040000000 O
   0.0000000000000000    0.6666666666666666    0.2302300040000000 O
   0.3333333333333333    0.0000000000000000    0.2302300040000000 O
   0.3333333333333333    0.3333333333333333    0.2302300040000000 O
   0.3333333333333333    0.6666666666666666    0.2302300040000000 O
   0.6666666666666666    0.0000000000000000    0.2302300040000000 O
   0.6666666666666666    0.3333333333333333    0.2302300040000000 O
   0.6666666666666666    0.6666666666666666    0.2302300040000000 O
   0.0000000000000000    0.0000000000000000    0.7697700260000000 O
   0.0000000000000000    0.3333333333333333    0.7697700260000000 O
   0.0000000000000000    0.6666666666666666    0.7697700260000000 O
   0.3333333333333333    0.0000000000000000    0.7697700260000000 O
   0.3333333333333333    0.3333333333333333    0.7697700260000000 O
   0.3333333333333333    0.6666666666666666    0.7697700260000000 O
   0.6666666666666666    0.0000000000000000    0.7697700260000000 O
   0.6666666666666666    0.3333333333333333    0.7697700260000000 O
   0.6666666666666666    0.6666666666666666    0.7697700260000000 O
   0.2222222290000000    0.1111111143333333    0.5635633470000001 O
   0.2222222290000000    0.4444444476666667    0.5635633470000001 O
   0.2222222289999999    0.7777777809999999    0.5635633470000001 O
   0.5555555623333333    0.1111111143333333    0.5635633470000001 O
   0.5555555623333333    0.4444444476666667    0.5635633470000001 O
   0.5555555623333333    0.7777777809999999    0.5635633470000001 O
   0.8888888956666666    0.1111111143333333    0.5635633470000001 O
   0.8888888956666666    0.4444444476666667    0.5635633470000001 O
   0.8888888956666666    0.7777777809999999    0.5635633470000001 O
   0.2222222290000000    0.1111111143333333    0.1031033320000000 O
   0.2222222290000000    0.4444444476666667    0.1031033320000000 O
   0.2222222289999999    0.7777777809999999    0.1031033320000000 O
   0.5555555623333333    0.1111111143333333    0.1031033320000000 O
   0.5555555623333333    0.4444444476666667    0.1031033320000000 O
   0.5555555623333333    0.7777777809999999    0.1031033320000000 O
   0.8888888956666666    0.1111111143333333    0.1031033320000000 O
   0.8888888956666666    0.4444444476666667    0.1031033320000000 O
   0.8888888956666666    0.7777777809999999    0.1031033320000000 O
   0.1111111143333333    0.2222222290000000    0.8968966600000000 O
   0.1111111143333333    0.5555555623333334    0.8968966600000000 O
   0.1111111143333333    0.8888888956666667    0.8968966600000000 O
   0.4444444476666667    0.2222222290000000    0.8968966600000000 O
   0.4444444476666666    0.5555555623333334    0.8968966600000000 O
   0.4444444476666666    0.8888888956666667    0.8968966600000000 O
   0.7777777809999999    0.2222222290000000    0.8968966600000000 O
   0.7777777810000001    0.5555555623333334    0.8968966600000000 O
   0.7777777809999999    0.8888888956666667    0.8968966600000000 O
   0.1111111143333333    0.2222222290000000    0.4364366530000001 O
   0.1111111143333333    0.5555555623333334    0.4364366530000001 O
   0.1111111143333333    0.8888888956666667    0.4364366530000001 O
   0.4444444476666667    0.2222222290000000    0.4364366530000001 O
   0.4444444476666666    0.5555555623333334    0.4364366530000001 O
   0.4444444476666666    0.8888888956666667    0.4364366530000001 O
   0.7777777809999999    0.2222222290000000    0.4364366530000001 O
   0.7777777810000001    0.5555555623333334    0.4364366530000001 O
   0.7777777809999999    0.8888888956666667    0.4364366530000001 O
