Li32 Fe32 S64
1.0
  10.9029585232590502    0.0005592224141284    0.0000042731794978
   0.0005592060536572   10.9028845898600792    0.0000068186142816
   0.0000075634080368    0.0000121475392004   19.5605187164600203
Li Fe S
31 32 64
direct
   0.4999999914494883    0.4999999762657363    0.4999959874982772 Li
   0.4999999543956560    0.2500000087087229    0.1249993836696525 Li
   0.4999999543956560    0.7500000087087229    0.1249993836696525 Li
   0.4999999543956560    0.7500000087087229    0.6249993836696526 Li
   0.9999999543956559    0.2500000087087229    0.1249993836696525 Li
   0.9999999543956560    0.2500000087087229    0.6249993836696526 Li
   0.9999999543956558    0.7500000087087231    0.1249993836696525 Li
   0.9999999543956559    0.7500000087087230    0.6249993836696526 Li
   0.4999999914494884    0.4999999762657363    0.9999959874982772 Li
   0.4999999914494883    0.9999999762657363    0.9999959874982772 Li
   0.4999999914494883    0.9999999762657362    0.4999959874982772 Li
   0.9999999914494884    0.4999999762657363    0.9999959874982772 Li
   0.9999999914494881    0.4999999762657363    0.4999959874982773 Li
   0.9999999914494883    0.9999999762657364    0.9999959874982772 Li
   0.9999999914494883    0.9999999762657364    0.4999959874982772 Li
   0.2499999710000221    0.9999999967449540    0.3749984130756407 Li
   0.2499999710000221    0.9999999967449540    0.8749984130756407 Li
   0.2499999710000220    0.4999999967449540    0.3749984130756407 Li
   0.2499999710000221    0.4999999967449540    0.8749984130756407 Li
   0.7499999710000219    0.9999999967449540    0.3749984130756407 Li
   0.7499999710000220    0.9999999967449540    0.8749984130756409 Li
   0.7499999710000220    0.4999999967449540    0.3749984130756407 Li
   0.7499999710000220    0.4999999967449540    0.8749984130756407 Li
   0.2499999612175002    0.2499999801756511    0.2500037062795241 Li
   0.2499999612175002    0.2499999801756511    0.7500037062795242 Li
   0.2499999612175002    0.7499999801756511    0.2500037062795240 Li
   0.2499999612175003    0.7499999801756512    0.7500037062795242 Li
   0.7499999612175001    0.2499999801756511    0.2500037062795240 Li
   0.7499999612175001    0.2499999801756512    0.7500037062795242 Li
   0.7499999612175001    0.7499999801756512    0.2500037062795240 Li
   0.7499999612175001    0.7499999801756513    0.7500037062795242 Li
   0.0000000333041701    0.0000000040234475    0.2499912718854758 Fe
   0.0000000333041701    0.0000000040234475    0.7499912718854759 Fe
   0.0000000333041701    0.5000000040234476    0.2499912718854758 Fe
   0.0000000333041701    0.5000000040234475    0.7499912718854758 Fe
   0.5000000333041700    0.0000000040234475    0.2499912718854758 Fe
   0.5000000333041701    0.0000000040234475    0.7499912718854759 Fe
   0.5000000333041700    0.5000000040234475    0.2499912718854758 Fe
   0.5000000333041700    0.5000000040234476    0.7499912718854759 Fe
   0.9999999689261992    0.2499999679667258    0.3750010491673565 Fe
   0.9999999689261992    0.2499999679667259    0.8750010491673565 Fe
   0.9999999689261992    0.7499999679667259    0.3750010491673565 Fe
   0.9999999689261992    0.7499999679667260    0.8750010491673565 Fe
   0.4999999689261992    0.2499999679667258    0.3750010491673565 Fe
   0.4999999689261992    0.2499999679667259    0.8750010491673565 Fe
   0.4999999689261992    0.7499999679667260    0.3750010491673565 Fe
   0.4999999689261992    0.7499999679667259    0.8750010491673565 Fe
   0.2499999827910115    0.0000000116398081    0.1249992007480226 Fe
   0.2499999827910115    0.0000000116398081    0.6249992007480226 Fe
   0.2499999827910114    0.5000000116398081    0.1249992007480226 Fe
   0.2499999827910115    0.5000000116398082    0.6249992007480226 Fe
   0.7499999827910114    0.0000000116398081    0.1249992007480226 Fe
   0.7499999827910114    0.0000000116398081    0.6249992007480227 Fe
   0.7499999827910113    0.5000000116398082    0.1249992007480226 Fe
   0.7499999827910114    0.5000000116398082    0.6249992007480227 Fe
   0.2500000361850400    0.2499999800612641    0.0000084877072232 Fe
   0.2500000361850399    0.2499999800612641    0.5000084877072234 Fe
   0.2500000361850400    0.7499999800612642    0.0000084877072232 Fe
   0.2500000361850400    0.7499999800612641    0.5000084877072233 Fe
   0.7500000361850397    0.2499999800612641    0.0000084877072232 Fe
   0.7500000361850397    0.2499999800612641    0.5000084877072234 Fe
   0.7500000361850399    0.7499999800612642    0.0000084877072232 Fe
   0.7500000361850399    0.7499999800612641    0.5000084877072234 Fe
   0.1249918644062940    0.4027124272383634    0.1875057720487565 S
   0.1249918644062940    0.4027124272383634    0.6875057720487565 S
   0.1249918644062940    0.9027124272383635    0.1875057720487565 S
   0.1249918644062940    0.9027124272383634    0.6875057720487565 S
   0.6249918644062940    0.4027124272383634    0.1875057720487565 S
   0.6249918644062940    0.4027124272383634    0.6875057720487566 S
   0.6249918644062938    0.9027124272383634    0.1875057720487565 S
   0.6249918644062940    0.9027124272383635    0.6875057720487566 S
   0.1250304024084105    0.3473089724470951    0.4375098516408338 S
   0.1250304024084105    0.3473089724470951    0.9375098516408340 S
   0.1250304024084105    0.8473089724470952    0.4375098516408338 S
   0.1250304024084105    0.8473089724470950    0.9375098516408340 S
   0.6250304024084105    0.3473089724470951    0.4375098516408338 S
   0.6250304024084103    0.3473089724470951    0.9375098516408340 S
   0.6250304024084105    0.8473089724470951    0.4375098516408338 S
   0.6250304024084105    0.8473089724470951    0.9375098516408340 S
   0.1527091855280048    0.1250039758969371    0.0624947464292962 S
   0.1527091855280048    0.1250039758969371    0.5624947464292963 S
   0.1527091855280048    0.6250039758969371    0.0624947464292962 S
   0.1527091855280048    0.6250039758969371    0.5624947464292963 S
   0.6527091855280046    0.1250039758969371    0.0624947464292962 S
   0.6527091855280047    0.1250039758969370    0.5624947464292963 S
   0.6527091855280047    0.6250039758969371    0.0624947464292962 S
   0.6527091855280046    0.6250039758969371    0.5624947464292963 S
   0.0973135924584322    0.1249783069034703    0.3124908779695827 S
   0.0973135924584322    0.1249783069034703    0.8124908779695827 S
   0.0973135924584322    0.6249783069034704    0.3124908779695827 S
   0.0973135924584322    0.6249783069034703    0.8124908779695827 S
   0.5973135924584322    0.1249783069034703    0.3124908779695827 S
   0.5973135924584322    0.1249783069034703    0.8124908779695827 S
   0.5973135924584321    0.6249783069034704    0.3124908779695826 S
   0.5973135924584321    0.6249783069034702    0.8124908779695827 S
   0.3472908128985444    0.3749960763852000    0.0624947693870068 S
   0.3472908128985444    0.3749960763852000    0.5624947693870068 S
   0.3472908128985444    0.8749960763852001    0.0624947693870068 S
   0.3472908128985444    0.8749960763852001    0.5624947693870068 S
   0.8472908128985444    0.3749960763852001    0.0624947693870068 S
   0.8472908128985445    0.3749960763852000    0.5624947693870068 S
   0.8472908128985442    0.8749960763851999    0.0624947693870068 S
   0.8472908128985442    0.8749960763852001    0.5624947693870068 S
   0.4026863462456893    0.3750217172786471    0.3124908478842556 S
   0.4026863462456893    0.3750217172786471    0.8124908478842557 S
   0.4026863462456893    0.8750217172786472    0.3124908478842556 S
   0.4026863462456893    0.8750217172786472    0.8124908478842557 S
   0.9026863462456892    0.3750217172786471    0.3124908478842556 S
   0.9026863462456891    0.3750217172786471    0.8124908478842557 S
   0.9026863462456892    0.8750217172786471    0.3124908478842556 S
   0.9026863462456892    0.8750217172786471    0.8124908478842557 S
   0.3750082063493014    0.0972876165171318    0.1875058333663693 S
   0.3750082063493014    0.0972876165171318    0.6875058333663694 S
   0.3750082063493013    0.5972876165171319    0.1875058333663693 S
   0.3750082063493014    0.5972876165171319    0.6875058333663694 S
   0.8750082063493013    0.0972876165171318    0.1875058333663693 S
   0.8750082063493012    0.0972876165171318    0.6875058333663694 S
   0.8750082063493012    0.5972876165171319    0.1875058333663693 S
   0.8750082063493012    0.5972876165171319    0.6875058333663694 S
   0.3749696904362352    0.1526909817468490    0.4375098012427272 S
   0.3749696904362351    0.1526909817468490    0.9375098012427273 S
   0.3749696904362351    0.6526909817468490    0.4375098012427272 S
   0.3749696904362351    0.6526909817468490    0.9375098012427273 S
   0.8749696904362351    0.1526909817468490    0.4375098012427273 S
   0.8749696904362351    0.1526909817468490    0.9375098012427273 S
   0.8749696904362348    0.6526909817468490    0.4375098012427273 S
   0.8749696904362351    0.6526909817468490    0.9375098012427273 S
