Mg5 V32 O80
1.0
0.000009 14.269907 -0.008030
-0.000115 -0.005137 9.379352
11.480804 -0.000013 0.000049
Mg V O
5 32 80
direct
0.192054 0.183051 0.249997 Mg
0.309674 0.324290 0.750027 Mg
0.811832 0.323994 0.749990 Mg
0.061853 0.822122 0.750013 Mg
0.560289 0.821825 0.749993 Mg
0.066874 0.454502 0.103450 V
0.562970 0.433664 0.098867 V
0.309309 0.467616 0.104068 V
0.812027 0.456612 0.100866 V
0.060951 0.961405 0.099533 V
0.561900 0.961493 0.100817 V
0.313193 0.947484 0.098759 V
0.812740 0.937153 0.098775 V
0.191478 0.055656 0.897271 V
0.691670 0.050085 0.897322 V
0.433233 0.054731 0.898225 V
0.932487 0.052980 0.897660 V
0.183439 0.559569 0.897515 V
0.683190 0.551208 0.898104 V
0.441751 0.548215 0.897878 V
0.942205 0.549015 0.898216 V
0.066861 0.454496 0.396559 V
0.562967 0.433650 0.401136 V
0.309293 0.467596 0.395944 V
0.812016 0.456607 0.399135 V
0.060970 0.961411 0.400470 V
0.561913 0.961502 0.399165 V
0.313205 0.947500 0.401233 V
0.812743 0.937136 0.401225 V
0.191492 0.055676 0.602730 V
0.691680 0.050084 0.602675 V
0.433248 0.054740 0.601758 V
0.932497 0.052973 0.602330 V
0.183427 0.559563 0.602501 V
0.683180 0.551190 0.601907 V
0.441741 0.548190 0.602122 V
0.942196 0.549010 0.601789 V
0.089307 0.285046 0.126929 O
0.566346 0.262361 0.096966 O
0.287758 0.297886 0.127747 O
0.809674 0.286053 0.107438 O
0.059280 0.791180 0.107853 O
0.558255 0.790904 0.106270 O
0.316938 0.777058 0.107956 O
0.815648 0.765848 0.095795 O
0.215349 0.223908 0.871735 O
0.714655 0.218318 0.871245 O
0.409642 0.222679 0.872221 O
0.909918 0.221177 0.871783 O
0.158984 0.727373 0.870747 O
0.659806 0.719121 0.871749 O
0.464439 0.716944 0.872581 O
0.964329 0.717632 0.872138 O
0.089295 0.285038 0.373081 O
0.566349 0.262347 0.403027 O
0.287740 0.297871 0.372248 O
0.809667 0.286048 0.392550 O
0.059327 0.791184 0.392162 O
0.558270 0.790912 0.393716 O
0.316946 0.777074 0.392040 O
0.815644 0.765830 0.404196 O
0.215369 0.223929 0.628285 O
0.714666 0.218319 0.628752 O
0.409666 0.222693 0.627767 O
0.909922 0.221168 0.628201 O
0.158970 0.727372 0.629275 O
0.659800 0.719108 0.628253 O
0.464438 0.716922 0.627412 O
0.964316 0.717627 0.627856 O
0.065146 0.478431 0.922005 O
0.562684 0.476545 0.915805 O
0.311764 0.517073 0.933850 O
0.812379 0.514532 0.929343 O
0.061599 0.018913 0.932810 O
0.562008 0.016875 0.929145 O
0.312085 0.979068 0.921511 O
0.813422 0.977839 0.914786 O
0.189728 0.018088 0.067960 O
0.691283 0.003441 0.064106 O
0.434161 0.016624 0.070768 O
0.933375 0.013041 0.069384 O
0.184638 0.532401 0.070492 O
0.683601 0.507006 0.066829 O
0.439722 0.494957 0.065490 O
0.941223 0.498720 0.066310 O
0.065140 0.478417 0.578011 O
0.562681 0.476523 0.584201 O
0.311754 0.517073 0.566157 O
0.812371 0.514510 0.570659 O
0.061609 0.018952 0.567183 O
0.562018 0.016870 0.570843 O
0.312094 0.979089 0.578482 O
0.813425 0.977833 0.585200 O
0.189741 0.018111 0.432038 O
0.691287 0.003438 0.435887 O
0.434172 0.016641 0.429215 O
0.933383 0.013011 0.430611 O
0.184626 0.532389 0.429524 O
0.683596 0.506986 0.433177 O
0.439716 0.494926 0.434519 O
0.941215 0.498728 0.433694 O
0.073844 0.026206 0.249999 O
0.564984 0.015514 0.249990 O
0.299681 0.014362 0.249995 O
0.810901 0.980877 0.250001 O
0.059479 0.516437 0.250005 O
0.561687 0.479256 0.250004 O
0.316968 0.530899 0.250011 O
0.812714 0.512227 0.250002 O
0.203575 0.488102 0.750004 O
0.703102 0.480649 0.750004 O
0.419395 0.479918 0.750008 O
0.924913 0.478416 0.750008 O
0.171608 0.985353 0.749991 O
0.671209 0.978434 0.749995 O
0.450754 0.983073 0.749997 O
0.955181 0.982832 0.749997 O
