Ca7 Mn16 F48
1.0
11.506088 -0.000010 -0.029317
0.000001 8.209310 0.000007
-0.028490 0.000010 11.145848
Ca Mn F
7 16 48
direct
0.467229 0.749999 0.509276 Ca
0.214769 0.750001 0.243164 Ca
0.217046 0.750001 0.743468 Ca
0.713638 0.749999 0.244327 Ca
0.467396 0.750001 0.998647 Ca
0.960478 0.750001 0.004051 Ca
0.961052 0.750000 0.509361 Ca
0.496447 0.481519 0.253355 Mn
0.504108 0.488506 0.751025 Mn
0.994991 0.481876 0.252359 Mn
0.993035 0.485588 0.752820 Mn
0.246148 0.018512 0.497215 Mn
0.245670 0.018886 0.996378 Mn
0.744494 0.012703 0.504648 Mn
0.745012 0.012991 0.995001 Mn
0.496447 0.018477 0.253354 Mn
0.504106 0.011496 0.751024 Mn
0.994990 0.018123 0.252359 Mn
0.993035 0.014403 0.752823 Mn
0.246147 0.481489 0.497216 Mn
0.245670 0.481118 0.996378 Mn
0.744494 0.487298 0.504650 Mn
0.745015 0.486999 0.995007 Mn
0.475574 0.249998 0.207514 F
0.483342 0.250003 0.719098 F
0.978917 0.250000 0.207799 F
0.983212 0.249995 0.719178 F
0.223594 0.250004 0.042976 F
0.224519 0.250000 0.541581 F
0.742479 0.249992 0.035067 F
0.735095 0.250003 0.535871 F
0.015431 0.750000 0.302526 F
0.017648 0.750003 0.799052 F
0.515495 0.750005 0.305073 F
0.506321 0.750003 0.794037 F
0.268486 0.749999 0.447256 F
0.263640 0.749998 0.947545 F
0.761209 0.750002 0.452365 F
0.758033 0.750003 0.970014 F
0.352669 0.581898 0.146495 F
0.353668 0.577310 0.648581 F
0.851134 0.576565 0.149032 F
0.864778 0.564302 0.639095 F
0.101846 0.917866 0.101479 F
0.106849 0.916669 0.599746 F
0.599364 0.920935 0.105137 F
0.591738 0.942388 0.590686 F
0.161710 0.005212 0.331536 F
0.158441 0.006310 0.832432 F
0.662571 0.004199 0.334618 F
0.648700 0.035426 0.849392 F
0.408316 0.491596 0.413711 F
0.408222 0.497349 0.912805 F
0.906726 0.496874 0.411492 F
0.912828 0.499182 0.919233 F
0.161710 0.494785 0.331535 F
0.158440 0.493687 0.832427 F
0.662571 0.495801 0.334621 F
0.648703 0.464583 0.849397 F
0.408315 0.008397 0.413710 F
0.408220 0.002651 0.912801 F
0.906727 0.003130 0.411494 F
0.912824 0.000818 0.919238 F
0.352666 0.918108 0.146492 F
0.353669 0.922701 0.648582 F
0.851135 0.923432 0.149032 F
0.864778 0.935696 0.639094 F
0.101846 0.582135 0.101478 F
0.106846 0.583329 0.599743 F
0.599365 0.579058 0.105139 F
0.591738 0.557615 0.590690 F
