Ca1 V12 F42                             
   1.00000000000000     
     7.3822929999999998   -0.0058260000000000   -0.1142680000000000
    -3.6820889999999999    6.3758429999999997    0.0783240000000000
     0.2475140000000000   -0.0344250000000000   17.6034289999999984
   Ca   V    F 
     1    12    42
Direct
  0.2984435856345620  0.4789850201096947  0.3527929900208660
  0.2915177601852142  0.9960164573773789  0.3312471478214369
  0.7113090917443066  0.7114966329300285  0.9983668811995904
  0.9986034589915279  0.2892902059057594  0.6679069499273049
  0.3537954857548213  0.9970548339051539  0.8340661884867347
  0.6462313292842968  0.6646742610144117  0.5065647698349333
  0.9897960138195770  0.3415794617189989  0.1561897892028018
  0.6451390186733654  0.1614228370056233  0.5018995748226553
  0.4923761357325529  0.3429216109942915  0.1602065164850640
  0.8531736883522691  0.4979483824436535  0.8344999836233097
  0.3522369319318795  0.4961733627698827  0.8336741360729248
  0.1407012264577866  0.6643145704170959  0.5091503765437515
  0.4922863995269908  0.8426432737221781  0.1636540587458374
  0.5616229175126026  0.8105730665042770  0.0606135542727486
  0.2466253090641862  0.4219106900037161  0.7309582482366151
  0.1945045657648937  0.7418999042127572  0.3982486451407491
  0.4197709433341077  0.2563139510402976  0.2687636159088426
  0.8264605119697916  0.5760342807308149  0.9369645283772555
  0.7505506016386286  0.1897289107931324  0.6043111724429381
  0.8800201822404838  0.0663042387431464  0.7262377226322587
  0.1918505235540224  0.1447731657224105  0.3888986998763561
  0.9183985691216461  0.8041857639736677  0.0644587435323774
  0.1216776475978624  0.2118483712444504  0.5995944142462137
  0.0658293971857665  0.8641350207162498  0.2740198178803800
  0.8052074253135885  0.9262825609563861  0.9362162101911961
  0.1038611635890777  0.5599792814035194  0.6110041129482200
  0.4268300731387645  0.8586901804116200  0.2742096690904078
  0.4532015904714744  0.5618063350460829  0.9362816075342637
  0.8830338430922766  0.4263015086249329  0.7320655819494671
  0.5396760214819235  0.1243771740216825  0.3975037974530047
  0.5623631483667957  0.4478339277073501  0.0581148573353093
  0.3400538607599702  0.5651770361514996  0.4864594017537603
  0.2020647748940360  0.6342715928926816  0.1454505279993474
  0.4355293006953408  0.7869515578784708  0.8150052260050945
  0.6441374663557524  0.2082239632067862  0.8544535470830171
  0.5713457701259567  0.3752174329356069  0.5210465822051055
  0.7812492640378056  0.4213851656858952  0.1790841931101931
  0.6286190265327470  0.6137087917803882  0.3996810191975081
  0.9260447650955769  0.3104646779631362  0.0587744321680647
  0.3904981553952260  0.0662618338099837  0.7365318705923120
  0.3177598823259510  0.9270969527380787  0.9314618226928411
  0.6049020631529556  0.7001563222615924  0.6027253623081175
  0.0634501193234008  0.3769701852655368  0.2621047879870489
  0.9365365607293563  0.7542979608911701  0.5155230257959406
  0.7831958442797770  0.0526911964938428  0.1804970826752162
  0.2696465493068212  0.2048123806058601  0.8525196287915915
  0.0630286313261900  0.7876457261081986  0.8140001830374909
  0.7248446098713622  0.9522104462397417  0.4810884512559981
  0.2024254373011761  0.2624965002128929  0.1425431670073904
  0.6278701780054048  0.5466923913353157  0.8039949862892901
  0.9238654353613905  0.3882564868447363  0.4704052994211482
  0.4363492164347213  0.0637805882177235  0.1350230935664609
  0.3698704154782734  0.9403837290327423  0.5343973804103191
  0.5388596162014497  0.6151570139489614  0.1973584659501108
  0.0778449975340513  0.4474050535683941  0.8640215863450281
 
             NaN             NaN             NaN
             NaN             NaN             NaN
             NaN             NaN             NaN
             NaN             NaN             NaN
             NaN             NaN             NaN
             NaN             NaN             NaN
             NaN             NaN             NaN
             NaN             NaN             NaN
             NaN             NaN             NaN
             NaN             NaN             NaN
             NaN             NaN             NaN
             NaN             NaN             NaN
             NaN             NaN             NaN
             NaN             NaN             NaN
             NaN             NaN             NaN
             NaN             NaN             NaN
             NaN             NaN             NaN
             NaN             NaN             NaN
             NaN             NaN             NaN
             NaN             NaN             NaN
             NaN             NaN             NaN
             NaN             NaN             NaN
             NaN             NaN             NaN
             NaN             NaN             NaN
             NaN             NaN             NaN
             NaN             NaN             NaN
             NaN             NaN             NaN
             NaN             NaN             NaN
             NaN             NaN             NaN
             NaN             NaN             NaN
             NaN             NaN             NaN
             NaN             NaN             NaN
             NaN             NaN             NaN
             NaN             NaN             NaN
             NaN             NaN             NaN
             NaN             NaN             NaN
             NaN             NaN             NaN
             NaN             NaN             NaN
             NaN             NaN             NaN
             NaN             NaN             NaN
             NaN             NaN             NaN
             NaN             NaN             NaN
             NaN             NaN             NaN
             NaN             NaN             NaN
             NaN             NaN             NaN
             NaN             NaN             NaN
             NaN             NaN             NaN
             NaN             NaN             NaN
             NaN             NaN             NaN
             NaN             NaN             NaN
             NaN             NaN             NaN
             NaN             NaN             NaN
             NaN             NaN             NaN
             NaN             NaN             NaN
             NaN             NaN             NaN
