Ca1 V12 F42
1.0
7.382293 -0.005826 -0.114268
-3.682089 6.375843 0.078324
0.247514 -0.034425 17.603429
Ca V F
1 12 42
direct
1.281150 0.500610 0.340101 Ca
0.294954 -0.001642 0.333100 V
0.715531 0.715493 0.998106 V
-0.000106 0.285581 0.668303 V
0.352149 0.999075 0.833206 V
0.652270 0.653750 0.506067 V
0.992733 0.345090 0.159864 V
0.650434 0.150417 0.501726 V
0.496386 0.346653 0.161191 V
0.852226 0.499083 0.832947 V
0.352377 0.499132 0.833772 V
0.146511 0.651838 0.505679 V
0.496298 0.846457 0.164834 V
0.576662 0.820929 0.063040 F
0.247782 0.425295 0.730866 F
0.186769 0.735445 0.395949 F
0.433486 0.262347 0.270637 F
0.824305 0.577453 0.935250 F
0.751868 0.180447 0.604862 F
0.880636 0.067958 0.729339 F
0.210913 0.153873 0.390858 F
0.929686 0.808014 0.061142 F
0.121513 0.197833 0.603337 F
0.072244 0.873145 0.272782 F
0.810179 0.932567 0.936737 F
0.109261 0.548342 0.607840 F
0.426513 0.856885 0.274589 F
0.456530 0.569465 0.936421 F
0.884525 0.428529 0.730472 F
0.553703 0.116336 0.394958 F
0.568056 0.456206 0.059929 F
0.352363 0.562850 0.480238 F
0.206524 0.637411 0.143814 F
0.435117 0.790367 0.813952 F
0.643583 0.208655 0.853639 F
0.573394 0.362133 0.518262 F
0.789895 0.432452 0.183518 F
0.659900 0.616352 0.398923 F
0.918711 0.306628 0.064015 F
0.389086 0.069460 0.736370 F
0.316397 0.929315 0.930156 F
0.603306 0.682487 0.602064 F
0.069686 0.386900 0.263671 F
0.941482 0.739914 0.517202 F
0.786072 0.056698 0.187090 F
0.268618 0.206982 0.853023 F
0.061465 0.790651 0.812491 F
0.732661 0.943171 0.482951 F
0.202003 0.263394 0.144947 F
0.625395 0.546343 0.802786 F
0.926725 0.376819 0.470411 F
0.444900 0.071020 0.137148 F
0.373736 0.927949 0.531832 F
0.538355 0.615411 0.202055 F
0.078664 0.451567 0.863793 F
