Dy16 Mg8 S32
1.0
       11.1282749176         0.0000000000         0.0000000000
        0.0000000000        11.1282749176         0.0000000000
        0.0000000000         0.0000000000        11.1282749176
Mg   Dy   Mg    S
1   16    6   32
Direct
     0.500000000         0.500000000         0.500000000
     0.375000000         0.125000000         0.375000000
     0.375000000         0.375000000         0.125000000
     0.125000000         0.375000000         0.375000000
     0.125000000         0.125000000         0.125000000
     0.375000000         0.625000000         0.875000000
     0.375000000         0.875000000         0.625000000
     0.125000000         0.875000000         0.875000000
     0.125000000         0.625000000         0.625000000
     0.875000000         0.125000000         0.875000000
     0.875000000         0.375000000         0.625000000
     0.625000000         0.375000000         0.875000000
     0.625000000         0.125000000         0.625000000
     0.875000000         0.625000000         0.375000000
     0.875000000         0.875000000         0.125000000
     0.625000000         0.875000000         0.375000000
     0.625000000         0.625000000         0.125000000
     0.500000000         0.000000000         0.000000000
     0.250000000         0.250000000         0.750000000
     0.250000000         0.750000000         0.250000000
     0.000000000         0.000000000         0.500000000
     0.000000000         0.500000000         0.000000000
     0.750000000         0.750000000         0.750000000
     0.379641801         0.379641801         0.879641831
     0.379641801         0.120358191         0.620358169
     0.120358191         0.379641801         0.620358169
     0.120358191         0.120358191         0.879641831
     0.629641831         0.129641816         0.870358169
     0.129641816         0.370358199         0.129641816
     0.370358199         0.129641816         0.129641816
     0.870358169         0.370358199         0.870358169
     0.379641801         0.879641831         0.379641801
     0.379641801         0.620358169         0.120358191
     0.120358191         0.879641831         0.120358191
     0.120358191         0.620358169         0.379641801
     0.629641831         0.629641831         0.370358199
     0.129641816         0.870358169         0.629641831
     0.370358199         0.629641831         0.629641831
     0.870358169         0.870358169         0.370358199
     0.879641831         0.379641801         0.379641801
     0.879641831         0.120358191         0.120358191
     0.620358169         0.379641801         0.120358191
     0.620358169         0.120358191         0.379641801
     0.129641816         0.129641816         0.370358199
     0.629641831         0.370358199         0.629641831
     0.870358169         0.129641816         0.629641831
     0.370358199         0.370358199         0.370358199
     0.879641831         0.879641831         0.879641831
     0.879641831         0.620358169         0.620358169
     0.620358169         0.879641831         0.620358169
     0.620358169         0.620358169         0.879641831
     0.129641816         0.629641831         0.870358169
     0.629641831         0.870358169         0.129641816
     0.870358169         0.629641831         0.129641816
     0.370358199         0.870358169         0.870358169
