Ca1 Ti12 F42                            
   1.00000000000000     
     7.4993410000000003   -0.0049830000000000    0.0187310000000000
    -3.7435779999999999    6.5302509999999998   -0.1188750000000000
    -0.0779500000000000   -0.3133760000000000   17.7821570000000015
   Ca   Ti   F 
     1    12    42
Direct
  0.8122251054206723  0.0945110520951554  0.8708943115975989
  0.2657176565269366 -0.0134228991163613  0.3342011799262548
  0.7059654149600760  0.6690500611918353  0.0121512635587240
  0.0104100796779894  0.3071058667010169  0.6650014516469942
  0.3605409075936015  1.0430372860077475  0.8312185093231856
  0.6477065103312609  0.6482758633258464  0.4997688915054514
  0.9811682439467854  0.3218524175969064  0.1650473805379523
  0.6437862630223654  0.1468980400558480  0.4991846705806793
  0.4763463642495583  0.3167277447223777  0.1672787404452306
  0.8662326417888407  0.5501034600884139  0.8247270117372745
  0.3640277312699011  0.5373232047591820  0.8330519309872430
  0.1463710519372933  0.6457899718818978  0.4979428175076565
  0.4810591619058834  0.8209176213441454  0.1712043943494202
  0.5654948618106547  0.7913618756531939  0.0687147491084548
  0.2641901770284838  0.4574087337167412  0.7312640309582796
  0.1659577252296117  0.7422943362096265  0.3948323713674440
  0.4147558591860909  0.2258796223996655  0.2719693757044487
  0.7913889041606044  0.5386586486111410  0.9327989389453125
  0.7546541738083360  0.1936106441642305  0.6042949438203918
  0.8936802879863075  0.1245153265310279  0.7471142231909185
  0.1769088671448444  0.1079984670676493  0.3986151234023014
  0.9123176524581439  0.7434419195094740  0.0767925145945247
  0.1135969961057445  0.1808357982872305  0.6107857836674843
  0.0585914799804885  0.8666112427380219  0.2681206986936421
  0.8459670448415905  0.9127053481592083  0.9539058389317656
  0.1254391326064792  0.5475226132712078  0.5989114363617352
  0.4152572658037829  0.8627288150235206  0.2721799588275444
  0.4595631480060682  0.5917481368058034  0.9366828007453487
  0.9345194409683084  0.5058399185684426  0.7235325634977153
  0.5334267098350799  0.1004979538840001  0.3968195808032097
  0.5303583076324174  0.4101873391582309  0.0625379002246660
  0.3563948382707553  0.5726534692522095  0.4764537025018576
  0.2013700638320321  0.6095511169800656  0.1440434707543886
  0.4688444533884393  0.8360992973379389  0.8170147127025000
  0.6574869217051736  0.2618228448681317  0.8159147467571349
  0.5686713527364788  0.3563736542445139  0.5189536557360310
  0.7636187848366958  0.3977266541520781  0.1823678137684641
  0.6857022083213733  0.6083434183418099  0.4015388043649536
  0.9134415170745255  0.2777485539620317  0.0640227059501520
  0.3339955439745858  0.0386604304320728  0.7307825061436886
  0.4842367959060841  1.0572737480370022  0.9261469619397814
  0.6123834602053247  0.6884174510809622  0.5987594260734220
  0.0630766929461956  0.3773013748385495  0.2627043593890991
  0.9398483869654451  0.7233778462109668  0.5213306380251558
  0.7676104811026281  0.0365495770491695  0.1881572518006520
  0.2632862911275582  0.2393510181255169  0.8552815871719319
  0.0769607691344454  0.8291641538051839  0.8451410524083275
  0.7242747220946433  0.9401035792977814  0.4823263082280392
  0.1898914034242485  0.2326597371900755  0.1474077629483463
  0.6481975113896787  0.6127983092112061  0.8026360488328789
  0.9180951029782892  0.3682860169720502  0.4690382200378970
  0.4248400043486215  0.0381208078742016  0.1390748661372772
  0.3701882303973326  0.9236821493082574  0.5280414587017457
  0.5306431754085741  0.5955438986505340  0.1975285887336928
  0.0648993136659917  0.4538550445002176  0.8625667717320374
 
             NaN             NaN             NaN
             NaN             NaN             NaN
             NaN             NaN             NaN
             NaN             NaN             NaN
             NaN             NaN             NaN
             NaN             NaN             NaN
             NaN             NaN             NaN
             NaN             NaN             NaN
             NaN             NaN             NaN
             NaN             NaN             NaN
             NaN             NaN             NaN
             NaN             NaN             NaN
             NaN             NaN             NaN
             NaN             NaN             NaN
             NaN             NaN             NaN
             NaN             NaN             NaN
             NaN             NaN             NaN
             NaN             NaN             NaN
             NaN             NaN             NaN
             NaN             NaN             NaN
             NaN             NaN             NaN
             NaN             NaN             NaN
             NaN             NaN             NaN
             NaN             NaN             NaN
             NaN             NaN             NaN
             NaN             NaN             NaN
             NaN             NaN             NaN
             NaN             NaN             NaN
             NaN             NaN             NaN
             NaN             NaN             NaN
             NaN             NaN             NaN
             NaN             NaN             NaN
             NaN             NaN             NaN
             NaN             NaN             NaN
             NaN             NaN             NaN
             NaN             NaN             NaN
             NaN             NaN             NaN
             NaN             NaN             NaN
             NaN             NaN             NaN
             NaN             NaN             NaN
             NaN             NaN             NaN
             NaN             NaN             NaN
             NaN             NaN             NaN
             NaN             NaN             NaN
             NaN             NaN             NaN
             NaN             NaN             NaN
             NaN             NaN             NaN
             NaN             NaN             NaN
             NaN             NaN             NaN
             NaN             NaN             NaN
             NaN             NaN             NaN
             NaN             NaN             NaN
             NaN             NaN             NaN
             NaN             NaN             NaN
             NaN             NaN             NaN
