Ca1 Ti12 F42
1.0
7.499341 -0.004983 0.018731
-3.743578 6.530251 -0.118875
-0.077950 -0.313376 17.782157
Ca Ti F
1 12 42
direct
0.778818 0.059401 0.896133 Ca
0.265958 1.000296 0.334015 Ti
0.712961 0.692429 0.008346 Ti
0.019534 0.304223 0.658073 Ti
0.354761 -0.000555 0.829633 Ti
0.647868 0.658277 0.497929 Ti
-0.005738 0.340236 0.170795 Ti
0.647662 0.158583 0.496153 Ti
0.492431 0.338601 0.168129 Ti
0.860225 0.506817 0.830063 Ti
0.358720 0.504884 0.833442 Ti
0.148535 0.659613 0.498771 Ti
0.490828 0.838497 0.172723 Ti
0.560621 0.802472 0.067514 F
0.257735 0.443631 0.729545 F
0.172005 0.758315 0.395087 F
0.414125 0.238537 0.270964 F
0.827860 0.571959 0.934635 F
0.762638 0.195229 0.599268 F
0.900148 0.087779 0.723649 F
0.178143 0.121976 0.398587 F
0.921412 0.783390 0.073410 F
0.140655 0.212817 0.595300 F
0.058208 0.878804 0.268212 F
0.801694 0.926050 0.948249 F
0.119866 0.563739 0.601374 F
0.420139 0.881895 0.272497 F
0.456947 0.554644 0.937579 F
0.901380 0.445364 0.728697 F
0.537288 0.118672 0.394825 F
0.561667 0.423370 0.061964 F
0.354645 0.581235 0.477731 F
0.205907 0.628828 0.149318 F
0.467974 0.802349 0.819743 F
0.658317 0.212405 0.850902 F
0.575431 0.369466 0.518942 F
0.776576 0.415901 0.189531 F
0.679241 0.610354 0.399644 F
0.911638 0.293942 0.069615 F
0.388083 0.040257 0.731375 F
0.331354 0.944065 0.931842 F
0.616133 0.702397 0.596845 F
0.073959 0.384898 0.268422 F
0.942000 0.739130 0.518629 F
0.778312 0.050994 0.189540 F
0.262032 0.207276 0.845492 F
0.049598 0.805090 0.815668 F
0.722392 0.947019 0.477042 F
0.206768 0.260702 0.146736 F
0.636779 0.561779 0.803147 F
0.922313 0.382462 0.468515 F
0.445008 0.061646 0.135299 F
0.375538 0.937394 0.527067 F
0.542752 0.615350 0.197173 F
0.070840 0.431393 0.862656 F
