Ca1 Ti12 F42                            
   1.00000000000000     
     7.5130369999999997   -0.0021800000000000    0.0323070000000000
    -3.7479480000000001    6.4981689999999999   -0.0127320000000000
    -0.0471970000000000   -0.0089470000000000   17.6855779999999996
   Ca   Ti   F 
     1    12    42
Direct
  0.7115386981623069  0.5293426363006913  0.3026047748173289
  0.2712526172612020 -0.0105020186403366  0.3352432152520595
  0.7360352992865704  0.7357554256672494  0.9957110074332794
 -0.0002234958479111  0.2694123082833906  0.6683551520253630
  0.3637026960510392  1.0046063163685282  0.8317303035428687
  0.6542605097761488  0.6716567856909840  0.5196810308697939
  0.9731707506977624  0.3185681902993448  0.1617117490147337
  0.6511875969262387  0.1684920680152196  0.5013585983551195
  0.4692579133428056  0.3168242046529850  0.1463919009630401
  0.8637678171047505  0.5040257825566323  0.8309747520767020
  0.3639461572107966  0.5044355625382625  0.8319714224957326
  0.1543110376007880  0.6632909422169792  0.5125480365363696
  0.4730722049692371  0.8234586828699468  0.1635004036941425
  0.5706388379626456  0.8031326996412559  0.0618781424401611
  0.2497579853991104  0.4138772140442988  0.7292351964772644
  0.1777173199323280  0.7632449485736524  0.4077596960652231
  0.4062237753459948  0.2279837131068753  0.2569041418666499
  0.8380184536660082  0.5890634326513001  0.9346028510480633
  0.7594139836546256  0.1952827676945170  0.6059811539171677
  0.8803060967242595  0.0610387671755415  0.7326972009434966
  0.2142609854681961  0.1607615086878180  0.3861402469581334
  0.9317088472250253  0.8125379360513822  0.0657032709204798
  0.1071535126785642  0.1758427076996940  0.6003290766679544
  0.0086394541165922  0.8217270989422836  0.2855439949134385
  0.8342334669753079  0.9540260735579498  0.9361080507632208
  0.1280205442845171  0.5478290032221240  0.6111466112428185
  0.3958829935289703  0.8639778944175045  0.2686306220278417
  0.4742568259714425  0.5856111150635399  0.9335018294093250
  0.8919632218547443  0.4281935228269366  0.7292624141116288
  0.5596107920348675  0.1496419034090415  0.3917765412591689
  0.5704295534110009  0.4512176038495351  0.0535606773449054
  0.3666713107072612  0.5911785243793483  0.4900580622646156
  0.1946118089617035  0.6111862351432128  0.1418699993611764
  0.4369991427228571  0.7867317136457727  0.8088166659914705
  0.6551121313595965  0.2211748184633873  0.8536450841551418
  0.5749734936691563  0.3742141602150895  0.5268767313079247
  0.7560925001369367  0.4081938798704944  0.1870062204355634
  0.6975269490127183  0.6396519027361084  0.4124346110655274
  0.8725257213141830  0.2890911210446117  0.0670345164391206
  0.3996092380045495  0.0824335821278347  0.7331897850876332
  0.3246385266223671  0.9265494740555822  0.9304516189338788
  0.6123358331551298  0.7068380334272095  0.6162905079513067
  0.0312918668450369  0.3728981148875867  0.2635553348130618
  0.9436627338242701  0.7364425687344351  0.5356329118962755
  0.7567990644749878  0.0293722663080292  0.1882868926559066
  0.2872984352310223  0.2203515251615431  0.8545666174927646
  0.0707992694191360  0.7896550214040441  0.8104460581217802
  0.7298373212715852  0.9590807360364192  0.4881914533482676
  0.1822031737486567  0.2443109618090797  0.1350383870164475
  0.6377664055457024  0.5526463174812386  0.8013858177242095
  0.9295816385033113  0.3965731753624195  0.4727661156620349
  0.4253458318377831  0.0438741291365130  0.1271854697703626
  0.3772148910875830  0.9435132745936458  0.5329895354137775
  0.5307476457654060  0.5927241039017251  0.2011474347609272
  0.0890091780653328  0.4559520242845387  0.8613525739255156
 
             NaN             NaN             NaN
             NaN             NaN             NaN
             NaN             NaN             NaN
             NaN             NaN             NaN
             NaN             NaN             NaN
             NaN             NaN             NaN
             NaN             NaN             NaN
             NaN             NaN             NaN
             NaN             NaN             NaN
             NaN             NaN             NaN
             NaN             NaN             NaN
             NaN             NaN             NaN
             NaN             NaN             NaN
             NaN             NaN             NaN
             NaN             NaN             NaN
             NaN             NaN             NaN
             NaN             NaN             NaN
             NaN             NaN             NaN
             NaN             NaN             NaN
             NaN             NaN             NaN
             NaN             NaN             NaN
             NaN             NaN             NaN
             NaN             NaN             NaN
             NaN             NaN             NaN
             NaN             NaN             NaN
             NaN             NaN             NaN
             NaN             NaN             NaN
             NaN             NaN             NaN
             NaN             NaN             NaN
             NaN             NaN             NaN
             NaN             NaN             NaN
             NaN             NaN             NaN
             NaN             NaN             NaN
             NaN             NaN             NaN
             NaN             NaN             NaN
             NaN             NaN             NaN
             NaN             NaN             NaN
             NaN             NaN             NaN
             NaN             NaN             NaN
             NaN             NaN             NaN
             NaN             NaN             NaN
             NaN             NaN             NaN
             NaN             NaN             NaN
             NaN             NaN             NaN
             NaN             NaN             NaN
             NaN             NaN             NaN
             NaN             NaN             NaN
             NaN             NaN             NaN
             NaN             NaN             NaN
             NaN             NaN             NaN
             NaN             NaN             NaN
             NaN             NaN             NaN
             NaN             NaN             NaN
             NaN             NaN             NaN
             NaN             NaN             NaN
