Ca1 Ti12 F42
1.0
7.513037 -0.002180 0.032307
-3.747948 6.498169 -0.012732
-0.047197 -0.008947 17.685578
Ca Ti F
1 12 42
direct
0.675480 0.499835 0.332792 Ca
0.282531 0.001627 0.333761 Ti
0.730893 0.730604 0.997709 Ti
0.000343 0.266925 0.668647 Ti
0.357804 0.997767 0.833342 Ti
0.648401 0.659080 0.506695 Ti
0.989296 0.342545 0.159896 Ti
0.648695 0.156398 0.500476 Ti
0.490957 0.345595 0.159302 Ti
0.857684 0.497281 0.832192 Ti
0.358137 0.498371 0.834678 Ti
0.148934 0.655191 0.507839 Ti
0.492365 0.845245 0.165807 Ti
0.574769 0.817018 0.062558 F
0.247208 0.414719 0.730654 F
0.168700 0.749195 0.399860 F
0.411174 0.248158 0.266184 F
0.830230 0.581708 0.936022 F
0.759796 0.181651 0.603196 F
0.879734 0.054505 0.731167 F
0.201945 0.139285 0.396578 F
0.934449 0.819677 0.064606 F
0.117567 0.181155 0.601334 F
0.054418 0.848759 0.274255 F
0.821155 0.941153 0.934342 F
0.114695 0.538156 0.606134 F
0.424622 0.873484 0.273510 F
0.464579 0.574196 0.936770 F
0.888974 0.421506 0.729924 F
0.560381 0.139828 0.391362 F
0.576360 0.460718 0.060662 F
0.355115 0.576400 0.477224 F
0.208280 0.636919 0.146059 F
0.432739 0.780898 0.811495 F
0.649390 0.214514 0.855069 F
0.574256 0.365116 0.521800 F
0.775173 0.423789 0.193179 F
0.682883 0.614804 0.400947 F
0.898336 0.315773 0.065527 F
0.397052 0.074994 0.734665 F
0.319251 0.920336 0.932009 F
0.596011 0.692448 0.602112 F
0.058128 0.383767 0.266432 F
0.937033 0.730078 0.525372 F
0.779142 0.052822 0.186033 F
0.280589 0.212827 0.855203 F
0.066037 0.782718 0.811637 F
0.726000 0.947662 0.478744 F
0.204901 0.271772 0.140247 F
0.631428 0.546497 0.803529 F
0.923179 0.387773 0.463447 F
0.445849 0.071977 0.136774 F
0.375602 0.930056 0.529048 F
0.537525 0.615352 0.200684 F
0.082748 0.449060 0.863514 F
