K8 V8 F24
1.0
8.262000 0.000000 0.000000
0.000000 8.262000 0.000000
0.000000 0.000000 8.262000
K V F
7 8 24
direct
0.500000 0.500000 0.500000 K
0.000000 0.000000 0.000000 K
0.000000 0.000000 0.500000 K
0.000000 0.500000 0.000000 K
0.000000 0.500000 0.500000 K
0.500000 0.000000 0.000000 K
0.500000 0.000000 0.500000 K
0.250000 0.250000 0.250000 V
0.250000 0.250000 0.750000 V
0.250000 0.750000 0.250000 V
0.250000 0.750000 0.750000 V
0.750000 0.250000 0.250000 V
0.750000 0.250000 0.750000 V
0.750000 0.750000 0.250000 V
0.750000 0.750000 0.750000 V
0.250000 0.250000 0.000000 F
0.250000 0.250000 0.500000 F
0.250000 0.750000 0.000000 F
0.250000 0.750000 0.500000 F
0.750000 0.250000 0.000000 F
0.750000 0.250000 0.500000 F
0.750000 0.750000 0.000000 F
0.750000 0.750000 0.500000 F
0.000000 0.250000 0.250000 F
0.000000 0.250000 0.750000 F
0.000000 0.750000 0.250000 F
0.000000 0.750000 0.750000 F
0.500000 0.250000 0.250000 F
0.500000 0.250000 0.750000 F
0.500000 0.750000 0.250000 F
0.500000 0.750000 0.750000 F
0.250000 0.000000 0.250000 F
0.250000 0.000000 0.750000 F
0.250000 0.500000 0.250000 F
0.250000 0.500000 0.750000 F
0.750000 0.000000 0.250000 F
0.750000 0.000000 0.750000 F
0.750000 0.500000 0.250000 F
0.750000 0.500000 0.750000 F
