Ca2 V4 S6 O24
1.0
7.662240 0.092114 4.491071
2.623141 7.197875 4.493237
0.137982 0.094185 8.881104
Ca V S O
2 4 6 24
direct
0.497689 0.497684 0.497746 Ca
0.997675 0.997711 0.997738 Ca
0.644489 0.644523 0.644585 V
0.144599 0.144413 0.144581 V
0.850874 0.850867 0.850747 V
0.350808 0.350942 0.350743 V
0.949446 0.247587 0.545618 S
0.449390 0.045684 0.747536 S
0.545637 0.949320 0.247597 S
0.747583 0.449431 0.045573 S
0.247577 0.545652 0.949488 S
0.045621 0.747597 0.449434 S
0.403891 0.565513 0.766683 O
0.904012 0.266718 0.065347 O
0.766624 0.403878 0.565478 O
0.065379 0.903992 0.266679 O
0.565516 0.766604 0.404022 O
0.266706 0.065365 0.904035 O
0.728312 0.930049 0.091069 O
0.228333 0.591093 0.430095 O
0.090946 0.728266 0.930259 O
0.429928 0.228399 0.591088 O
0.930315 0.091056 0.728308 O
0.591133 0.430146 0.228322 O
0.983922 0.192506 0.399842 O
0.483877 0.899776 0.692629 O
0.399801 0.983487 0.192761 O
0.692544 0.483763 0.899846 O
0.192754 0.399635 0.984078 O
0.899722 0.692655 0.483989 O
0.095351 0.302879 0.510404 O
0.595445 0.010778 0.802450 O
0.510446 0.095442 0.302561 O
0.802679 0.595505 0.010342 O
0.302701 0.510787 0.095359 O
0.010677 0.802699 0.595368 O
