Ca2 Cr4 S6 O24
1.0
7.474091 0.003184 4.566015
2.385488 7.080691 4.571744
0.000768 -0.005792 9.229593
Ca Cr S O
2 4 6 24
direct
0.499580 0.497966 0.494535 Ca
0.997996 0.999563 0.994501 Ca
0.649057 0.641217 0.650404 Cr
0.140852 0.149335 0.150539 Cr
0.856320 0.841360 0.844553 Cr
0.341622 0.356359 0.344395 Cr
0.938021 0.249342 0.555076 S
0.462839 0.031151 0.747460 S
0.531811 0.963175 0.247487 S
0.749526 0.438229 0.055066 S
0.246895 0.556759 0.940739 S
0.056562 0.747020 0.440151 S
0.404004 0.570883 0.762345 O
0.907274 0.256288 0.084005 O
0.757662 0.409325 0.581159 O
0.074947 0.902355 0.260423 O
0.545436 0.776965 0.392932 O
0.274353 0.052174 0.889349 O
0.717343 0.954807 0.101614 O
0.235484 0.584476 0.417723 O
0.086514 0.737019 0.914659 O
0.462261 0.214294 0.598856 O
0.921246 0.089823 0.731886 O
0.588329 0.424928 0.230578 O
0.958873 0.202215 0.415920 O
0.501766 0.891143 0.681302 O
0.392170 0.006612 0.178725 O
0.703396 0.458955 0.915258 O
0.191015 0.400325 0.990695 O
0.899188 0.693709 0.487833 O
0.092989 0.303326 0.512788 O
0.603048 0.974525 0.821396 O
0.480510 0.104918 0.317313 O
0.806269 0.591603 0.011913 O
0.298654 0.540449 0.074693 O
0.038588 0.799807 0.574130 O
