Pr16 Mg8 Se32
1.0
       12.0675220490         0.0000000000         0.0000000000
        0.0000000000        12.0675220490         0.0000000000
        0.0000000000         0.0000000000        12.0675220490
Mg   Pr   Mg   Se
1   16    6   32
Direct
   0.2500000000000000    0.7500000000000000   -0.2500000000000000 Mg
     0.375000000         0.625000000         0.375000000
     0.375000000         0.875000000         0.125000000
     0.125000000         0.875000000         0.375000000
     0.125000000         0.625000000         0.125000000
     0.375000000         0.125000000         0.875000000
     0.375000000         0.375000000         0.625000000
     0.125000000         0.375000000         0.875000000
     0.125000000         0.125000000         0.625000000
     0.875000000         0.625000000         0.875000000
     0.875000000         0.875000000         0.625000000
     0.625000000         0.875000000         0.875000000
     0.625000000         0.625000000         0.625000000
     0.875000000         0.125000000         0.375000000
     0.875000000         0.375000000         0.125000000
     0.625000000         0.375000000         0.375000000
     0.625000000         0.125000000         0.125000000
     0.500000000         0.000000000         0.500000000
     0.250000000         0.250000000         0.250000000
     0.000000000         0.000000000         0.000000000
     0.750000000         0.250000000         0.750000000
     0.000000000         0.500000000         0.500000000
     0.750000000         0.750000000         0.250000000
     0.377250999         0.377250999         0.377250999
     0.377250999         0.122749001         0.122749001
     0.122749001         0.377250999         0.122749001
     0.122749001         0.122749001         0.377250999
     0.627251029         0.127250999         0.372749001
     0.127250999         0.872748971         0.127250999
     0.872748971         0.127250999         0.127250999
     0.372749001         0.872748971         0.372749001
     0.377250999         0.877251029         0.877251029
     0.377250999         0.622748971         0.622748971
     0.122749001         0.877251029         0.622748971
     0.122749001         0.622748971         0.877251029
     0.627251029         0.627251029         0.872748971
     0.127250999         0.372749001         0.627251029
     0.872748971         0.627251029         0.627251029
     0.372749001         0.372749001         0.872748971
     0.877251029         0.377250999         0.877251029
     0.877251029         0.122749001         0.622748971
     0.622748971         0.377250999         0.622748971
     0.622748971         0.122749001         0.877251029
     0.127250999         0.127250999         0.872748971
     0.627251029         0.872748971         0.627251029
     0.372749001         0.127250999         0.627251029
     0.872748971         0.872748971         0.872748971
     0.877251029         0.877251029         0.377250999
     0.877251029         0.622748971         0.122749001
     0.622748971         0.877251029         0.122749001
     0.622748971         0.622748971         0.377250999
     0.127250999         0.627251029         0.372749001
     0.627251029         0.372749001         0.127250999
     0.372749001         0.627251029         0.127250999
     0.872748971         0.372749001         0.372749001
