Ca8 V12 F42                             
   1.00000000000000     
     7.5290169999999996    0.0216260000000000    0.0606650000000000
    -3.7521740000000001    6.4807249999999996   -0.0816340000000000
    -0.4621160000000000    0.5345090000000000   18.4668540000000014
   Ca   V    F 
     8    12    42
Direct
  0.9090841072825727  0.1780920537522384  0.3588751551559703
  0.4876071482947236  0.8283082494328738  0.6720858315037780
  0.6036101820614034  0.1443364543624893  0.9973806669098909
  0.9817161267530781  0.8108449230522147  0.6646882465526914
  0.1352022983009315  0.6352222765622756  0.0053849950868449
  0.9272473401629189  0.7947732329955282  0.1698342987218787
  0.8571737542441380  0.0114233986527013  0.8407888169104507
  0.2344545780621332  0.1861743430662231  0.5070596666149152
  0.3254439638765523  1.0008712510856073  0.3303329702651263
 -0.0020454434806221  0.3157911426688040  0.6681989922186209
  0.6475621742832216  0.6619339047152722  0.9964727224233992
  0.3263963496371601  0.9915850812004221  0.8257439947860244
  0.9792203087057091  0.3198771476748565  0.1577418087100226
  0.6861212980180535  0.6681676816664430  0.5002528628359026
  0.4721095592133945  0.8221332133018336  0.1655254208760803
  0.1784407889474756  0.6672495241643539  0.5000725173560563
  0.3300910198089738  0.4996857859258694  0.8317711119163843
  0.8241814295625128  0.4924325285022666  0.8289548292443137
  0.6776319632377510  0.1629280898369855  0.5029650955674381
  0.4708615896162562  0.3134997437510219  0.1599166555880647
  0.7259793205392069  0.1513927585007810  0.6121064240151497
  0.7998322417516037  0.5191008244032420  0.9406027268383772
  0.4358781771827732  0.2420760243954036  0.2640090786243848
  0.2130764068282871  0.7557756985015007  0.3969066737502630
  0.4931913509055492  0.7838495274741114  0.0542770431763358
  0.2792609596504332  0.4778274026196993  0.7215890199539120
  0.7520403544504921  0.9551055373689853  0.9514503586201428
  0.0682184805736882  0.8754961107554018  0.2736751248668687
  0.1061048857493161  0.1466920155228690  0.6155784023576802
  0.9297265263664461  0.7664402710626522  0.0490863409432814
  0.8393220921180641  0.0137493775285034  0.7210969186176910
  0.1790930424398537  0.1317311141262978  0.3901379389941760
  0.5263820644478143  0.3818537649169714  0.0492515099183079
  0.5999997876565045  0.1378219090195330  0.3927086024095099
  0.8734964394820457  0.4797916446062760  0.7185718572866014
  0.3647500590029942  0.5514624382379764  0.9421534194385676
  0.1526372976968252  0.6085859146787552  0.6133557005044475
  0.4673053201845069  0.8916073813527824  0.2699583542307156
  0.7785073439822150  0.4272339998286810  0.1692975563942726
  0.5799302607879406  0.3648845405482660  0.5272722134793808
  0.6299172610833600  0.1839712495964695  0.8562996979914062
  0.4572640225422280  0.8139725232817880  0.8040122168404885
  0.3751588233118894  0.5507222305455985  0.4943698285215180
  0.1644964813652269  0.6370476317611181  0.1372089102443280
  0.0384666459425414  0.3532915689957417  0.2628035033214500
  0.6683762540963478  0.7153445168073861  0.6125100579105154
  0.3042048501116041  0.9305160759535325  0.9390982192568792
  0.3107990342516954  0.9799647221705814  0.7100526132936646
  0.7298135411876344  0.6230925154379382  0.4053495269611606
  0.9197799399994285  0.3116189165265170  0.0464649706507617
  0.1694120148305263  0.2019716134395234  0.1440622622062817
  0.7889046824376900  0.9720573554965076  0.4750987750645000
  0.0149665499603274  0.8063823624556052  0.8058007384445036
  0.2146909659816873  0.1856463286240957  0.8468957077943747
  0.9904663503517637  0.7867811528597940  0.5299887019046715
  0.7834571035957011  1.0095214656489346  0.1723527924779275
  0.0222220795291502  0.3850094263568150  0.8516014887416493
  0.5643660600489072  0.6118498339538204  0.1859077872590231
  0.3798228188013312  0.9619417564770625  0.5340564940872565
  0.4228528494922673  0.0429339383816893  0.1181584410623402
  0.6332000472788480  0.6077865430265981  0.8146631796496041
  0.9802926719571043  0.3624555756336964  0.4695255104779353
 
             NaN             NaN             NaN
             NaN             NaN             NaN
             NaN             NaN             NaN
             NaN             NaN             NaN
             NaN             NaN             NaN
             NaN             NaN             NaN
             NaN             NaN             NaN
             NaN             NaN             NaN
             NaN             NaN             NaN
             NaN             NaN             NaN
             NaN             NaN             NaN
             NaN             NaN             NaN
             NaN             NaN             NaN
             NaN             NaN             NaN
             NaN             NaN             NaN
             NaN             NaN             NaN
             NaN             NaN             NaN
             NaN             NaN             NaN
             NaN             NaN             NaN
             NaN             NaN             NaN
             NaN             NaN             NaN
             NaN             NaN             NaN
             NaN             NaN             NaN
             NaN             NaN             NaN
             NaN             NaN             NaN
             NaN             NaN             NaN
             NaN             NaN             NaN
             NaN             NaN             NaN
             NaN             NaN             NaN
             NaN             NaN             NaN
             NaN             NaN             NaN
             NaN             NaN             NaN
             NaN             NaN             NaN
             NaN             NaN             NaN
             NaN             NaN             NaN
             NaN             NaN             NaN
             NaN             NaN             NaN
             NaN             NaN             NaN
             NaN             NaN             NaN
             NaN             NaN             NaN
             NaN             NaN             NaN
             NaN             NaN             NaN
             NaN             NaN             NaN
             NaN             NaN             NaN
             NaN             NaN             NaN
             NaN             NaN             NaN
             NaN             NaN             NaN
             NaN             NaN             NaN
             NaN             NaN             NaN
             NaN             NaN             NaN
             NaN             NaN             NaN
             NaN             NaN             NaN
             NaN             NaN             NaN
             NaN             NaN             NaN
             NaN             NaN             NaN
             NaN             NaN             NaN
             NaN             NaN             NaN
             NaN             NaN             NaN
             NaN             NaN             NaN
             NaN             NaN             NaN
             NaN             NaN             NaN
             NaN             NaN             NaN
