Ca8 V12 F42
1.0
7.529017 0.021626 0.060665
-3.752174 6.480725 -0.081634
-0.462116 0.534509 18.466854
Ca V F
8 12 42
direct
0.835663 0.174183 0.336098 Ca
0.493056 0.845008 0.666141 Ca
0.611299 0.139133 0.998241 Ca
0.990142 0.822155 0.662531 Ca
0.141338 0.627233 0.005757 Ca
0.943174 0.793876 0.168505 Ca
0.857966 0.009374 0.839292 Ca
0.179432 0.208874 0.495694 Ca
0.327227 0.989478 0.331344 V
1.003192 0.325192 0.667739 V
0.652309 0.655201 0.996567 V
0.330761 0.991751 0.826596 V
0.980954 0.308982 0.163468 V
0.680168 0.673984 0.501765 V
0.477365 0.812106 0.165917 V
0.175778 0.677478 0.501981 V
0.334851 0.501427 0.830653 V
0.829020 0.493202 0.829462 V
0.672779 0.169795 0.500094 V
0.478226 0.307822 0.160891 V
0.735053 0.176944 0.609526 F
0.806239 0.512768 0.941895 F
0.456786 0.237106 0.265937 F
0.196237 0.742398 0.396814 F
0.496213 0.776218 0.054477 F
0.283285 0.485182 0.721103 F
0.757992 0.949514 0.951319 F
0.050919 0.850156 0.276168 F
0.111489 0.157566 0.613885 F
0.935738 0.759632 0.049279 F
0.841395 0.020363 0.719000 F
0.182465 0.106934 0.389053 F
0.529826 0.374367 0.049796 F
0.598304 0.121259 0.391880 F
0.877772 0.485976 0.719454 F
0.369510 0.546082 0.941817 F
0.149799 0.617501 0.614641 F
0.469209 0.871488 0.271736 F
0.785648 0.423127 0.171101 F
0.554611 0.359149 0.510898 F
0.635342 0.183659 0.857020 F
0.462854 0.816081 0.803414 F
0.370659 0.565918 0.495557 F
0.169017 0.626165 0.141181 F
0.001804 0.311811 0.269701 F
0.668709 0.710216 0.614233 F
0.310572 0.926157 0.940262 F
0.315308 0.987045 0.711464 F
0.714212 0.667889 0.397552 F
0.926939 0.306841 0.050418 F
0.173506 0.193265 0.149980 F
0.798298 0.985627 0.488033 F
0.018740 0.807943 0.806923 F
0.219039 0.187019 0.846401 F
0.989097 0.792576 0.528663 F
0.787235 -0.002505 0.173462 F
0.027269 0.385856 0.850366 F
0.576709 0.606798 0.187398 F
0.395618 0.951246 0.541363 F
0.421829 0.032230 0.120035 F
0.638577 0.609642 0.817981 F
0.971596 0.379632 0.473650 F
