Ca1 Mn12 F42                            
   1.00000000000000     
     7.3731270000000002   -0.0117250000000000   -0.0623350000000000
    -3.6961089999999999    6.3340480000000001    0.0466150000000000
     0.0805120000000000    0.0369010000000000   17.4822260000000007
   Ca   Mn   F 
     1    12    42
Direct
  0.5072313291853026  0.4678978767098119  0.3264347725941199
  0.2695381909715234  0.9718809071050847  0.3297206770627878
  0.7173876606930797  0.7021237677746166  0.9961424008083928
  0.0121778013410890  0.3049840508598636  0.6734527742857115
  0.3680639722743801  0.0109796630226960  0.8328956333317296
  0.6672411959196974  0.6849351332081063  0.5169493266912588
  0.9745330113554803  0.3194765189099212  0.1593855476256034
  0.6551343186683751  0.1765812753719259  0.5067603776398606
  0.4727640428834845  0.3073829499065208  0.1431026784085917
  0.8690077089642839  0.5111391105118687  0.8332631071252541
  0.3683582021800095  0.5108567676268324  0.8322265518457214
  0.1595008041094536  0.6681418488923813  0.5130850573403534
  0.4743160675884279  0.8155847612317920  0.1627687102905756
  0.5704836441432517  0.7816238254867058  0.0602787601846108
  0.2723012572341200  0.4458274753502646  0.7306348847561437
  0.1881058473317133  0.7723765265908311  0.4122050547364020
  0.3834995854057534  0.1914330764178594  0.2448011674154836
  0.8360792090788903  0.5713439835735222  0.9348408523690688
  0.7737888619593596  0.2094978796426906  0.6154394757021168
  0.9016031335984224  0.0952671901045956  0.7375133416692349
  0.2020655233524553  0.1586312572276133  0.3723123881360535
  0.9220224895418243  0.7871042342705837  0.0615611602517069
  0.1177596574603771  0.1974869641654857  0.6120129530064738
  0.0229686642597043  0.8170334728153134  0.2847367714736020
  0.8277428713010178  0.9285646160441274  0.9401927694901768
  0.1409522627699120  0.5667343512969236  0.6139607853594982
  0.3922322008578951  0.8362303558488490  0.2754416153601497
  0.4621418291978878  0.5742414598339443  0.9331387528007429
  0.9044579788634597  0.4559942009410787  0.7316961121169661
  0.5373445566818320  0.1586689993903049  0.3791616515540793
  0.5655303462575736  0.4243395497836714  0.0461316790208141
  0.3753888959274728  0.5966720418981030  0.4872259126797595
  0.1902828468174235  0.6119032913911548  0.1397363921364523
  0.4433263246889960  0.7969077849720648  0.8139827173883580
  0.6598083185937773  0.2242433539887213  0.8501969599009409
  0.5747513264886812  0.3828424803837905  0.5234841741559693
  0.7536647080371217  0.3934001418878724  0.1826489272646496
  0.7173463284683476  0.6673482889405523  0.4131809040585942
  0.8881420813788047  0.2837922297515925  0.0637898003520723
  0.3969262829549527  0.0737068872060845  0.7341576992789891
  0.3391172324959291  0.9483556842787993  0.9316512843270495
  0.6220142435305183  0.7066954235107785  0.6130485583032423
  0.0674668657674611  0.3580105246996049  0.2568063756645781
  0.9500602339125773  0.7458085244872772  0.5358650792652959
  0.7589287014777366  0.0281786300492670  0.1853662929086874
  0.2918951400001273  0.2244786577436050  0.8509251026669808
  0.0759962406123430  0.7991005605511970  0.8162381223515952
  0.7371952658012199  0.9712133417612944  0.4910678193599989
  0.1925621296609402  0.2524764941051197  0.1284715527493642
  0.6344050256755722  0.5685906647349830  0.8024688623682865
  0.9263746414265821  0.3930804981035368  0.4748823633824362
  0.4231964273073455  0.0200476157212623  0.1216181222407033
  0.3879480772285765  0.9582202885831149  0.5376127358744506
  0.5268537488302889  0.5964649374498099  0.2033350612682112
  0.1024086264783104  0.4531433170319396  0.8627717010930664
 
             NaN             NaN             NaN
             NaN             NaN             NaN
             NaN             NaN             NaN
             NaN             NaN             NaN
             NaN             NaN             NaN
             NaN             NaN             NaN
             NaN             NaN             NaN
             NaN             NaN             NaN
             NaN             NaN             NaN
             NaN             NaN             NaN
             NaN             NaN             NaN
             NaN             NaN             NaN
             NaN             NaN             NaN
             NaN             NaN             NaN
             NaN             NaN             NaN
             NaN             NaN             NaN
             NaN             NaN             NaN
             NaN             NaN             NaN
             NaN             NaN             NaN
             NaN             NaN             NaN
             NaN             NaN             NaN
             NaN             NaN             NaN
             NaN             NaN             NaN
             NaN             NaN             NaN
             NaN             NaN             NaN
             NaN             NaN             NaN
             NaN             NaN             NaN
             NaN             NaN             NaN
             NaN             NaN             NaN
             NaN             NaN             NaN
             NaN             NaN             NaN
             NaN             NaN             NaN
             NaN             NaN             NaN
             NaN             NaN             NaN
             NaN             NaN             NaN
             NaN             NaN             NaN
             NaN             NaN             NaN
             NaN             NaN             NaN
             NaN             NaN             NaN
             NaN             NaN             NaN
             NaN             NaN             NaN
             NaN             NaN             NaN
             NaN             NaN             NaN
             NaN             NaN             NaN
             NaN             NaN             NaN
             NaN             NaN             NaN
             NaN             NaN             NaN
             NaN             NaN             NaN
             NaN             NaN             NaN
             NaN             NaN             NaN
             NaN             NaN             NaN
             NaN             NaN             NaN
             NaN             NaN             NaN
             NaN             NaN             NaN
             NaN             NaN             NaN
