Ca1 Mn12 F42
1.0
7.373127 -0.011725 -0.062335
-3.696109 6.334048 0.046615
0.080512 0.036901 17.482226
Ca Mn F
1 12 42
direct
0.548025 0.499964 0.333285 Ca
0.296194 0.998011 0.333087 Mn
0.711151 0.706363 0.995427 Mn
0.000760 0.294510 0.671479 Mn
0.353289 0.001324 0.833140 Mn
0.644707 0.652904 0.505972 Mn
0.996534 0.343124 0.160277 Mn
0.644013 0.151516 0.504610 Mn
0.500683 0.347969 0.158171 Mn
0.854085 0.500005 0.833103 Mn
0.355187 0.502677 0.833507 Mn
0.143389 0.649985 0.508103 Mn
0.496223 0.845266 0.162622 Mn
0.577738 0.808178 0.058498 F
0.255917 0.440228 0.731566 F
0.174064 0.747138 0.403746 F
0.438488 0.254931 0.263469 F
0.820477 0.564154 0.935177 F
0.761997 0.190377 0.608509 F
0.890003 0.080549 0.733847 F
0.204634 0.145117 0.386380 F
0.926232 0.805328 0.056835 F
0.115456 0.195023 0.610323 F
0.064900 0.864107 0.276362 F
0.813052 0.921247 0.933583 F
0.120423 0.555251 0.610361 F
0.417312 0.859705 0.277045 F
0.450312 0.563923 0.935702 F
0.883629 0.435897 0.730961 F
0.549851 0.127914 0.392636 F
0.568811 0.444218 0.056127 F
0.353033 0.568212 0.478863 F
0.209767 0.635410 0.142921 F
0.432532 0.789445 0.815473 F
0.644673 0.214552 0.852218 F
0.564677 0.360890 0.521937 F
0.789382 0.429046 0.183348 F
0.675271 0.617757 0.402154 F
0.925103 0.306926 0.063954 F
0.386950 0.066184 0.734606 F
0.319535 0.936421 0.931666 F
0.602844 0.683295 0.601963 F
0.066322 0.382924 0.263809 F
0.930148 0.726597 0.524071 F
0.783029 0.055823 0.184998 F
0.276421 0.214874 0.850862 F
0.062427 0.786654 0.814181 F
0.721054 0.940465 0.483586 F
0.211461 0.269950 0.143622 F
0.621763 0.557841 0.803283 F
0.916762 0.373984 0.468504 F
0.444566 0.062769 0.133132 F
0.372743 0.930840 0.534244 F
0.544636 0.624725 0.201761 F
0.087120 0.446123 0.863560 F
