Ca1 Cr12 F42
1.0
7.251661 -0.022397 -0.001152
-3.595535 6.264441 0.003074
0.075296 0.080008 17.342833
Ca Cr F
1 12 42
direct
0.849051 0.504522 0.323225 Ca
0.301357 0.003602 0.334063 Cr
0.707426 0.707800 0.997773 Cr
0.002008 0.288947 0.668684 Cr
0.355337 0.998333 0.833280 Cr
0.650758 0.658556 0.507710 Cr
0.995346 0.342576 0.159291 Cr
0.652118 0.156923 0.503674 Cr
0.489202 0.343116 0.159811 Cr
0.855041 0.499846 0.833329 Cr
0.353492 0.496720 0.833128 Cr
0.153766 0.658572 0.507130 Cr
0.495874 0.845751 0.163938 Cr
0.560380 0.818294 0.059075 F
0.258758 0.428741 0.728742 F
0.177696 0.742036 0.397535 F
0.452170 0.261450 0.269896 F
0.822788 0.564211 0.937834 F
0.745087 0.181725 0.607262 F
0.885085 0.068263 0.729752 F
0.194873 0.121675 0.395646 F
0.912769 0.792995 0.064628 F
0.119305 0.199172 0.601930 F
0.057769 0.849568 0.276346 F
0.815688 0.929012 0.936935 F
0.121783 0.561332 0.609669 F
0.436988 0.877442 0.269837 F
0.448480 0.570017 0.936600 F
0.882043 0.430376 0.729570 F
0.574386 0.146726 0.393646 F
0.550589 0.434939 0.056555 F
0.358625 0.572832 0.484351 F
0.203471 0.637403 0.144887 F
0.438794 0.790200 0.811443 F
0.647137 0.205412 0.853546 F
0.565981 0.363640 0.525255 F
0.785831 0.434475 0.184123 F
0.690491 0.616125 0.402362 F
0.927511 0.308932 0.060610 F
0.390797 0.073540 0.735021 F
0.317621 0.923053 0.931511 F
0.615288 0.699296 0.605554 F
0.046288 0.383375 0.267436 F
0.946545 0.745795 0.524194 F
0.786993 0.051915 0.183443 F
0.268852 0.204959 0.854820 F
0.062038 0.792590 0.813162 F
0.735174 0.950307 0.480704 F
0.194958 0.245464 0.146696 F
0.633046 0.555765 0.801205 F
0.926571 0.387066 0.466458 F
0.435011 0.064278 0.131179 F
0.372145 0.939543 0.534964 F
0.550731 0.620798 0.195969 F
0.075033 0.440708 0.865145 F
