Na32 Fe48 P48 O192
1.0
  23.8417282103999995    0.0000000000000000    0.0000000000000000
   0.0000000000000000   25.3123035429999987    0.0000000000000000
  -2.7144492524000001    0.0000000000000000    6.0303370359999997
Na Fe P O
31 48 48 192
direct
   0.7500000000000000    0.5000000000000000    0.0000000000000000 Na
   0.2500000000000000    0.2578785120000000    0.7500000000000000 Na
   0.2500000000000000    0.7578785120000000    0.7500000000000000 Na
   0.7500000000000000    0.2578785120000000    0.7500000000000000 Na
   0.7500000000000000    0.7578785120000000    0.7500000000000000 Na
   0.2499999999999999    0.2421215030000000    0.2500000000000000 Na
   0.2499999999999999    0.7421215030000001    0.2500000000000000 Na
   0.7499999999999998    0.2421215030000000    0.2500000000000000 Na
   0.7499999999999998    0.7421215030000001    0.2500000000000000 Na
   0.2500000000000000    0.0000000000000000    0.5000000000000000 Na
   0.2500000000000000    0.5000000000000000    0.5000000000000000 Na
   0.7500000000000000    0.0000000000000000    0.5000000000000000 Na
   0.2500000000000000    0.0000000000000000    0.0000000000000000 Na
   0.2500000000000000    0.5000000000000000    0.0000000000000000 Na
   0.7500000000000000    0.0000000000000000    0.0000000000000000 Na
   0.0000000000000000    0.0078785000000000    0.7500000000000000 Na
   0.0000000000000000    0.5078785000000000    0.7500000000000000 Na
   0.4999999999999999    0.0078785000000000    0.7500000000000000 Na
   0.4999999999999999    0.5078785000000000    0.7500000000000000 Na
   0.0000000000000000    0.4921214880000001    0.2500000000000000 Na
   0.0000000000000000    0.9921214880000001    0.2500000000000000 Na
   0.4999999999999999    0.4921214880000001    0.2500000000000000 Na
   0.4999999999999999    0.9921214880000001    0.2500000000000000 Na
   0.0000000000000000    0.2500000000000000    0.5000000000000000 Na
   0.0000000000000000    0.7500000000000000    0.5000000000000000 Na
   0.4999999999999999    0.2500000000000000    0.5000000000000000 Na
   0.4999999999999999    0.7500000000000000    0.5000000000000000 Na
   0.0000000000000000    0.2500000000000000    0.0000000000000000 Na
   0.0000000000000000    0.7500000000000000    0.0000000000000000 Na
   0.4999999999999999    0.2500000000000000    0.0000000000000000 Na
   0.4999999999999999    0.7500000000000000    0.0000000000000000 Na
   0.1092312485000000    0.4189172385000000    0.6247749919999999 Fe
   0.1092312485000000    0.9189172385000001    0.6247749919999999 Fe
   0.6092312485000000    0.4189172385000000    0.6247749919999999 Fe
   0.6092312485000000    0.9189172385000001    0.6247749919999999 Fe
   0.1092312485000000    0.0810827465000000    0.1247750000000000 Fe
   0.1092312485000000    0.5810827465000000    0.1247750000000000 Fe
   0.6092312484999999    0.0810827465000000    0.1247750000000000 Fe
   0.6092312484999999    0.5810827465000000    0.1247750000000000 Fe
   0.3907687365000000    0.0810827465000000    0.3752250080000000 Fe
   0.3907687365000000    0.5810827465000000    0.3752250080000000 Fe
   0.8907687364999999    0.0810827465000000    0.3752250080000000 Fe
   0.8907687364999999    0.5810827465000000    0.3752250080000000 Fe
   0.3907687364999999    0.4189172385000000    0.8752250079999999 Fe
   0.3907687364999999    0.9189172385000001    0.8752250079999999 Fe
   0.8907687364999999    0.4189172385000000    0.8752250079999999 Fe
   0.8907687364999999    0.9189172385000001    0.8752250079999999 Fe
   0.3592312635000000    0.1689172535000000    0.6247749919999999 Fe
   0.3592312635000000    0.6689172535000001    0.6247749919999999 Fe
   0.8592312634999999    0.1689172535000000    0.6247749919999999 Fe
   0.8592312634999999    0.6689172535000001    0.6247749919999999 Fe
   0.3592312635000000    0.3310827615000000    0.1247750000000000 Fe
   0.3592312635000000    0.8310827615000000    0.1247750000000000 Fe
   0.8592312634999998    0.3310827615000000    0.1247750000000000 Fe
   0.8592312634999998    0.8310827615000000    0.1247750000000000 Fe
   0.1407687515000000    0.3310827615000000    0.3752250080000000 Fe
   0.1407687515000000    0.8310827615000000    0.3752250080000000 Fe
   0.6407687514999999    0.3310827615000000    0.3752250080000000 Fe
   0.6407687514999999    0.8310827615000000    0.3752250080000000 Fe
   0.1407687515000000    0.1689172535000000    0.8752250079999999 Fe
   0.1407687515000000    0.6689172535000001    0.8752250079999999 Fe
   0.6407687514999999    0.1689172535000000    0.8752250079999999 Fe
   0.6407687514999999    0.6689172535000001    0.8752250079999999 Fe
   0.2499999999999999    0.3848445115000000    0.2500000000000000 Fe
   0.2499999999999999    0.8848445115000000    0.2500000000000000 Fe
   0.7499999999999998    0.3848445115000000    0.2500000000000000 Fe
   0.7499999999999998    0.8848445115000000    0.2500000000000000 Fe
   0.2500000000000000    0.1151555030000000    0.7500000000000000 Fe
   0.2500000000000000    0.6151555030000000    0.7500000000000000 Fe
   0.7500000000000000    0.1151555030000000    0.7500000000000000 Fe
   0.7500000000000000    0.6151555030000000    0.7500000000000000 Fe
   0.0000000000000000    0.1348444970000000    0.2500000000000000 Fe
   0.0000000000000000    0.6348444970000000    0.2500000000000000 Fe
   0.4999999999999999    0.1348444970000000    0.2500000000000000 Fe
   0.4999999999999999    0.6348444970000000    0.2500000000000000 Fe
   0.0000000000000000    0.3651554885000000    0.7500000000000000 Fe
   0.0000000000000000    0.8651554885000000    0.7500000000000000 Fe
   0.4999999999999999    0.3651554885000000    0.7500000000000000 Fe
   0.4999999999999999    0.8651554885000000    0.7500000000000000 Fe
   0.3832747639999999    0.0541992485000000    0.8826259970000000 P
   0.3832747639999999    0.5541992485000000    0.8826259970000000 P
   0.8832747639999998    0.0541992485000000    0.8826259970000000 P
   0.8832747639999998    0.5541992485000000    0.8826259970000000 P
   0.1167252510000000    0.0541992485000000    0.6173740030000000 P
   0.1167252510000000    0.5541992485000000    0.6173740030000000 P
   0.6167252510000000    0.0541992485000000    0.6173740030000000 P
   0.6167252510000000    0.5541992485000000    0.6173740030000000 P
   0.2499999999999999    0.1044114975000000    0.2500000000000000 P
   0.2499999999999999    0.6044114975000000    0.2500000000000000 P
   0.7499999999999998    0.1044114975000000    0.2500000000000000 P
   0.7499999999999998    0.6044114975000000    0.2500000000000000 P
   0.3832747639999999    0.4458007515000000    0.3826259969999999 P
   0.3832747639999999    0.9458007515000001    0.3826259969999999 P
   0.8832747639999999    0.4458007515000000    0.3826259969999999 P
   0.8832747639999999    0.9458007515000001    0.3826259969999999 P
   0.2500000000000000    0.3955884875000000    0.7500000000000000 P
   0.2500000000000000    0.8955884875000001    0.7500000000000000 P
   0.7500000000000000    0.3955884875000000    0.7500000000000000 P
   0.7500000000000000    0.8955884875000001    0.7500000000000000 P
   0.1167252510000000    0.4458007515000000    0.1173740030000000 P
   0.1167252510000000    0.9458007515000001    0.1173740030000000 P
   0.6167252510000000    0.4458007515000000    0.1173740030000000 P
   0.6167252510000000    0.9458007515000001    0.1173740030000000 P
   0.1332747490000000    0.3041992485000000    0.8826259970000000 P
   0.1332747490000000    0.8041992485000000    0.8826259970000000 P
   0.6332747489999999    0.3041992485000000    0.8826259970000000 P
   0.6332747489999999    0.8041992485000000    0.8826259970000000 P
   0.3667252360000000    0.3041992485000000    0.6173740030000000 P
   0.3667252360000000    0.8041992485000000    0.6173740030000000 P
   0.8667252360000000    0.3041992485000000    0.6173740030000000 P
   0.8667252360000000    0.8041992485000000    0.6173740030000000 P
   0.0000000000000000    0.3544115125000001    0.2500000000000000 P
   0.0000000000000000    0.8544115125000001    0.2500000000000000 P
   0.4999999999999999    0.3544115125000001    0.2500000000000000 P
   0.4999999999999999    0.8544115125000001    0.2500000000000000 P
   0.1332747490000000    0.1958007515000000    0.3826259969999999 P
   0.1332747490000000    0.6958007515000000    0.3826259969999999 P
   0.6332747489999999    0.1958007515000000    0.3826259969999999 P
   0.6332747489999999    0.6958007515000000    0.3826259969999999 P
   0.0000000000000000    0.1455885025000000    0.7500000000000000 P
   0.0000000000000000    0.6455885025000001    0.7500000000000000 P
   0.4999999999999999    0.1455885025000000    0.7500000000000000 P
   0.4999999999999999    0.6455885025000001    0.7500000000000000 P
   0.3667252360000000    0.1958007515000000    0.1173740030000000 P
   0.3667252360000000    0.6958007515000000    0.1173740030000000 P
   0.8667252360000000    0.1958007515000000    0.1173740030000000 P
   0.8667252360000000    0.6958007515000000    0.1173740030000000 P
   0.1098137500000000    0.0877352505000000    0.8049330120000000 O
   0.1098137500000000    0.5877352505000000    0.8049330120000000 O
   0.6098137499999999    0.0877352505000000    0.8049330120000000 O
   0.6098137499999999    0.5877352505000000    0.8049330120000000 O
   0.3014320135000000    0.0668179990000000    0.2547979950000000 O
   0.3014320135000000    0.5668179990000001    0.2547979950000000 O
   0.8014320134999998    0.0668179990000000    0.2547979950000000 O
   0.8014320134999998    0.5668179990000001    0.2547979950000000 O
   0.1857095065000000    0.0502020010000000    0.6673020120000001 O
   0.1857095065000000    0.5502020010000001    0.6673020120000001 O
   0.6857095065000000    0.0502020010000000    0.6673020120000001 O
   0.6857095065000000    0.5502020010000001    0.6673020120000001 O
   0.1098137500000000    0.4122647645000000    0.3049330120000000 O
   0.1098137500000000    0.9122647644999999    0.3049330120000000 O
   0.6098137500000000    0.4122647645000000    0.3049330120000000 O
   0.6098137500000000    0.9122647644999999    0.3049330120000000 O
   0.3142904935000000    0.0502020010000000    0.8326979879999999 O
   0.3142904935000000    0.5502020010000001    0.8326979879999999 O
   0.8142904935000000    0.0502020010000000    0.8326979879999999 O
   0.8142904935000000    0.5502020010000001    0.8326979879999999 O
   0.1702927500000000    0.1683102550000000    0.6124230030000000 O
   0.1702927500000000    0.6683102550000001    0.6124230030000000 O
   0.6702927499999999    0.1683102550000000    0.6124230030000000 O
   0.6702927499999999    0.6683102550000001    0.6124230030000000 O
   0.3014320135000000    0.4331820010000000    0.7547979950000000 O
   0.3014320135000000    0.9331820010000001    0.7547979950000000 O
   0.8014320135000000    0.4331820010000000    0.7547979950000000 O
   0.8014320135000000    0.9331820010000001    0.7547979950000000 O
   0.0856560020000000    0.4995189905000000    0.6059460040000000 O
   0.0856560020000000    0.9995189905000000    0.6059460040000000 O
   0.5856560020000000    0.4995189905000000    0.6059460040000000 O
   0.5856560020000000    0.9995189905000000    0.6059460040000000 O
   0.3297072650000000    0.3316897450000000    0.3875769969999999 O
   0.3297072650000000    0.8316897450000000    0.3875769969999999 O
   0.8297072649999999    0.3316897450000000    0.3875769969999999 O
   0.8297072649999999    0.8316897450000000    0.3875769969999999 O
   0.2290945055000000    0.1400029955000000    0.0381870010000000 O
   0.2290945055000000    0.6400029955000001    0.0381870010000000 O
   0.7290945055000000    0.1400029955000000    0.0381870010000000 O
   0.7290945055000000    0.6400029955000001    0.0381870010000000 O
   0.1702927500000000    0.3316897450000000    0.1124230030000000 O
   0.1702927500000000    0.8316897450000000    0.1124230030000000 O
   0.6702927499999999    0.3316897450000000    0.1124230030000000 O
   0.6702927499999999    0.8316897450000000    0.1124230030000000 O
   0.0856560020000000    0.0004810000000000    0.1059459970000000 O
   0.0856560020000000    0.5004810000000001    0.1059459970000000 O
   0.5856560019999999    0.0004810000000000    0.1059459970000000 O
   0.5856560019999999    0.5004810000000001    0.1059459970000000 O
   0.3142904934999999    0.4497979880000000    0.3326979879999999 O
   0.3142904934999999    0.9497979880000000    0.3326979879999999 O
   0.8142904934999999    0.4497979880000000    0.3326979879999999 O
   0.8142904934999999    0.9497979880000000    0.3326979879999999 O
   0.3901862500000000    0.0877352505000000    0.6950669880000000 O
   0.3901862500000000    0.5877352505000000    0.6950669880000000 O
   0.8901862500000000    0.0877352505000000    0.6950669880000000 O
   0.8901862500000000    0.5877352505000000    0.6950669880000000 O
   0.1985680015000000    0.4331820010000000    0.7452020050000000 O
   0.1985680015000000    0.9331820010000001    0.7452020050000000 O
   0.6985680015000000    0.4331820010000000    0.7452020050000000 O
   0.6985680015000000    0.9331820010000001    0.7452020050000000 O
   0.3297072650000000    0.1683102550000000    0.8875769969999999 O
   0.3297072650000000    0.6683102550000001    0.8875769969999999 O
   0.8297072649999999    0.1683102550000000    0.8875769969999999 O
   0.8297072649999999    0.6683102550000001    0.8875769969999999 O
   0.1985680015000000    0.0668179990000000    0.2452020050000000 O
   0.1985680015000000    0.5668179990000001    0.2452020050000000 O
   0.6985680014999999    0.0668179990000000    0.2452020050000000 O
   0.6985680014999999    0.5668179990000001    0.2452020050000000 O
   0.3901862500000000    0.4122647645000000    0.1950670030000000 O
   0.3901862500000000    0.9122647644999999    0.1950670030000000 O
   0.8901862500000000    0.4122647645000000    0.1950670030000000 O
   0.8901862500000000    0.9122647644999999    0.1950670030000000 O
   0.4143440125000000    0.4995189905000000    0.8940539959999999 O
   0.4143440125000000    0.9995189905000000    0.8940539959999999 O
   0.9143440124999999    0.4995189905000000    0.8940539959999999 O
   0.9143440124999999    0.9995189905000000    0.8940539959999999 O
   0.2709054945000000    0.3599970045000000    0.9618129730000000 O
   0.2709054945000000    0.8599970045000001    0.9618129730000000 O
   0.7709054944999999    0.3599970045000000    0.9618129730000000 O
   0.7709054944999999    0.8599970045000001    0.9618129730000000 O
   0.4143440125000000    0.0004810000000000    0.3940539960000000 O
   0.4143440125000000    0.5004810000000001    0.3940539960000000 O
   0.9143440125000000    0.0004810000000000    0.3940539960000000 O
   0.9143440125000000    0.5004810000000001    0.3940539960000000 O
   0.2709054945000000    0.1400029955000000    0.4618130029999999 O
   0.2709054945000000    0.6400029955000001    0.4618130029999999 O
   0.7709054945000000    0.1400029955000000    0.4618130029999999 O
   0.7709054945000000    0.6400029955000001    0.4618130029999999 O
   0.2290945054999999    0.3599970045000000    0.5381870270000000 O
   0.2290945054999999    0.8599970045000001    0.5381870270000000 O
   0.7290945054999999    0.3599970045000000    0.5381870270000000 O
   0.7290945054999999    0.8599970045000001    0.5381870270000000 O
   0.1857095065000000    0.4497979880000000    0.1673019980000000 O
   0.1857095065000000    0.9497979880000000    0.1673019980000000 O
   0.6857095065000000    0.4497979880000000    0.1673019980000000 O
   0.6857095065000000    0.9497979880000000    0.1673019980000000 O
   0.3598137500000000    0.3377352355000000    0.8049330120000000 O
   0.3598137500000000    0.8377352355000000    0.8049330120000000 O
   0.8598137499999999    0.3377352355000000    0.8049330120000000 O
   0.8598137499999999    0.8377352355000000    0.8049330120000000 O
   0.0514319985000000    0.3168179990000000    0.2547979950000000 O
   0.0514319985000000    0.8168179990000001    0.2547979950000000 O
   0.5514319984999999    0.3168179990000000    0.2547979950000000 O
   0.5514319984999999    0.8168179990000001    0.2547979950000000 O
   0.4357095065000000    0.3002020120000000    0.6673020120000001 O
   0.4357095065000000    0.8002020120000001    0.6673020120000001 O
   0.9357095064999998    0.3002020120000000    0.6673020120000001 O
   0.9357095064999998    0.8002020120000001    0.6673020120000001 O
   0.3598137499999999    0.1622647495000000    0.3049330120000000 O
   0.3598137499999999    0.6622647495000000    0.3049330120000000 O
   0.8598137500000000    0.1622647495000000    0.3049330120000000 O
   0.8598137500000000    0.6622647495000000    0.3049330120000000 O
   0.0642905010000000    0.3002020120000000    0.8326979879999999 O
   0.0642905010000000    0.8002020120000001    0.8326979879999999 O
   0.5642905009999999    0.3002020120000000    0.8326979879999999 O
   0.5642905009999999    0.8002020120000001    0.8326979879999999 O
   0.4202927349999999    0.4183102550000001    0.6124230030000000 O
   0.4202927349999999    0.9183102550000001    0.6124230030000000 O
   0.9202927349999999    0.4183102550000001    0.6124230030000000 O
   0.9202927349999999    0.9183102550000001    0.6124230030000000 O
   0.0514319985000000    0.1831820010000000    0.7547979950000000 O
   0.0514319985000000    0.6831820009999999    0.7547979950000000 O
   0.5514319984999999    0.1831820010000000    0.7547979950000000 O
   0.5514319984999999    0.6831820009999999    0.7547979950000000 O
   0.3356559874999999    0.2495190055000000    0.6059460040000000 O
   0.3356559874999999    0.7495190055000001    0.6059460040000000 O
   0.8356559875000000    0.2495190055000000    0.6059460040000000 O
   0.8356559875000000    0.7495190055000001    0.6059460040000000 O
   0.0797072500000000    0.0816897525000000    0.3875769969999999 O
   0.0797072500000000    0.5816897525000000    0.3875769969999999 O
   0.5797072500000000    0.0816897525000000    0.3875769969999999 O
   0.5797072500000000    0.5816897525000000    0.3875769969999999 O
   0.4790945054999999    0.3900029955000001    0.0381870010000000 O
   0.4790945054999999    0.8900029955000001    0.0381870010000000 O
   0.9790945054999999    0.3900029955000001    0.0381870010000000 O
   0.9790945054999999    0.8900029955000001    0.0381870010000000 O
   0.4202927349999999    0.0816897525000000    0.1124230030000000 O
   0.4202927349999999    0.5816897525000000    0.1124230030000000 O
   0.9202927349999998    0.0816897525000000    0.1124230030000000 O
   0.9202927349999998    0.5816897525000000    0.1124230030000000 O
   0.3356559875000000    0.2504810095000000    0.1059459970000000 O
   0.3356559875000000    0.7504810095000001    0.1059459970000000 O
   0.8356559874999999    0.2504810095000000    0.1059459970000000 O
   0.8356559874999999    0.7504810095000001    0.1059459970000000 O
   0.0642905010000000    0.1997980030000000    0.3326979879999999 O
   0.0642905010000000    0.6997980030000001    0.3326979879999999 O
   0.5642905009999999    0.1997980030000000    0.3326979879999999 O
   0.5642905009999999    0.6997980030000001    0.3326979879999999 O
   0.1401862500000000    0.3377352355000000    0.6950669880000000 O
   0.1401862500000000    0.8377352355000000    0.6950669880000000 O
   0.6401862500000000    0.3377352355000000    0.6950669880000000 O
   0.6401862500000000    0.8377352355000000    0.6950669880000000 O
   0.4485679865000000    0.1831820010000000    0.7452020050000000 O
   0.4485679865000000    0.6831820009999999    0.7452020050000000 O
   0.9485679865000000    0.1831820010000000    0.7452020050000000 O
   0.9485679865000000    0.6831820009999999    0.7452020050000000 O
   0.0797072500000000    0.4183102550000001    0.8875769969999999 O
   0.0797072500000000    0.9183102550000001    0.8875769969999999 O
   0.5797072499999999    0.4183102550000001    0.8875769969999999 O
   0.5797072499999999    0.9183102550000001    0.8875769969999999 O
   0.4485679865000000    0.3168179990000000    0.2452020050000000 O
   0.4485679865000000    0.8168179990000001    0.2452020050000000 O
   0.9485679864999998    0.3168179990000000    0.2452020050000000 O
   0.9485679864999998    0.8168179990000001    0.2452020050000000 O
   0.1401862500000000    0.1622647495000000    0.1950670030000000 O
   0.1401862500000000    0.6622647495000000    0.1950670030000000 O
   0.6401862500000001    0.1622647495000000    0.1950670030000000 O
   0.6401862500000001    0.6622647495000000    0.1950670030000000 O
   0.1643439980000000    0.2495190055000000    0.8940539959999999 O
   0.1643439980000000    0.7495190055000001    0.8940539959999999 O
   0.6643439979999999    0.2495190055000000    0.8940539959999999 O
   0.6643439979999999    0.7495190055000001    0.8940539959999999 O
   0.0209055005000000    0.1099969970000000    0.9618129730000000 O
   0.0209055005000000    0.6099969970000001    0.9618129730000000 O
   0.5209055005000000    0.1099969970000000    0.9618129730000000 O
   0.5209055005000000    0.6099969970000001    0.9618129730000000 O
   0.1643439980000000    0.2504810095000000    0.3940539960000000 O
   0.1643439980000000    0.7504810095000001    0.3940539960000000 O
   0.6643439980000000    0.2504810095000000    0.3940539960000000 O
   0.6643439980000000    0.7504810095000001    0.3940539960000000 O
   0.0209055005000000    0.3900029955000001    0.4618130029999999 O
   0.0209055005000000    0.8900029955000001    0.4618130029999999 O
   0.5209055005000000    0.3900029955000001    0.4618130029999999 O
   0.5209055005000000    0.8900029955000001    0.4618130029999999 O
   0.4790945055000000    0.1099969970000000    0.5381870270000000 O
   0.4790945055000000    0.6099969970000001    0.5381870270000000 O
   0.9790945055000000    0.1099969970000000    0.5381870270000000 O
   0.9790945055000000    0.6099969970000001    0.5381870270000000 O
   0.4357095065000000    0.1997980030000000    0.1673019980000000 O
   0.4357095065000000    0.6997980030000001    0.1673019980000000 O
   0.9357095064999998    0.1997980030000000    0.1673019980000000 O
   0.9357095064999998    0.6997980030000001    0.1673019980000000 O
