Ca1 Ni16 F48                            
   1.00000000000000     
    10.4530159999999999   -0.0000860000000000   -0.0274630000000000
    -0.0001740000000000    7.2692930000000002   -0.0058880000000000
    -0.0256150000000000    0.0133160000000000   10.0661009999999997
   Ca   Ni   F 
     1    16    48
Direct
  0.4917771549559934  0.8463958266805232  0.4933857926329763
  0.9993886593193791  0.5008740725925256  0.2480048635193283
  1.0004283259382312  0.5009161792706563  0.7510817745243967
  0.4998714078459180  0.4988211532766640  0.2419512741776684
  0.4998434821939303  0.4976137213958268  0.7564969646167780
  0.2433719391734065  0.9983161764106817 -0.0019164176256569
  0.2328453108505945  0.0139014424133578  0.4959724616199391
  0.7564951599034234  0.0030683947667833  1.0027507013637411
  0.7668171323932426  0.0062221790055482  0.5051315827347079
  0.9972239346382151  0.0014518014527672  0.2439851902282745
  1.0034419081656740  1.0002820125312786  0.7555353182142350
  0.4961043805512647  0.0142818780325621  0.2283911953469079
  0.5037980923012750  0.0036079314049373  0.7715903623229482
  0.2474048428504283  0.4981268613378976 -0.0008472578353542
  0.2474865711545320  0.5023245354747773  0.4989877091953503
  0.7524832491116924  0.5029574380106862  1.0001645736390019
  0.7521261922589794  0.5004633637107001  0.4994660520571779
  0.4917402707178540  0.2595064286102062  0.1753493442799212
  0.4951828198902437  0.2462087456729201  0.7017300427436632
  0.9845927963993356  0.2480206358158971  0.1891636979400771
  0.9889392161351613  0.2456954506067329  0.6975531865538568
  0.2331642294788311  0.2519343308007611  0.0567330121224935
  0.2347247522218187  0.2592234796510864  0.5566883252120922
  0.7435326466243840  0.2561793118538477  0.0599170144816636
  0.7415506121341134  0.2566271493771908  0.5563231398486765
  0.0114460642102590  0.7558481547927645  0.3027090343627671
  0.0154867272181508  0.7536277668270664  0.8100430058834995
  0.5058670715765206  0.7549816367835510  0.2891862761085811
  0.5072802273968660  0.7489653297640021  0.8176457775423723
  0.2679710257807356  0.7558308689464712  0.4471562332037788
  0.2574165977486751  0.7446427626720675  0.9408171180764302
  0.7551877499546668  0.7499445969231463  0.4469804374059882
  0.7659124430860152  0.7502031759001534  0.9432679573611917
  0.3443559751796268  0.5557756386773526  0.1487335265028348
  0.3527617604855645  0.5605563273836371  0.6479952210700949
  0.8474846009413168  0.5600501695847487  0.1516207035512617
  0.8487291472545504  0.5560974658848334  0.6519651143856334
  0.0916013052187431  0.9416299596975441  0.0910536992211309
  0.0947354690330362  0.9403757572982178  0.6016418260504557
  0.6045077429678026  0.9429673369241744  0.0907364505866006
  0.6297074163568367  0.9420588053299769  0.6350996667715008
  0.1429040450939602  0.0620794973638340  0.3360523994999961
  0.1539568461840149  0.0600822125618102  0.8429695687180578
  0.6339158018325559  0.0473936725296949  0.3653832380413839
  0.6558917528296010  0.0689429880969074  0.8609000647391256
  0.4004602479895897  0.4557907454014352  0.4028679561164077
  0.3967660337781224  0.4388044915306452  0.9071486809882361
  0.9006520672391281  0.4477399521122248  0.4034283385207030
  0.9010423804383378  0.4463197545173411  0.9063168739437751
  0.1510265026092101  0.4478953073480782  0.3467996143060236
  0.1526844091095025  0.4414552922982118  0.8477068332689668
  0.6502584518081715  0.4470389737906703  0.3483699858047589
  0.6553580028704711  0.4457507135782852  0.8500538295668623
  0.3820558313842961  0.0708184199126482  0.3804776468602057
  0.3954077350457258  0.0618501344079019  0.9111779459261679
  0.9068285459119175  0.0638103206000164  0.3972570910388693
  0.9080562127722817  0.0583989755076625  0.9085956407860417
  0.3432802324885785  0.9390314894785998  0.1426159075999074
  0.3577858473419600  0.9532608045435537  0.6476249189007326
  0.8460675914729209  0.9405193598090397  0.1576965014349532
  0.8605758427487578  0.9406626045870795  0.6601903450824986
  0.0987794938623219  0.5551815221806269  0.0930070399212725
  0.0998630711130147  0.5570174207393330  0.5958742396031991
  0.6034220445941162  0.5617712024688950  0.0921407527257099
  0.5981047887366965  0.5611328001878426  0.5951276381931201
 
             NaN             NaN             NaN
             NaN             NaN             NaN
             NaN             NaN             NaN
             NaN             NaN             NaN
             NaN             NaN             NaN
             NaN             NaN             NaN
             NaN             NaN             NaN
             NaN             NaN             NaN
             NaN             NaN             NaN
             NaN             NaN             NaN
             NaN             NaN             NaN
             NaN             NaN             NaN
             NaN             NaN             NaN
             NaN             NaN             NaN
             NaN             NaN             NaN
             NaN             NaN             NaN
             NaN             NaN             NaN
             NaN             NaN             NaN
             NaN             NaN             NaN
             NaN             NaN             NaN
             NaN             NaN             NaN
             NaN             NaN             NaN
             NaN             NaN             NaN
             NaN             NaN             NaN
             NaN             NaN             NaN
             NaN             NaN             NaN
             NaN             NaN             NaN
             NaN             NaN             NaN
             NaN             NaN             NaN
             NaN             NaN             NaN
             NaN             NaN             NaN
             NaN             NaN             NaN
             NaN             NaN             NaN
             NaN             NaN             NaN
             NaN             NaN             NaN
             NaN             NaN             NaN
             NaN             NaN             NaN
             NaN             NaN             NaN
             NaN             NaN             NaN
             NaN             NaN             NaN
             NaN             NaN             NaN
             NaN             NaN             NaN
             NaN             NaN             NaN
             NaN             NaN             NaN
             NaN             NaN             NaN
             NaN             NaN             NaN
             NaN             NaN             NaN
             NaN             NaN             NaN
             NaN             NaN             NaN
             NaN             NaN             NaN
             NaN             NaN             NaN
             NaN             NaN             NaN
             NaN             NaN             NaN
             NaN             NaN             NaN
             NaN             NaN             NaN
             NaN             NaN             NaN
             NaN             NaN             NaN
             NaN             NaN             NaN
             NaN             NaN             NaN
             NaN             NaN             NaN
             NaN             NaN             NaN
             NaN             NaN             NaN
             NaN             NaN             NaN
             NaN             NaN             NaN
             NaN             NaN             NaN
