Ca1 Ni16 F48
1.0
10.453016 -0.000086 -0.027463
-0.000174 7.269293 -0.005888
-0.025615 0.013316 10.066101
Ca Ni F
1 16 48
direct
0.486414 -0.124879 0.504029 Ca
-0.000364 0.499891 0.246748 Ni
-0.000404 0.500058 0.752551 Ni
0.501622 0.496101 0.239355 Ni
0.499462 0.497406 0.762558 Ni
0.246719 0.999664 1.000803 Ni
0.239804 1.004319 0.499930 Ni
0.753473 0.000587 0.999817 Ni
0.758095 1.001345 0.498640 Ni
-0.000244 0.000321 0.246833 Ni
-0.000394 0.999674 0.752411 Ni
0.501550 1.002812 0.240051 Ni
0.499645 1.003047 0.761502 Ni
0.246849 0.500139 1.000976 Ni
0.240751 0.496095 0.499959 Ni
0.753283 0.499723 0.999785 Ni
0.756991 0.498686 0.498891 Ni
0.483955 0.248614 0.188786 F
0.483807 0.249333 0.706144 F
0.986191 0.248150 0.191561 F
0.987698 0.247784 0.698042 F
0.233186 0.252291 0.055650 F
0.239646 0.250863 0.556861 F
0.741756 0.252100 0.056331 F
0.746044 0.251297 0.553791 F
0.012321 0.752057 0.302296 F
0.012298 0.751983 0.807251 F
0.517590 0.750294 0.291878 F
0.515329 0.751551 0.807347 F
0.255856 0.749427 0.446908 F
0.260377 0.747439 0.945222 F
0.751940 0.748500 0.445796 F
0.764751 0.748216 0.944315 F
0.344203 0.554687 0.151966 F
0.351756 0.558337 0.650560 F
0.846891 0.556624 0.153278 F
0.849765 0.555987 0.653759 F
0.095146 0.944014 0.094407 F
0.092349 0.945041 0.598557 F
0.600282 0.947489 0.089727 F
0.601459 0.959788 0.601328 F
0.149343 0.057512 0.341004 F
0.151795 0.053614 0.844271 F
0.649876 0.057097 0.345881 F
0.654808 0.058111 0.848930 F
0.401269 0.462952 0.403022 F
0.398992 0.444070 0.913071 F
0.905019 0.447256 0.401771 F
0.903640 0.445098 0.907139 F
0.149439 0.442392 0.343314 F
0.153523 0.445858 0.846617 F
0.650770 0.442105 0.348075 F
0.656524 0.442396 0.849487 F
0.402019 0.036863 0.402345 F
0.399627 0.055091 0.910966 F
0.906954 0.054471 0.400760 F
0.904982 0.055152 0.905606 F
0.346629 0.944972 0.152746 F
0.352219 0.942102 0.651350 F
0.848199 0.944012 0.155083 F
0.850394 0.944232 0.656810 F
0.096351 0.556171 0.092743 F
0.093837 0.553095 0.597518 F
0.600974 0.553305 0.088255 F
0.601846 0.540218 0.600712 F
