Na2 Ca2 V4 Si2 P4 O24                   
   1.00000000000000     
     8.8891720000000003    0.1458090000000000    0.0715710000000000
     4.3239609999999997    7.7178079999999998    0.0945200000000000
     4.4324849999999998    2.5883319999999999    7.1980069999999996
   Ca   Na   V    Si   P    O 
     2     2     4     2     4    24
Direct
  0.7345506740927936  0.4095294997622460  0.1382038459710066
  0.0015962193397344  0.9842871006039555  0.0092290016130899
  0.3380918492270146  0.6096032116855509  0.5182620168081453
  0.8466608090336929  0.2550913992886855  0.5974411956676378
  0.3508058206886378  0.3599076991209424  0.3514756919997429
  0.6169521625343884  0.6529740510045334  0.6549144512873677
  0.1516105714369194  0.1476357732951090  0.1450088557507746
  0.8463714015685455  0.8548327373632366  0.8573418456733950
  0.4438092872526718  0.7624657019709663  0.0373975102617290
  0.5397905716963393  0.2575540833673159  0.9636870386546713
  0.0199114601898050  0.4651026702598954  0.7516711058889520
  0.9593918047851719  0.5466364443947200  0.2489276101424525
  0.7366856968375005  0.0415616694247384  0.4674492990089326
  0.2451326716362782  0.9691368166260872  0.5356868547115072
  0.1918114036361792  0.4269367546938800  0.5834063247846671
  0.7877464587756020  0.5739057708922507  0.4238152511199550
  0.5747159343726712  0.2308558632499303  0.4433465953848020
  0.4108296793555302  0.7891793840437625  0.5564584421620477
  0.4212645867191237  0.5838394327819790  0.2345083884409689
  0.5574666199368999  0.4294288151197717  0.7639788858072192
  0.8984633532804386  0.0787091268646755  0.2719863192675827
  0.0756484004563335  0.9576531565710924  0.7221778259020915
  0.0369120044146157  0.2868989343994733  0.9321542761903683
  0.9379963451947178  0.7248274959200035  0.0755079078849945
  0.2577024076647905  0.9417194658170194  0.0594709191658642
  0.7277770652655390  0.0765009725175290  0.9331754789083291
  0.5296324663525368  0.2999404966366080  0.1298359262781884
  0.4705067724491970  0.7208719515661114  0.8625300519454284
  0.1392831415971508  0.5078109251810661  0.2655704479267080
  0.8357194878630734  0.4936538863179031  0.7475713009357176
  0.2893572046900508  0.1379973170547195  0.4865466295794604
  0.6979842463062237  0.8761084535758832  0.5015467031847450
  0.3494367699898870  0.2187002228439722  0.0245869720468285
  0.6425608331370357  0.7654764356364245  1.0011014542168160
  0.1909659547981509  0.9888879508544383  0.3839103605697435
  0.7908779686913779  0.0115492963879848  0.6236362617270758
  0.9654402416470983  0.3775799544268900  0.2277591814195450
  0.0119999007804332  0.6309044107607545  0.7755091516466359
 
             NaN             NaN             NaN
             NaN             NaN             NaN
             NaN             NaN             NaN
             NaN             NaN             NaN
             NaN             NaN             NaN
             NaN             NaN             NaN
             NaN             NaN             NaN
             NaN             NaN             NaN
             NaN             NaN             NaN
             NaN             NaN             NaN
             NaN             NaN             NaN
             NaN             NaN             NaN
             NaN             NaN             NaN
             NaN             NaN             NaN
             NaN             NaN             NaN
             NaN             NaN             NaN
             NaN             NaN             NaN
             NaN             NaN             NaN
             NaN             NaN             NaN
             NaN             NaN             NaN
             NaN             NaN             NaN
             NaN             NaN             NaN
             NaN             NaN             NaN
             NaN             NaN             NaN
             NaN             NaN             NaN
             NaN             NaN             NaN
             NaN             NaN             NaN
             NaN             NaN             NaN
             NaN             NaN             NaN
             NaN             NaN             NaN
             NaN             NaN             NaN
             NaN             NaN             NaN
             NaN             NaN             NaN
             NaN             NaN             NaN
             NaN             NaN             NaN
             NaN             NaN             NaN
             NaN             NaN             NaN
             NaN             NaN             NaN
