Na2 Ca2 V4 Si2 P4 O24
1.0
8.889172 0.145809 0.071571
4.323961 7.717808 0.094520
4.432485 2.588332 7.198007
Ca Na V Si P O
2 2 4 2 4 24
direct
0.706564 0.420888 0.171453 Ca
1.004721 0.985148 0.002199 Ca
0.370104 0.554201 0.531706 Na
0.863346 0.253274 0.594550 Na
0.352381 0.359371 0.346324 V
0.619985 0.655331 0.650010 V
0.152320 0.149144 0.138095 V
0.847896 0.854933 0.852537 V
0.445509 0.760617 0.035802 Si
0.542004 0.255838 0.957847 Si
0.023832 0.466779 0.745243 P
0.960035 0.546293 0.243289 P
0.738263 0.045154 0.462415 P
0.249078 0.965151 0.528793 P
0.197805 0.432730 0.576796 O
0.787270 0.573368 0.417808 O
0.575767 0.234574 0.439923 O
0.413539 0.783441 0.548616 O
0.424414 0.581978 0.231979 O
0.562332 0.426222 0.756637 O
0.899153 0.078304 0.266469 O
0.080276 0.953789 0.716439 O
0.041986 0.285995 0.923214 O
0.940115 0.725313 0.070636 O
0.258467 0.939401 0.056111 O
0.731576 0.076441 0.928002 O
0.527620 0.300233 0.124323 O
0.473949 0.716006 0.861135 O
0.138017 0.505626 0.264449 O
0.842938 0.494218 0.735808 O
0.294802 0.133336 0.482628 O
0.696272 0.879953 0.500307 O
0.352842 0.217999 0.014147 O
0.641573 0.772343 0.994233 O
0.190617 0.995423 0.375760 O
0.793769 0.016222 0.617058 O
-0.031645 0.378229 0.220087 O
1.009241 0.631530 0.774892 O
