Al12 V24 O60
1.0
  10.8651222256165294   -0.0000021246946911   -0.0000019037272890
  -0.0000019333107843    9.9199127690263342   -0.0001072404090948
  -0.0000018716944141   -0.0001023599787834   10.7537580236013000
Al V O
11 24 60
direct
   0.5000001222841203    0.5997167518866175    0.7500337308583447 Al
   0.1666668133267528    0.4002863935978919    0.2499930932305585 Al
   0.5000001466600862    0.4002863935978920    0.2499930932305585 Al
   0.8333334799934194    0.4002863935978920    0.2499930932305585 Al
   0.0000001312663572    0.0997089867665034    0.7500017770862696 Al
   0.3333334645996905    0.0997089867665034    0.7500017770862696 Al
   0.6666667979330237    0.0997089867665034    0.7500017770862696 Al
   0.3333329963130613    0.9002874113301135    0.2500385380041232 Al
   0.6666663296463946    0.9002874113301134    0.2500385380041232 Al
   0.9999996629797280    0.9002874113301134    0.2500385380041232 Al
   0.8333334556174535    0.5997167518866175    0.7500337308583447 Al
   0.0000001176121675    0.2029362919114585    0.1018480468709504 V
   0.3333334509455008    0.2029362919114585    0.1018480468709504 V
   0.6666667842788341    0.2029362919114585    0.1018480468709504 V
   0.1666667726619780    0.2970021414247836    0.8981607896282445 V
   0.5000001059953113    0.2970021414247836    0.8981607896282445 V
   0.8333334393286445    0.2970021414247836    0.8981607896282446 V
   0.1666668357464512    0.2970613887792709    0.6018582536311199 V
   0.5000001690797845    0.2970613887792709    0.6018582536311199 V
   0.8333335024131179    0.2970613887792709    0.6018582536311199 V
   0.0000001387365186    0.2030018300001725    0.3981760802026992 V
   0.3333334720698519    0.2030018300001725    0.3981760802026993 V
   0.6666668054031851    0.2030018300001725    0.3981760802026992 V
   0.1666665269982049    0.7029598848596462    0.1018472934198753 V
   0.4999998603315382    0.7029598848596461    0.1018472934198753 V
   0.8333331936648715    0.7029598848596462    0.1018472934198753 V
   0.9999999216964143    0.7970166517190157    0.8981684650650471 V
   0.3333332550297476    0.7970166517190158    0.8981684650650472 V
   0.6666665883630809    0.7970166517190158    0.8981684650650472 V
   0.9999997349436845    0.7970386529825604    0.6018346926575859 V
   0.3333330682770179    0.7970386529825604    0.6018346926575859 V
   0.6666664016103513    0.7970386529825605    0.6018346926575859 V
   0.1666669699127736    0.7029864181527370    0.3981546570826416 V
   0.5000003032461069    0.7029864181527369    0.3981546570826416 V
   0.8333336365794404    0.7029864181527370    0.3981546570826415 V
   0.1666667985851551    0.1685893366203830    0.7499922393662745 O
   0.5000001319184885    0.1685893366203830    0.7499922393662745 O
   0.8333334652518217    0.1685893366203830    0.7499922393662746 O
   0.0000001382301101    0.3313994007721220    0.2499943277634021 O
   0.3333334715634435    0.3313994007721220    0.2499943277634021 O
   0.6666668048967767    0.3313994007721220    0.2499943277634021 O
   0.0000001754615237    0.2248899943999296    0.5897809182368657 O
   0.3333335087948570    0.2248899943999296    0.5897809182368657 O
   0.6666668421281903    0.2248899943999296    0.5897809182368656 O
   0.1666668207163916    0.2751887489539604    0.4102371269158210 O
   0.5000001540497249    0.2751887489539604    0.4102371269158210 O
   0.8333334873830582    0.2751887489539604    0.4102371269158210 O
   0.1666668307389562    0.2751059317592043    0.0897762039975834 O
   0.5000001640722895    0.2751059317592043    0.0897762039975834 O
   0.8333334974056227    0.2751059317592043    0.0897762039975834 O
   0.0000000908177023    0.2248204996370634    0.9102246962102025 O
   0.3333334241510356    0.2248204996370634    0.9102246962102025 O
   0.6666667574843689    0.2248204996370635    0.9102246962102026 O
   0.9999999743701010    0.0344688762243729    0.1324690217648128 O
   0.3333333077034342    0.0344688762243729    0.1324690217648128 O
   0.6666666410367676    0.0344688762243729    0.1324690217648128 O
   0.1666667498488605    0.4654825351010795    0.8675629453334236 O
   0.5000000831821937    0.4654825351010794    0.8675629453334236 O
   0.8333334165155272    0.4654825351010795    0.8675629453334237 O
   0.0000001008679123    0.0345236829968672    0.3675662212734427 O
   0.3333334342012456    0.0345236829968672    0.3675662212734427 O
   0.6666667675345789    0.0345236829968672    0.3675662212734426 O
   0.1666668929225463    0.4655280838306531    0.6324645991351299 O
   0.5000002262558795    0.4655280838306530    0.6324645991351299 O
   0.8333335595892130    0.4655280838306531    0.6324645991351299 O
   0.9999999794708992    0.6686022583100699    0.7499921382488691 O
   0.3333333128042326    0.6686022583100699    0.7499921382488692 O
   0.6666666461375660    0.6686022583100699    0.7499921382488692 O
   0.1666663570914154    0.8314039095884399    0.2499946524969461 O
   0.4999996904247488    0.8314039095884398    0.2499946524969461 O
   0.8333330237580820    0.8314039095884399    0.2499946524969461 O
   0.1666663608242377    0.7248821734240497    0.5897425681738659 O
   0.4999996941575710    0.7248821734240496    0.5897425681738659 O
   0.8333330274909044    0.7248821734240497    0.5897425681738659 O
   0.0000001919284523    0.7751797369088818    0.4101906745943016 O
   0.3333335252617856    0.7751797369088818    0.4101906745943017 O
   0.6666668585951189    0.7751797369088818    0.4101906745943016 O
   0.9999990078715824    0.7751096319370637    0.0897502223228851 O
   0.3333323412049156    0.7751096319370637    0.0897502223228851 O
   0.6666656745382490    0.7751096319370638    0.0897502223228851 O
   0.1666665750421846    0.7248228191604572    0.9102049422277846 O
   0.4999999083755179    0.7248228191604573    0.9102049422277846 O
   0.8333332417088511    0.7248228191604572    0.9102049422277846 O
   0.1666666757279530    0.5344876551715094    0.1324299167821340 O
   0.5000000090612864    0.5344876551715094    0.1324299167821340 O
   0.8333333423946196    0.5344876551715094    0.1324299167821340 O
   0.0000002241905496    0.9654770468422843    0.8675458159121566 O
   0.3333335575238829    0.9654770468422844    0.8675458159121567 O
   0.6666668908572162    0.9654770468422843    0.8675458159121567 O
   0.1666663845910535    0.5345216409155642    0.3675286407651900 O
   0.4999997179243869    0.5345216409155641    0.3675286407651900 O
   0.8333330512577202    0.5345216409155642    0.3675286407651900 O
   0.3333332558705907    0.9655131750352797    0.6324367107414622 O
   0.6666665892039239    0.9655131750352796    0.6324367107414622 O
   0.9999999225372573    0.9655131750352796    0.6324367107414622 O
