Ca1 Cr12 F42                            
   1.00000000000000     
     7.2518549999999999   -0.0244640000000000   -0.0049480000000000
    -3.5974330000000001    6.2657579999999999    0.0053480000000000
     0.0662790000000000    0.0810600000000000   17.3431800000000003
   Ca   Cr   F 
     1    12    42
Direct
  0.8381014451191271  0.4189013253488922  0.3330808126706329
  0.2768844573614435  0.9897894146131385  0.3289966318094752
  0.7284397867493746  0.7235680778397320  0.9977415719374155
  0.0025619465252707  0.2839247846369207  0.6702078776632802
  0.3634582553784573  0.0028848016391237  0.8340288111821154
  0.6367568889172697  0.6420884931262286  0.5026022985941238
  0.0231458843609894  0.3650588380933738  0.1605810229996997
  0.6332893780142456  0.1381291955773654  0.5070477929984736
  0.5126757374622443  0.3610249343311385  0.1632290467542848
  0.8631460674372201  0.5042300992461385  0.8333832719432155
  0.3617960189297656  0.5016114995108946  0.8348017727639789
  0.1393270045597544  0.6452942265399135  0.5043733284190690
  0.5228029628779458  0.8654720869255537  0.1666784702363868
  0.5891493650674728  0.8368555293790485  0.0617612368897987
  0.2602415198635692  0.4375565255376557  0.7300159641981967
  0.1563459126169830  0.7288833170811355  0.3946001828599174
  0.4428525076640430  0.2581136314770004  0.2703382570217919
  0.8401115758749526  0.5784514320023048  0.9372330969382757
  0.7423117407634047  0.1602957694005963  0.6081060345174883
  0.8932419109320197  0.0673587597413392  0.7329598175270151
  0.1395466273439290  0.0945314581380109  0.3807538129020982
  0.9479744723091689  0.8275559826701361  0.0584788467779842
  0.1250360028298007  0.1965010908801181  0.6050261816576780
  0.0663475860484361  0.8328345259747023  0.2633347019602729
  0.8174038623402371  0.9353212684378925  0.9332220985124970
  0.1070140441102633  0.5471789747969553  0.6067446950845957
  0.4633184801879412  0.9035191576795275  0.2728851875865199
  0.4615854330213668  0.5690901152330690  0.9392111524536086
  0.8806256378159575  0.4240712599248928  0.7298375363960770
  0.5372523075907353  0.1316936660515310  0.3994916819283243
  0.5952906191113817  0.4620070794776999  0.0613248029576696
  0.3426063446438203  0.5567211413876639  0.4789792621116583
  0.2294148694214110  0.6595509877353540  0.1448770296425574
  0.4510161315584165  0.7976343508864850  0.8154910980112139
  0.6533298121851416  0.2120691563569714  0.8569403429113850
  0.5581780740803471  0.3517741814996110  0.5309266754529343
  0.8014644260177519  0.4349569502831440  0.1952548038238369
  0.6865404063957654  0.5818462312253145  0.4002487185082938
  0.9363915004851231  0.3293700708057095  0.0640560486466365
  0.4044822250993417  0.0781865182609350  0.7357683105548892
  0.3185507913731651  0.9280848012336067  0.9322141604489017
  0.5993679243092493  0.6964663870660204  0.5988446233531058
  0.0942153115036954  0.4042413124173033  0.2673584068874334
  0.9327845004218493  0.7336801222724811  0.5218589298137551
  0.8157786184989377  0.0735409505912235  0.1885547576148329
  0.2732355353271321  0.2070434951842054  0.8532754586759449
  0.0721735920191399  0.7945796913161666  0.8103659219166547
  0.7095227080315167  0.9316810888064071  0.4731390990760956
  0.2253799658598419  0.2752739187391010  0.1393767657766047
  0.6399686472869340  0.5592481910066609  0.8015814324483215
  0.9103902258891625  0.3656919775546070  0.4656085581347326
  0.4631949013609584  0.0847248087750844  0.1330813851490839
  0.3531485999033550  0.9228230377411318  0.5370941498744020
  0.5735314197056108  0.6384271809649940  0.1992132802719748
  0.0836086914756730  0.4463359870539864  0.8665139084373430
 
             NaN             NaN             NaN
             NaN             NaN             NaN
             NaN             NaN             NaN
             NaN             NaN             NaN
             NaN             NaN             NaN
             NaN             NaN             NaN
             NaN             NaN             NaN
             NaN             NaN             NaN
             NaN             NaN             NaN
             NaN             NaN             NaN
             NaN             NaN             NaN
             NaN             NaN             NaN
             NaN             NaN             NaN
             NaN             NaN             NaN
             NaN             NaN             NaN
             NaN             NaN             NaN
             NaN             NaN             NaN
             NaN             NaN             NaN
             NaN             NaN             NaN
             NaN             NaN             NaN
             NaN             NaN             NaN
             NaN             NaN             NaN
             NaN             NaN             NaN
             NaN             NaN             NaN
             NaN             NaN             NaN
             NaN             NaN             NaN
             NaN             NaN             NaN
             NaN             NaN             NaN
             NaN             NaN             NaN
             NaN             NaN             NaN
             NaN             NaN             NaN
             NaN             NaN             NaN
             NaN             NaN             NaN
             NaN             NaN             NaN
             NaN             NaN             NaN
             NaN             NaN             NaN
             NaN             NaN             NaN
             NaN             NaN             NaN
             NaN             NaN             NaN
             NaN             NaN             NaN
             NaN             NaN             NaN
             NaN             NaN             NaN
             NaN             NaN             NaN
             NaN             NaN             NaN
             NaN             NaN             NaN
             NaN             NaN             NaN
             NaN             NaN             NaN
             NaN             NaN             NaN
             NaN             NaN             NaN
             NaN             NaN             NaN
             NaN             NaN             NaN
             NaN             NaN             NaN
             NaN             NaN             NaN
             NaN             NaN             NaN
             NaN             NaN             NaN
