Ca1 Cr12 F42                            
   1.00000000000000     
     7.2518549999999999   -0.0244640000000000   -0.0049480000000000
    -3.5974330000000001    6.2657579999999999    0.0053480000000000
     0.0662790000000000    0.0810600000000000   17.3431800000000003
   Ca   Cr   F 
     1    12    42
Direct
  0.8712138625571832  0.4293434828228616  0.3372338597891292
  0.2840186204775713 -0.0060357254095645  0.3305452648983036
  0.7197521180441409  0.7154834364317603  0.9975988539216181
  0.0063724003342579  0.2911846194216198  0.6700461462863476
  0.3614514881615927  1.0010961571855674  0.8340433811855966
  0.6516018699359434  0.6575261583885401  0.5053495748294057
  1.0070857343140223  0.3478840202968576  0.1549615110057864
  0.6444046852264068  0.1526978917486304  0.5079272053192265
  0.5005839746077464  0.3479724504859910  0.1603803286420780
  0.8617171045126342  0.5030073371914866  0.8341259449763236
  0.3600695573226538  0.4993919299819706  0.8342626868807856
  0.1530895593901878  0.6607276668080646  0.5090444840936609
  0.5047248493065060  0.8503743173191624  0.1635922350955141
  0.5700221228177801  0.8218619155737898  0.0588468896282035
  0.2645051150873000  0.4377624265462114  0.7292280923767178
  0.1713606612183986  0.7370335655726016  0.3984637596573241
  0.4327356162125880  0.2500755383304281  0.2673637032934836
  0.8395306001007122  0.5766518233391971  0.9379186924735283
  0.7444179307092268  0.1753507208343287  0.6100832663979017
  0.8974970590595654  0.0697043944212032  0.7305165170716910
  0.1649223739999011  0.1109077058035213  0.3867750838673550
  0.9336846327452996  0.8190076394043848  0.0608644227608113
  0.1254883660900705  0.2086625446931455  0.6014926776323211
  0.0554655335033516  0.8288237194937690  0.2718550622144602
  0.8109306221962724  0.9287366131989937  0.9336360465053134
  0.1199137302233698  0.5642412996378688  0.6114436092906697
  0.4465729469062737  0.8874247748238846  0.2701600921944444
  0.4554492936388019  0.5624384651954645  0.9386045455186949
  0.8815518778439260  0.4253539306628097  0.7308209156313296
  0.5592527363592624  0.1417748835599368  0.3974310974307701
  0.5856153519949547  0.4498553274727584  0.0585773418282187
  0.3581150905465186  0.5754635237588065  0.4824471414003130
  0.2110819330793532  0.6444636259104997  0.1412709162133926
  0.4487603771588899  0.7956248097060147  0.8156314158453682
  0.6511314113279344  0.2107417216646088  0.8570213679545566
  0.5673418059003035  0.3652242873315972  0.5310157964295280
  0.7904236489362970  0.4210180154478441  0.1921144070305896
  0.7048391415488505  0.5971161228152675  0.4038871281034183
  0.9199850098687559  0.3128505265613747  0.0584432579314353
  0.4020136478303278  0.0756284530218424  0.7357067210446246
  0.3160151205333314  0.9269518036047897  0.9323075718378636
  0.6123268045696124  0.7096021911429748  0.6018094363590234
  0.0884913033876709  0.3853479966884859  0.2612846277199007
  0.9460008347595761  0.7475642395281197  0.5265550128113972
  0.7994518367326487  0.0570348974144781  0.1829069882633269
  0.2706458728833728  0.2048075744394405  0.8526176993042197
  0.0701486755469597  0.7929901998703384  0.8108404134040156
  0.7267413702770286  0.9484702251543479  0.4772684731981120
  0.2138414630369332  0.2633521055147041  0.1333765722320848
  0.6393340153765246  0.5586809700860158  0.8020619478809172
  0.9262686667229051  0.3792142150199944  0.4707063973217492
  0.4457910744298220  0.0697369750586708  0.1302891422254179
  0.3642574238545309  0.9413024447980404  0.5386183637291847
  0.5583750150961216  0.6250263999689736  0.1953751751853692
  0.0815570099383373  0.4432625548696023  0.8659663546169402
 
             NaN             NaN             NaN
             NaN             NaN             NaN
             NaN             NaN             NaN
             NaN             NaN             NaN
             NaN             NaN             NaN
             NaN             NaN             NaN
             NaN             NaN             NaN
             NaN             NaN             NaN
             NaN             NaN             NaN
             NaN             NaN             NaN
             NaN             NaN             NaN
             NaN             NaN             NaN
             NaN             NaN             NaN
             NaN             NaN             NaN
             NaN             NaN             NaN
             NaN             NaN             NaN
             NaN             NaN             NaN
             NaN             NaN             NaN
             NaN             NaN             NaN
             NaN             NaN             NaN
             NaN             NaN             NaN
             NaN             NaN             NaN
             NaN             NaN             NaN
             NaN             NaN             NaN
             NaN             NaN             NaN
             NaN             NaN             NaN
             NaN             NaN             NaN
             NaN             NaN             NaN
             NaN             NaN             NaN
             NaN             NaN             NaN
             NaN             NaN             NaN
             NaN             NaN             NaN
             NaN             NaN             NaN
             NaN             NaN             NaN
             NaN             NaN             NaN
             NaN             NaN             NaN
             NaN             NaN             NaN
             NaN             NaN             NaN
             NaN             NaN             NaN
             NaN             NaN             NaN
             NaN             NaN             NaN
             NaN             NaN             NaN
             NaN             NaN             NaN
             NaN             NaN             NaN
             NaN             NaN             NaN
             NaN             NaN             NaN
             NaN             NaN             NaN
             NaN             NaN             NaN
             NaN             NaN             NaN
             NaN             NaN             NaN
             NaN             NaN             NaN
             NaN             NaN             NaN
             NaN             NaN             NaN
             NaN             NaN             NaN
             NaN             NaN             NaN
