Ca9 Ti12 F42                            
   1.00000000000000     
     7.3703700000000003   -0.0047770000000000   -0.0998460000000000
    -3.6481080000000001    6.3654169999999999    0.0159440000000000
     0.2146850000000000   -0.0660380000000000   18.7811069999999987
   Ca   Ti   F 
     9    12    42
Direct
  0.3604706223029641  0.5113678282663653  0.3415900434197909
  0.5117823566285281  0.3414685665853501  0.6690942025133806
  0.1622111886276165  0.1616765605064731  0.0000229427778763
  0.0175774479229598  0.8246415883894292  0.6672204651178166
  0.8456332997234693  0.0126643798543113  0.3214008386662969
  0.6624797321407855  0.1606333812465409  1.0000784295494429
 -0.0001071888431619  0.7980456522082823  0.1622584355341211
  0.8199995234392481  0.9928884877468116  0.8261365180336979
  0.1566855441263131  0.1818926789120013  0.5003849408982750
  0.3437210735171782  1.0026438919223890  0.3319152594018378
  0.0079778486607915  0.3287959712419032  0.6598091838257982
  0.6635099798227845  0.6630303157502128  0.9915930248735717
  0.3617131073752416  0.0533720093718035  0.8303739595351873
  0.0679736960725974  0.3523119183522178  0.1652387411412898
  0.7081458521311850  0.6430048552064177  0.4980900793785019
  0.4937613983761724  0.7799483763510392  0.1651297006318478
  0.1350994899969941  0.6456940599162651  0.4931022044683062
  0.3514002446763016  0.4800275617940054  0.8314630276830177
  0.7830706410293474  0.4772318963041251  0.8315736274656118
  0.6954855481627247  0.2073101819203132  0.4937956500802539
  0.4929424902243404  0.3466600941566990  0.1677573700284956
  0.7234873221951066  0.2123242150846224  0.6064256772399690
  0.8048098967479728  0.4937958752438111  0.9451992856367347
  0.4578900775042540  0.2860418975010669  0.2774239771737299
  0.2155846757474517  0.7207622176606513  0.3851650007308915
  0.5623402459185415  0.8349477472280804  0.0559709010450473
  0.2810156122002214  0.4423531324498425  0.7205608783241170
  0.8278637936732968  0.9924719333589860  0.9496011983454981
  0.0683737096134042  0.8985098457291211  0.2758244068894735
  0.1742763611089320  0.1723064203949955  0.6181952750244362
  0.9442172543523430  0.8214001427818692  0.0470649650321680
  0.8858803637891742  0.0407407107264045  0.7115196542464418
  0.1853128560020053  0.1541679757465072  0.3832687026498112
  0.5223443001469441  0.3546456302564553  0.0516938686111659
  0.6290463110706345  0.1169659021605821  0.3837200028599579
  0.8457598911886328  0.4742871095413926  0.7168895250008587
  0.3524060710440540  0.4892543878330665  0.9473155501282328
  0.1353532889625888  0.6172583283656848  0.6079477616844164
  0.4884519567488524  0.8314589375696818  0.2785587496368261
  0.8203220618567330  0.4254847051160179  0.1746977468111093
  0.5096162385480801  0.3302600275135370  0.5284119827558315
  0.6645800712112577  0.1707618016502591  0.8678130378752918
  0.4364108573911564  0.8018470279108874  0.8171705684696032
  0.3780062064065855  0.5509001021207004  0.4732808387705026
  0.1925989484683419  0.6540694469397128  0.1273669543831418
  0.0597430808517300  0.3429322528211069  0.2775894103277085
  0.6954441208157434  0.6547782481383617  0.6113964377168654
  0.3401323845396467  0.0188195679609204  0.9451052600529646
  0.3365541646295508  0.0204139553423363  0.7193991943594431
  0.6981145619274879  0.6990555747664791  0.3846237931648162
  0.9703908892613287  0.2850633722343751  0.0588472092913000
  0.1846580978792021  0.1567090032614479  0.1318552733902452
  0.7889694879053418  0.9724180829064467  0.4909931070103540
  0.0054878596504021  0.7990240127167888  0.8030955593860982
  0.1666224730972140  0.1655274553560537  0.8624011859562298
  0.0191990030317771  0.8333390977061339  0.5307343999748885
  0.8235433074446409  0.0338011667579646  0.1908838376262125
  0.0298199522462152  0.4079071686604427  0.8266007653142755
  0.6635189368420596  0.6506042673662124  0.2063494548712535
  0.3982985115090245  0.9412712271003807  0.5089803446033410
  0.4514871351094337  0.0429844765385077  0.1549271284032693
  0.6607577196317664  0.6602857483933320  0.8709926556446184
  0.9909326363833414  0.3479344966128265  0.4458197945426141
 
             NaN             NaN             NaN
             NaN             NaN             NaN
             NaN             NaN             NaN
             NaN             NaN             NaN
             NaN             NaN             NaN
             NaN             NaN             NaN
             NaN             NaN             NaN
             NaN             NaN             NaN
             NaN             NaN             NaN
             NaN             NaN             NaN
             NaN             NaN             NaN
             NaN             NaN             NaN
             NaN             NaN             NaN
             NaN             NaN             NaN
             NaN             NaN             NaN
             NaN             NaN             NaN
             NaN             NaN             NaN
             NaN             NaN             NaN
             NaN             NaN             NaN
             NaN             NaN             NaN
             NaN             NaN             NaN
             NaN             NaN             NaN
             NaN             NaN             NaN
             NaN             NaN             NaN
             NaN             NaN             NaN
             NaN             NaN             NaN
             NaN             NaN             NaN
             NaN             NaN             NaN
             NaN             NaN             NaN
             NaN             NaN             NaN
             NaN             NaN             NaN
             NaN             NaN             NaN
             NaN             NaN             NaN
             NaN             NaN             NaN
             NaN             NaN             NaN
             NaN             NaN             NaN
             NaN             NaN             NaN
             NaN             NaN             NaN
             NaN             NaN             NaN
             NaN             NaN             NaN
             NaN             NaN             NaN
             NaN             NaN             NaN
             NaN             NaN             NaN
             NaN             NaN             NaN
             NaN             NaN             NaN
             NaN             NaN             NaN
             NaN             NaN             NaN
             NaN             NaN             NaN
             NaN             NaN             NaN
             NaN             NaN             NaN
             NaN             NaN             NaN
             NaN             NaN             NaN
             NaN             NaN             NaN
             NaN             NaN             NaN
             NaN             NaN             NaN
             NaN             NaN             NaN
             NaN             NaN             NaN
             NaN             NaN             NaN
             NaN             NaN             NaN
             NaN             NaN             NaN
             NaN             NaN             NaN
             NaN             NaN             NaN
             NaN             NaN             NaN
