Ca9 Ti12 F42
1.0
7.370370 -0.004777 -0.099846
-3.648108 6.365417 0.015944
0.214685 -0.066038 18.781107
Ca Ti F
9 12 42
direct
1.294961 0.504618 0.338528 Ca
0.515336 0.344394 0.669848 Ca
0.165843 0.168539 0.000660 Ca
0.021481 0.830495 0.666185 Ca
0.840949 1.003709 0.327303 Ca
0.658243 0.157811 -0.002434 Ca
0.020727 0.809755 0.159515 Ca
0.823465 -0.001838 0.827485 Ca
0.163760 0.185095 0.499619 Ca
0.340281 0.996637 0.328821 Ti
0.011816 0.333839 0.660386 Ti
0.671105 0.667704 0.997914 Ti
0.355735 0.047858 0.829810 Ti
1.042694 0.339019 0.169737 Ti
0.708949 0.643112 0.498298 Ti
0.494551 0.787859 0.166668 Ti
0.138483 0.648103 0.493559 Ti
0.353297 0.486665 0.833251 Ti
0.796537 0.487713 0.832905 Ti
0.697652 0.207769 0.494803 Ti
0.495273 0.338185 0.170154 Ti
0.725256 0.213307 0.607820 F
0.801363 0.494317 0.947048 F
0.465164 0.285582 0.279625 F
0.210211 0.719966 0.385154 F
0.553501 0.844951 0.056908 F
0.283800 0.447130 0.722096 F
0.827904 -0.007875 0.950438 F
0.053524 0.880462 0.276729 F
0.177331 0.178153 0.618284 F
0.974576 0.833784 0.042599 F
0.889728 0.045549 0.712694 F
0.183160 0.143505 0.383081 F
0.512181 0.334176 0.053011 F
0.626868 0.119839 0.384504 F
0.853264 0.484695 0.716728 F
0.361412 0.496665 0.949225 F
0.140321 0.622824 0.608389 F
0.491863 0.829689 0.280903 F
0.818564 0.437902 0.184974 F
0.513136 0.332041 0.529701 F
0.663798 0.174703 0.866160 F
0.438545 0.805753 0.816725 F
0.379387 0.553430 0.475298 F
0.191243 0.637745 0.130147 F
1.039822 0.328048 0.280628 F
0.696902 0.658544 0.611661 F
0.337141 0.017285 0.942184 F
0.341020 0.022966 0.717925 F
0.695706 0.685067 0.385218 F
0.957835 0.276865 0.062279 F
0.185189 0.170323 0.135081 F
0.792722 0.973570 0.486392 F
0.019010 0.810848 0.803411 F
0.169734 0.173005 0.863761 F
0.020504 0.835737 0.530981 F
0.815228 1.004013 0.195527 F
0.038691 0.419067 0.829456 F
0.651230 0.638362 0.135219 F
0.399826 0.945405 0.508153 F
0.415556 0.020954 0.163774 F
0.663424 0.663970 0.868768 F
-0.006037 0.347432 0.457017 F
