Na2 Ca2 V4 Si4 P2 O24                   
   1.00000000000000     
     8.8416359999999994    0.1099460000000000    0.0803410000000000
     4.2574319999999997    7.6621410000000001    0.0683080000000000
     4.4165939999999999    2.5300389999999999    7.2348470000000002
   Ca   Na   V    Si   P    O 
     2     2     4     4     2    24
Direct
  0.6337106524733018  0.4998068390642154  0.3349901662801052
 -0.0002782796098754  0.9980270756877196  0.0026085056416924
  0.1313108590413911  0.7468818283878002  0.4070482919190098
  0.8893587434087217  0.2489275217997257  0.6104025885492633
  0.3635542859330693  0.3491768305373143  0.3564992486604550
  0.6343017969910143  0.6416090917373415  0.6530600562453547
  0.1505767664483407  0.1470106982097775  0.1326284928732994
  0.8541239090179320  0.8510686187318209  0.8497192874715555
  0.0276565393495749  0.4557063040497198  0.7539719529352906
  0.7455176093181571  0.0346171998405609  0.4682134761506112
  0.4568741045491123  0.7541360618066874  0.0298095635744873
  0.5412538415730047  0.2516621941621450  0.9576434372266589
  0.9770614477343874  0.5458954386338157  0.2405088930893036
  0.2604502042230079  0.9523639937962542  0.5307316409904077
  0.2158572484277130  0.4232783873712694  0.5723064865072618
  0.7913782778459590  0.5710094277083742  0.4093654323813021
  0.5808506765423446  0.2330384156201055  0.4269412939143294
  0.4264522483289279  0.7699334367823831  0.5474966273867589
  0.4186615603853678  0.5868984584704380  0.2301495119526364
  0.5691966241592220  0.4186620525957898  0.7563234536157565
  0.9320764623906073  0.0445021983002942  0.2795486487193461
  0.0884400695121491  0.9431534675943112  0.7178186855830135
  0.0438348365979439  0.2742903239265417  0.9391113412102413
  0.9548292177548350  0.7214027650519285  0.0687790442474931
  0.2670498438186151  0.9314036443189788  0.0495798398671718
  0.7359171572945593  0.0743269093100024  0.9393678342485243
  0.4915260681002734  0.3031349271842994  0.1366428412024161
  0.4881125477235877  0.7021027035090192  0.8607199249929267
  0.1360019523559111  0.5190601506949566  0.2826108473108455
  0.8493612079634733  0.4847625934256092  0.7175440293204021
  0.3003164702203029  0.1228182847351380  0.4925347159130615
  0.7068397246354895  0.8490580878540565  0.5162310099357638
  0.3575246698535335  0.2039878143809127  0.0090572436446751
  0.6435240976820272  0.7711109433808310  1.0101863917285614
  0.2060671860726521  0.9831196017605039  0.3742655700514543
  0.7837067019065105  0.0151011665826967  0.6415546963402425
 -0.0130436583152339  0.3726822046175868  0.2218890736424874
  0.9979268650756965  0.6507453793621620  0.7672942697798136
 
             NaN             NaN             NaN
             NaN             NaN             NaN
             NaN             NaN             NaN
             NaN             NaN             NaN
             NaN             NaN             NaN
             NaN             NaN             NaN
             NaN             NaN             NaN
             NaN             NaN             NaN
             NaN             NaN             NaN
             NaN             NaN             NaN
             NaN             NaN             NaN
             NaN             NaN             NaN
             NaN             NaN             NaN
             NaN             NaN             NaN
             NaN             NaN             NaN
             NaN             NaN             NaN
             NaN             NaN             NaN
             NaN             NaN             NaN
             NaN             NaN             NaN
             NaN             NaN             NaN
             NaN             NaN             NaN
             NaN             NaN             NaN
             NaN             NaN             NaN
             NaN             NaN             NaN
             NaN             NaN             NaN
             NaN             NaN             NaN
             NaN             NaN             NaN
             NaN             NaN             NaN
             NaN             NaN             NaN
             NaN             NaN             NaN
             NaN             NaN             NaN
             NaN             NaN             NaN
             NaN             NaN             NaN
             NaN             NaN             NaN
             NaN             NaN             NaN
             NaN             NaN             NaN
             NaN             NaN             NaN
             NaN             NaN             NaN
