Na2 Ca2 V4 Si4 P2 O24
1.0
8.841636 0.109946 0.080341
4.257432 7.662141 0.068308
4.416594 2.530039 7.234847
Ca Na V Si P O
2 2 4 4 2 24
direct
0.558650 0.476743 0.404079 Ca
0.003559 0.993354 0.002175 Ca
0.188647 0.693528 0.426653 Na
0.888509 0.250456 0.601283 Na
0.361440 0.356747 0.349578 V
0.640270 0.645722 0.653667 V
0.150637 0.146249 0.135144 V
0.847148 0.856957 0.851150 V
0.030745 0.460970 0.751490 Si
0.743242 0.042799 0.465783 Si
0.456793 0.753022 0.037663 Si
0.542031 0.251721 0.958161 Si
0.965046 0.543861 0.244101 P
0.253620 0.958968 0.531470 P
0.219117 0.443342 0.569405 O
0.781124 0.559090 0.414968 O
0.567855 0.233097 0.439344 O
0.422133 0.779980 0.552787 O
0.437155 0.581482 0.234205 O
0.561386 0.421471 0.758255 O
0.921530 0.061187 0.270553 O
0.085581 0.945563 0.720473 O
0.056157 0.272953 0.930452 O
0.941680 0.723134 0.074754 O
0.262553 0.924248 0.059991 O
0.739684 0.080730 0.934818 O
0.498913 0.308647 0.130477 O
0.494220 0.699505 0.865690 O
0.125964 0.522212 0.284117 O
0.851933 0.484167 0.721026 O
0.286550 0.136506 0.486049 O
0.713799 0.850370 0.513763 O
0.363749 0.195737 0.011863 O
0.635614 0.800444 0.992760 O
0.201225 0.978670 0.378684 O
0.789194 0.019742 0.635996 O
0.000356 0.367025 0.215914 O
0.990935 0.651997 0.778006 O
