Ca8 Ti12 F42                            
   1.00000000000000     
     7.3709590000000000   -0.0439330000000000   -0.1068360000000000
    -3.6816030000000000    6.4752159999999996    0.0521180000000000
     0.1914640000000000    0.0215250000000000   18.7427150000000005
   Ca   Ti   F 
     8    12    42
Direct
  0.7543209530488386  0.1590298383013317 -0.0651623202118139
  0.8863010843526617  0.4807582919579136  0.3342286725339785
  0.5285842115989203  0.3639616360928143  0.6595783988333067
  0.2082859472410513  0.1423644416976002  0.9995025118182223
  0.0401945605354102  0.8635461220869245  0.6540606608917622
  0.8499870923713322 -0.0273678303605321  0.3271624322457550
  1.0501952208271166  0.8061204193388636  0.1540876165387608
  0.2044958542710132  0.2019429790870977  0.4777776274023435
  0.3673418519648202 -0.0091343396310626  0.3073040256565782
  0.0143475700302182  0.3337023869108918  0.6314771264482155
  0.6792438987473747  0.6477107143073509 -0.0096619043327079
  0.3268472960794475  0.9848589786023219  0.8210075176846142
  0.9634011589879693  0.2696045304304370  0.1532396904419528
  0.7417972897410102  0.6460435755459039  0.4889305769468255
  0.5203800628081181  0.8359660599367942  0.1599210995565463
  0.1743633063716316  0.6441447294519529  0.4936234472403486
  0.3246790251268584  0.4743038660192598  0.8199142478131138
  0.8562403306251272  0.5049617824040696  0.8127911102017421
  0.7489855202329015  0.2099189993418140  0.4930461015417162
  0.5153321167106636  0.2598738958874111  0.1609351861847563
  0.7072126031038088  0.2102635043571664  0.6014404489481301
  0.7888529454646437  0.5159185915784216  0.9206656518508249
  0.5570408389113084  0.2916526498993478  0.2706977570168734
  0.2129159977764531  0.7421460891530206  0.3837254087702097
  0.5755033937003063  0.7863708836612222  0.0533677166440688
  0.2627549501114274  0.4363065608124752  0.7080915079316530
  0.8425443180403914  0.9222842011507867  0.9311687078630698
  0.0335666008636802  0.7998218180287149  0.2737023424543150
  0.2146270650205905  0.2033152565306789  0.5984098347719875
  0.9703525359721156  0.8089044692929365  0.0398044608540295
  0.9062953879682113  0.0654961744063928  0.6828968953015777
  0.2012484813487067  0.1060609590987462  0.3636189945392842
  0.5409342894359451  0.3629734446192621  0.0460263459675233
  0.6522318669962377  0.1394383177340974  0.3782992645314225
  0.8774575108902101  0.4664354847117442  0.7020847180456852
  0.3989046322938700  0.4795615727742602  0.9318722710556667
  0.1723124413112671  0.6510017753602833  0.6052526615086062
  0.5249136589707847  0.8384470158523553  0.2743703256515920
  0.8311356740681468  0.4540969093168206  0.1640552590669182
  0.5520500803105775  0.3303921028591190  0.5060933554664987
  0.6441488967935053  0.1958890910198390  0.8240893872468926
  0.4053550199065341  0.7668848993603996  0.8167246848636150
  0.4102930315179781  0.5660195508432090  0.4826966271877929
  0.2073525147240923  0.5931216422785419  0.1511862832741101
  0.9763008222828580  0.2847270004754760  0.2658622704969412
  0.7229328199747140  0.6589332131525666  0.6000525195901495
  0.3838512042875377  1.0181703752104612  0.9309637683419896
  0.3545412629744696  0.0544098679693957  0.7135131627034461
  0.7323691722719038  0.6547242950151400  0.3792202800808432
  0.9687550395390176  0.2457009837805389  0.0375694079249113
  0.2026283779541099  0.1843271853160303  0.1342909612063562
  0.8301703890351798 -0.0227306293664807  0.4630738656600456
  0.0300513854822889  0.7981391795906206  0.7809378519719750
  0.2124716000580960  0.1747915260552218  0.8378186296764986
  0.0552582158576585  0.8428523697108385  0.5167864790030050
  0.8392976575251841  0.9616869338233776  0.1812138571153246
  0.0340214584659513  0.3945660327811149  0.8621322919800392
  0.5607882864011838  0.5741457403035360  0.1749200060999338
  0.4456429165192718  0.9414391501317350  0.5045715504920184
  0.3810848435226168  0.9822408508643661  0.0988108331588054
  0.6035018793446403  0.5269046043366739  0.7754843740358887
  0.0283563568948428  0.3605102418369138  0.4258057075354770
 
             NaN             NaN             NaN
             NaN             NaN             NaN
             NaN             NaN             NaN
             NaN             NaN             NaN
             NaN             NaN             NaN
             NaN             NaN             NaN
             NaN             NaN             NaN
             NaN             NaN             NaN
             NaN             NaN             NaN
             NaN             NaN             NaN
             NaN             NaN             NaN
             NaN             NaN             NaN
             NaN             NaN             NaN
             NaN             NaN             NaN
             NaN             NaN             NaN
             NaN             NaN             NaN
             NaN             NaN             NaN
             NaN             NaN             NaN
             NaN             NaN             NaN
             NaN             NaN             NaN
             NaN             NaN             NaN
             NaN             NaN             NaN
             NaN             NaN             NaN
             NaN             NaN             NaN
             NaN             NaN             NaN
             NaN             NaN             NaN
             NaN             NaN             NaN
             NaN             NaN             NaN
             NaN             NaN             NaN
             NaN             NaN             NaN
             NaN             NaN             NaN
             NaN             NaN             NaN
             NaN             NaN             NaN
             NaN             NaN             NaN
             NaN             NaN             NaN
             NaN             NaN             NaN
             NaN             NaN             NaN
             NaN             NaN             NaN
             NaN             NaN             NaN
             NaN             NaN             NaN
             NaN             NaN             NaN
             NaN             NaN             NaN
             NaN             NaN             NaN
             NaN             NaN             NaN
             NaN             NaN             NaN
             NaN             NaN             NaN
             NaN             NaN             NaN
             NaN             NaN             NaN
             NaN             NaN             NaN
             NaN             NaN             NaN
             NaN             NaN             NaN
             NaN             NaN             NaN
             NaN             NaN             NaN
             NaN             NaN             NaN
             NaN             NaN             NaN
             NaN             NaN             NaN
             NaN             NaN             NaN
             NaN             NaN             NaN
             NaN             NaN             NaN
             NaN             NaN             NaN
             NaN             NaN             NaN
             NaN             NaN             NaN
