Ca8 Ti12 F42                            
   1.00000000000000     
     7.3709590000000000   -0.0439330000000000   -0.1068360000000000
    -3.6816030000000000    6.4752159999999996    0.0521180000000000
     0.1914640000000000    0.0215250000000000   18.7427150000000005
   Ca   Ti   F 
     8    12    42
Direct
  0.5359440549920764  0.0914294223656816  1.0105464474266497
  0.9071367367208009  0.5221741196026006  0.3397071695764848
  0.5795578387366066  0.3652085732786278  0.6732385344963094
  0.0231067878297499  0.1181872318307778 -0.0401870119773240
  1.1014809064164035  0.8607378786827238  0.6636395801133406
  0.8726118159722954  1.0121070143176598  0.3419440167173617
 -0.0151048591724723  0.8279957770423491  0.1562543376331448
  0.2548055954108610  0.2313035390051610  0.4876330640188035
  0.3829443289405521  1.0293805717376423  0.3074758319981548
  1.0487083650689277  0.3185472526810529  0.6566719126425183
  0.5977632582850321  0.6432021850128379  1.0000700867886745
  0.3200482519811874 -0.0160838337067486  0.8378054958583622
  0.9211424127142164  0.2928327186182986  0.1601733952865273
  0.7947291684775099  0.6740932882394854  0.4997655502622234
  0.4651451795719925  0.8506091917317911  0.1762985120982956
  0.2185519588326856  0.6870451234124725  0.4919874684971161
  0.3223079545381367  0.4723744067530824  0.8332362803781251
  0.8391883886155381  0.4868115664631219  0.8391347781747847
  0.7814746120190774  0.2368443907773488  0.4935897646161870
  0.4708311957802288  0.2809750823214465  0.1740214167815347
  0.7761084318419148  0.2335579346349097  0.6047592448578654
  0.7712380086792791  0.5955499581845167  0.9285911532978417
  0.5631892619429097  0.3386065112217442  0.2799682182590686
  0.2394795618017441  0.7722707429146969  0.3808347592040744
  0.4670232874080966  0.7715242187307798  0.0650616857245475
  0.2966250769386678  0.4508315911993978  0.7221477359520598
  0.6750522117586083  0.9211281102642409  0.9466383048173038
  0.0278302816366756  0.8443109054647957  0.2775157685918025
  0.2656520798274578  0.2235863262388456  0.6110714497202826
  0.8856101786342163  0.8460529462813027  0.0445831105602679
  0.9464714172191782  0.0388020980773888  0.6962899027605278
  0.2282208198392063  0.1392899528971403  0.3717590817403656
  0.5047067548274211  0.3657127021719894  0.0592703236492780
  0.6807941973422926  0.1769420208122435  0.3831340528687539
  0.8760414041204395  0.3988844980662196  0.7314379706369307
  0.3405976304540855  0.4286010267321754  0.9449201187372821
  0.1819304173685946  0.6198812676102508  0.6078630597846898
  0.5468369325214647  0.8794693628617080  0.2839120603113255
  0.7848392385894317  0.4726021246774321  0.1624130304935356
  0.5959740095479328  0.3619016669306269  0.5174833970412325
  0.5958578471416545  0.2095657802422823  0.8826690588552480
  0.3918245210213634  0.7630627616039284  0.8358991100072453
  0.4465627293571706  0.5928075652408286  0.4910831083242687
  0.1563046546605325  0.6175075183696974  0.1696307996362469
  0.9591377818442461  0.3001386217624676  0.2707790060879010
  0.7820079397183661  0.6570960252982737  0.6129532334262342
  0.2329161651755585 -0.0328827661392173  0.9464028629179242
  0.3983679484425864  0.0563322344559573  0.7286267609546339
  0.7601806163495162  0.6913394355199461  0.3906682385407454
  0.8888645180084221  0.2509310204278549  0.0476783113696161
  0.1625118442535498  0.2103640415733000  0.1614941142624948
  0.8791485836330993  1.0079097306663793  0.4744566836242791
  0.0427447188828927  0.7638614343086676  0.7889904836928998
  0.1758480380183116  0.1545699045790562  0.8377494262011743
  0.1076582803341420  0.8779570750449641  0.5305038406428922
  0.7839675956416718  0.9819428054252346  0.1718748006654668
  0.0235997188379971  0.3843528881011981  0.8786723845617429
  0.5169406977511660  0.5919090471345497  0.1859939978330128
  0.4891207774927702  0.9763068442387413  0.5067952036362048
  0.3182469253223301  0.9929008418275856  0.1116546871737622
  0.6034938192960622  0.5033030841516890  0.7901786598757023
  1.0670431548716046  0.3842336731379049  0.4348640855612345
 
             NaN             NaN             NaN
             NaN             NaN             NaN
             NaN             NaN             NaN
             NaN             NaN             NaN
             NaN             NaN             NaN
             NaN             NaN             NaN
             NaN             NaN             NaN
             NaN             NaN             NaN
             NaN             NaN             NaN
             NaN             NaN             NaN
             NaN             NaN             NaN
             NaN             NaN             NaN
             NaN             NaN             NaN
             NaN             NaN             NaN
             NaN             NaN             NaN
             NaN             NaN             NaN
             NaN             NaN             NaN
             NaN             NaN             NaN
             NaN             NaN             NaN
             NaN             NaN             NaN
             NaN             NaN             NaN
             NaN             NaN             NaN
             NaN             NaN             NaN
             NaN             NaN             NaN
             NaN             NaN             NaN
             NaN             NaN             NaN
             NaN             NaN             NaN
             NaN             NaN             NaN
             NaN             NaN             NaN
             NaN             NaN             NaN
             NaN             NaN             NaN
             NaN             NaN             NaN
             NaN             NaN             NaN
             NaN             NaN             NaN
             NaN             NaN             NaN
             NaN             NaN             NaN
             NaN             NaN             NaN
             NaN             NaN             NaN
             NaN             NaN             NaN
             NaN             NaN             NaN
             NaN             NaN             NaN
             NaN             NaN             NaN
             NaN             NaN             NaN
             NaN             NaN             NaN
             NaN             NaN             NaN
             NaN             NaN             NaN
             NaN             NaN             NaN
             NaN             NaN             NaN
             NaN             NaN             NaN
             NaN             NaN             NaN
             NaN             NaN             NaN
             NaN             NaN             NaN
             NaN             NaN             NaN
             NaN             NaN             NaN
             NaN             NaN             NaN
             NaN             NaN             NaN
             NaN             NaN             NaN
             NaN             NaN             NaN
             NaN             NaN             NaN
             NaN             NaN             NaN
             NaN             NaN             NaN
             NaN             NaN             NaN
