Ca1 Ni12 F42
1.0
7.028429 -0.010432 -0.035405
-3.519261 6.103494 -0.022202
-0.199324 -0.079565 16.748511
Ca Ni F
1 12 42
direct
0.998675 -0.151489 0.667200 Ca
0.300041 0.996709 0.329603 Ni
0.698734 0.695030 0.004933 Ni
0.000835 0.313500 0.666667 Ni
0.343525 -0.001123 0.835539 Ni
0.658111 0.655829 0.497870 Ni
0.998555 0.345790 0.167189 Ni
0.654210 0.155121 0.496493 Ni
0.497594 0.345474 0.167971 Ni
0.841450 0.494845 0.839862 Ni
0.347144 0.501810 0.837003 Ni
0.160135 0.653418 0.493939 Ni
0.499603 0.846442 0.166260 Ni
0.563844 0.826318 0.059988 F
0.260127 0.439329 0.730500 F
0.177684 0.738013 0.385575 F
0.433846 0.262042 0.274404 F
0.820730 0.558262 0.948661 F
0.741274 0.182802 0.602993 F
0.884459 0.070635 0.727283 F
0.185403 0.105400 0.394325 F
0.924242 0.809312 0.070969 F
0.114531 0.183894 0.606097 F
0.073113 0.886047 0.264246 F
0.815879 0.919586 0.941019 F
0.125852 0.574500 0.608404 F
0.439181 0.871487 0.271868 F
0.434135 0.560383 0.943969 F
0.878681 0.453190 0.724940 F
0.566195 0.124715 0.389681 F
0.557328 0.430363 0.062194 F
0.363254 0.555477 0.478810 F
0.206999 0.643505 0.141832 F
0.425585 0.792135 0.810917 F
0.639222 0.192824 0.852871 F
0.573911 0.366277 0.521808 F
0.790136 0.435370 0.192418 F
0.687027 0.614617 0.396274 F
0.913888 0.302712 0.066574 F
0.347699 0.053513 0.727837 F
0.318304 0.931199 0.937286 F
0.650499 0.705206 0.605492 F
0.083094 0.388305 0.267812 F
0.955737 0.751175 0.521286 F
0.791749 0.048005 0.191392 F
0.261026 0.206062 0.858278 F
0.044943 0.797607 0.813625 F
0.741964 0.946161 0.475817 F
0.205337 0.254511 0.143023 F
0.624047 0.563990 0.802963 F
0.932526 0.365926 0.463558 F
0.438126 0.065942 0.133949 F
0.377970 0.940050 0.530707 F
0.558968 0.626492 0.200308 F
0.068710 0.434392 0.869948 F
