Li16 Co16 P16 O64
1.0
  10.2020999999999997    0.0000000000000000    0.0000000000000000
   0.0000000000000000   11.8453999999999997    0.0000000000000000
   0.0000000000000000    0.0000000000000000    9.4006000000000007
Li Co P O
15 16 16 64
direct
   0.5000000000000000    0.5000000000000000    0.7500000000000000 Li
   0.0000000000000000    0.2500000000000000    0.0000000000000000 Li
   0.0000000000000000    0.2500000000000000    0.5000000000000000 Li
   0.0000000000000000    0.7500000000000000    0.0000000000000000 Li
   0.0000000000000000    0.7500000000000000    0.5000000000000000 Li
   0.0000000000000000    0.0000000000000000    0.0000000000000000 Li
   0.0000000000000000    0.0000000000000000    0.5000000000000000 Li
   0.0000000000000000    0.5000000000000000    0.0000000000000000 Li
   0.0000000000000000    0.5000000000000000    0.5000000000000000 Li
   0.5000000000000000    0.2500000000000000    0.2500000000000000 Li
   0.5000000000000000    0.2500000000000000    0.7500000000000000 Li
   0.5000000000000000    0.7500000000000000    0.2500000000000000 Li
   0.5000000000000000    0.0000000000000000    0.2500000000000000 Li
   0.5000000000000000    0.0000000000000000    0.7500000000000000 Li
   0.5000000000000000    0.5000000000000000    0.2500000000000000 Li
   0.2789400000000000    0.1250000000000000    0.4892000000000001 Co
   0.2789400000000000    0.1250000000000000    0.9892000000000000 Co
   0.2789400000000000    0.6250000000000000    0.4892000000000001 Co
   0.2789400000000000    0.6250000000000000    0.9892000000000000 Co
   0.7210600000000000    0.3750000000000000    0.0108000000000000 Co
   0.7210600000000000    0.3750000000000000    0.5108000000000000 Co
   0.7210600000000000    0.8750000000000000    0.0108000000000000 Co
   0.7210600000000000    0.8750000000000000    0.5108000000000000 Co
   0.2210600000000000    0.3750000000000000    0.2392000000000000 Co
   0.2210600000000000    0.3750000000000000    0.7392000000000001 Co
   0.2210600000000000    0.8750000000000000    0.2392000000000000 Co
   0.2210600000000000    0.8750000000000000    0.7392000000000001 Co
   0.7789400000000000    0.1250000000000000    0.2608000000000000 Co
   0.7789400000000000    0.1250000000000000    0.7607999999999999 Co
   0.7789400000000000    0.6250000000000000    0.2608000000000000 Co
   0.7789400000000000    0.6250000000000000    0.7607999999999999 Co
   0.0949000000000000    0.1250000000000000    0.2084000000000000 P
   0.0949000000000000    0.1250000000000000    0.7084000000000000 P
   0.0949000000000000    0.6250000000000000    0.2084000000000000 P
   0.0949000000000000    0.6250000000000000    0.7084000000000000 P
   0.9050999999999999    0.3750000000000000    0.2916000000000001 P
   0.9050999999999999    0.3750000000000000    0.7916000000000001 P
   0.9050999999999999    0.8750000000000000    0.2916000000000001 P
   0.9050999999999999    0.8750000000000000    0.7916000000000001 P
   0.4051000000000000    0.3750000000000000    0.4584000000000000 P
   0.4051000000000000    0.3750000000000000    0.9583999999999999 P
   0.4051000000000000    0.8750000000000000    0.4584000000000000 P
   0.4051000000000000    0.8750000000000000    0.9583999999999999 P
   0.5949000000000000    0.1250000000000000    0.0416000000000000 P
   0.5949000000000000    0.1250000000000000    0.5416000000000000 P
   0.5949000000000000    0.6250000000000000    0.0416000000000000 P
   0.5949000000000000    0.6250000000000000    0.5416000000000000 P
   0.0950000000000000    0.1250000000000000    0.3708000000000000 O
   0.0950000000000000    0.1250000000000000    0.8708000000000001 O
   0.0950000000000000    0.6250000000000000    0.3708000000000000 O
   0.0950000000000000    0.6250000000000000    0.8708000000000001 O
   0.9049999999999999    0.3750000000000000    0.1292000000000000 O
   0.9049999999999999    0.3750000000000000    0.6292000000000001 O
   0.9049999999999999    0.8750000000000000    0.1292000000000000 O
   0.9049999999999999    0.8750000000000000    0.6292000000000001 O
   0.4050000000000000    0.3750000000000000    0.1208000000000000 O
   0.4050000000000000    0.3750000000000000    0.6208000000000000 O
   0.4050000000000000    0.8750000000000000    0.1208000000000000 O
   0.4050000000000000    0.8750000000000000    0.6208000000000000 O
   0.5949999999999999    0.1250000000000000    0.3792000000000000 O
   0.5949999999999999    0.1250000000000000    0.8792000000000001 O
   0.5949999999999999    0.6250000000000000    0.3792000000000000 O
   0.5949999999999999    0.6250000000000000    0.8792000000000001 O
   0.4542000000000000    0.1250000000000000    0.1054500000000000 O
   0.4542000000000000    0.1250000000000000    0.6054500000000000 O
   0.4542000000000000    0.6250000000000000    0.1054500000000000 O
   0.4542000000000000    0.6250000000000000    0.6054500000000000 O
   0.5458000000000000    0.3750000000000000    0.3945500000000000 O
   0.5458000000000000    0.3750000000000000    0.8945500000000001 O
   0.5458000000000000    0.8750000000000000    0.3945500000000000 O
   0.5458000000000000    0.8750000000000000    0.8945500000000001 O
   0.0458000000000000    0.3750000000000000    0.3554500000000000 O
   0.0458000000000000    0.3750000000000000    0.8554500000000002 O
   0.0458000000000000    0.8750000000000000    0.3554500000000000 O
   0.0458000000000000    0.8750000000000000    0.8554500000000002 O
   0.9541999999999999    0.1250000000000000    0.1445500000000000 O
   0.9541999999999999    0.1250000000000000    0.6445500000000001 O
   0.9541999999999999    0.6250000000000000    0.1445500000000000 O
   0.9541999999999999    0.6250000000000000    0.6445500000000001 O
   0.1643000000000000    0.0244000000000000    0.1416000000000000 O
   0.1643000000000000    0.0244000000000000    0.6416000000000001 O
   0.1643000000000000    0.5244000000000000    0.1416000000000000 O
   0.1643000000000000    0.5244000000000000    0.6416000000000001 O
   0.8356999999999999    0.4756000000000000    0.3584000000000000 O
   0.8356999999999999    0.4756000000000000    0.8584000000000001 O
   0.8356999999999999    0.9756000000000000    0.3584000000000000 O
   0.8356999999999999    0.9756000000000000    0.8584000000000001 O
   0.3357000000000000    0.4756000000000000    0.3916000000000001 O
   0.3357000000000000    0.4756000000000000    0.8916000000000002 O
   0.3357000000000000    0.9756000000000000    0.3916000000000001 O
   0.3357000000000000    0.9756000000000000    0.8916000000000002 O
   0.6643000000000000    0.0244000000000000    0.1084000000000000 O
   0.6643000000000000    0.0244000000000000    0.6083999999999999 O
   0.6643000000000000    0.5244000000000000    0.1084000000000000 O
   0.6643000000000000    0.5244000000000000    0.6083999999999999 O
   0.8356999999999999    0.2744000000000000    0.3584000000000000 O
   0.8356999999999999    0.2744000000000000    0.8584000000000001 O
   0.8356999999999999    0.7744000000000000    0.3584000000000000 O
   0.8356999999999999    0.7744000000000000    0.8584000000000001 O
   0.1643000000000000    0.2256000000000000    0.1416000000000000 O
   0.1643000000000000    0.2256000000000000    0.6416000000000001 O
   0.1643000000000000    0.7255999999999999    0.1416000000000000 O
   0.1643000000000000    0.7255999999999999    0.6416000000000001 O
   0.6643000000000000    0.2256000000000000    0.1084000000000000 O
   0.6643000000000000    0.2256000000000000    0.6083999999999999 O
   0.6643000000000000    0.7255999999999999    0.1084000000000000 O
   0.6643000000000000    0.7255999999999999    0.6083999999999999 O
   0.3357000000000000    0.2744000000000000    0.3916000000000001 O
   0.3357000000000000    0.2744000000000000    0.8916000000000002 O
   0.3357000000000000    0.7744000000000000    0.3916000000000001 O
   0.3357000000000000    0.7744000000000000    0.8916000000000002 O
