Li16 Mn16 B16 O48
1.0
  10.3205090099121630    0.0000000000000000   -0.2442976387970554
   0.0000000000000014    8.9182999999999986    0.0000000000000005
   0.0000000000000000    0.0000000000000000   10.1889999999999983
Li Mn B O
1 16 16 48
direct
   0.6741200464028592    0.4985516629417694    0.8832532451209905 Li
   0.0808000000000000    0.3347999999999999    0.1259000000000000 Mn2+
   0.5808000000000001    0.3347999999999999    0.1259000000000000 Mn2+
   0.4192000000000000    0.6652000000000000    0.8741000000000000 Mn2+
   0.9192000000000000    0.6652000000000000    0.8741000000000000 Mn2+
   0.4192000000000001    0.3347999999999999    0.3741000000000000 Mn2+
   0.9192000000000001    0.3347999999999999    0.3740999999999999 Mn2+
   0.0808000000000000    0.6652000000000000    0.6259000000000000 Mn2+
   0.5808000000000000    0.6652000000000000    0.6259000000000000 Mn2+
   0.3308000000000000    0.8348000000000000    0.1259000000000000 Mn2+
   0.8308000000000001    0.8348000000000000    0.1259000000000000 Mn2+
   0.1692000000000000    0.1652000000000000    0.8740999999999999 Mn2+
   0.6692000000000000    0.1652000000000000    0.8741000000000000 Mn2+
   0.1692000000000000    0.8348000000000000    0.3741000000000000 Mn2+
   0.6692000000000000    0.8348000000000000    0.3741000000000000 Mn2+
   0.3308000000000000    0.1652000000000000    0.6259000000000000 Mn2+
   0.8308000000000000    0.1652000000000000    0.6258999999999999 Mn2+
   0.0765000000000000    0.6600000000000000    0.1210000000000000 B3+
   0.5765000000000000    0.6600000000000000    0.1210000000000000 B3+
   0.4235000000000000    0.3400000000000000    0.8789999999999999 B3+
   0.9235000000000002    0.3400000000000000    0.8790000000000000 B3+
   0.4234999999999999    0.6600000000000000    0.3790000000000000 B3+
   0.9235000000000001    0.6600000000000000    0.3789999999999999 B3+
   0.0765000000000000    0.3400000000000000    0.6210000000000000 B3+
   0.5765000000000001    0.3400000000000000    0.6210000000000000 B3+
   0.3265000000000001    0.1600000000000001    0.1210000000000000 B3+
   0.8265000000000001    0.1600000000000001    0.1210000000000000 B3+
   0.1735000000000000    0.8400000000000000    0.8790000000000000 B3+
   0.6735000000000001    0.8400000000000000    0.8790000000000000 B3+
   0.1735000000000000    0.1600000000000001    0.3789999999999999 B3+
   0.6735000000000001    0.1600000000000001    0.3789999999999999 B3+
   0.3265000000000001    0.8400000000000000    0.6210000000000000 B3+
   0.8265000000000000    0.8400000000000000    0.6210000000000000 B3+
   0.3900000000000001    0.3120000000000000    0.1581000000000000 O2-
   0.8900000000000002    0.3120000000000000    0.1581000000000000 O2-
   0.1100000000000000    0.6879999999999999    0.8419000000000000 O2-
   0.6100000000000000    0.6879999999999999    0.8419000000000001 O2-
   0.1100000000000000    0.3120000000000000    0.3419000000000000 O2-
   0.6100000000000001    0.3120000000000000    0.3418999999999999 O2-
   0.3900000000000000    0.6879999999999999    0.6581000000000000 O2-
   0.8900000000000001    0.6879999999999999    0.6581000000000000 O2-
   0.1400000000000000    0.8120000000000001    0.1581000000000000 O2-
   0.6400000000000000    0.8120000000000001    0.1581000000000000 O2-
   0.3600000000000000    0.1880000000000000    0.8419000000000000 O2-
   0.8600000000000000    0.1880000000000000    0.8419000000000001 O2-
   0.3600000000000000    0.8120000000000001    0.3419000000000000 O2-
   0.8600000000000001    0.8120000000000001    0.3419000000000000 O2-
   0.1400000000000000    0.1880000000000000    0.6581000000000000 O2-
   0.6400000000000001    0.1880000000000000    0.6581000000000000 O2-
   0.2025000000000000    0.1640000000000000    0.0950000000000000 O2-
   0.7025000000000001    0.1640000000000000    0.0950000000000000 O2-
   0.2975000000000000    0.8360000000000000    0.9050000000000000 O2-
   0.7975000000000000    0.8360000000000000    0.9050000000000000 O2-
   0.2975000000000000    0.1640000000000000    0.4050000000000000 O2-
   0.7975000000000001    0.1640000000000000    0.4050000000000000 O2-
   0.2025000000000000    0.8360000000000000    0.5950000000000000 O2-
   0.7025000000000000    0.8360000000000000    0.5950000000000000 O2-
   0.4525000000000000    0.6639999999999999    0.0950000000000000 O2-
   0.9525000000000000    0.6639999999999999    0.0950000000000000 O2-
   0.0475000000000000    0.3360000000000000    0.9050000000000000 O2-
   0.5475000000000000    0.3360000000000000    0.9050000000000001 O2-
   0.0475000000000000    0.6639999999999999    0.4050000000000000 O2-
   0.5475000000000000    0.6639999999999999    0.4050000000000000 O2-
   0.4525000000000001    0.3360000000000000    0.5950000000000000 O2-
   0.9525000000000001    0.3360000000000000    0.5949999999999999 O2-
   0.1603000000000000    0.5394000000000000    0.1308000000000000 O2-
   0.6603000000000000    0.5394000000000000    0.1308000000000000 O2-
   0.3397000000000000    0.4606000000000000    0.8691999999999999 O2-
   0.8396999999999999    0.4606000000000000    0.8692000000000000 O2-
   0.3397000000000001    0.5394000000000000    0.3692000000000000 O2-
   0.8397000000000001    0.5394000000000000    0.3691999999999999 O2-
   0.1603000000000000    0.4606000000000000    0.6308000000000000 O2-
   0.6603000000000000    0.4606000000000000    0.6308000000000000 O2-
   0.4103000000000000    0.0394000000000001    0.1308000000000000 O2-
   0.9102999999999999    0.0394000000000001    0.1308000000000000 O2-
   0.0897000000000000    0.9606000000000000    0.8692000000000000 O2-
   0.5897000000000000    0.9606000000000000    0.8692000000000000 O2-
   0.0897000000000000    0.0394000000000001    0.3692000000000000 O2-
   0.5897000000000001    0.0394000000000001    0.3691999999999999 O2-
   0.4103000000000001    0.9606000000000000    0.6308000000000000 O2-
   0.9103000000000001    0.9606000000000000    0.6308000000000000 O2-
