Ca1 Cr12 F42                            
   1.00000000000000     
     7.2520490000000004   -0.0265320000000000   -0.0087440000000000
    -3.5993309999999998    6.2670750000000002    0.0076220000000000
     0.0572620000000000    0.0821120000000000   17.3435270000000017
   Ca   Cr   F 
     1    12    42
Direct
  0.8378428098583862  0.2503415061981261  0.3312152782338615
  0.2645976141983549  0.9935416158604881  0.3278351868206101
  0.7317730572586139  0.7252144183230245  0.9982579901169708
  0.0028446879838161  0.2850294963233211  0.6701058013998455
  0.3639916108854679  0.0031595784583643  0.8341412057916241
  0.6315247486539534  0.6423286209989857  0.5016226085208084
  0.0328506895610351  0.3772992465961374  0.1590643564556180
  0.6248006228834486  0.1398207986159010  0.5092387639416661
  0.5197822999541809  0.3665132885703349  0.1656732167180127
  0.8637304230807376  0.5045225441981958  0.8335152219459274
  0.3625586174552911  0.5020827861016536  0.8351713859833974
  0.1327123882533497  0.6465596822710755  0.5022280566832299
  0.5282929966656884  0.8709438394961837  0.1675727175479715
  0.5976925351054548  0.8434584927433167  0.0632769281671739
  0.2606472912378032  0.4389450933400230  0.7300094317337217
  0.1549393537997542  0.7384145755788949  0.3948943508995099
  0.4343703297227457  0.2594115275964472  0.2704344896474793
  0.8413727566834041  0.5792718779531355  0.9373278448522190
  0.7405761980324528  0.1583153101021023  0.6087071590744365
  0.8949479354084875  0.0686324576057992  0.7330381595215828
  0.1000259634271695  0.0930736229792997  0.3702067699456661
  0.9543589699965592  0.8327761067241933  0.0575574175147167
  0.1249104294156991  0.1968101655052987  0.6050079153071656
  0.0816519498252174  0.8489047242931005  0.2543408262720913
  0.8174324776454859  0.9353103473878074  0.9330427951851595
  0.1011866668306656  0.5444484002558377  0.6049104208044753
  0.4814801803613829  0.9250949508180648  0.2766414260811906
  0.4631814642807457  0.5690957316483541  0.9398054114149502
  0.8809374484912582  0.4243671938908672  0.7299323947291270
  0.5202257152397231  0.1317337762765144  0.4035171869491421
  0.6042189095806442  0.4678685235145650  0.0632208170693983
  0.3367070146302134  0.5561501335567284  0.4789526770854509
  0.2367423448519030  0.6701932702783137  0.1414270573304356
  0.4516470168946486  0.7979951849609618  0.8157834419776466
  0.6538888071244624  0.2124758803804117  0.8571179118782495
  0.5552158306146923  0.3551875164976648  0.5343851789856093
  0.8046631814395945  0.4299062602034391  0.1996600843788954
  0.6717632113693822  0.5826788476885562  0.4037846638477020
  0.9327357433381626  0.3294344497855866  0.0642485881448929
  0.4052096464309632  0.0783797502107160  0.7358560744512950
  0.3189903949156482  0.9281252564711386  0.9322782582623811
  0.5974867735501870  0.7020362478316547  0.5977133610329125
  0.1244221400066675  0.4258820048846290  0.2643741925153526
  0.9265985724267211  0.7348077532693779  0.5214249449607895
  0.8233050029925256  0.0839528521430869  0.1957614971546522
  0.2738032893486098  0.2072459372582206  0.8532423170064074
  0.0727670486784646  0.7947017488770810  0.8103022146016114
  0.7017281113802659  0.9348335084695428  0.4707384911599710
  0.2333972188376929  0.2857364759819370  0.1378479686098697
  0.6404195714453523  0.5593678112383988  0.8016774943806170
  0.9037121244561742  0.3616024595257888  0.4644159737859653
  0.4701118780396222  0.0907993865865065  0.1341503161905586
  0.3464051570835604  0.9210834356955739  0.5389296450626316
  0.5788514583436672  0.6452180408506989  0.2004007423534549
  0.0842765869870570  0.4466652496229913  0.8667144650118058
 
             NaN             NaN             NaN
             NaN             NaN             NaN
             NaN             NaN             NaN
             NaN             NaN             NaN
             NaN             NaN             NaN
             NaN             NaN             NaN
             NaN             NaN             NaN
             NaN             NaN             NaN
             NaN             NaN             NaN
             NaN             NaN             NaN
             NaN             NaN             NaN
             NaN             NaN             NaN
             NaN             NaN             NaN
             NaN             NaN             NaN
             NaN             NaN             NaN
             NaN             NaN             NaN
             NaN             NaN             NaN
             NaN             NaN             NaN
             NaN             NaN             NaN
             NaN             NaN             NaN
             NaN             NaN             NaN
             NaN             NaN             NaN
             NaN             NaN             NaN
             NaN             NaN             NaN
             NaN             NaN             NaN
             NaN             NaN             NaN
             NaN             NaN             NaN
             NaN             NaN             NaN
             NaN             NaN             NaN
             NaN             NaN             NaN
             NaN             NaN             NaN
             NaN             NaN             NaN
             NaN             NaN             NaN
             NaN             NaN             NaN
             NaN             NaN             NaN
             NaN             NaN             NaN
             NaN             NaN             NaN
             NaN             NaN             NaN
             NaN             NaN             NaN
             NaN             NaN             NaN
             NaN             NaN             NaN
             NaN             NaN             NaN
             NaN             NaN             NaN
             NaN             NaN             NaN
             NaN             NaN             NaN
             NaN             NaN             NaN
             NaN             NaN             NaN
             NaN             NaN             NaN
             NaN             NaN             NaN
             NaN             NaN             NaN
             NaN             NaN             NaN
             NaN             NaN             NaN
             NaN             NaN             NaN
             NaN             NaN             NaN
             NaN             NaN             NaN
