Ca1 Cr12 F42                            
   1.00000000000000     
     7.2520490000000004   -0.0265320000000000   -0.0087440000000000
    -3.5993309999999998    6.2670750000000002    0.0076220000000000
     0.0572620000000000    0.0821120000000000   17.3435270000000017
   Ca   Cr   F 
     1    12    42
Direct
  0.8973580892047579  0.3069362941065871  0.3468700344328599
  0.2769529467218876 -0.0045758591062841  0.3291426770542446
  0.7203950567855675  0.7161620293963564  0.9975538746795516
  0.0068174492310171  0.2930141675566179  0.6704172504366561
  0.3618119706391688  1.0015093746284616  0.8338310313917913
  0.6482244789592552  0.6593783170634702  0.5056163146242961
  1.0097328583539458  0.3523703102929531  0.1514818350600823
  0.6375017713098382  0.1539813804890731  0.5111741330456987
  0.5038550262101777  0.3502309084806574  0.1608392644309644
  0.8620571576014142  0.5036187881626706  0.8342169188527944
  0.3605331646610652  0.4999478359910035  0.8342669504357921
  0.1496496102871282  0.6647473967996095  0.5085536913509283
  0.5053000327439229  0.8521250220953281  0.1635673022681125
  0.5736074538341223  0.8254101224133978  0.0590615287841594
  0.2653852931968318  0.4388379014533479  0.7287909099529022
  0.1635583505512167  0.7363204788122799  0.3978495735742975
  0.4315194866741694  0.2509457940434263  0.2669902106665785
  0.8396998152486176  0.5771923541716233  0.9379464463565776
  0.7405444287715971  0.1743153639823126  0.6121531789140842
  0.8995115539593512  0.0713094840923412  0.7308433858801414
  0.1477274019264233  0.1184617694055132  0.3823407144352041
  0.9356069377124122  0.8210584242003353  0.0601759125516821
  0.1237665871132693  0.2097539809554041  0.6010426197279786
  0.0617602730023519  0.8520512608460474  0.2655286337182243
  0.8106157782481257  0.9285796497178512  0.9332068455749631
  0.1185669792069200  0.5658695193190005  0.6110809961962005
  0.4489213509754477  0.8926290757013656  0.2714201313952188
  0.4557947859395829  0.5634980892167226  0.9387858478677911
  0.8818244028280523  0.4262565849566759  0.7308422867012616
  0.5535152407805437  0.1392082062397097  0.4002697903295832
  0.5881506014066359  0.4523017098118698  0.0586313847119072
  0.3554927346657420  0.5794691337432859  0.4827900563538872
  0.2126572718977171  0.6484229958247180  0.1382026457707565
  0.4472377592997005  0.7957346821646930  0.8150098396146931
  0.6500581142391371  0.2115679991401681  0.8568313162445714
  0.5661643151059075  0.3690775536500536  0.5331525355391374
  0.7934310615599293  0.4202541275922170  0.1901562360101265
  0.6939974233099799  0.6040474218074658  0.4073249664324496
  0.9169819303191773  0.3097803136665720  0.0559584411700459
  0.4016772262418890  0.0763875883552046  0.7356208425453652
  0.3159281038376521  0.9266598397892640  0.9317921914794146
  0.6104517036462912  0.7143603917363741  0.6020996902479281
  0.1135500772319929  0.3969559091455629  0.2557540432423577
  0.9407025645339480  0.7472368579845882  0.5274036364737681
  0.8011650483463273  0.0626736135518497  0.1856337258598202
  0.2726820126054253  0.2056366714515632  0.8527361352583737
  0.0715639613371667  0.7929674059176810  0.8105754570098821
  0.7241382484487506  0.9537467431015876  0.4775323567398906
  0.2169872428936898  0.2670176128231802  0.1313189847113569
  0.6398397832767340  0.5594138633113370  0.8019835032430755
  0.9247706472793525  0.3766054711017247  0.4750163538471266
  0.4472393882234502  0.0716323399352407  0.1301995863377204
  0.3583323102324235  0.9434833704719972  0.5401933539858239
  0.5599292378402475  0.6278579208227963  0.1950958979220887
  0.0816111298081899  0.4433300258994323  0.8658324996141936
 
             NaN             NaN             NaN
             NaN             NaN             NaN
             NaN             NaN             NaN
             NaN             NaN             NaN
             NaN             NaN             NaN
             NaN             NaN             NaN
             NaN             NaN             NaN
             NaN             NaN             NaN
             NaN             NaN             NaN
             NaN             NaN             NaN
             NaN             NaN             NaN
             NaN             NaN             NaN
             NaN             NaN             NaN
             NaN             NaN             NaN
             NaN             NaN             NaN
             NaN             NaN             NaN
             NaN             NaN             NaN
             NaN             NaN             NaN
             NaN             NaN             NaN
             NaN             NaN             NaN
             NaN             NaN             NaN
             NaN             NaN             NaN
             NaN             NaN             NaN
             NaN             NaN             NaN
             NaN             NaN             NaN
             NaN             NaN             NaN
             NaN             NaN             NaN
             NaN             NaN             NaN
             NaN             NaN             NaN
             NaN             NaN             NaN
             NaN             NaN             NaN
             NaN             NaN             NaN
             NaN             NaN             NaN
             NaN             NaN             NaN
             NaN             NaN             NaN
             NaN             NaN             NaN
             NaN             NaN             NaN
             NaN             NaN             NaN
             NaN             NaN             NaN
             NaN             NaN             NaN
             NaN             NaN             NaN
             NaN             NaN             NaN
             NaN             NaN             NaN
             NaN             NaN             NaN
             NaN             NaN             NaN
             NaN             NaN             NaN
             NaN             NaN             NaN
             NaN             NaN             NaN
             NaN             NaN             NaN
             NaN             NaN             NaN
             NaN             NaN             NaN
             NaN             NaN             NaN
             NaN             NaN             NaN
             NaN             NaN             NaN
             NaN             NaN             NaN
