Ca1 V16 F48                             
   1.00000000000000     
    15.6514659999999992    0.0000570000000000   -0.0001300000000000
     0.0000610000000000    7.8234740000000000   -0.0000010000000000
    -0.0000840000000000   -0.0001500000000000    7.8218759999999996
   Ca   V    F 
     1    16    48
Direct
  0.6656603142903608  0.4999694433732649  0.5000179972884047
  0.1249823732160359  0.2498372370841353  0.2498255120532170
  0.6221000223288111  0.2402980986805637  0.2402768395625263
  0.1249572496081924  0.2498360036527017  0.7501611817093409
  0.6221346823799285  0.2402044972869012  0.7597681052717389
  0.1249685306620999  0.7501679553548725  0.2498269897300353
  0.6221317032288689  0.7597776127139647  0.2402641458349878
  0.1249846626409609  0.7501706319461893  0.7501608039706527
  0.6220937086456991  0.7597138363065239  0.7597012353425843
  0.3734712724935548  0.2500203048968984  0.2500159141878873
  0.8762354556174322  0.2495435940360981  0.2495384811425078
  0.3734761315971033  0.2500060613640007  0.7499927932031389
  0.8762386218444095  0.2495307865581633  0.7504688560128161
  0.3734886790192650  0.7499954219945802  0.2500035021549005
  0.8762275778606298  0.7504735548363825  0.2495271737122239
  0.3734705734174165  0.7499837123340026  0.7499789916532678
  0.8762339198640677  0.7504619553606705  0.7504554239639145
  0.0004055240625947  0.2471486098709863  0.2471311437499051
  0.4990716049770654  0.2566709892942664  0.2566892834994425
  0.0004085257834717  0.2471373601067673  0.7528648762958938
  0.4990505901748838  0.2566351909021660  0.7433611215649120
  0.0004071926145872  0.7528672802415122  0.2471235915914330
  0.4990683467880155  0.7433670381739323  0.2566326643716780
  0.0003873944242338  0.7528619238704519  0.7528564449552519
  0.4990548509703590  0.7433249500292154  0.7433392538331157
  0.2494114283107595  0.2474321377085141  0.2474122270884266
  0.7480066117116589  0.2644498596778383  0.2644801902105955
  0.2494108254199311  0.2474263643631877  0.7525833821066668
  0.7480208104578112  0.2644258925635282  0.7355811194400533
  0.2494180725548279  0.7525817211909066  0.2474106448987582
  0.7479986094087688  0.7356109300811572  0.2643952789263153
  0.2494308885913166  0.7525719791289207  0.7525699180665275
  0.7480186731626522  0.7355199463125224  0.7355513530988027
  0.1251702340613830  0.2503874094027976  0.9999711687578902
  0.6258027634306594  0.2452240002675597  0.0000094980570837
  0.1250854754420778  0.2503594982636230  0.5000142730133702
  0.6222839683830085  0.2337647562965526  0.5000032711821717
  0.1251692548116619  0.7496205705876806 -0.0000095634746385
  0.6258024623578156  0.7548044825850971  0.0000552164088934
  0.1250823311776806  0.7496486150672718  0.4999958269784169
  0.6222822409619517  0.7661484343846482  0.5000062962894385
  0.3775790499682137  0.2496824151128443 -0.0000226128726046
  0.8711358387061264  0.2497342341542987  0.0000046846053673
  0.3731988434576070  0.2504590475512263  0.5000392422631845
  0.8759401040155860  0.2515095090139611  0.5000074437154128
  0.3775746380481186  0.7503206826288441  0.9999528667845020
  0.8711385625127580  0.7502705622934259  0.9999380656617687
  0.3732030017376378  0.7495458803168713  0.5000206326679241
  0.8759383222514154  0.7484972395376918  0.5000391084687512
  0.1251697938015645  1.0000334861474618  0.2503658112415045
  0.6258000948195004  0.9999625387602579  0.2454850991499222
  0.1251719880601463  0.0000516805040359  0.7496204183697996
  0.6258100675066000  0.0000305428785794  0.7545099791691899
  0.1250834813622041  0.4999737300093874  0.2503608356358186
  0.6222934564019797  0.4999844057919992  0.2337644255829503
  0.1250838387645744  0.4999563414246826  0.7496250614386288
  0.6222903495379007  0.4999920339266935  0.7663079267620422
  0.3775726178944224  0.0000264052186064  0.2497943416044387
  0.8711446725576740  0.0000531611900231  0.2498410638605748
  0.3775687364927252  1.0000028560209846  0.7501979962657622
  0.8711415456596980  0.9999874328397232  0.7501510505746568
  0.3732089426501496  0.4999981288261257  0.2503348597669020
  0.8759300712320306  0.4999683615137965  0.2513898215314131
  0.3732081495676143  0.4999785268480141  0.7496563905733877
  0.8759328060311523  0.4999991433825388  0.7486020779359474
 
             NaN             NaN             NaN
             NaN             NaN             NaN
             NaN             NaN             NaN
             NaN             NaN             NaN
             NaN             NaN             NaN
             NaN             NaN             NaN
             NaN             NaN             NaN
             NaN             NaN             NaN
             NaN             NaN             NaN
             NaN             NaN             NaN
             NaN             NaN             NaN
             NaN             NaN             NaN
             NaN             NaN             NaN
             NaN             NaN             NaN
             NaN             NaN             NaN
             NaN             NaN             NaN
             NaN             NaN             NaN
             NaN             NaN             NaN
             NaN             NaN             NaN
             NaN             NaN             NaN
             NaN             NaN             NaN
             NaN             NaN             NaN
             NaN             NaN             NaN
             NaN             NaN             NaN
             NaN             NaN             NaN
             NaN             NaN             NaN
             NaN             NaN             NaN
             NaN             NaN             NaN
             NaN             NaN             NaN
             NaN             NaN             NaN
             NaN             NaN             NaN
             NaN             NaN             NaN
             NaN             NaN             NaN
             NaN             NaN             NaN
             NaN             NaN             NaN
             NaN             NaN             NaN
             NaN             NaN             NaN
             NaN             NaN             NaN
             NaN             NaN             NaN
             NaN             NaN             NaN
             NaN             NaN             NaN
             NaN             NaN             NaN
             NaN             NaN             NaN
             NaN             NaN             NaN
             NaN             NaN             NaN
             NaN             NaN             NaN
             NaN             NaN             NaN
             NaN             NaN             NaN
             NaN             NaN             NaN
             NaN             NaN             NaN
             NaN             NaN             NaN
             NaN             NaN             NaN
             NaN             NaN             NaN
             NaN             NaN             NaN
             NaN             NaN             NaN
             NaN             NaN             NaN
             NaN             NaN             NaN
             NaN             NaN             NaN
             NaN             NaN             NaN
             NaN             NaN             NaN
             NaN             NaN             NaN
             NaN             NaN             NaN
             NaN             NaN             NaN
             NaN             NaN             NaN
             NaN             NaN             NaN
