Ca1 V16 F48
1.0
15.651466 0.000057 -0.000130
0.000061 7.823474 -0.000001
-0.000084 -0.000150 7.821876
Ca V F
1 16 48
direct
0.656249 0.499999 0.500004 Ca
0.125254 0.250061 0.250034 V
0.624294 0.246706 0.246764 V
0.125255 0.250061 0.749966 V
0.624295 0.246706 0.753234 V
0.125254 0.749938 0.250034 V
0.624296 0.753294 0.246764 V
0.125254 0.749939 0.749967 V
0.624293 0.753294 0.753237 V
0.373308 0.248803 0.248809 V
0.877145 0.247964 0.247990 V
0.373306 0.248803 0.751190 V
0.877143 0.247966 0.752008 V
0.373306 0.751197 0.248808 V
0.877143 0.752032 0.247991 V
0.373308 0.751197 0.751191 V
0.877145 0.752033 0.752012 V
0.000769 0.250502 0.250538 F
0.499227 0.256156 0.256140 F
0.000774 0.250501 0.749464 F
0.499229 0.256152 0.743866 F
0.000774 0.749499 0.250531 F
0.499231 0.743849 0.256135 F
0.000769 0.749499 0.749466 F
0.499226 0.743845 0.743862 F
0.249541 0.250220 0.250238 F
0.750461 0.259639 0.259573 F
0.249539 0.250221 0.749761 F
0.750460 0.259638 0.740423 F
0.249536 0.749781 0.250242 F
0.750460 0.740362 0.259580 F
0.249542 0.749780 0.749759 F
0.750463 0.740361 0.740423 F
0.125121 0.250018 0.999997 F
0.625167 0.252657 0.000001 F
0.125112 0.250015 0.500003 F
0.626724 0.264941 0.500001 F
0.125122 0.749981 0.000006 F
0.625170 0.747344 0.000001 F
0.125109 0.749985 0.499994 F
0.626727 0.735055 0.499994 F
0.374968 0.251020 0.000004 F
0.874743 0.251665 0.000005 F
0.377303 0.255610 0.499997 F
0.870860 0.259344 0.499997 F
0.374966 0.748981 0.999998 F
0.874743 0.748336 0.999998 F
0.377302 0.744394 0.500003 F
0.870863 0.740655 0.500005 F
0.125122 0.999995 0.250011 F
0.625173 0.999995 0.252878 F
0.125123 0.000004 0.749991 F
0.625171 0.000002 0.747123 F
0.125109 0.500004 0.250017 F
0.626699 0.500007 0.264661 F
0.125108 0.499996 0.749982 F
0.626698 0.499998 0.735343 F
0.374971 0.000002 0.251090 F
0.874735 0.000002 0.251784 F
0.374973 0.999997 0.748909 F
0.874733 0.999995 0.748210 F
0.377268 0.499997 0.255509 F
0.870927 0.499999 0.259169 F
0.377270 0.500003 0.744491 F
0.870923 0.500003 0.740826 F
