Ca8 V12 F42                             
   1.00000000000000     
     7.5376269999999996    0.0177620000000000    0.0603940000000000
    -3.7598180000000001    6.4738429999999996   -0.0907850000000000
    -0.4640490000000000    0.5072610000000000   18.4691469999999995
   Ca   V    F 
     8    12    42
Direct
  0.9409922911225332  0.2667062445508063  0.3610860078785281
  0.4877756716904874  0.8254902234977191  0.6735518203276252
  0.6016317779941180  0.1433664464126913  0.9969544348526403
  0.9821711034074644  0.8116914086682600  0.6640959909782211
  0.1336417616992190  0.6347297210821676  0.0044204712666114
  0.9257212052160371  0.7993082104208086  0.1692327052310763
  0.8578190659509412  0.0113514477902941  0.8407637432499296
  0.2281672979880497  0.1826942879096678  0.5051767945114579
  0.3209959193377263  0.9959923005757800  0.3304703139487302
 -0.0021447950074734  0.3151895215101940  0.6681548154218121
  0.6471000010009528  0.6617547889609382  0.9964295982525430
  0.3260480080021124  0.9913718458628522  0.8255165087431576
  0.9797466746507205  0.3209287272739621  0.1550594552302058
  0.6870807111369003  0.6638497017243635  0.5003739444851943
  0.4699806438768996  0.8214782268542170  0.1653225583017014
  0.1812628048106537  0.6682183902203142  0.5018372063331544
  0.3297974332889091  0.4990780162776771  0.8320533978560788
  0.8238788327952464  0.4922209649336207  0.8286997017260654
  0.6741415535873340  0.1579371641191173  0.5043354926196926
  0.4705431732914797  0.3128167464170612  0.1601101520641182
  0.7225768490940706  0.1482475595618972  0.6130427699514266
  0.7984854979667561  0.5189304007117806  0.9402888093039447
  0.4353930589122445  0.2389354479803782  0.2642850439107042
  0.2036999194586609  0.7394540687133800  0.3957907268014181
  0.4953938490258343  0.7857170882766656  0.0541220105605959
  0.2786254925419371  0.4750378636655367  0.7220679896046667
  0.7505952833781632  0.9539084027070286  0.9508992311653492
  0.0687839110208770  0.8600559296448488  0.2724771159338427
  0.1063039869081582  0.1474161906092502  0.6151662453094420
  0.9294195305207276  0.7669535054431492  0.0487300837633991
  0.8402544385627151  0.0130238538642590  0.7210497749893416
  0.1685757787591642  0.1385466236597307  0.3875292354052102
  0.5263131930253837  0.3820399905774640  0.0494832066333955
  0.6045947642648660  0.1384054024532671  0.3930342312174394
  0.8740794138549067  0.4798419000073252  0.7184072510493652
  0.3640751989796294  0.5510736435914948  0.9423627703710601
  0.1573424965903057  0.6112981706908316  0.6146848215694922
  0.4574558377396547  0.8836916795743104  0.2694026773942369
  0.7791460314243503  0.4281299754470753  0.1689922666123514
  0.5782807794585779  0.3620920866086895  0.5288229676240465
  0.6296114618000516  0.1838103970756403  0.8561107960133882
  0.4569790238238381  0.8133977988760153  0.8042525600905027
  0.3739931369643046  0.5466501275942329  0.4906328409550103
  0.1650932420400320  0.6364976936624568  0.1343700406429139
  0.0590652186548504  0.3737345916517956  0.2578960554524852
  0.6651054676342683  0.7115309652787867  0.6123130147763530
  0.3028840179471473  0.9299614370118807  0.9386724935020774
  0.3111271955933609  0.9794427093813384  0.7101418496433005
  0.7395787272871392  0.5952225216550049  0.4096773105102558
  0.9181547293315572  0.3095351084711883  0.0445480699553301
  0.1680660471902459  0.1989950444379091  0.1434599003206595
  0.7825159782240338  0.9641011661604824  0.4796855419967468
  0.0146063483572882  0.8062542048922724  0.8057521906289710
  0.2147163895072026  0.1854026228616827  0.8472039100751577
  0.9920663844494672  0.7851181193682109  0.5318025747002948
  0.7810157407952169  0.0119428642158269  0.1716332308867818
  0.0220448828513008  0.3851519289082470  0.8517004800660818
  0.5633111722579810  0.6118654558548041  0.1858239488140650
  0.3767081389802587  0.9650473848942585  0.5316655403774406
  0.4226460517251719  0.0427528293523760  0.1179550410402412
  0.6328444147290156  0.6074544457579935  0.8145263965870497
  0.9819106451730655  0.3591698745943109  0.4793044885690822
 
             NaN             NaN             NaN
             NaN             NaN             NaN
             NaN             NaN             NaN
             NaN             NaN             NaN
             NaN             NaN             NaN
             NaN             NaN             NaN
             NaN             NaN             NaN
             NaN             NaN             NaN
             NaN             NaN             NaN
             NaN             NaN             NaN
             NaN             NaN             NaN
             NaN             NaN             NaN
             NaN             NaN             NaN
             NaN             NaN             NaN
             NaN             NaN             NaN
             NaN             NaN             NaN
             NaN             NaN             NaN
             NaN             NaN             NaN
             NaN             NaN             NaN
             NaN             NaN             NaN
             NaN             NaN             NaN
             NaN             NaN             NaN
             NaN             NaN             NaN
             NaN             NaN             NaN
             NaN             NaN             NaN
             NaN             NaN             NaN
             NaN             NaN             NaN
             NaN             NaN             NaN
             NaN             NaN             NaN
             NaN             NaN             NaN
             NaN             NaN             NaN
             NaN             NaN             NaN
             NaN             NaN             NaN
             NaN             NaN             NaN
             NaN             NaN             NaN
             NaN             NaN             NaN
             NaN             NaN             NaN
             NaN             NaN             NaN
             NaN             NaN             NaN
             NaN             NaN             NaN
             NaN             NaN             NaN
             NaN             NaN             NaN
             NaN             NaN             NaN
             NaN             NaN             NaN
             NaN             NaN             NaN
             NaN             NaN             NaN
             NaN             NaN             NaN
             NaN             NaN             NaN
             NaN             NaN             NaN
             NaN             NaN             NaN
             NaN             NaN             NaN
             NaN             NaN             NaN
             NaN             NaN             NaN
             NaN             NaN             NaN
             NaN             NaN             NaN
             NaN             NaN             NaN
             NaN             NaN             NaN
             NaN             NaN             NaN
             NaN             NaN             NaN
             NaN             NaN             NaN
             NaN             NaN             NaN
             NaN             NaN             NaN
