Ca8 V12 F42
1.0
7.537627 0.017762 0.060394
-3.759818 6.473843 -0.090785
-0.464049 0.507261 18.469147
Ca V F
8 12 42
direct
0.838916 0.232821 0.336364 Ca
0.491669 0.843535 0.666084 Ca
0.612372 0.141652 0.998064 Ca
0.988928 0.820892 0.662328 Ca
0.142037 0.629454 0.005805 Ca
0.945335 0.801853 0.168281 Ca
0.858092 0.009684 0.839217 Ca
0.173815 0.204057 0.494874 Ca
0.328292 0.987742 0.331068 V
1.002368 0.323691 0.667809 V
0.653139 0.657382 0.996593 V
0.330633 0.992240 0.826512 V
0.982579 0.313252 0.163590 V
0.677865 0.669975 0.501978 V
0.478493 0.814873 0.165737 V
0.174221 0.674476 0.501958 V
0.334843 0.502099 0.830750 V
0.828997 0.493712 0.829490 V
0.670506 0.166760 0.500276 V
0.480501 0.311145 0.161200 V
0.734395 0.175087 0.609535 F
0.806584 0.513985 0.942011 F
0.463099 0.238770 0.266442 F
0.193896 0.738767 0.396365 F
0.498332 0.779861 0.054357 F
0.282639 0.484552 0.721199 F
0.758900 0.951493 0.951219 F
0.051914 0.840441 0.275906 F
0.109893 0.156036 0.613563 F
0.936879 0.762489 0.049283 F
0.840868 0.019222 0.718965 F
0.187920 0.106458 0.388987 F
0.530604 0.376824 0.050023 F
0.598126 0.125165 0.391946 F
0.877324 0.485116 0.719519 F
0.369998 0.547761 0.941914 F
0.147956 0.614871 0.614524 F
0.466107 0.868642 0.271180 F
0.788492 0.428693 0.171378 F
0.552404 0.355450 0.512054 F
0.635237 0.184309 0.857088 F
0.462676 0.816596 0.803334 F
0.367863 0.561461 0.494920 F
0.171281 0.628952 0.140562 F
0.004120 0.320422 0.269825 F
0.666880 0.708553 0.614173 F
0.311096 0.927747 0.940215 F
0.314287 0.986092 0.711391 F
0.715581 0.657227 0.398488 F
0.927837 0.308945 0.050533 F
0.174608 0.195513 0.151356 F
0.794844 0.981736 0.488194 F
0.018576 0.808335 0.806874 F
0.219194 0.187651 0.846542 F
0.987910 0.790440 0.528708 F
0.787545 0.002224 0.172700 F
0.027322 0.386658 0.850303 F
0.578712 0.610634 0.187492 F
0.395235 0.947046 0.542056 F
0.422516 0.034698 0.120240 F
0.638603 0.610219 0.818359 F
0.967534 0.377791 0.471729 F
