K32 Fe16 P16 C16 O112
1.0
  11.1616477966000005    0.0000000000000000    0.0000000000000000
   0.0000000000000000   13.6746702193999994    0.0000000000000000
  -0.4608491138000000    0.0000000000000000   19.3358307988000000
K Fe P C O
31 16 16 16 112
direct
   0.3776090145000000    0.2395444960000000    0.3787130115000000 K
   0.1223910005000000    0.2604554890000000    0.1212870030000000 K
   0.1223910005000000    0.2604554890000000    0.6212870029999999 K
   0.1223910005000000    0.7604554890000000    0.1212870030000000 K
   0.1223910005000000    0.7604554890000000    0.6212870029999999 K
   0.6223910005000000    0.2604554890000000    0.1212870030000000 K
   0.6223910005000000    0.2604554890000000    0.6212870029999999 K
   0.6223910005000000    0.7604554890000000    0.1212870030000000 K
   0.6223910005000000    0.7604554890000000    0.6212870029999999 K
   0.1223910005000000    0.4895445110000000    0.1212870030000000 K
   0.1223910005000000    0.4895445110000000    0.6212870029999999 K
   0.1223910005000000    0.9895445110000001    0.1212870030000000 K
   0.1223910005000000    0.9895445110000001    0.6212870029999999 K
   0.6223910005000000    0.4895445110000000    0.1212870030000000 K
   0.6223910005000000    0.4895445110000000    0.6212870029999999 K
   0.6223910005000000    0.9895445110000001    0.1212870030000000 K
   0.6223910005000000    0.9895445110000001    0.6212870029999999 K
   0.3776090145000000    0.2395444960000000    0.8787130115000000 K
   0.3776090145000000    0.7395444959999999    0.3787130115000000 K
   0.3776090145000000    0.7395444959999999    0.8787130115000000 K
   0.8776090145000000    0.2395444960000000    0.3787130115000000 K
   0.8776090145000000    0.2395444960000000    0.8787130115000000 K
   0.8776090145000000    0.7395444959999999    0.3787130115000000 K
   0.8776090145000000    0.7395444959999999    0.8787130115000000 K
   0.3776090145000000    0.0104555005000000    0.8787130115000000 K
   0.3776090145000000    0.5104555005000000    0.3787130115000000 K
   0.3776090145000000    0.5104555005000000    0.8787130115000000 K
   0.8776090145000000    0.0104555005000000    0.3787130115000000 K
   0.8776090145000000    0.0104555005000000    0.8787130115000000 K
   0.8776090145000000    0.5104555005000000    0.3787130115000000 K
   0.8776090145000000    0.5104555005000000    0.8787130115000000 K
   0.3847064970000000    0.1250000000000000    0.1797035040000000 Fe
   0.3847064969999999    0.1250000000000000    0.6797035040000000 Fe
   0.3847064970000000    0.6250000000000000    0.1797035040000000 Fe
   0.3847064969999999    0.6250000000000000    0.6797035040000000 Fe
   0.8847064970000000    0.1250000000000000    0.1797035040000000 Fe
   0.8847064970000001    0.1250000000000000    0.6797035040000000 Fe
   0.8847064970000000    0.6250000000000000    0.1797035040000000 Fe
   0.8847064970000001    0.6250000000000000    0.6797035040000000 Fe
   0.1152935030000000    0.3750000000000000    0.3202964960000000 Fe
   0.1152935030000000    0.3750000000000000    0.8202964960000000 Fe
   0.1152935030000000    0.8750000000000001    0.3202964960000000 Fe
   0.1152935030000000    0.8750000000000001    0.8202964960000000 Fe
   0.6152935030000000    0.3750000000000000    0.3202964960000000 Fe
   0.6152935030000001    0.3750000000000000    0.8202964960000000 Fe
   0.6152935030000000    0.8750000000000001    0.3202964960000000 Fe
   0.6152935030000001    0.8750000000000001    0.8202964960000000 Fe
   0.3593294920000000    0.3750000000000000    0.2163590045000000 P
   0.3593294920000000    0.3750000000000000    0.7163590044999999 P
   0.3593294920000000    0.8750000000000001    0.2163590045000000 P
   0.3593294920000000    0.8750000000000001    0.7163590044999999 P
   0.8593294920000001    0.3750000000000000    0.2163590045000000 P
   0.8593294920000002    0.3750000000000000    0.7163590044999999 P
   0.8593294920000001    0.8750000000000001    0.2163590045000000 P
   0.8593294920000002    0.8750000000000001    0.7163590044999999 P
   0.1406704930000000    0.1250000000000000    0.2836410105000000 P
   0.1406704930000000    0.1250000000000000    0.7836410104999999 P
   0.1406704930000000    0.6250000000000000    0.2836410105000000 P
   0.1406704930000000    0.6250000000000000    0.7836410104999999 P
   0.6406704929999999    0.1250000000000000    0.2836410105000000 P
   0.6406704930000000    0.1250000000000000    0.7836410104999999 P
   0.6406704929999999    0.6250000000000000    0.2836410105000000 P
   0.6406704930000000    0.6250000000000000    0.7836410104999999 P
   0.3653219940000000    0.1250000000000000    0.0492945015000000 C
   0.3653219940000000    0.1250000000000000    0.5492945015000000 C
   0.3653219940000000    0.6250000000000000    0.0492945015000000 C
   0.3653219940000000    0.6250000000000000    0.5492945015000000 C
   0.8653219940000002    0.1250000000000000    0.0492945015000000 C
   0.8653219940000001    0.1250000000000000    0.5492945015000000 C
   0.8653219940000002    0.6250000000000000    0.0492945015000000 C
   0.8653219940000001    0.6250000000000000    0.5492945015000000 C
   0.1346780060000000    0.3750000000000000    0.4507054985000000 C
   0.1346780060000000    0.3750000000000000    0.9507054985000001 C
   0.1346780060000000    0.8750000000000001    0.4507054985000000 C
   0.1346780060000000    0.8750000000000001    0.9507054985000001 C
   0.6346780060000000    0.3750000000000000    0.4507054985000000 C
   0.6346780060000000    0.3750000000000000    0.9507054985000001 C
   0.6346780060000000    0.8750000000000001    0.4507054985000000 C
   0.6346780060000000    0.8750000000000001    0.9507054985000001 C
   0.1458439975000000    0.3750000000000000    0.0149405005000000 O
   0.1458439975000000    0.3750000000000000    0.5149405005000000 O
   0.1458439975000000    0.8750000000000001    0.0149405005000000 O
   0.1458439975000000    0.8750000000000001    0.5149405005000000 O
   0.6458439975000000    0.3750000000000000    0.0149405005000000 O
   0.6458439975000001    0.3750000000000000    0.5149405005000000 O
   0.6458439975000000    0.8750000000000001    0.0149405005000000 O
   0.6458439975000001    0.8750000000000001    0.5149405005000000 O
   0.4690259995000001    0.1250000000000000    0.0836979970000000 O
   0.4690259995000001    0.1250000000000000    0.5836979969999999 O
   0.4690259995000001    0.6250000000000000    0.0836979970000000 O
   0.4690259995000001    0.6250000000000000    0.5836979969999999 O
   0.9690259995000001    0.1250000000000000    0.0836979970000000 O
   0.9690259995000002    0.1250000000000000    0.5836979969999999 O
   0.9690259995000001    0.6250000000000000    0.0836979970000000 O
   0.9690259995000002    0.6250000000000000    0.5836979969999999 O
   0.2738415005000001    0.1250000000000000    0.0919490010000000 O
   0.2738415005000001    0.1250000000000000    0.5919490010000000 O
   0.2738415005000001    0.6250000000000000    0.0919490010000000 O
   0.2738415005000001    0.6250000000000000    0.5919490010000000 O
   0.7738415005000001    0.1250000000000000    0.0919490010000000 O
   0.7738415005000000    0.1250000000000000    0.5919490010000000 O
   0.7738415005000001    0.6250000000000000    0.0919490010000000 O
   0.7738415005000000    0.6250000000000000    0.5919490010000000 O
   0.3777720035000001    0.4684495030000000    0.1725465060000000 O
   0.3777720035000001    0.4684495030000000    0.6725465060000000 O
   0.3777720035000001    0.9684495030000000    0.1725465060000000 O
   0.3777720035000001    0.9684495030000000    0.6725465060000000 O
   0.8777720035000001    0.4684495030000000    0.1725465060000000 O
   0.8777720035000002    0.4684495030000000    0.6725465060000000 O
   0.8777720035000001    0.9684495030000000    0.1725465060000000 O
   0.8777720035000002    0.9684495030000000    0.6725465060000000 O
   0.3777720035000001    0.2815504970000001    0.1725465060000000 O
   0.3777720035000001    0.2815504970000001    0.6725465060000000 O
   0.3777720035000001    0.7815504970000001    0.1725465060000000 O
   0.3777720035000001    0.7815504970000001    0.6725465060000000 O
   0.8777720035000001    0.2815504970000001    0.1725465060000000 O
   0.8777720035000002    0.2815504970000001    0.6725465060000000 O
   0.8777720035000001    0.7815504970000001    0.1725465060000000 O
   0.8777720035000002    0.7815504970000001    0.6725465060000000 O
   0.0521529985000000    0.1250000000000000    0.2197709980000000 O
   0.0521529985000000    0.1250000000000000    0.7197709980000000 O
   0.0521529985000000    0.6250000000000000    0.2197709980000000 O
   0.0521529985000000    0.6250000000000000    0.7197709980000000 O
   0.5521529985000000    0.1250000000000000    0.2197709980000000 O
   0.5521529985000000    0.1250000000000000    0.7197709980000000 O
   0.5521529985000000    0.6250000000000000    0.2197709980000000 O
   0.5521529985000000    0.6250000000000000    0.7197709980000000 O
   0.2267245055000000    0.3750000000000000    0.2425474970000000 O
   0.2267245055000000    0.3750000000000000    0.7425474969999999 O
   0.2267245055000000    0.8750000000000001    0.2425474970000000 O
   0.2267245055000000    0.8750000000000001    0.7425474969999999 O
   0.7267245055000001    0.3750000000000000    0.2425474970000000 O
   0.7267245055000000    0.3750000000000000    0.7425474969999999 O
   0.7267245055000001    0.8750000000000001    0.2425474970000000 O
   0.7267245055000000    0.8750000000000001    0.7425474969999999 O
   0.2732754945000000    0.1250000000000000    0.2574524880000000 O
   0.2732754945000000    0.1250000000000000    0.7574524879999999 O
   0.2732754945000000    0.6250000000000000    0.2574524880000000 O
   0.2732754945000000    0.6250000000000000    0.7574524879999999 O
   0.7732754945000000    0.1250000000000000    0.2574524880000000 O
   0.7732754945000001    0.1250000000000000    0.7574524879999999 O
   0.7732754945000000    0.6250000000000000    0.2574524880000000 O
   0.7732754945000001    0.6250000000000000    0.7574524879999999 O
   0.4478470085000000    0.3750000000000000    0.2802290020000000 O
   0.4478470085000000    0.3750000000000000    0.7802290020000000 O
   0.4478470085000000    0.8750000000000001    0.2802290020000000 O
   0.4478470085000000    0.8750000000000001    0.7802290020000000 O
   0.9478470085000000    0.3750000000000000    0.2802290020000000 O
   0.9478470085000000    0.3750000000000000    0.7802290020000000 O
   0.9478470085000000    0.8750000000000001    0.2802290020000000 O
   0.9478470085000000    0.8750000000000001    0.7802290020000000 O
   0.1222279965000000    0.2184495030000000    0.3274534940000000 O
   0.1222279965000000    0.2184495030000000    0.8274534939999999 O
   0.1222279965000000    0.7184495030000000    0.3274534940000000 O
   0.1222279965000000    0.7184495030000000    0.8274534939999999 O
   0.6222279965000002    0.2184495030000000    0.3274534940000000 O
   0.6222279965000002    0.2184495030000000    0.8274534939999999 O
   0.6222279965000002    0.7184495030000000    0.3274534940000000 O
   0.6222279965000002    0.7184495030000000    0.8274534939999999 O
   0.1222279965000000    0.0315505005000000    0.3274534940000000 O
   0.1222279965000000    0.0315505005000000    0.8274534939999999 O
   0.1222279965000000    0.5315505005000000    0.3274534940000000 O
   0.1222279965000000    0.5315505005000000    0.8274534939999999 O
   0.6222279965000002    0.0315505005000000    0.3274534940000000 O
   0.6222279965000002    0.0315505005000000    0.8274534939999999 O
   0.6222279965000002    0.5315505005000000    0.3274534940000000 O
   0.6222279965000002    0.5315505005000000    0.8274534939999999 O
   0.2261584995000000    0.3750000000000000    0.4080510140000000 O
   0.2261584995000000    0.3750000000000000    0.9080510139999999 O
   0.2261584995000000    0.8750000000000001    0.4080510140000000 O
   0.2261584995000000    0.8750000000000001    0.9080510139999999 O
   0.7261584995000000    0.3750000000000000    0.4080510140000000 O
   0.7261584995000000    0.3750000000000000    0.9080510139999999 O
   0.7261584995000000    0.8750000000000001    0.4080510140000000 O
   0.7261584995000000    0.8750000000000001    0.9080510139999999 O
   0.0309740005000000    0.3750000000000000    0.4163019955000000 O
   0.0309740005000000    0.3750000000000000    0.9163019955000001 O
   0.0309740005000000    0.8750000000000001    0.4163019955000000 O
   0.0309740005000000    0.8750000000000001    0.9163019955000001 O
   0.5309740005000001    0.3750000000000000    0.4163019955000000 O
   0.5309740005000000    0.3750000000000000    0.9163019955000001 O
   0.5309740005000001    0.8750000000000001    0.4163019955000000 O
   0.5309740005000000    0.8750000000000001    0.9163019955000001 O
   0.3541559875000000    0.1250000000000000    0.4850594995000000 O
   0.3541559875000000    0.1250000000000000    0.9850594994999999 O
   0.3541559875000000    0.6250000000000000    0.4850594995000000 O
   0.3541559875000000    0.6250000000000000    0.9850594994999999 O
   0.8541559875000001    0.1250000000000000    0.4850594995000000 O
   0.8541559875000002    0.1250000000000000    0.9850594994999999 O
   0.8541559875000001    0.6250000000000000    0.4850594995000000 O
   0.8541559875000002    0.6250000000000000    0.9850594994999999 O
