Ca1 Cr12 F42                            
   1.00000000000000     
     7.2395310000000004   -0.0307070000000000   -0.0155260000000000
    -3.5968140000000002    6.3229800000000003   -0.1216110000000000
     0.0396300000000000   -0.2778060000000000   17.3820939999999986
   Ca   Cr   F 
     1    12    42
Direct
  0.7844335054227783  0.9565014796121661  0.8148419696547061
  0.2965406397214108  0.0067894545400659  0.3319732806654010
  0.6869300685331738  0.6664842388404957  0.0057177673188951
  0.0274208447612438  0.3407617446253817  0.6556229586196224
  0.3254564922751977  0.9739850839479470  0.8378502399499591
  0.6628048372819080  0.6776347617717529  0.4964631593764050
  0.9941856681276681  0.3390673061204639  0.1671329031597663
  0.6646201605490972  0.1775842098636809  0.4940791858037770
  0.4931709914320507  0.3374848134273651  0.1681334939041066
  0.8320561245434208  0.4758866805337185  0.8359571581318269
  0.3259690945410012  0.4688857115415456  0.8368320666871371
  0.1629683714064693  0.6804133567369216  0.4976643981583527
  0.4942461682280603  0.8387762069551941  0.1671520815473123
  0.5327158409742269  0.7786686956863998  0.0611319961202811
  0.2637903123317953  0.4858463800020471  0.7307220828960940
  0.1959608331776064  0.7574838269274164  0.3922203779299021
  0.4266645136449516  0.2577923192170294  0.2721530702831285
  0.8214119158003506  0.5413100385858249  0.9416387858672877
  0.7670297502857488  0.2120907269707616  0.5976406421708061
  0.9278188532121240  0.0896042221080510  0.7086921879143713
  0.1973523423397633  0.1234553500226013  0.3957260582812840
  0.9112213629065987  0.7984658596309143  0.0664844621773455
  0.1692830765515820  0.2672850204071768  0.5918700938015646
  0.0794793912851065  0.8782112163830785  0.2691934794516160
  0.7816144919360937  0.8834596408122984  0.9358914871371968
  0.1228676270196904  0.6039186956200823  0.6044764623595851
  0.4468421961513082  0.8902855157669644  0.2716123730412719
  0.4167757746640053  0.4821773455699099  0.9394157847672464
  0.8535720582391594  0.4102330885401825  0.7314244821663900
  0.5650259674176502  0.1411526790200683  0.3905922706554613
  0.5651737953577513  0.4168933307864094  0.0642046199912924
  0.3686594198081268  0.5898132565593177  0.4823817708934301
  0.1969744961042991  0.6316362546612142  0.1535872221306591
  0.4197936946070013  0.7659718247750568  0.8516749804421907
  0.6305461756462551  0.1818829860328185  0.8572525563980000
  0.5852780282879707  0.3892678817840641  0.5164468207233746
  0.7846925368197992  0.4201996599251665  0.1903763727540113
  0.6831680795143726  0.6298218055425530  0.3975719430268736
  0.9258099357411738  0.3087979078785101  0.0678874757330078
  0.4143074703446387 -0.0257608501146906  0.7394533865945938
  0.2686251085249428  0.9687274574091980  0.9381597034695902
  0.6436303659988261  0.7248418523030312  0.5963934433231617
  0.0630820171925729  0.3675029272661043  0.2658358334312220
  0.9588154427544894  0.7721028610685943  0.5118118843786951
  0.7906077753712868  0.0455060894355140  0.1800296583793498
  0.2272062059742596  0.1728983997535510  0.8218268262029452
  0.0272596463456227  0.7687085911633335  0.8143086413161114
  0.7453096277204716  0.9667843240968587  0.4750646374217459
  0.2039058077399190  0.2571178669597964  0.1445252032971900
  0.6203110106392382  0.5590418735197458  0.8068942446665881
  0.9428869885021969  0.3984043587784143  0.4648764862087580
  0.4342546016220077  0.0561417258121063  0.1361563298541114
  0.3875733189565777  0.9618454781883565  0.5275226369296803
  0.5544448812491924  0.6209447260592389  0.1980887228447226
  0.0344865886773554  0.3827676055735718  0.8623743146613808
 
             NaN             NaN             NaN
             NaN             NaN             NaN
             NaN             NaN             NaN
             NaN             NaN             NaN
             NaN             NaN             NaN
             NaN             NaN             NaN
             NaN             NaN             NaN
             NaN             NaN             NaN
             NaN             NaN             NaN
             NaN             NaN             NaN
             NaN             NaN             NaN
             NaN             NaN             NaN
             NaN             NaN             NaN
             NaN             NaN             NaN
             NaN             NaN             NaN
             NaN             NaN             NaN
             NaN             NaN             NaN
             NaN             NaN             NaN
             NaN             NaN             NaN
             NaN             NaN             NaN
             NaN             NaN             NaN
             NaN             NaN             NaN
             NaN             NaN             NaN
             NaN             NaN             NaN
             NaN             NaN             NaN
             NaN             NaN             NaN
             NaN             NaN             NaN
             NaN             NaN             NaN
             NaN             NaN             NaN
             NaN             NaN             NaN
             NaN             NaN             NaN
             NaN             NaN             NaN
             NaN             NaN             NaN
             NaN             NaN             NaN
             NaN             NaN             NaN
             NaN             NaN             NaN
             NaN             NaN             NaN
             NaN             NaN             NaN
             NaN             NaN             NaN
             NaN             NaN             NaN
             NaN             NaN             NaN
             NaN             NaN             NaN
             NaN             NaN             NaN
             NaN             NaN             NaN
             NaN             NaN             NaN
             NaN             NaN             NaN
             NaN             NaN             NaN
             NaN             NaN             NaN
             NaN             NaN             NaN
             NaN             NaN             NaN
             NaN             NaN             NaN
             NaN             NaN             NaN
             NaN             NaN             NaN
             NaN             NaN             NaN
             NaN             NaN             NaN
