Ca1 Cr12 F42
1.0
7.239531 -0.030707 -0.015526
-3.596814 6.322980 -0.121611
0.039630 -0.277806 17.382094
Ca Cr F
1 12 42
direct
0.765884 0.958191 0.793234 Ca
0.285007 0.000567 0.333250 Cr
0.698520 0.679611 0.008891 Cr
0.018897 0.319180 0.658316 Cr
0.354365 0.995450 0.835528 Cr
0.653622 0.660455 0.496320 Cr
0.989946 0.340345 0.169123 Cr
0.655051 0.161857 0.495551 Cr
0.488044 0.337488 0.169029 Cr
0.855160 0.495947 0.835426 Cr
0.353958 0.493372 0.834325 Cr
0.154021 0.663090 0.497550 Cr
0.491231 0.839691 0.169714 Cr
0.551793 0.796984 0.065486 F
0.272154 0.449853 0.726863 F
0.175079 0.748977 0.393717 F
0.426545 0.252212 0.273253 F
0.818259 0.544867 0.941460 F
0.754331 0.204270 0.601100 F
0.891411 0.079735 0.717511 F
0.194341 0.123672 0.397840 F
0.916293 0.784005 0.072935 F
0.132186 0.214681 0.593605 F
0.066789 0.880185 0.270565 F
0.810830 0.908224 0.946615 F
0.138074 0.582861 0.604026 F
0.426240 0.875595 0.273092 F
0.440218 0.546862 0.938763 F
0.891810 0.446841 0.730227 F
0.554641 0.122214 0.392336 F
0.550772 0.420489 0.064043 F
0.360934 0.577078 0.476295 F
0.197625 0.629582 0.149635 F
0.456000 0.791843 0.818308 F
0.658644 0.197702 0.849145 F
0.570030 0.370277 0.515482 F
0.782116 0.425186 0.189014 F
0.689125 0.620424 0.398064 F
0.916007 0.296529 0.070246 F
0.381382 0.043874 0.732602 F
0.329208 0.942433 0.935993 F
0.618997 0.702113 0.596960 F
0.064400 0.383083 0.267520 F
0.946602 0.746734 0.519166 F
0.783823 0.049494 0.188536 F
0.250454 0.196060 0.848532 F
0.050831 0.793185 0.820513 F
0.739701 0.952559 0.478687 F
0.195553 0.251683 0.148948 F
0.640609 0.566979 0.805421 F
0.933090 0.381032 0.465795 F
0.431467 0.056933 0.137525 F
0.379987 0.942813 0.530256 F
0.548396 0.619665 0.200608 F
0.068478 0.422282 0.863423 F
