Ca32 Mo32 O96
1.0
10.902000 0.000000 0.000000
0.000000 11.164200 0.000000
0.000000 0.000000 15.560600
Ca Mo O
31 32 96
direct
   0.5052500000000000    0.4773000000000000    0.3750000000000000 Ca
0.494750 0.022700 0.125000 Ca
0.494750 0.022700 0.625000 Ca
0.494750 0.522700 0.125000 Ca
0.994750 0.022700 0.125000 Ca
0.994750 0.022700 0.625000 Ca
0.994750 0.522700 0.125000 Ca
0.994750 0.522700 0.625000 Ca
0.005250 0.477300 0.375000 Ca
0.005250 0.477300 0.875000 Ca
0.005250 0.977300 0.375000 Ca
0.005250 0.977300 0.875000 Ca
0.505250 0.477300 0.875000 Ca
0.505250 0.977300 0.375000 Ca
0.505250 0.977300 0.875000 Ca
0.244750 0.227300 0.375000 Ca
0.244750 0.227300 0.875000 Ca
0.244750 0.727300 0.375000 Ca
0.244750 0.727300 0.875000 Ca
0.744750 0.227300 0.375000 Ca
0.744750 0.227300 0.875000 Ca
0.744750 0.727300 0.375000 Ca
0.744750 0.727300 0.875000 Ca
0.255250 0.272700 0.125000 Ca
0.255250 0.272700 0.625000 Ca
0.255250 0.772700 0.125000 Ca
0.255250 0.772700 0.625000 Ca
0.755250 0.272700 0.125000 Ca
0.755250 0.272700 0.625000 Ca
0.755250 0.772700 0.125000 Ca
0.755250 0.772700 0.625000 Ca
0.250000 0.000000 0.000000 Mo
0.250000 0.000000 0.500000 Mo
0.250000 0.500000 0.000000 Mo
0.250000 0.500000 0.500000 Mo
0.750000 0.000000 0.000000 Mo
0.750000 0.000000 0.500000 Mo
0.750000 0.500000 0.000000 Mo
0.750000 0.500000 0.500000 Mo
0.000000 0.250000 0.000000 Mo
0.000000 0.250000 0.500000 Mo
0.000000 0.750000 0.000000 Mo
0.000000 0.750000 0.500000 Mo
0.500000 0.250000 0.000000 Mo
0.500000 0.250000 0.500000 Mo
0.500000 0.750000 0.000000 Mo
0.500000 0.750000 0.500000 Mo
0.250000 0.000000 0.250000 Mo
0.250000 0.000000 0.750000 Mo
0.250000 0.500000 0.250000 Mo
0.250000 0.500000 0.750000 Mo
0.750000 0.000000 0.250000 Mo
0.750000 0.000000 0.750000 Mo
0.750000 0.500000 0.250000 Mo
0.750000 0.500000 0.750000 Mo
0.000000 0.250000 0.250000 Mo
0.000000 0.250000 0.750000 Mo
0.000000 0.750000 0.250000 Mo
0.000000 0.750000 0.750000 Mo
0.500000 0.250000 0.250000 Mo
0.500000 0.250000 0.750000 Mo
0.500000 0.750000 0.250000 Mo
0.500000 0.750000 0.750000 Mo
0.040500 0.239000 0.125000 O
0.040500 0.239000 0.625000 O
0.040500 0.739000 0.125000 O
0.040500 0.739000 0.625000 O
0.540500 0.239000 0.125000 O
0.540500 0.239000 0.625000 O
0.540500 0.739000 0.125000 O
0.540500 0.739000 0.625000 O
0.459500 0.261000 0.375000 O
0.459500 0.261000 0.875000 O
0.459500 0.761000 0.375000 O
0.459500 0.761000 0.875000 O
0.959500 0.261000 0.375000 O
0.959500 0.261000 0.875000 O
0.959500 0.761000 0.375000 O
0.959500 0.761000 0.875000 O
0.290500 0.011000 0.375000 O
0.290500 0.011000 0.875000 O
0.290500 0.511000 0.375000 O
0.290500 0.511000 0.875000 O
0.790500 0.011000 0.375000 O
0.790500 0.011000 0.875000 O
0.790500 0.511000 0.375000 O
0.790500 0.511000 0.875000 O
0.209500 0.489000 0.125000 O
0.209500 0.489000 0.625000 O
0.209500 0.989000 0.125000 O
0.209500 0.989000 0.625000 O
0.709500 0.489000 0.125000 O
0.709500 0.489000 0.625000 O
0.709500 0.989000 0.125000 O
0.709500 0.989000 0.625000 O
0.352250 0.146550 0.021150 O
0.352250 0.146550 0.521150 O
0.352250 0.646550 0.021150 O
0.352250 0.646550 0.521150 O
0.852250 0.146550 0.021150 O
0.852250 0.146550 0.521150 O
0.852250 0.646550 0.021150 O
0.852250 0.646550 0.521150 O
0.147750 0.353450 0.478850 O
0.147750 0.353450 0.978850 O
0.147750 0.853450 0.478850 O
0.147750 0.853450 0.978850 O
0.647750 0.353450 0.478850 O
0.647750 0.353450 0.978850 O
0.647750 0.853450 0.478850 O
0.647750 0.853450 0.978850 O
0.102250 0.103450 0.478850 O
0.102250 0.103450 0.978850 O
0.102250 0.603450 0.478850 O
0.102250 0.603450 0.978850 O
0.602250 0.103450 0.478850 O
0.602250 0.103450 0.978850 O
0.602250 0.603450 0.478850 O
0.602250 0.603450 0.978850 O
0.397750 0.396550 0.021150 O
0.397750 0.396550 0.521150 O
0.397750 0.896550 0.021150 O
0.397750 0.896550 0.521150 O
0.897750 0.396550 0.021150 O
0.897750 0.396550 0.521150 O
0.897750 0.896550 0.021150 O
0.897750 0.896550 0.521150 O
0.147750 0.353450 0.271150 O
0.147750 0.353450 0.771150 O
0.147750 0.853450 0.271150 O
0.147750 0.853450 0.771150 O
0.647750 0.353450 0.271150 O
0.647750 0.353450 0.771150 O
0.647750 0.853450 0.271150 O
0.647750 0.853450 0.771150 O
0.352250 0.146550 0.228850 O
0.352250 0.146550 0.728850 O
0.352250 0.646550 0.228850 O
0.352250 0.646550 0.728850 O
0.852250 0.146550 0.228850 O
0.852250 0.146550 0.728850 O
0.852250 0.646550 0.228850 O
0.852250 0.646550 0.728850 O
0.397750 0.396550 0.228850 O
0.397750 0.396550 0.728850 O
0.397750 0.896550 0.228850 O
0.397750 0.896550 0.728850 O
0.897750 0.396550 0.228850 O
0.897750 0.396550 0.728850 O
0.897750 0.896550 0.228850 O
0.897750 0.896550 0.728850 O
0.102250 0.103450 0.271150 O
0.102250 0.103450 0.771150 O
0.102250 0.603450 0.271150 O
0.102250 0.603450 0.771150 O
0.602250 0.103450 0.271150 O
0.602250 0.103450 0.771150 O
0.602250 0.603450 0.271150 O
0.602250 0.603450 0.771150 O
