K16 Ti16 P16 O64 F16
1.0
  12.9734898871296309    0.0079549598842008    0.0085080922213950
   0.0067137124378868   10.9161208616669256   -0.0022294471567938
   0.0084448504763089   -0.0027460971534384   13.1952633884572759
K Ti P O F
15 16 16 64 16
direct
   0.1128152284266908   -0.1978976259265408    0.6222706148727367 K
   0.8632196711586029    0.3003225000020376    0.8792579670452815 K
   0.6128152284266908    0.8021023740734592    0.6222706148727367 K
   0.1369726640993341    0.8006800030037486    0.1208563381906861 K
   0.6369726640993341    0.8006800030037488    0.1208563381906861 K
   0.3868367223787305    0.3006168470704325    0.3784731596535950 K
   0.8868367223787303    0.3006168470704324    0.3784731596535950 K
   0.3493755356388962    0.0604968959358354    0.1029922096169485 K
   0.8493755356388961    0.0604968959358354    0.1029922096169485 K
   0.1498486077100563    0.5583875261495598    0.8967388174263893 K
   0.6498486077100563    0.5583875261495597    0.8967388174263893 K
   0.3982578326896627    0.0589652005834419    0.6047216525530305 K
   0.8982578326896626    0.0589652005834419    0.6047216525530305 K
   0.1016403219262110    0.5585154309373053    0.3955740035256118 K
   0.6016403219262110    0.5585154309373052    0.3955740035256118 K
   0.2476976168129200    0.0025224271638151    0.3866717255762719 Ti
   0.7476976168129198    0.0025224271638151    0.3866717255762719 Ti
   0.2524499507670867    0.5028608596706974    0.6135249050978735 Ti
   0.7524499507670865    0.5028608596706974    0.6135249050978735 Ti
   0.0018112754387828    0.0013133364959934    0.8881450279666769 Ti
   0.5018112754387827    0.0013133364959934    0.8881450279666768 Ti
   0.4982574797622985    0.5018639838725082    0.1132910955038630 Ti
   0.9982574797622985    0.5018639838725081    0.1132910955038630 Ti
   0.1266471708016954    0.2528154682470287    0.2469818321391533 Ti
   0.6266471708016953    0.2528154682470287    0.2469818321391533 Ti
   0.3728498683381140    0.7520718204928305    0.7525584822749872 Ti
   0.8728498683381138    0.7520718204928306    0.7525584822749871 Ti
   0.1245165333236806    0.2525161281066653    0.7462035425051506 Ti
   0.6245165333236804    0.2525161281066652    0.7462035425051505 Ti
   0.3764920908725272    0.7529366718440195    0.2534549551095054 Ti
   0.8764920908725271    0.7529366718440196    0.2534549551095054 Ti
   0.1638414544569407    0.2540939309151242    0.4994165667891683 P
   0.6638414544569406    0.2540939309151242    0.4994165667891683 P
   0.3359113197592902    0.7535717422583071    0.5002199703265873 P
   0.8359113197592901    0.7535717422583071    0.5002199703265873 P
   0.0871031231403959    0.2534394756255585    0.9994492794376675 P
   0.5871031231403958    0.2534394756255585    0.9994492794376675 P
   0.4130317390883918    0.7518794960179975    0.9999374295219372 P
   0.9130317390883919    0.7518794960179978    0.9999374295219372 P
   0.2502662317192864    0.5050452865681401    0.1801377876562759 P
   0.7502662317192863    0.5050452865681400    0.1801377876562759 P
   0.2501334540725486    0.0053242447106356    0.8207200211832451 P
   0.7501334540725485    0.0053242447106356    0.8207200211832451 P
   0.9999387027546980    0.5044540243099863    0.6810665858788959 P
   0.4999387027546978    0.5044540243099864    0.6810665858788959 P
   0.0000705592269408    0.0049679809748448    0.3190787904989261 P
   0.5000705592269408    0.0049679809748448    0.3190787904989261 P
   0.2404518638077003    0.1450481775180519    0.4845411635546580 O
   0.7404518638077002    0.1450481775180519    0.4845411635546580 O
   0.2594028057500423    0.6447600694993663    0.5149854106105698 O
   0.7594028057500423    0.6447600694993663    0.5149854106105698 O
   0.0098023411043344    0.1457823536990247    0.9828885561994846 O
   0.5098023411043343    0.1457823536990247    0.9828885561994845 O
   0.4908583425919721    0.6446549838592669    0.0156751847099695 O
   0.9908583425919720    0.6446549838592669    0.0156751847099695 O
   0.2331203130324913    0.3706277016662315    0.5123135852751708 O
   0.7331203130324911    0.3706277016662315    0.5123135852751708 O
   0.2664887381373188    0.8701911431215587    0.4868572243842449 O
   0.7664887381373188    0.8701911431215588    0.4868572243842449 O
   0.0173289123047570    0.3698069763814573    0.0141663478006894 O
   0.5173289123047569    0.3698069763814573    0.0141663478006894 O
   0.4826080043315424    0.8684525746752347    0.9838490799223124 O
   0.9826080043315424    0.8684525746752347    0.9838490799223124 O
   0.0967866519295197    0.2746911003768718    0.4037033743396340 O
   0.5967866519295196    0.2746911003768718    0.4037033743396340 O
   0.4027379435558990    0.7745139983179939    0.5959812398700429 O
   0.9027379435558989    0.7745139983179939    0.5959812398700429 O
   0.1536042582917992    0.2757848565933709    0.9037228331887832 O
   0.6536042582917992    0.2757848565933708    0.9037228331887832 O
   0.3471895301566426    0.7752239219530423    0.0958711883930045 O
   0.8471895301566424    0.7752239219530423    0.0958711883930045 O
   0.0949004542632422    0.2317537181814998    0.5931094510932212 O
   0.5949004542632422    0.2317537181814998    0.5931094510932212 O
   0.4049976307302801    0.7311494862833837    0.4066631292024133 O
   0.9049976307302801    0.7311494862833836    0.4066631292024134 O
   0.1553671271225593    0.2299990410243593    0.0930370467981333 O
   0.6553671271225591    0.2299990410243593    0.0930370467981333 O
   0.3445652003064984    0.7285177801295123    0.9066523268342993 O
   0.8445652003064982    0.7285177801295122    0.9066523268342992 O
   0.1550540289597767    0.5354532225071228    0.1136277228281638 O
   0.6550540289597767    0.5354532225071227    0.1136277228281638 O
   0.3446225643336291    0.0363958920604325    0.8875914323178324 O
   0.8446225643336291    0.0363958920604325    0.8875914323178323 O
   0.0952713381716472    0.5344836400765364    0.6144579700477187 O
   0.5952713381716471    0.5344836400765365    0.6144579700477186 O
   0.4045779261151168    0.0346654928875696    0.3857516473944334 O
   0.9045779261151168    0.0346654928875696    0.3857516473944334 O
   0.3439456932994595    0.4773036300839992    0.1120155216046954 O
   0.8439456932994593    0.4773036300839991    0.1120155216046954 O
   0.1569416716515055    0.9785519262696746    0.8891630599287585 O
   0.6569416716515055    0.9785519262696746    0.8891630599287585 O
   0.4057239626290024    0.4765680444182405    0.6135807955796120 O
   0.9057239626290023    0.4765680444182405    0.6135807955796120 O
   0.0939491548728959    0.9774433629111148    0.3869905518936868 O
   0.5939491548728958    0.9774433629111148    0.3869905518936869 O
   0.2721568151272590    0.6170388324605977    0.2504984136953289 O
   0.7721568151272590    0.6170388324605978    0.2504984136953289 O
   0.2283142814992430    0.1168467032098954    0.7493842288496306 O
   0.7283142814992429    0.1168467032098954    0.7493842288496306 O
   0.4774481907519372    0.6166043559013035    0.7511536938913878 O
   0.9774481907519372    0.6166043559013036    0.7511536938913878 O
   0.0219207513348073    0.1170019446787380    0.2488912887904774 O
   0.5219207513348073    0.1170019446787380    0.2488912887904774 O
   0.2259922373382686    0.3941831402734711    0.2509592637935895 O
   0.7259922373382686    0.3941831402734711    0.2509592637935895 O
   0.2744581443270558    0.8942437191311442    0.7496399012672250 O
   0.7744581443270558    0.8942437191311443    0.7496399012672249 O
   0.0240985919475265    0.3936446466078731    0.7517571541295130 O
   0.5240985919475264    0.3936446466078731    0.7517571541295129 O
   0.4763782456522936    0.8939693073214676    0.2482586945629710 O
   0.9763782456522936    0.8939693073214677    0.2482586945629710 O
   0.2603526224499948    0.8797157353571697    0.2687971425121713 F
   0.7603526224499947    0.8797157353571698    0.2687971425121713 F
   0.2398045415910932    0.3797001574377373    0.7307763445103236 F
   0.7398045415910931    0.3797001574377373    0.7307763445103235 F
   0.4877396394438107    0.8800018984841597    0.7690991461272858 F
   0.9877396394438106    0.8800018984841598    0.7690991461272857 F
   0.0105051533575813    0.3796765196254723    0.2313236296141631 F
   0.5105051533575813    0.3796765196254723    0.2313236296141631 F
   0.2436114991379373    0.1292082268405140    0.2717706320500609 F
   0.7436114991379372    0.1292082268405140    0.2717706320500609 F
   0.2549305762136391    0.6306573528026488    0.7285838764052998 F
   0.7549305762136392    0.6306573528026488    0.7285838764052998 F
   0.0089610299613648    0.1263358035366530    0.7723444908589240 F
   0.5089610299613647    0.1263358035366530    0.7723444908589240 F
   0.4930460680527696    0.6282689068062576    0.2278234948196589 F
   0.9930460680527695    0.6282689068062575    0.2278234948196589 F
