Sm16 Mg8 Se32
1.0
       11.8891859055         0.0000000000         0.0000000000
        0.0000000000        11.8891859055         0.0000000000
        0.0000000000         0.0000000000        11.8891859055
Mg   Sm   Mg   Se
1   16    6   32
Direct
   0.5000000000000000    0.5000000000000000    0.5000000000000000 Mg
     0.375000000         0.125000000         0.375000000
     0.875000000         0.875000000         0.125000000
     0.625000000         0.875000000         0.375000000
     0.125000000         0.125000000         0.125000000
     0.375000000         0.625000000         0.875000000
     0.875000000         0.375000000         0.625000000
     0.625000000         0.375000000         0.875000000
     0.125000000         0.625000000         0.625000000
     0.875000000         0.125000000         0.875000000
     0.375000000         0.875000000         0.625000000
     0.125000000         0.875000000         0.875000000
     0.625000000         0.125000000         0.625000000
     0.875000000         0.625000000         0.375000000
     0.375000000         0.375000000         0.125000000
     0.125000000         0.375000000         0.375000000
     0.625000000         0.625000000         0.125000000
     0.000000000         0.000000000         0.500000000
     0.250000000         0.750000000         0.250000000
     0.000000000         0.500000000         0.000000000
     0.250000000         0.250000000         0.750000000
     0.500000000         0.000000000         0.000000000
     0.750000000         0.750000000         0.750000000
     0.378325999         0.878325999         0.378325999
     0.878325999         0.121674001         0.121674001
     0.121674001         0.878325999         0.121674001
     0.621674001         0.121674001         0.378325999
     0.128325999         0.128325999         0.371674001
     0.128325999         0.371674001         0.128325999
     0.371674001         0.128325999         0.128325999
     0.371674001         0.371674001         0.371674001
     0.378325999         0.378325999         0.878325999
     0.878325999         0.621674001         0.621674001
     0.121674001         0.378325999         0.621674001
     0.621674001         0.621674001         0.878325999
     0.128325999         0.628325999         0.871674001
     0.128325999         0.871674001         0.628325999
     0.371674001         0.628325999         0.628325999
     0.371674001         0.871674001         0.871674001
     0.878325999         0.878325999         0.878325999
     0.378325999         0.121674001         0.621674001
     0.621674001         0.878325999         0.621674001
     0.121674001         0.121674001         0.878325999
     0.628325999         0.128325999         0.871674001
     0.628325999         0.371674001         0.628325999
     0.871674001         0.128325999         0.628325999
     0.871674001         0.371674001         0.871674001
     0.878325999         0.378325999         0.378325999
     0.378325999         0.621674001         0.121674001
     0.621674001         0.378325999         0.121674001
     0.121674001         0.621674001         0.378325999
     0.628325999         0.628325999         0.371674001
     0.628325999         0.871674001         0.128325999
     0.871674001         0.628325999         0.128325999
     0.871674001         0.871674001         0.371674001
