Ca1 Mn4 P6 O24                          
   1.00000000000000     
     2.7022789999999999    6.9634000000000000    4.5204890000000004
     0.4091270000000000    0.2411270000000000    8.7123679999999997
     7.4664060000000001    0.2410640000000000    4.4710530000000004
   Ca   Mn   P    O 
     1     4     6    24
Direct
  0.3404130071265072  0.6740842308548878  0.5190088755541993
  0.6463960237011364  0.6388022880586135  0.6470012282985280
  0.1418571283837409  0.1565106223087369  0.1406803823360221
  0.8429477115012602  0.8546360612764232  0.8519886233513461
  0.3542155341826287  0.3509669985870687  0.3630564473689972
  0.2449257711270931  0.5254876916637841  0.9751414465006363
  0.0135251110205488  0.7572294718976877  0.4600677515276033
  0.9682407467629588  0.2483494043343910  0.5264627048582042
  0.4595939931825228  0.0343607108703807  0.7534420125226333
  0.5406311148736194  0.9727741101776459  0.2415055029288879
  0.7426124371839933  0.4734169330074565  0.0408639453260662
  0.5943246611642294  0.7633461138022568  0.4017060414714493
  0.3016716177965861  0.0169377005728748  0.9621074937831224
  0.4049818076769540  0.5950793403238066  0.7737531602447447
  0.9527539326413361  0.3181939765069473  0.0199059502885461
  0.7643842587238296  0.3941939490602735  0.6089212983410235
  0.0099808136829225  0.9659400560475007  0.3213494891448860
  0.9887478880066496  0.0309263495609287  0.6618599125225515
  0.5892258788396489  0.4048108179535319  0.2438140770190174
  0.6992063709671967  0.9846088571289684  0.0357180533757813
  0.2240748728275648  0.6071038525150172  0.3920922224704881
  0.0459441456658425  0.6864297907790728  0.9656801553679273
  0.3898534918915146  0.2431123917557159  0.6033610413324197
  0.2764035298961005  0.3329376743377708  0.9712526770570520
  0.8647913906979596  0.7097256118846431  0.4693496353265729
  0.9879720460874992  0.2906716245532621  0.3185209901252719
  0.4931389074142700  0.8758938834329655  0.6973526793588647
  0.3407542401133625  0.9880814247947853  0.2652766841548910
  0.7030412387037757  0.5009211332911718  0.8729010357693809
  0.2845260687630429  0.4976275819979747  0.1397917592769744
  0.9954984319016518  0.7173315337892490  0.6684984123346851
  0.1317726725464183  0.2807447752828196  0.5157608938252736
  0.6548935925048767  0.0198686915209407  0.7347577130829706
  0.5183300934440140  0.1267249612468291  0.2941049651007788
  0.7161323613132424  0.6708893813143675  0.0297215230739880
 
             NaN             NaN             NaN
             NaN             NaN             NaN
             NaN             NaN             NaN
             NaN             NaN             NaN
             NaN             NaN             NaN
             NaN             NaN             NaN
             NaN             NaN             NaN
             NaN             NaN             NaN
             NaN             NaN             NaN
             NaN             NaN             NaN
             NaN             NaN             NaN
             NaN             NaN             NaN
             NaN             NaN             NaN
             NaN             NaN             NaN
             NaN             NaN             NaN
             NaN             NaN             NaN
             NaN             NaN             NaN
             NaN             NaN             NaN
             NaN             NaN             NaN
             NaN             NaN             NaN
             NaN             NaN             NaN
             NaN             NaN             NaN
             NaN             NaN             NaN
             NaN             NaN             NaN
             NaN             NaN             NaN
             NaN             NaN             NaN
             NaN             NaN             NaN
             NaN             NaN             NaN
             NaN             NaN             NaN
             NaN             NaN             NaN
             NaN             NaN             NaN
             NaN             NaN             NaN
             NaN             NaN             NaN
             NaN             NaN             NaN
             NaN             NaN             NaN
