Ca1 Mn4 P6 O24                          
   1.00000000000000     
     2.7022789999999999    6.9634000000000000    4.5204890000000004
     0.4091270000000000    0.2411270000000000    8.7123679999999997
     7.4664060000000001    0.2410640000000000    4.4710530000000004
   Ca   Mn   P    O 
     1     4     6    24
Direct
  0.3404130071265104  0.6740842308548884  0.5190088755541997
  0.6463960237011378  0.6388022880586136  0.6470012282985304
  0.1418571283837412  0.1565106223087340  0.1406803823360230
  0.8429477115012616  0.8546360612764218  0.8519886233513478
  0.3542155341826316  0.3509669985870713  0.3630564473689960
  0.2449257711270960  0.5254876916637843  0.9751414465006379
  0.0135251110205458  0.7572294718976852  0.4600677515276038
  0.9682407467629605  0.2483494043343905  0.5264627048582028
  0.4595939931825218  0.0343607108703820  0.7534420125226328
  0.5406311148736218  0.9727741101776491  0.2415055029288868
  0.7426124371839933  0.4734169330074530  0.0408639453260691
  0.5943246611642314  0.7633461138022594  0.4017060414714519
  0.3016716177965894  0.0169377005728716  0.9621074937831252
  0.4049818076769556  0.5950793403238090  0.7737531602447482
  0.9527539326413330  0.3181939765069448  0.0199059502885439
  0.7643842587238325  0.3941939490602737  0.6089212983410237
  0.0099808136829222  0.9659400560475004  0.3213494891448826
  0.9887478880066464  0.0309263495609288  0.6618599125225508
  0.5892258788396519  0.4048108179535329  0.2438140770190160
  0.6992063709671980  0.9846088571289663  0.0357180533757783
  0.2240748728275659  0.6071038525150160  0.3920922224704872
  0.0459441456658442  0.6864297907790714  0.9656801553679304
  0.3898534918915164  0.2431123917557170  0.6033610413324211
  0.2764035298961018  0.3329376743377676  0.9712526770570525
  0.8647913906979562  0.7097256118846434  0.4693496353265707
  0.9879720460875022  0.2906716245532614  0.3185209901252689
  0.4931389074142718  0.8758938834329665  0.6973526793588652
  0.3407542401133634  0.9880814247947872  0.2652766841548886
  0.7030412387037771  0.5009211332911750  0.8729010357693782
  0.2845260687630431  0.4976275819979731  0.1397917592769743
  0.9954984319016514  0.7173315337892469  0.6684984123346862
  0.1317726725464209  0.2807447752828161  0.5157608938252735
  0.6548935925048737  0.0198686915209414  0.7347577130829693
  0.5183300934440106  0.1267249612468322  0.2941049651007820
  0.7161323613132442  0.6708893813143708  0.0297215230739910
 
             NaN             NaN             NaN
             NaN             NaN             NaN
             NaN             NaN             NaN
             NaN             NaN             NaN
             NaN             NaN             NaN
             NaN             NaN             NaN
             NaN             NaN             NaN
             NaN             NaN             NaN
             NaN             NaN             NaN
             NaN             NaN             NaN
             NaN             NaN             NaN
             NaN             NaN             NaN
             NaN             NaN             NaN
             NaN             NaN             NaN
             NaN             NaN             NaN
             NaN             NaN             NaN
             NaN             NaN             NaN
             NaN             NaN             NaN
             NaN             NaN             NaN
             NaN             NaN             NaN
             NaN             NaN             NaN
             NaN             NaN             NaN
             NaN             NaN             NaN
             NaN             NaN             NaN
             NaN             NaN             NaN
             NaN             NaN             NaN
             NaN             NaN             NaN
             NaN             NaN             NaN
             NaN             NaN             NaN
             NaN             NaN             NaN
             NaN             NaN             NaN
             NaN             NaN             NaN
             NaN             NaN             NaN
             NaN             NaN             NaN
             NaN             NaN             NaN
