Li1 V24 O60
1.0
11.539686 0.000001 0.000197
0.000001 10.727842 0.000004
0.000164 0.000004 9.515163
Li V O
1 24 60
direct
   0.2496440000000000    0.5833760000000000    0.1566930000000000 Li
0.103509 0.086152 0.448939 V
0.100723 0.082528 0.944253 V
0.103508 0.413848 0.448939 V
0.100723 0.417472 0.944253 V
0.101395 0.750000 0.436904 V
0.101379 0.750000 0.943711 V
0.898451 0.250000 0.054500 V
0.898547 0.250000 0.558453 V
0.899214 0.583117 0.055319 V
0.899117 0.583341 0.550533 V
0.899214 0.916883 0.055319 V
0.899117 0.916660 0.550533 V
0.396526 0.086139 0.448953 V
0.399289 0.082534 0.944268 V
0.396526 0.413862 0.448953 V
0.399289 0.417466 0.944268 V
0.398627 0.750000 0.436932 V
0.398640 0.750000 0.943722 V
0.601558 0.250000 0.054499 V
0.601466 0.250000 0.558455 V
0.600796 0.583118 0.055328 V
0.600906 0.583344 0.550550 V
0.600796 0.916882 0.055329 V
0.600906 0.916656 0.550549 V
0.119053 0.102425 0.281096 O
0.107971 0.082227 0.776484 O
0.119052 0.397576 0.281096 O
0.107971 0.417772 0.776484 O
0.106884 0.750000 0.268780 O
0.105455 0.750000 0.775616 O
0.893370 0.250000 0.222546 O
0.893143 0.250000 0.726567 O
0.895774 0.581069 0.223467 O
0.895501 0.584534 0.718670 O
0.895774 0.918931 0.223467 O
0.895501 0.915466 0.718669 O
0.381013 0.102342 0.281111 O
0.392044 0.082211 0.776499 O
0.381013 0.397659 0.281112 O
0.392044 0.417789 0.776500 O
0.393154 0.750000 0.268807 O
0.394574 0.750000 0.775627 O
0.606631 0.250000 0.222545 O
0.606865 0.250000 0.726568 O
0.604239 0.581074 0.223475 O
0.604527 0.584537 0.718685 O
0.604239 0.918926 0.223475 O
0.604527 0.915463 0.718684 O
0.932635 0.084828 0.502511 O
0.931836 0.083446 0.001192 O
0.932635 0.415172 0.502512 O
0.931836 0.416554 0.001192 O
0.931966 0.750000 0.498433 O
0.931894 0.750000 0.004053 O
0.069859 0.250000 0.001256 O
0.071637 0.250000 0.509705 O
0.070778 0.582544 0.997331 O
0.068557 0.582456 0.487299 O
0.070778 0.917456 0.997330 O
0.068557 0.917544 0.487298 O
0.567390 0.084822 0.502522 O
0.568182 0.083439 0.001202 O
0.567390 0.415179 0.502523 O
0.568182 0.416561 0.001203 O
0.568065 0.750000 0.498444 O
0.568123 0.750000 0.004058 O
0.430186 0.250000 0.001195 O
0.428385 0.250000 0.509691 O
0.429237 0.582545 0.997349 O
0.431462 0.582467 0.487352 O
0.429237 0.917455 0.997349 O
0.431462 0.917534 0.487351 O
0.250001 0.094711 0.005573 O
0.250005 0.081243 0.510601 O
0.250001 0.405288 0.005574 O
0.250006 0.418757 0.510601 O
0.250005 0.750000 0.997389 O
0.250004 0.750000 0.492669 O
0.750008 0.250000 0.502969 O
0.750008 0.250000 0.999231 O
0.750013 0.582016 0.497057 O
0.750009 0.583157 0.002201 O
0.750013 0.917984 0.497057 O
0.750009 0.916843 0.002201 O
