Ca1 Ti12 F42
1.0
7.510508 -0.004754 0.030252
-3.748908 6.522297 0.035161
-0.051682 0.118109 17.623664
Ca Ti F
1 12 42
direct
0.843590 0.994502 0.331941 Ca
0.291610 0.000398 0.333365 Ti
0.727104 0.726090 0.997207 Ti
0.001898 0.272664 0.668873 Ti
0.359629 0.998057 0.833483 Ti
0.646415 0.658097 0.498568 Ti
0.988500 0.343114 0.168488 Ti
0.642525 0.154982 0.504244 Ti
0.499021 0.354707 0.164084 Ti
0.859072 0.498322 0.832703 Ti
0.358657 0.497710 0.834184 Ti
0.145008 0.645370 0.502632 Ti
0.489276 0.846159 0.162592 Ti
0.568812 0.817598 0.060125 F
0.251301 0.418966 0.729771 F
0.181669 0.752633 0.397496 F
0.423318 0.248032 0.269089 F
0.830422 0.578730 0.937002 F
0.752394 0.178958 0.606064 F
0.882870 0.064169 0.734291 F
0.153154 0.101188 0.393198 F
0.929144 0.816778 0.064679 F
0.117230 0.186870 0.601010 F
0.053641 0.892579 0.272598 F
0.814095 0.932562 0.930962 F
0.111478 0.540322 0.604884 F
0.446128 0.887761 0.274573 F
0.460900 0.567961 0.936798 F
0.892118 0.428547 0.730096 F
0.553427 0.122889 0.394117 F
0.573103 0.459285 0.061938 F
0.355518 0.574076 0.477267 F
0.200728 0.634953 0.157572 F
0.432870 0.780815 0.811805 F
0.650288 0.215335 0.855133 F
0.568037 0.368145 0.513782 F
0.778394 0.422255 0.190924 F
0.696859 0.676872 0.390302 F
0.904892 0.291404 0.072234 F
0.400351 0.077167 0.734289 F
0.320682 0.919574 0.932722 F
0.618880 0.719371 0.594001 F
0.015877 0.316971 0.276548 F
0.934736 0.723229 0.516168 F
0.779207 0.033643 0.192724 F
0.282093 0.212112 0.854590 F
0.068436 0.783872 0.812356 F
0.740119 0.964772 0.470673 F
0.212113 0.279166 0.149427 F
0.633210 0.548152 0.803569 F
0.921244 0.373613 0.468986 F
0.450462 0.079545 0.138136 F
0.371135 0.920595 0.529036 F
0.549754 0.627198 0.197972 F
0.083156 0.447417 0.863439 F
