Mg1 V24 O60
1.0
11.524663 -0.001050 0.002226
-0.000262 10.723233 0.001671
0.001970 0.001420 9.487567
Mg V O
1 24 60
direct
0.251525 0.249964 0.175528 Mg
0.104919 0.088024 0.449916 V
0.105016 0.410713 0.449011 V
0.101477 0.749543 0.429712 V
0.100166 0.082324 0.947318 V
0.100098 0.418196 0.947621 V
0.101019 0.750117 0.946406 V
0.897829 0.250057 0.054713 V
0.899310 0.583024 0.058071 V
0.899322 0.917270 0.057619 V
0.899288 0.249542 0.559871 V
0.899636 0.582580 0.543175 V
0.899821 0.915886 0.544618 V
0.395160 0.088501 0.450264 V
0.395319 0.411340 0.450387 V
0.398597 0.749856 0.430984 V
0.399736 0.082763 0.947478 V
0.399710 0.418153 0.947374 V
0.398792 0.750563 0.944909 V
0.601798 0.250499 0.055477 V
0.600304 0.583542 0.057022 V
0.600300 0.917515 0.057117 V
0.600930 0.249887 0.560441 V
0.600477 0.583395 0.545014 V
0.600337 0.916711 0.545119 V
0.129209 0.117153 0.282690 O
0.129773 0.380979 0.281928 O
0.108648 0.750115 0.261065 O
0.110854 0.080785 0.779425 O
0.110473 0.420081 0.779715 O
0.104051 0.749749 0.777801 O
0.891588 0.249586 0.223254 O
0.895650 0.578721 0.226795 O
0.895764 0.921530 0.226319 O
0.895068 0.250253 0.728542 O
0.896952 0.584497 0.711735 O
0.897338 0.913045 0.713191 O
0.370977 0.117911 0.282989 O
0.371650 0.382380 0.282971 O
0.392177 0.749572 0.262342 O
0.389833 0.082532 0.779513 O
0.389661 0.418290 0.779413 O
0.395078 0.750912 0.776288 O
0.608346 0.250370 0.223986 O
0.603244 0.579855 0.225734 O
0.603358 0.921175 0.225833 O
0.605441 0.249769 0.729079 O
0.604101 0.585711 0.713584 O
0.602979 0.914779 0.713714 O
0.934175 0.085939 0.500680 O
0.934137 0.412769 0.498747 O
0.931665 0.749455 0.491230 O
0.931354 0.083509 0.999769 O
0.931243 0.416895 0.000403 O
0.931452 0.750148 0.007083 O
0.069703 0.250230 0.006416 O
0.072317 0.582038 0.002247 O
0.072333 0.918362 0.001556 O
0.075992 0.249555 0.518032 O
0.068722 0.581304 0.478116 O
0.068699 0.917516 0.479405 O
0.565963 0.086433 0.500425 O
0.566007 0.413398 0.500928 O
0.568378 0.750003 0.492835 O
0.568261 0.084034 0.000285 O
0.568297 0.416936 0.000329 O
0.568154 0.750527 0.005575 O
0.429365 0.250435 0.008874 O
0.427400 0.582306 0.000149 O
0.427315 0.918652 0.000709 O
0.424174 0.249838 0.518689 O
0.431428 0.581813 0.480601 O
0.431363 0.918019 0.479876 O
0.249852 0.102364 0.014433 O
0.249908 0.398408 0.014276 O
0.250082 0.750265 0.997696 O
0.250028 0.076941 0.514409 O
0.249905 0.422271 0.513980 O
0.249853 0.749699 0.487406 O
0.750054 0.249619 0.506669 O
0.749829 0.579544 0.491564 O
0.750027 0.919799 0.493007 O
0.749733 0.250335 0.997955 O
0.749907 0.583678 0.004758 O
0.749842 0.917199 0.004578 O
