Ca8 Mn16 S32                            
   1.00000000000000     
     9.7471037060139363   -0.0000068210394087   -0.0000013731943116
    -0.0000068230153023    9.7472255033547022    0.0000137979127954
    -0.0000013706509268    0.0000138059918986    9.7470077462139511
   Ca   Mn   S 
     1    16    32
Direct
  0.5000056882918358  0.5000005835021213  0.5000042346865357
  0.1232665733387464  0.1232619357892872  0.1232621981499022
  0.6290824668879438  0.8858951966882387  0.3709160484882688
  0.3709138252161566  0.1141049526619256  0.3709131442276004
  0.8767388355818824  0.8767405234528169  0.1232610246158714
  0.1141085901442409  0.6290877418266803  0.6290853648907273
  0.6290795657267978  0.3709153661698465  0.8858981390362572
  0.3709151998180999  0.6290854434123574  0.8858991459524006
  0.8858956904314255  0.3709139119125524  0.6290852226844166
  0.6290833992306943  0.1141029497547450  0.6290862440456380
  0.1232648497689652  0.8767392067029220  0.8767371321248802
  0.8767384089160188  0.1232576568447428  0.8767380646889791
  0.3709165425516048  0.8858929454741116  0.6290849326853873
  0.6290806859528715  0.6290870398411315  0.1141016739336749
  0.1141094460064167  0.3709132350180298  0.3709134073917966
  0.8858964502810522  0.6290873648447430  0.3709150762071474
  0.3709136263871784  0.3709139737217697  0.1141032486860141
  0.3490603265542447  0.3490525425512274  0.3490664211591579
  0.8834870790014264  0.1165123281227523  0.1165099415222954
  0.6140106331057638  0.1206018245252523  0.3859964418986053
  0.1165120672890225  0.8834861519343562  0.1165103628696045
  0.1282624200638693  0.1282564675428972  0.3640457546447919
  0.1282539232193542  0.3640427246986491  0.1282630597758114
  0.3859922073451330  0.8793938281472222  0.3859944813445182
  0.3640463099338760  0.1282516356107095  0.1282644630992422
  0.3640463390247675  0.8717503847077595  0.8717352656536548
  0.8793930520450033  0.6140134420558070  0.6140126657079605
  0.6140149501955676  0.6140157530368029  0.8793901149932140
  0.1206047240504446  0.3859888370318529  0.6140121084456283
  0.1282533289770527  0.6359573344097171  0.8717372332186244
  0.1282632834179509  0.8717465039782084  0.6359521072545178
  0.3859841045458055  0.3859855810489279  0.8793904788381965
  0.3490607572507542  0.6509429211207447  0.6509310365627030
  0.8717423384421608  0.3640400599224662  0.8717387578280693
  0.3859934468731154  0.1206009056156816  0.6140094153537703
  0.1165109107885272  0.1165116388151120  0.8834837163391782
  0.6140099549418068  0.8793922806260142  0.6140096060111375
  0.6359536967783157  0.1282499104640635  0.8717375082373735
  0.6509352060945233  0.3490546500088527  0.6509275290361387
  0.8834880009703951  0.8834856925225836  0.8834855692740931
  0.8717402291756287  0.1282540632265423  0.6359524139326282
  0.8717395103191592  0.8717472756237683  0.3640468897281082
  0.3859811384932712  0.6140206011749996  0.1206077659114300
  0.1206071762385790  0.6140152819801870  0.3859905412475300
  0.6140142297141793  0.3859863212617185  0.1206052943879570
  0.6509371899743641  0.6509425898206445  0.3490695961793051
  0.6359541241223425  0.8717532010584321  0.1282655474287111
  0.8793944278827865  0.3859885209697538  0.3859916185965275
  0.8717430686388923  0.6359587187682791  0.1282619910240399
 
  0.00000000E+00  0.00000000E+00  0.00000000E+00
  0.00000000E+00  0.00000000E+00  0.00000000E+00
  0.00000000E+00  0.00000000E+00  0.00000000E+00
  0.00000000E+00  0.00000000E+00  0.00000000E+00
  0.00000000E+00  0.00000000E+00  0.00000000E+00
  0.00000000E+00  0.00000000E+00  0.00000000E+00
  0.00000000E+00  0.00000000E+00  0.00000000E+00
  0.00000000E+00  0.00000000E+00  0.00000000E+00
  0.00000000E+00  0.00000000E+00  0.00000000E+00
  0.00000000E+00  0.00000000E+00  0.00000000E+00
  0.00000000E+00  0.00000000E+00  0.00000000E+00
  0.00000000E+00  0.00000000E+00  0.00000000E+00
  0.00000000E+00  0.00000000E+00  0.00000000E+00
  0.00000000E+00  0.00000000E+00  0.00000000E+00
  0.00000000E+00  0.00000000E+00  0.00000000E+00
  0.00000000E+00  0.00000000E+00  0.00000000E+00
  0.00000000E+00  0.00000000E+00  0.00000000E+00
  0.00000000E+00  0.00000000E+00  0.00000000E+00
  0.00000000E+00  0.00000000E+00  0.00000000E+00
  0.00000000E+00  0.00000000E+00  0.00000000E+00
  0.00000000E+00  0.00000000E+00  0.00000000E+00
  0.00000000E+00  0.00000000E+00  0.00000000E+00
  0.00000000E+00  0.00000000E+00  0.00000000E+00
  0.00000000E+00  0.00000000E+00  0.00000000E+00
  0.00000000E+00  0.00000000E+00  0.00000000E+00
  0.00000000E+00  0.00000000E+00  0.00000000E+00
  0.00000000E+00  0.00000000E+00  0.00000000E+00
  0.00000000E+00  0.00000000E+00  0.00000000E+00
  0.00000000E+00  0.00000000E+00  0.00000000E+00
  0.00000000E+00  0.00000000E+00  0.00000000E+00
  0.00000000E+00  0.00000000E+00  0.00000000E+00
  0.00000000E+00  0.00000000E+00  0.00000000E+00
  0.00000000E+00  0.00000000E+00  0.00000000E+00
  0.00000000E+00  0.00000000E+00  0.00000000E+00
  0.00000000E+00  0.00000000E+00  0.00000000E+00
  0.00000000E+00  0.00000000E+00  0.00000000E+00
  0.00000000E+00  0.00000000E+00  0.00000000E+00
  0.00000000E+00  0.00000000E+00  0.00000000E+00
  0.00000000E+00  0.00000000E+00  0.00000000E+00
  0.00000000E+00  0.00000000E+00  0.00000000E+00
  0.00000000E+00  0.00000000E+00  0.00000000E+00
  0.00000000E+00  0.00000000E+00  0.00000000E+00
  0.00000000E+00  0.00000000E+00  0.00000000E+00
  0.00000000E+00  0.00000000E+00  0.00000000E+00
  0.00000000E+00  0.00000000E+00  0.00000000E+00
  0.00000000E+00  0.00000000E+00  0.00000000E+00
  0.00000000E+00  0.00000000E+00  0.00000000E+00
  0.00000000E+00  0.00000000E+00  0.00000000E+00
  0.00000000E+00  0.00000000E+00  0.00000000E+00
