Li16 Mn16 P16 O64
1.0
   9.5840578080000007    0.0000000000000000    0.0000000000000000
   0.0000000000000000   12.3571815489999999    0.0000000000000000
   0.0000000000000000    0.0000000000000000   10.5941839217999991
Li Mn P O
15 16 16 64
direct
   0.7500000000000000    0.7499999999999999    0.5000000000000000 Li
   0.0000000000000000    0.0000000000000000    0.0000000000000000 Li
   0.0000000000000000    0.5000000000000000    0.0000000000000000 Li
   0.5000000000000000    0.0000000000000000    0.0000000000000000 Li
   0.5000000000000000    0.5000000000000000    0.0000000000000000 Li
   0.0000000000000000    0.2500000000000000    0.0000000000000000 Li
   0.0000000000000000    0.7499999999999999    0.0000000000000000 Li
   0.5000000000000000    0.2500000000000000    0.0000000000000000 Li
   0.5000000000000000    0.7499999999999999    0.0000000000000000 Li
   0.2500000000000000    0.2500000000000000    0.5000000000000000 Li
   0.2500000000000000    0.7499999999999999    0.5000000000000000 Li
   0.7500000000000000    0.2500000000000000    0.5000000000000000 Li
   0.2500000000000000    0.0000000000000000    0.5000000000000000 Li
   0.2500000000000000    0.5000000000000000    0.5000000000000000 Li
   0.7500000000000000    0.0000000000000000    0.5000000000000000 Li
   0.2362750025000000    0.3749999999999999    0.7811610100000002 Mn
   0.2362750025000000    0.8749999999999999    0.7811610100000002 Mn
   0.7362750025000000    0.3749999999999999    0.7811610100000002 Mn
   0.7362750025000000    0.8749999999999999    0.7811610100000002 Mn
   0.0137250005000000    0.3749999999999999    0.2811610100000000 Mn
   0.0137250005000000    0.8749999999999999    0.2811610100000000 Mn
   0.5137250005000000    0.3749999999999999    0.2811610100000000 Mn
   0.5137250005000000    0.8749999999999999    0.2811610100000000 Mn
   0.2637250125000000    0.1250000000000000    0.2188390050000000 Mn
   0.2637250125000000    0.6250000000000000    0.2188390050000000 Mn
   0.7637250125000000    0.1250000000000000    0.2188390050000000 Mn
   0.7637250125000000    0.6250000000000000    0.2188390050000000 Mn
   0.4862749875000000    0.1250000000000000    0.7188389900000000 Mn
   0.4862749875000000    0.6250000000000000    0.7188389900000000 Mn
   0.9862749875000000    0.1250000000000000    0.7188389900000000 Mn
   0.9862749875000000    0.6250000000000000    0.7188389900000000 Mn
   0.0447800010000000    0.1250000000000000    0.4078989920000001 P
   0.0447800010000000    0.6250000000000000    0.4078989920000001 P
   0.5447800010000000    0.1250000000000000    0.4078989920000001 P
   0.5447800010000000    0.6250000000000000    0.4078989920000001 P
   0.2052199990000000    0.1250000000000000    0.9078990220000001 P
   0.2052199990000000    0.6250000000000000    0.9078990220000001 P
   0.7052199990000001    0.1250000000000000    0.9078990220000001 P
   0.7052199990000001    0.6250000000000000    0.9078990220000001 P
   0.4552200140000001    0.3749999999999999    0.5921009779999999 P
   0.4552200140000001    0.8749999999999999    0.5921009779999999 P
   0.9552200140000000    0.3749999999999999    0.5921009779999999 P
   0.9552200140000000    0.8749999999999999    0.5921009779999999 P
   0.2947799860000000    0.3749999999999999    0.0921010000000000 P
   0.2947799860000000    0.8749999999999999    0.0921010000000000 P
   0.7947799860000000    0.3749999999999999    0.0921010000000000 P
   0.7947799860000000    0.8749999999999999    0.0921010000000000 P
   0.3843264880000000    0.1250000000000000    0.4034129980000001 O
   0.3843264880000000    0.6250000000000000    0.4034129980000001 O
   0.8843264880000000    0.1250000000000000    0.4034129980000001 O
   0.8843264880000000    0.6250000000000000    0.4034129980000001 O
   0.3656735120000000    0.1250000000000000    0.9034129980000000 O
   0.3656735120000000    0.6250000000000000    0.9034129980000000 O
   0.8656735120000000    0.1250000000000000    0.9034129980000000 O
   0.8656735120000000    0.6250000000000000    0.9034129980000000 O
   0.1156734975000000    0.3749999999999999    0.5965870020000000 O
   0.1156734975000000    0.8749999999999999    0.5965870020000000 O
   0.6156734975000000    0.3749999999999999    0.5965870020000000 O
   0.6156734975000000    0.8749999999999999    0.5965870020000000 O
   0.1343265025000000    0.3749999999999999    0.0965870020000000 O
   0.1343265025000000    0.8749999999999999    0.0965870020000000 O
   0.6343265025000000    0.3749999999999999    0.0965870020000000 O
   0.6343265025000000    0.8749999999999999    0.0965870020000000 O
   0.1449880005000000    0.1250000000000000    0.0443480010000000 O
   0.1449880005000000    0.6250000000000000    0.0443480010000000 O
   0.6449880005000000    0.1250000000000000    0.0443480010000000 O
   0.6449880005000000    0.6250000000000000    0.0443480010000000 O
   0.1050119995000000    0.1250000000000000    0.5443480010000000 O
   0.1050119995000000    0.6250000000000000    0.5443480010000000 O
   0.6050119995000001    0.1250000000000000    0.5443480010000000 O
   0.6050119995000001    0.6250000000000000    0.5443480010000000 O
   0.3550119995000000    0.3749999999999999    0.9556519990000000 O
   0.3550119995000000    0.8749999999999999    0.9556519990000000 O
   0.8550119995000000    0.3749999999999999    0.9556519990000000 O
   0.8550119995000000    0.8749999999999999    0.9556519990000000 O
   0.3949880005000000    0.3749999999999999    0.4556519990000000 O
   0.3949880005000000    0.8749999999999999    0.4556519990000000 O
   0.8949880005000000    0.3749999999999999    0.4556519990000000 O
   0.8949880005000000    0.8749999999999999    0.4556519990000000 O
   0.1112634985000000    0.2252717465000000    0.3389160040000000 O
   0.1112634985000000    0.7252717465000000    0.3389160040000000 O
   0.6112634985000001    0.2252717465000000    0.3389160040000000 O
   0.6112634985000001    0.7252717465000000    0.3389160040000000 O
   0.1387365015000000    0.0247282500000000    0.8389160040000000 O
   0.1387365015000000    0.5247282500000000    0.8389160040000000 O
   0.6387365015000001    0.0247282500000000    0.8389160040000000 O
   0.6387365015000001    0.5247282500000000    0.8389160040000000 O
   0.3887364865000000    0.4752717615000000    0.6610839960000000 O
   0.3887364865000000    0.9752717614999999    0.6610839960000000 O
   0.8887364865000000    0.4752717615000000    0.6610839960000000 O
   0.8887364865000000    0.9752717614999999    0.6610839960000000 O
   0.3612635135000000    0.2747282385000000    0.1610839960000000 O
   0.3612635135000000    0.7747282384999998    0.1610839960000000 O
   0.8612635135000000    0.2747282385000000    0.1610839960000000 O
   0.8612635135000000    0.7747282384999998    0.1610839960000000 O
   0.3887364865000000    0.2747282385000000    0.6610839960000000 O
   0.3887364865000000    0.7747282384999998    0.6610839960000000 O
   0.8887364865000000    0.2747282385000000    0.6610839960000000 O
   0.8887364865000000    0.7747282384999998    0.6610839960000000 O
   0.3612635135000000    0.4752717615000000    0.1610839960000000 O
   0.3612635135000000    0.9752717614999999    0.1610839960000000 O
   0.8612635135000000    0.4752717615000000    0.1610839960000000 O
   0.8612635135000000    0.9752717614999999    0.1610839960000000 O
   0.1112634985000000    0.0247282500000000    0.3389160040000000 O
   0.1112634985000000    0.5247282500000000    0.3389160040000000 O
   0.6112634985000001    0.0247282500000000    0.3389160040000000 O
   0.6112634985000001    0.5247282500000000    0.3389160040000000 O
   0.1387365015000000    0.2252717465000000    0.8389160040000000 O
   0.1387365015000000    0.7252717465000000    0.8389160040000000 O
   0.6387365015000001    0.2252717465000000    0.8389160040000000 O
   0.6387365015000001    0.7252717465000000    0.8389160040000000 O
