Na2 Ca2 V4 Si4 P2 O24                   
   1.00000000000000     
     8.8464279999999995    0.1330030000000000    0.0548950000000000
     4.2793900000000002    7.6615050000000000    0.0470180000000000
     4.4046399999999997    2.5291370000000000    7.2288560000000004
   Ca   Na   V    Si   P    O 
     2     2     4     4     2    24
Direct
  0.4292093352014457  0.2801953763131785  0.7029014599463297
  1.0078177319249797  0.9927204880942309  0.0011850256411242
  0.1420863354942359  0.7502223811987937  0.4016631948706093
  0.8831356051681121  0.2529346439879962  0.5965688750203695
  0.3624730542430631  0.3664561462044165  0.3412769679729658
  0.6384917492658636  0.6432943491827209  0.6434623610483494
  0.1482279012461676  0.1455825126932415  0.1434966332430402
  0.8446654595393018  0.8546105414406167  0.8567263863873380
  0.0176057100763297  0.4629738972795122  0.7511294772429333
  0.7490994037199240  0.0333784483489334  0.4627447140308243
  0.4630464612638956  0.7460897004110234  0.0344741310134232
  0.5498452590538696  0.2477659925254825  0.9647428491829516
  0.9672996455004180  0.5456449914135743  0.2425664776642254
  0.2545185011001995  0.9665488327207538  0.5317387048749986
  0.2113870792363739  0.4425336274962309  0.5693134727217514
  0.7866129987270379  0.5628078469473545  0.4124743307993224
  0.5618332882691117  0.2129469808647353  0.4400248883625675
  0.4279941801477439  0.7952250250090365  0.5516511582734110
  0.4333514714649513  0.5770198087262306  0.2309883468644342
  0.5565027811653056  0.4132798232254454  0.7616931150150298
  0.9305515332799685  0.0545267252598596  0.2726027205709230
  0.0858640056985933  0.9458962061485771  0.7183082070619446
  0.0800638014112562  0.2750018045233198  0.9182500786893844
  0.9451655975649769  0.7207089578009508  0.0687820618304429
  0.2705512179194311  0.9236223718310341  0.0548447117176431
  0.7472709339574216  0.0762700090814332  0.9378384486541853
  0.5047283513713351  0.3063066432215252  0.1332968025552773
  0.5030763606281854  0.6978131806353581  0.8575488566029930
  0.1315059529812231  0.5315862259660438  0.2746743797887913
  0.8475430808134018  0.4650680878983649  0.7261946309248497
  0.2709332701631068  0.1535490590537616  0.4852206344691693
  0.7358834671768529  0.8340175077521690  0.5113053692725221
  0.3775614732504438  0.1857156568127338  1.0137396893768220
  0.6364710288495169  0.7979852146924115 -0.0040554383574016
  0.2051822893428890  0.9835545017979954  0.3773777402528636
  0.7622973898612272  0.0341675251514731  0.6430604555751465
  0.0099983050289628  0.3645700804782732  0.2160707572190443
  0.9821359084259315  0.6599622156200948  0.7646456913672161
 
             NaN             NaN             NaN
             NaN             NaN             NaN
             NaN             NaN             NaN
             NaN             NaN             NaN
             NaN             NaN             NaN
             NaN             NaN             NaN
             NaN             NaN             NaN
             NaN             NaN             NaN
             NaN             NaN             NaN
             NaN             NaN             NaN
             NaN             NaN             NaN
             NaN             NaN             NaN
             NaN             NaN             NaN
             NaN             NaN             NaN
             NaN             NaN             NaN
             NaN             NaN             NaN
             NaN             NaN             NaN
             NaN             NaN             NaN
             NaN             NaN             NaN
             NaN             NaN             NaN
             NaN             NaN             NaN
             NaN             NaN             NaN
             NaN             NaN             NaN
             NaN             NaN             NaN
             NaN             NaN             NaN
             NaN             NaN             NaN
             NaN             NaN             NaN
             NaN             NaN             NaN
             NaN             NaN             NaN
             NaN             NaN             NaN
             NaN             NaN             NaN
             NaN             NaN             NaN
             NaN             NaN             NaN
             NaN             NaN             NaN
             NaN             NaN             NaN
             NaN             NaN             NaN
             NaN             NaN             NaN
             NaN             NaN             NaN
