Na2 Ca2 V4 Si4 P2 O24
1.0
8.846428 0.133003 0.054895
4.279390 7.661505 0.047018
4.404640 2.529137 7.228856
Ca Na V Si P O
2 2 4 4 2 24
direct
0.454815 0.361867 0.590981 Ca
-0.008133 0.996286 0.011134 Ca
0.245260 0.676400 0.420394 Na
0.884464 0.250445 0.603776 Na
0.360317 0.359012 0.347402 V
0.643890 0.645861 0.647778 V
0.145480 0.147920 0.137546 V
0.842681 0.855363 0.856820 V
0.030187 0.461095 0.750694 Si
0.746717 0.040101 0.463054 Si
0.458842 0.749630 0.038828 Si
0.536612 0.253125 0.956496 Si
0.962787 0.543867 0.244848 P
0.250842 0.961720 0.535852 P
0.226134 0.441018 0.574426 O
0.774807 0.557635 0.411609 O
0.566505 0.227823 0.439217 O
0.420912 0.783117 0.554559 O
0.435553 0.577627 0.231177 O
0.559447 0.425853 0.760610 O
0.926984 0.059699 0.273541 O
0.081065 0.944368 0.721716 O
0.058776 0.269010 0.925736 O
0.941937 0.724089 0.076032 O
0.262919 0.923251 0.057208 O
0.736927 0.083018 0.935488 O
0.482223 0.303964 0.137590 O
0.504399 0.708611 0.856344 O
0.117645 0.521535 0.295962 O
0.859317 0.483649 0.706501 O
0.280019 0.136436 0.503627 O
0.720383 0.849505 0.502473 O
0.365688 0.195790 -0.002812 O
0.629862 0.804206 1.002054 O
0.204091 0.989744 0.375849 O
0.776057 0.018947 0.642781 O
0.006776 0.369562 0.207646 O
0.982472 0.651568 0.783500 O
