Na2 Ca2 V4 P2 S4 O24
1.0
8.968121 0.304570 0.221720
4.217391 7.948070 0.287463
4.177535 2.668145 7.477247
Ca Na V P S O
2 2 4 2 4 24
direct
0.730080 0.410668 0.148706 Ca
0.022444 0.978262 0.007450 Ca
0.443783 0.153083 0.740420 Na
0.586328 0.867140 0.248447 Na
0.346512 0.352431 0.362322 V
0.637829 0.653416 0.633971 V
0.147094 0.149600 0.151053 V
0.855837 0.849602 0.847596 V
0.749939 0.032202 0.442249 P
0.451864 0.755666 0.033331 P
0.036929 0.456478 0.746571 S
0.947283 0.545063 0.253543 S
0.241601 0.965355 0.559397 S
0.562247 0.248973 0.959008 S
0.218495 0.415956 0.608580 O
0.767882 0.566196 0.399208 O
0.590527 0.221854 0.423206 O
0.398653 0.793852 0.553896 O
0.418002 0.589687 0.208638 O
0.574525 0.399151 0.783568 O
0.910471 0.081625 0.258920 O
0.090029 0.928080 0.737259 O
0.036249 0.282223 0.920076 O
0.936382 0.725923 0.095345 O
0.284722 0.934162 0.046719 O
0.735033 0.084017 0.946515 O
0.540199 0.296343 0.107701 O
0.485950 0.733805 0.860437 O
0.097143 0.495321 0.309967 O
0.888600 0.492871 0.693107 O
0.289752 0.104376 0.554076 O
0.711446 0.888243 0.435153 O
0.411413 0.186685 1.011612 O
0.624956 0.765167 0.027864 O
0.180573 0.032275 0.404831 O
0.779845 0.980000 0.618009 O
0.974057 0.406476 0.188817 O
0.008500 0.600308 0.800459 O
