Li11 V24 O60
1.0
11.380647 0.003409 0.004522
-0.000548 10.840008 0.073927
-0.000552 0.063140 10.121968
Li V O
11 24 60
direct
0.252387 0.332494 0.147367 Li
0.250179 0.846187 0.236087 Li
0.254226 0.172245 0.652594 Li
0.246284 0.505767 0.651233 Li
0.247339 0.838645 0.661151 Li
0.751884 0.004826 0.345494 Li
0.751180 0.338070 0.337841 Li
0.743731 0.672570 0.342727 Li
0.756410 0.167137 0.843705 Li
0.747010 0.498625 0.842216 Li
0.749737 0.832388 0.854686 Li
0.103406 0.004786 0.462412 V
0.102884 0.343331 0.446628 V
0.102256 0.680716 0.463908 V
0.101961 0.162186 0.949455 V
0.101156 0.498363 0.951941 V
0.102159 0.829118 0.962787 V
0.896972 0.328047 0.037021 V
0.896877 0.661115 0.046555 V
0.897881 0.997182 0.043800 V
0.899247 0.175720 0.536548 V
0.898104 0.507347 0.538989 V
0.897733 0.842277 0.552631 V
0.399106 0.005517 0.466277 V
0.398899 0.341839 0.448983 V
0.398381 0.681469 0.460119 V
0.397315 0.161774 0.954106 V
0.396786 0.496933 0.948198 V
0.395766 0.830532 0.960887 V
0.601862 0.329127 0.038422 V
0.600005 0.660623 0.041793 V
0.601254 0.995983 0.046378 V
0.603551 0.175646 0.542167 V
0.602319 0.508192 0.536362 V
0.603775 0.840556 0.551890 V
0.130403 0.983108 0.307330 O
0.128245 0.346458 0.288840 O
0.125593 0.705682 0.308156 O
0.127415 0.160423 0.791386 O
0.123215 0.506595 0.793247 O
0.127045 0.828000 0.805243 O
0.873195 0.323145 0.195308 O
0.870669 0.656952 0.204640 O
0.874065 0.001679 0.202036 O
0.876562 0.177932 0.694794 O
0.872173 0.498593 0.696587 O
0.871276 0.843328 0.710239 O
0.374741 0.988762 0.310176 O
0.374778 0.337956 0.291151 O
0.371779 0.709147 0.305351 O
0.375914 0.159360 0.795394 O
0.372529 0.500012 0.789706 O
0.369679 0.835466 0.803561 O
0.627437 0.330920 0.196316 O
0.622378 0.654344 0.200425 O
0.627510 0.995495 0.204338 O
0.630366 0.178775 0.699668 O
0.625408 0.504951 0.694615 O
0.629208 0.834347 0.709622 O
0.930072 0.006901 0.490954 O
0.929335 0.342626 0.479219 O
0.929846 0.677688 0.497121 O
0.925499 0.162514 0.980726 O
0.927383 0.496454 0.987538 O
0.927596 0.829076 0.997072 O
0.067719 0.328814 0.999196 O
0.068885 0.661536 0.011153 O
0.069358 0.997146 0.006395 O
0.071014 0.175569 0.498079 O
0.070620 0.508921 0.502115 O
0.072879 0.842300 0.532185 O
0.572057 0.007151 0.497257 O
0.572146 0.341759 0.482924 O
0.572235 0.678147 0.487890 O
0.572348 0.162436 0.989884 O
0.570919 0.495999 0.981270 O
0.570372 0.829249 0.994587 O
0.430277 0.329201 0.002946 O
0.428788 0.661480 0.002812 O
0.429187 0.996683 0.010904 O
0.430563 0.175589 0.508163 O
0.431122 0.509558 0.495834 O
0.429159 0.841381 0.530954 O
0.248963 0.171118 0.022055 O
0.249356 0.487237 0.020313 O
0.249250 0.830387 0.036860 O
0.250488 0.010754 0.542200 O
0.250492 0.342370 0.526502 O
0.250786 0.671940 0.539471 O
0.750528 0.173759 0.461201 O
0.750599 0.510339 0.460013 O
0.750945 0.842642 0.472408 O
0.749253 0.330645 0.958909 O
0.749270 0.663499 0.966826 O
0.749097 0.995084 0.967846 O
