Li48 P16 S64
1.0
15.416580 0.000000 0.000000
0.000000 13.070420 0.000000
0.000000 0.000000 12.273000
Li P S
47 16 64
direct
0.374900 0.665450 0.008950 Li
0.125100 0.165450 0.008950 Li
0.125100 0.165450 0.508950 Li
0.125100 0.665450 0.008950 Li
0.125100 0.665450 0.508950 Li
0.625100 0.165450 0.008950 Li
0.625100 0.165450 0.508950 Li
0.625100 0.665450 0.008950 Li
0.625100 0.665450 0.508950 Li
0.124900 0.334550 0.258950 Li
0.124900 0.334550 0.758950 Li
0.124900 0.834550 0.258950 Li
0.124900 0.834550 0.758950 Li
0.624900 0.334550 0.258950 Li
0.624900 0.334550 0.758950 Li
0.624900 0.834550 0.258950 Li
0.624900 0.834550 0.758950 Li
0.375100 0.334550 0.258950 Li
0.375100 0.334550 0.758950 Li
0.375100 0.834550 0.258950 Li
0.375100 0.834550 0.758950 Li
0.875100 0.334550 0.258950 Li
0.875100 0.334550 0.758950 Li
0.875100 0.834550 0.258950 Li
0.875100 0.834550 0.758950 Li
0.374900 0.165450 0.008950 Li
0.374900 0.165450 0.508950 Li
0.374900 0.665450 0.508950 Li
0.874900 0.165450 0.008950 Li
0.874900 0.165450 0.508950 Li
0.874900 0.665450 0.008950 Li
0.874900 0.665450 0.508950 Li
0.000000 0.072500 0.243000 Li
0.000000 0.072500 0.743000 Li
0.000000 0.572500 0.243000 Li
0.000000 0.572500 0.743000 Li
0.500000 0.072500 0.243000 Li
0.500000 0.072500 0.743000 Li
0.500000 0.572500 0.243000 Li
0.500000 0.572500 0.743000 Li
0.250000 0.427500 0.493000 Li
0.250000 0.927500 0.493000 Li
0.250000 0.927500 0.993000 Li
0.750000 0.427500 0.493000 Li
0.750000 0.427500 0.993000 Li
0.750000 0.927500 0.493000 Li
0.750000 0.927500 0.993000 Li
0.000000 0.410900 0.497100 P
0.000000 0.410900 0.997100 P
0.000000 0.910900 0.497100 P
0.000000 0.910900 0.997100 P
0.500000 0.410900 0.497100 P
0.500000 0.410900 0.997100 P
0.500000 0.910900 0.497100 P
0.500000 0.910900 0.997100 P
0.250000 0.089100 0.247100 P
0.250000 0.089100 0.747100 P
0.250000 0.589100 0.247100 P
0.250000 0.589100 0.747100 P
0.750000 0.089100 0.247100 P
0.750000 0.089100 0.747100 P
0.750000 0.589100 0.247100 P
0.750000 0.589100 0.747100 P
0.109250 0.335850 0.442850 S
0.109250 0.335850 0.942850 S
0.109250 0.835850 0.442850 S
0.109250 0.835850 0.942850 S
0.609250 0.335850 0.442850 S
0.609250 0.335850 0.942850 S
0.609250 0.835850 0.442850 S
0.609250 0.835850 0.942850 S
0.140750 0.164150 0.192850 S
0.140750 0.164150 0.692850 S
0.140750 0.664150 0.192850 S
0.140750 0.664150 0.692850 S
0.640750 0.164150 0.192850 S
0.640750 0.164150 0.692850 S
0.640750 0.664150 0.192850 S
0.640750 0.664150 0.692850 S
0.359250 0.164150 0.192850 S
0.359250 0.164150 0.692850 S
0.359250 0.664150 0.192850 S
0.359250 0.664150 0.692850 S
0.859250 0.164150 0.192850 S
0.859250 0.164150 0.692850 S
0.859250 0.664150 0.192850 S
0.859250 0.664150 0.692850 S
0.390750 0.335850 0.442850 S
0.390750 0.335850 0.942850 S
0.390750 0.835850 0.442850 S
0.390750 0.835850 0.942850 S
0.890750 0.335850 0.442850 S
0.890750 0.335850 0.942850 S
0.890750 0.835850 0.442850 S
0.890750 0.835850 0.942850 S
0.000000 0.054150 0.444000 S
0.000000 0.054150 0.944000 S
0.000000 0.554150 0.444000 S
0.000000 0.554150 0.944000 S
0.500000 0.054150 0.444000 S
0.500000 0.054150 0.944000 S
0.500000 0.554150 0.444000 S
0.500000 0.554150 0.944000 S
0.250000 0.445850 0.194000 S
0.250000 0.445850 0.694000 S
0.250000 0.945850 0.194000 S
0.250000 0.945850 0.694000 S
0.750000 0.445850 0.194000 S
0.750000 0.445850 0.694000 S
0.750000 0.945850 0.194000 S
0.750000 0.945850 0.694000 S
0.000000 0.402450 0.161500 S
0.000000 0.402450 0.661500 S
0.000000 0.902450 0.161500 S
0.000000 0.902450 0.661500 S
0.500000 0.402450 0.161500 S
0.500000 0.402450 0.661500 S
0.500000 0.902450 0.161500 S
0.500000 0.902450 0.661500 S
0.250000 0.097550 0.411500 S
0.250000 0.097550 0.911500 S
0.250000 0.597550 0.411500 S
0.250000 0.597550 0.911500 S
0.750000 0.097550 0.411500 S
0.750000 0.097550 0.911500 S
0.750000 0.597550 0.411500 S
0.750000 0.597550 0.911500 S
