Fe8 C24 N24                             
   1.00000000000000     
     9.8949485145010190   -0.0001936702837454    0.0000706230185015
    -0.0001936873206881    9.8949042757244765    0.0001181742601181
     0.0000706028287105    0.0001181993851165    9.8954838718461122
   K    Fe   C    N 
     1     8    24    24
Direct
   0.7499973466655621    0.7500191604225437    0.2500107544965774 K
  0.9988206283374099  0.0011816166355014  0.9988128453643210
  0.0001082633110721  0.9998895092800479  0.4998953579755870
  0.9988123233733130  0.4988087419892412  0.5011893005001291
  0.0001072534926898  0.5001020785615454  0.0001070093918978
  0.5011873555319405  0.0011869814991660  0.5011862910638906
  0.4998983270499464  0.9998985107001422  0.0001046790003181
  0.5011856418203630  0.4988192010445068  0.9988074769379014
  0.4998914345228749  0.5001061179486421  0.4998926606375449
  0.1899343917806511  0.0012398719836567  0.9987583831552987
  0.3100554196531387  0.0012388526889614  0.5012461865122967
  0.9987649526208257  0.6899327830770229  0.5012402332395421
  0.9991659761295071  0.3081234306627656  0.5008433346021520
  0.9987559619405204  0.0012400255029408  0.1899340442441315
  0.9991585849108280  0.0008404489219421  0.8081158181475609
  0.1899358879468070  0.4987634293453549  0.5012401755565421
  0.3100591590752220  0.4987582860960967  0.9987597610520366
  0.9991624581834609  0.1918805811162743  0.9991580642673220
  0.9987586238626869  0.8100620822337528  0.9987616162275672
  0.9991653628907302  0.4991606825393806  0.6918855366423564
  0.9987633543330843  0.4987629895594665  0.3100708044369326
  0.6918827793755403  0.0008388114467230  0.5008430627903832
  0.8081170606029343  0.0008321533222199  0.9991606136991588
  0.5012362919590754  0.6899355030115176  0.9987534621382194
  0.5008341742422725  0.3081171661806116  0.9991574675233645
  0.5008358110758804  0.0008382556307284  0.6918898342090610
  0.5012323267623734  0.0012377190633886  0.3100711398239500
  0.6918813258382132  0.4991632092837278  0.9991507819056114
  0.8081232414724963  0.4991629471128349  0.5008453622110040
  0.5008380467095199  0.1918862652997328  0.5008475151834677
  0.5012367576840354  0.8100579140748211  0.5012444030896075
  0.5012377725697317  0.4987630573083289  0.1899292341463106
  0.5008375644914513  0.4991578266940119  0.8081134556355326
  0.3083555318500115  0.9991465647527791  0.0008553735689488
  0.1916357134378218  0.9991578999747089  0.4991528157520191
  0.0008447577322522  0.8083545904114599  0.4991544644455313
  0.0000431536948820  0.1898418425755912  0.4999653529748046
  0.0008526566291178  0.9991488603662131  0.3083483585346672
  0.0000288237099175  0.9999692404547865  0.6898392712459673
  0.3083566265690118  0.5008477789550267  0.4991506657267306
  0.1916396411689271  0.5008464685979082  0.0008479995324474
  0.0000367931477903  0.3101610127851851  0.0000329845670812
  0.0008538840994614  0.6916409132698479  0.0008525445866849
  0.0000344649141820  0.5000333432609722  0.8101612987442712
  0.0008457295576873  0.5008457740285425  0.1916557673249367
  0.8101636180538379  0.9999607907955050  0.4999668080862778
  0.6898360225243214  0.9999634515878778  0.0000334960504309
  0.4991501677544052  0.8083566163512754  0.0008471538071966
  0.4999615297886469  0.1898347796481788  0.0000349422158309
  0.4999645072164002  0.9999714837132492  0.8101668058655753
  0.4991447297812716  0.9991478036796773  0.1916559085327668
  0.8101612490358687  0.5000370876332372  0.0000308690191577
  0.6898420576520337  0.5000414289449485  0.4999666882772560
  0.4999590655582528  0.3101680015816086  0.4999698544910555
  0.4991556913372452  0.6916362428367027  0.4991485162586886
  0.4991512939082090  0.5008514293674008  0.3083445502298096
  0.4999666478277097  0.5000282401771848  0.6898357128976823
 
  0.00000000E+00  0.00000000E+00  0.00000000E+00
  0.00000000E+00  0.00000000E+00  0.00000000E+00
  0.00000000E+00  0.00000000E+00  0.00000000E+00
  0.00000000E+00  0.00000000E+00  0.00000000E+00
  0.00000000E+00  0.00000000E+00  0.00000000E+00
  0.00000000E+00  0.00000000E+00  0.00000000E+00
  0.00000000E+00  0.00000000E+00  0.00000000E+00
  0.00000000E+00  0.00000000E+00  0.00000000E+00
  0.00000000E+00  0.00000000E+00  0.00000000E+00
  0.00000000E+00  0.00000000E+00  0.00000000E+00
  0.00000000E+00  0.00000000E+00  0.00000000E+00
  0.00000000E+00  0.00000000E+00  0.00000000E+00
  0.00000000E+00  0.00000000E+00  0.00000000E+00
  0.00000000E+00  0.00000000E+00  0.00000000E+00
  0.00000000E+00  0.00000000E+00  0.00000000E+00
  0.00000000E+00  0.00000000E+00  0.00000000E+00
  0.00000000E+00  0.00000000E+00  0.00000000E+00
  0.00000000E+00  0.00000000E+00  0.00000000E+00
  0.00000000E+00  0.00000000E+00  0.00000000E+00
  0.00000000E+00  0.00000000E+00  0.00000000E+00
  0.00000000E+00  0.00000000E+00  0.00000000E+00
  0.00000000E+00  0.00000000E+00  0.00000000E+00
  0.00000000E+00  0.00000000E+00  0.00000000E+00
  0.00000000E+00  0.00000000E+00  0.00000000E+00
  0.00000000E+00  0.00000000E+00  0.00000000E+00
  0.00000000E+00  0.00000000E+00  0.00000000E+00
  0.00000000E+00  0.00000000E+00  0.00000000E+00
  0.00000000E+00  0.00000000E+00  0.00000000E+00
  0.00000000E+00  0.00000000E+00  0.00000000E+00
  0.00000000E+00  0.00000000E+00  0.00000000E+00
  0.00000000E+00  0.00000000E+00  0.00000000E+00
  0.00000000E+00  0.00000000E+00  0.00000000E+00
  0.00000000E+00  0.00000000E+00  0.00000000E+00
  0.00000000E+00  0.00000000E+00  0.00000000E+00
  0.00000000E+00  0.00000000E+00  0.00000000E+00
  0.00000000E+00  0.00000000E+00  0.00000000E+00
  0.00000000E+00  0.00000000E+00  0.00000000E+00
  0.00000000E+00  0.00000000E+00  0.00000000E+00
  0.00000000E+00  0.00000000E+00  0.00000000E+00
  0.00000000E+00  0.00000000E+00  0.00000000E+00
  0.00000000E+00  0.00000000E+00  0.00000000E+00
  0.00000000E+00  0.00000000E+00  0.00000000E+00
  0.00000000E+00  0.00000000E+00  0.00000000E+00
  0.00000000E+00  0.00000000E+00  0.00000000E+00
  0.00000000E+00  0.00000000E+00  0.00000000E+00
  0.00000000E+00  0.00000000E+00  0.00000000E+00
  0.00000000E+00  0.00000000E+00  0.00000000E+00
  0.00000000E+00  0.00000000E+00  0.00000000E+00
  0.00000000E+00  0.00000000E+00  0.00000000E+00
  0.00000000E+00  0.00000000E+00  0.00000000E+00
  0.00000000E+00  0.00000000E+00  0.00000000E+00
  0.00000000E+00  0.00000000E+00  0.00000000E+00
  0.00000000E+00  0.00000000E+00  0.00000000E+00
  0.00000000E+00  0.00000000E+00  0.00000000E+00
  0.00000000E+00  0.00000000E+00  0.00000000E+00
  0.00000000E+00  0.00000000E+00  0.00000000E+00
  0.00000000E+00  0.00000000E+00  0.00000000E+00
