Ca8 Ni12 F42
1.0
7.282694 -0.026129 0.025341
-3.688166 6.381006 -0.002896
0.071072 0.029778 18.262176
Ca Ni F
8 12 42
direct
0.483967 0.856619 0.653400 Ca
0.157472 0.649605 0.978938 Ca
0.348631 0.507886 0.331455 Ca
0.841732 0.018457 0.345011 Ca
0.173978 0.165522 0.010696 Ca
0.979372 0.786403 0.174056 Ca
0.818202 0.983392 0.834133 Ca
0.199870 0.151703 0.515317 Ca
0.336416 0.007456 0.332808 Ni
0.990093 0.348101 0.667981 Ni
0.666113 0.660716 0.000653 Ni
0.329319 0.009486 0.830859 Ni
0.997442 0.315255 0.162718 Ni
0.677339 0.671047 0.492364 Ni
0.497136 0.819264 0.163052 Ni
0.171858 0.659783 0.493069 Ni
0.325255 0.502944 0.829614 Ni
0.823224 0.502104 0.827076 Ni
0.687188 0.180041 0.494583 Ni
0.493956 0.312333 0.164272 Ni
0.742201 0.196056 0.599888 F
0.811896 0.553158 0.937613 F
0.439640 0.265679 0.272416 F
0.233760 0.736139 0.385509 F
0.483495 0.751911 0.055782 F
0.261558 0.527071 0.727391 F
0.835455 0.951835 0.955494 F
0.049058 0.892700 0.286312 F
0.131429 0.221971 0.620388 F
0.974995 0.793413 0.052717 F
0.806989 0.067114 0.721018 F
0.203039 0.166249 0.390295 F
0.525242 0.385837 0.056155 F
0.608466 0.128997 0.387142 F
0.856206 0.472435 0.723624 F
0.375767 0.496193 0.943761 F
0.149546 0.602903 0.600361 F
0.501541 0.869070 0.276123 F
0.797126 0.419486 0.175406 F
0.569015 0.364931 0.503167 F
0.634123 0.204155 0.843944 F
0.433227 0.805523 0.850275 F
0.363289 0.544064 0.475384 F
0.190872 0.623095 0.176095 F
0.032122 0.302469 0.273421 F
0.641528 0.712154 0.592956 F
0.287030 0.987551 0.942664 F
0.358106 0.003423 0.727591 F
0.675105 0.674844 0.379175 F
0.024785 0.359994 0.051509 F
0.189361 0.201359 0.142314 F
0.803299 0.987022 0.474930 F
0.021946 0.806799 0.825083 F
0.202402 0.198283 0.832362 F
0.987901 0.782619 0.498470 F
0.805359 0.004247 0.161678 F
0.040341 0.433276 0.868851 F
0.584930 0.611620 0.195596 F
0.390064 0.956430 0.529686 F
0.388011 0.010730 0.141454 F
0.625850 0.611048 0.805923 F
0.969528 0.378942 0.456690 F
