Na8 Sc16 Se32                           
   1.00000000000000     
    11.4955748899405474   -0.0000054753321705    0.0000150131576779
    -0.0000054682778857   11.4955751476048320    0.0000133216125224
     0.0000150109380799    0.0000133256054131   11.4955527842509291
Na   Sc   Na   Se
1    16     6    32
Direct
  0.7500008426414908  0.2499983605655487  0.7499997274648607
  0.1249990088010904  0.8749984005789884  0.3749952910391627
  0.8749970072902684  0.1249993272966634  0.3749950662020396
  0.8749977787427667  0.8749987791854394  0.6249994599160402
  0.1249990730395112  0.1249988329073091  0.6250024303235193
  0.1250010403879642  0.3749921601987012  0.8749972620928403
  0.8749962762549757  0.6250070281200237  0.8749980441010052
  0.8749947877555400  0.3749929281035023  0.1250072447384198
  0.1250008823569999  0.6250078327665349  0.1250060629927958
  0.6250068628675862  0.8749976290505828  0.8749980687607675
  0.3749935638935256  0.1250007468698513  0.8749973032054186
  0.3749943839610452  0.8749965701811249  0.1250069618499694
  0.6250079273320566  0.1250007867926115  0.1250061663618709
  0.6250089900845950  0.3749936450365112  0.3749925784615300
  0.3749949851958192  0.6250088793586812  0.3749928806500549
  0.3749935528711958  0.3749924291605211  0.6250046535513079
  0.6250077465736297  0.6250078840960498  0.6250017425849350
  0.7500008571986498  0.7500004967945841  0.2500005144193551
  0.5000012548752863  0.9999992001595928  0.4999987218402993
  0.2499979767342992  0.7500005810026309  0.7499997183950597
  0.9999991407646505  0.5000011826304984  0.4999986688735305
  0.2499980120247614  0.2499983803467529  0.2500004272267162
  0.9999975946810196  0.9999976194728788  0.0000015709198067
  0.8890443774289736  0.1109515226184286  0.6109534344674827
  0.1109515187779380  0.8890447945898430  0.6109535349638477
  0.1109515455346681  0.1109516256644625  0.3890450721108394
  0.8890449018569200  0.8890454696835803  0.3890454073314942
  0.3610194588349174  0.1389816946420339  0.6389915005834723
  0.1389817091076253  0.3610189687152427  0.6389914457122643
  0.1389755958674002  0.1389754608439375  0.8610232591864744
  0.3610220515930749  0.3610215158422037  0.8610241194702724
  0.8890438262440057  0.6109565978807225  0.1109558828894208
  0.1109526514015329  0.3890443719728509  0.1109568577214262
  0.1109524404336995  0.6109570461370808  0.8890452260920867
  0.8890431656853295  0.3890445925517341  0.8890452785591521
  0.3610168245703633  0.6389983693077426  0.1389881136014282
  0.1389865009547719  0.8610004832701890  0.1389893224488290
  0.1389977317971898  0.6390009803840826  0.3609997229258113
  0.3610140979234089  0.8610029834948278  0.3610060632350169
  0.3890447493766160  0.1109529326974155  0.1109570015172849
  0.6109569060785702  0.8890442346644107  0.1109560623183015
  0.6109572887053787  0.1109526373316001  0.8890451256923839
  0.3890448717572781  0.8890434606283577  0.8890449939376381
  0.8609999470306775  0.1389864717057705  0.1389893314434900
  0.6389982353936290  0.3610162762220952  0.1389881388842369
  0.6390009928343829  0.1389977673761749  0.3609995615432737
  0.8610024948490107  0.3610136405625397  0.3610061150650452
  0.3890445174085215  0.6109577346403441  0.6109553503354661
  0.6109577732039000  0.3890440456912216  0.6109552420665025
  0.6109573656069642  0.6109572550820772  0.3890439897613263
  0.3890442602829793  0.3890437310111992  0.3890433129558417
  0.8610019288844839  0.6389991705603535  0.6389970060406469
  0.6389991666509758  0.8610023709328090  0.6389970609981646
  0.6389988966728737  0.6389990310088436  0.8610032392058713
  0.8610014202460547  0.8610019634163706  0.8610026511535196
 
  0.00000000E+00  0.00000000E+00  0.00000000E+00
  0.00000000E+00  0.00000000E+00  0.00000000E+00
  0.00000000E+00  0.00000000E+00  0.00000000E+00
  0.00000000E+00  0.00000000E+00  0.00000000E+00
  0.00000000E+00  0.00000000E+00  0.00000000E+00
  0.00000000E+00  0.00000000E+00  0.00000000E+00
  0.00000000E+00  0.00000000E+00  0.00000000E+00
  0.00000000E+00  0.00000000E+00  0.00000000E+00
  0.00000000E+00  0.00000000E+00  0.00000000E+00
  0.00000000E+00  0.00000000E+00  0.00000000E+00
  0.00000000E+00  0.00000000E+00  0.00000000E+00
  0.00000000E+00  0.00000000E+00  0.00000000E+00
  0.00000000E+00  0.00000000E+00  0.00000000E+00
  0.00000000E+00  0.00000000E+00  0.00000000E+00
  0.00000000E+00  0.00000000E+00  0.00000000E+00
  0.00000000E+00  0.00000000E+00  0.00000000E+00
  0.00000000E+00  0.00000000E+00  0.00000000E+00
  0.00000000E+00  0.00000000E+00  0.00000000E+00
  0.00000000E+00  0.00000000E+00  0.00000000E+00
  0.00000000E+00  0.00000000E+00  0.00000000E+00
  0.00000000E+00  0.00000000E+00  0.00000000E+00
  0.00000000E+00  0.00000000E+00  0.00000000E+00
  0.00000000E+00  0.00000000E+00  0.00000000E+00
  0.00000000E+00  0.00000000E+00  0.00000000E+00
  0.00000000E+00  0.00000000E+00  0.00000000E+00
  0.00000000E+00  0.00000000E+00  0.00000000E+00
  0.00000000E+00  0.00000000E+00  0.00000000E+00
  0.00000000E+00  0.00000000E+00  0.00000000E+00
  0.00000000E+00  0.00000000E+00  0.00000000E+00
  0.00000000E+00  0.00000000E+00  0.00000000E+00
  0.00000000E+00  0.00000000E+00  0.00000000E+00
  0.00000000E+00  0.00000000E+00  0.00000000E+00
  0.00000000E+00  0.00000000E+00  0.00000000E+00
  0.00000000E+00  0.00000000E+00  0.00000000E+00
  0.00000000E+00  0.00000000E+00  0.00000000E+00
  0.00000000E+00  0.00000000E+00  0.00000000E+00
  0.00000000E+00  0.00000000E+00  0.00000000E+00
  0.00000000E+00  0.00000000E+00  0.00000000E+00
  0.00000000E+00  0.00000000E+00  0.00000000E+00
  0.00000000E+00  0.00000000E+00  0.00000000E+00
  0.00000000E+00  0.00000000E+00  0.00000000E+00
  0.00000000E+00  0.00000000E+00  0.00000000E+00
  0.00000000E+00  0.00000000E+00  0.00000000E+00
  0.00000000E+00  0.00000000E+00  0.00000000E+00
  0.00000000E+00  0.00000000E+00  0.00000000E+00
  0.00000000E+00  0.00000000E+00  0.00000000E+00
  0.00000000E+00  0.00000000E+00  0.00000000E+00
  0.00000000E+00  0.00000000E+00  0.00000000E+00
  0.00000000E+00  0.00000000E+00  0.00000000E+00
  0.00000000E+00  0.00000000E+00  0.00000000E+00
  0.00000000E+00  0.00000000E+00  0.00000000E+00
  0.00000000E+00  0.00000000E+00  0.00000000E+00
  0.00000000E+00  0.00000000E+00  0.00000000E+00
  0.00000000E+00  0.00000000E+00  0.00000000E+00
  0.00000000E+00  0.00000000E+00  0.00000000E+00
  0.00000000E+00  0.00000000E+00  0.00000000E+00
