Ca4 V4 P6 O24                           
   1.00000000000000     
     2.5789420000000001    7.3596240000000002    4.4072430000000002
    -0.0125170000000000    0.0587250000000000    8.8654159999999997
     7.7270770000000004    0.0684670000000000    4.3468340000000003
   Ca   V    P    O 
     4     4     6    24
Direct
  0.3307461381154083  0.7040382567613757  0.5443052727860999
  0.9574872352916994  0.0038770805614998  0.0184231223352527
  0.3980367744028292  0.7436620178420822  0.0893477519679897
  0.1134280123013330  0.3742915321571080  0.7484861004986250
  0.6593225290169424  0.6255302795920143  0.6458193866077535
  0.1490700668570116  0.1431135319065632  0.1551948422705233
  0.8458623627913804  0.8664108473182703  0.8478709120148600
  0.3491241315382243  0.3475943418796383  0.3488438434043901
  0.2421221906472972  0.5508318792089506  0.9584544941841748
  0.0355981226322071  0.7535865061640725  0.4471592137925067
  0.9529279507269354  0.2516564685191956  0.5510860159422770
  0.4636591563782193  0.0368654757063689  0.7472018114174085
  0.5401574559935121  0.9526845071755983  0.2476288833119981
  0.7565660994339581  0.4500284190670001  0.0342661343995199
  0.5549057245408753  0.8067233483643208  0.4350570279374934
  0.2677061347038633  0.0691214693591370  0.9102917663795571
  0.4220074475198705  0.5554041724287774  0.7893203700596215
  0.9211161501696664  0.2712472463284286  0.0731990646392920
  0.7761585565625019  0.4195330026053549  0.5499410577386583
  0.0784022805576853  0.9010361748720334  0.2547860739013664
  0.9219539776252368  0.0947566453249700  0.7406693077788596
  0.5749690360559762  0.4403317617559226  0.1925478422792476
  0.7272184218561013  0.9133862577219921  0.0962051290919686
  0.2258910778819878  0.5850270234399327  0.4374476394604164
  0.0933963571400178  0.7409044265865546  0.9045622602672437
  0.4284051427801805  0.2051654678252583  0.5801358433035371
  0.1936003621822524  0.3941943203842826  0.9820881053599592
  0.8791194991706295  0.7066851734509532  0.4828235959593600
  0.0180486798971923  0.1801516945527905  0.3959960262578046
  0.5009629340032928  0.8442755511629160  0.7518295072151645
  0.3909293782827296  0.9253387915106812  0.2255743776863257
  0.7694360480138989  0.4524769875193693  0.8509381108021963
  0.2627960964991359  0.5398327126092062  0.1267329726314567
  0.0153046281891826  0.7985180933067856  0.6057075737186676
  0.1070315544646454  0.3013289997192743  0.5356931580286758
  0.6072849370019276  1.0254974937549892  0.8006279758206190
  0.4779779117697133  0.1468067666699663  0.2452900475350086
  0.7751061181337426  0.6292098117335255 -0.0017057304598631
 
             NaN             NaN             NaN
             NaN             NaN             NaN
             NaN             NaN             NaN
             NaN             NaN             NaN
             NaN             NaN             NaN
             NaN             NaN             NaN
             NaN             NaN             NaN
             NaN             NaN             NaN
             NaN             NaN             NaN
             NaN             NaN             NaN
             NaN             NaN             NaN
             NaN             NaN             NaN
             NaN             NaN             NaN
             NaN             NaN             NaN
             NaN             NaN             NaN
             NaN             NaN             NaN
             NaN             NaN             NaN
             NaN             NaN             NaN
             NaN             NaN             NaN
             NaN             NaN             NaN
             NaN             NaN             NaN
             NaN             NaN             NaN
             NaN             NaN             NaN
             NaN             NaN             NaN
             NaN             NaN             NaN
             NaN             NaN             NaN
             NaN             NaN             NaN
             NaN             NaN             NaN
             NaN             NaN             NaN
             NaN             NaN             NaN
             NaN             NaN             NaN
             NaN             NaN             NaN
             NaN             NaN             NaN
             NaN             NaN             NaN
             NaN             NaN             NaN
             NaN             NaN             NaN
             NaN             NaN             NaN
             NaN             NaN             NaN
