Ca4 V4 P6 O24
1.0
2.578942 7.359624 4.407243
-0.012517 0.058725 8.865416
7.727077 0.068467 4.346834
Ca V P O
4 4 6 24
direct
0.391810 0.675957 0.547029 Ca
0.959195 0.002643 0.024515 Ca
0.398564 0.744587 0.105929 Ca
0.129211 0.400610 0.745315 Ca
0.647051 0.636044 0.632511 V
0.145596 0.148136 0.151589 V
0.844877 0.859389 0.855419 V
0.350413 0.347152 0.351453 V
0.246631 0.553485 0.949098 P
0.034613 0.752642 0.450367 P
0.962011 0.247995 0.555314 P
0.454991 0.039024 0.743143 P
0.535570 0.945763 0.250061 P
0.748207 0.455844 0.034312 P
0.559479 0.764306 0.411796 O
0.263663 0.066807 0.909017 O
0.406287 0.571010 0.762532 O
0.921440 0.280452 0.051589 O
0.780560 0.408930 0.557989 O
0.070670 0.910971 0.264068 O
0.935584 0.084430 0.739066 O
0.580535 0.430471 0.211590 O
0.717046 0.937830 0.085904 O
0.225355 0.589409 0.424466 O
0.083656 0.739569 0.927460 O
0.426294 0.225947 0.587443 O
0.193831 0.394871 0.982179 O
0.876965 0.710629 0.476863 O
0.032435 0.179763 0.396043 O
0.477143 0.872095 0.711846 O
0.385295 0.957396 0.199708 O
0.723689 0.483463 0.861898 O
0.295189 0.527470 0.106912 O
0.010345 0.778494 0.622578 O
0.109422 0.300601 0.546698 O
0.607418 0.999621 0.800083 O
0.476080 0.110049 0.305660 O
0.769577 0.627908 0.012826 O
