Mg8 Ir16 O32                            
   1.00000000000000     
     8.7477822761510104   -0.0000000207807705    0.0000000016231182
    -0.0000000212112937    8.7477749665685476    0.0000000207108932
     0.0000000018439664    0.0000000203689385    8.7477720759818780
  Mg              Ir              O             
     7    16    32
Direct
  0.4999999993708026  0.5000000015536430  0.5000000023706916
  0.2500000010374961  0.2500000001197175  0.7500000015885145
  0.9999999998484619  0.4999999996388466  0.0000000010094928
  0.0000000008254042  0.0000000006381931  0.4999999983601984
  0.7499999997200150  0.2500000023261964  0.2500000026242106
  0.7500000008989108  0.7500000022206947  0.7500000021351341
  0.5000000007686873  0.9999999982688839  0.0000000018562934
  0.8750005513844270  0.8750005508481000  0.1249994522809966
  0.6249994507338544  0.8750005505068360  0.3750005496939939
  0.6249994505969746  0.6249994495061728  0.1249994520460838
  0.8750005510532562  0.6249994506588601  0.3750005511813535
  0.8750005512851455  0.3750005515231277  0.6249994511091538
  0.6249994521729454  0.3750005519521186  0.8750005516531172
  0.6249994494657067  0.1249994495076247  0.6249994484763084
  0.8750005527579260  0.1249994499515839  0.8750005503245640
  0.3750005527220574  0.8750005488557437  0.6249994514745015
  0.1249994476917098  0.8750005501338447  0.8750005536758831
  0.1249994512181583  0.6249994506677514  0.6249994528384953
  0.3750005479964088  0.6249994497998972  0.8750005498721360
  0.3750005501617682  0.3750005524547970  0.1249994495345938
  0.1249994488521775  0.3750005495852562  0.3750005491432026
  0.1249994490897235  0.1249994512791046  0.1249994502545256
  0.3750005512022504  0.1249994507216082  0.3750005501623854
  0.8642157248982674  0.6357843324511605  0.1357843436096187
  0.1357842747489114  0.6357843344826446  0.8642156559526418
  0.8642157271389701  0.3642156678935052  0.8642156600861957
  0.3857738755971365  0.1142260663318105  0.6142260524874453
  0.1142261260528102  0.3857739339888512  0.6142260517320500
  0.1142261271445410  0.1142260697312348  0.8857739490308179
  0.1357842730981895  0.3642156679544608  0.1357843420369328
  0.3857738772931240  0.3857739350009798  0.8857739457047914
  0.8642157271370041  0.1357843287940119  0.6357843429978006
  0.1357842762786667  0.1357843329434201  0.3642156564591058
  0.8642157255856340  0.8642156682913599  0.3642156588418102
  0.3857738752885818  0.6142260661464741  0.1142260478161381
  0.1142261257284030  0.8857739390420645  0.1142260523662622
  0.1142261255159814  0.6142260645626305  0.3857739500222064
  0.1357842748998037  0.8642156676083776  0.6357843460893481
  0.3857738750349310  0.8857739373260408  0.3857739489096447
  0.3642157307420624  0.6357843301182186  0.6357843427815774
  0.6357842748537357  0.6357843335732648  0.3642156568580032
  0.3642157248502191  0.3642156644298685  0.3642156579547046
  0.8857738736921594  0.1142260679357169  0.1142260495049239
  0.6142261276264099  0.3857739322467123  0.1142260547855022
  0.6142261264230472  0.1142260699704365  0.3857739456313758
  0.6357842707054997  0.3642156684300872  0.6357843433753496
  0.8857738713794625  0.3857739316119626  0.3857739470987788
  0.3642157289655459  0.1357843342060471  0.1357843472114636
  0.6357842798251133  0.1357843350077386  0.8642156566636621
  0.3642157251853487  0.8642156642708095  0.8642156575560689
  0.8857738758707707  0.6142260670361736  0.6142260551317911
  0.6142261286262904  0.8857739375410328  0.6142260535897821
  0.6142261264646406  0.6142260663544865  0.8857739493980481
  0.6357842709804176  0.8642156684440817  0.1357843405861160
  0.8857738729993400  0.8857739333821069  0.8857739445724738
 
  0.00000000E+00  0.00000000E+00  0.00000000E+00
  0.00000000E+00  0.00000000E+00  0.00000000E+00
  0.00000000E+00  0.00000000E+00  0.00000000E+00
  0.00000000E+00  0.00000000E+00  0.00000000E+00
  0.00000000E+00  0.00000000E+00  0.00000000E+00
  0.00000000E+00  0.00000000E+00  0.00000000E+00
  0.00000000E+00  0.00000000E+00  0.00000000E+00
  0.00000000E+00  0.00000000E+00  0.00000000E+00
  0.00000000E+00  0.00000000E+00  0.00000000E+00
  0.00000000E+00  0.00000000E+00  0.00000000E+00
  0.00000000E+00  0.00000000E+00  0.00000000E+00
  0.00000000E+00  0.00000000E+00  0.00000000E+00
  0.00000000E+00  0.00000000E+00  0.00000000E+00
  0.00000000E+00  0.00000000E+00  0.00000000E+00
  0.00000000E+00  0.00000000E+00  0.00000000E+00
  0.00000000E+00  0.00000000E+00  0.00000000E+00
  0.00000000E+00  0.00000000E+00  0.00000000E+00
  0.00000000E+00  0.00000000E+00  0.00000000E+00
  0.00000000E+00  0.00000000E+00  0.00000000E+00
  0.00000000E+00  0.00000000E+00  0.00000000E+00
  0.00000000E+00  0.00000000E+00  0.00000000E+00
  0.00000000E+00  0.00000000E+00  0.00000000E+00
  0.00000000E+00  0.00000000E+00  0.00000000E+00
  0.00000000E+00  0.00000000E+00  0.00000000E+00
  0.00000000E+00  0.00000000E+00  0.00000000E+00
  0.00000000E+00  0.00000000E+00  0.00000000E+00
  0.00000000E+00  0.00000000E+00  0.00000000E+00
  0.00000000E+00  0.00000000E+00  0.00000000E+00
  0.00000000E+00  0.00000000E+00  0.00000000E+00
  0.00000000E+00  0.00000000E+00  0.00000000E+00
  0.00000000E+00  0.00000000E+00  0.00000000E+00
  0.00000000E+00  0.00000000E+00  0.00000000E+00
  0.00000000E+00  0.00000000E+00  0.00000000E+00
  0.00000000E+00  0.00000000E+00  0.00000000E+00
  0.00000000E+00  0.00000000E+00  0.00000000E+00
  0.00000000E+00  0.00000000E+00  0.00000000E+00
  0.00000000E+00  0.00000000E+00  0.00000000E+00
  0.00000000E+00  0.00000000E+00  0.00000000E+00
  0.00000000E+00  0.00000000E+00  0.00000000E+00
  0.00000000E+00  0.00000000E+00  0.00000000E+00
  0.00000000E+00  0.00000000E+00  0.00000000E+00
  0.00000000E+00  0.00000000E+00  0.00000000E+00
  0.00000000E+00  0.00000000E+00  0.00000000E+00
  0.00000000E+00  0.00000000E+00  0.00000000E+00
  0.00000000E+00  0.00000000E+00  0.00000000E+00
  0.00000000E+00  0.00000000E+00  0.00000000E+00
  0.00000000E+00  0.00000000E+00  0.00000000E+00
  0.00000000E+00  0.00000000E+00  0.00000000E+00
  0.00000000E+00  0.00000000E+00  0.00000000E+00
  0.00000000E+00  0.00000000E+00  0.00000000E+00
  0.00000000E+00  0.00000000E+00  0.00000000E+00
  0.00000000E+00  0.00000000E+00  0.00000000E+00
  0.00000000E+00  0.00000000E+00  0.00000000E+00
  0.00000000E+00  0.00000000E+00  0.00000000E+00
  0.00000000E+00  0.00000000E+00  0.00000000E+00
  0.00000000E+00  0.00000000E+00  0.00000000E+00
