Ca3 V8 F24
1.0
7.985722 0.000266 0.000041
0.000272 8.118345 -0.000008
0.000034 -0.000022 7.844169
Ca V F
3 8 24
direct
0.499976 0.000006 0.499974 Ca
0.000001 0.499999 0.499995 Ca
0.499996 0.999977 -0.000003 Ca
0.247432 0.254652 0.246941 V
0.247433 0.254653 0.753062 V
0.247430 0.745341 0.246929 V
0.247433 0.745341 0.753054 V
0.752594 0.254650 0.246935 V
0.752596 0.254656 0.753080 V
0.752597 0.745346 0.246928 V
0.752601 0.745350 0.753064 V
0.000016 0.259452 0.319574 F
0.000018 0.259451 0.680436 F
0.000016 0.740534 0.319556 F
0.000015 0.740541 0.680431 F
0.500002 0.241708 0.186569 F
0.500001 0.241712 0.813446 F
0.500008 0.758278 0.186584 F
0.500018 0.758293 0.813389 F
0.196643 0.268302 0.000004 F
0.310818 0.212962 0.500011 F
0.196695 0.731677 0.999984 F
0.310797 0.787048 0.500000 F
0.803371 0.268482 0.000008 F
0.689217 0.212891 0.500012 F
0.803314 0.731563 0.999981 F
0.689234 0.787140 0.500015 F
0.292617 0.999996 0.223901 F
0.292585 0.999994 0.776105 F
0.227233 0.499994 0.302789 F
0.227232 0.499996 0.697213 F
0.707438 0.000012 0.223802 F
0.707497 0.000008 0.776208 F
0.772763 0.499991 0.302877 F
0.772751 0.500002 0.697147 F
