Na2 Ca2 V4 P4 S2 O24                    
   1.00000000000000     
     8.9782729999999997    0.2719040000000000    0.1187710000000000
     4.4286440000000002    7.7943819999999997    0.1532500000000000
     4.3516729999999999    2.6516380000000002    7.3380970000000003
   Ca   Na   V    P    S    O 
     2     2     4     4     2    24
Direct
  0.4324945071542191  0.1622781382069995  0.7447120056826357
  0.0034524453446531  0.9865275186566448  0.0115312973439331
  0.7088860843805973  0.4433552002949992  0.2412157368777482
  0.5964200385705613  0.8763735204778834  0.2403352371733963
  0.3514030135810855  0.3695969988033725  0.3394228359010356
  0.6473732757711556  0.6377395444097215  0.6310997446501022
  0.1467886694238717  0.1504004154767247  0.1476723138901229
  0.8559656300284167  0.8558823759262900  0.8498685768394868
  0.9627186471305523  0.5477303687068106  0.2445587127012283
  0.7519960263178208  0.0306663439244282  0.4443253606686138
  0.4645889310412433  0.7541544004942906  0.0236295041496295
  0.5518442094656160  0.2573601415021376  0.9554377880649360
  0.0395346211930854  0.4575014295637205  0.7407832209082247
  0.2438544966609224  0.9664132582577266  0.5481549453002333
  0.2235532952265171  0.4331664415537353  0.5895026844875297
  0.7716680478702375  0.5687571692427446  0.3997345647847129
  0.5778592663281876  0.2159386922157428  0.4305974881231480
  0.4096904276491500  0.7945172867230853  0.5498876538730009
  0.4257287193109021  0.5950737740166582  0.2041080465569829
  0.5631517295310521  0.4182286480207154  0.7713004990177824
  0.9154357108595329  0.0738695077855060  0.2666087510367143
  0.0928485913479518  0.9345561049356039  0.7292568243420101
  0.0741767555548547  0.2733792683601860  0.8996070814039172
  0.9364137455963367  0.7362669001037109  0.0801651439078751
  0.2879874404231819  0.9378032629857925  0.0261286139018869
  0.7356731362389838  0.0848093086285303  0.9393356787826549
  0.5186369614409257  0.2971701413663577  0.1186810881061942
  0.5119520437157431  0.7269017677622369  0.8467880808294056
  0.1153454096808248  0.5191796972822423  0.2965271681894910
  0.8957975767583792  0.4742370923929283  0.6944466703827813
  0.2835787924649649  0.1211440779690346  0.5231496192667077
  0.7220896795920201  0.8734294243177997  0.4511227893187478
  0.3962123998194501  0.1950738556061141  0.9987742793970517
  0.6211110304483890  0.7882866711228030  0.0177045622991155
  0.1859840834309210  0.0078171117616419  0.3994152570220640
  0.7660155272338200  0.9964952100639182  0.6259804278619262
  1.0032197018928111  0.3921822012728973  0.1866613890876486
 -0.0039161736553556  0.6087903493052570  0.7929861401768364
 
             NaN             NaN             NaN
             NaN             NaN             NaN
             NaN             NaN             NaN
             NaN             NaN             NaN
             NaN             NaN             NaN
             NaN             NaN             NaN
             NaN             NaN             NaN
             NaN             NaN             NaN
             NaN             NaN             NaN
             NaN             NaN             NaN
             NaN             NaN             NaN
             NaN             NaN             NaN
             NaN             NaN             NaN
             NaN             NaN             NaN
             NaN             NaN             NaN
             NaN             NaN             NaN
             NaN             NaN             NaN
             NaN             NaN             NaN
             NaN             NaN             NaN
             NaN             NaN             NaN
             NaN             NaN             NaN
             NaN             NaN             NaN
             NaN             NaN             NaN
             NaN             NaN             NaN
             NaN             NaN             NaN
             NaN             NaN             NaN
             NaN             NaN             NaN
             NaN             NaN             NaN
             NaN             NaN             NaN
             NaN             NaN             NaN
             NaN             NaN             NaN
             NaN             NaN             NaN
             NaN             NaN             NaN
             NaN             NaN             NaN
             NaN             NaN             NaN
             NaN             NaN             NaN
             NaN             NaN             NaN
             NaN             NaN             NaN
