Na2 Ca2 V4 P4 S2 O24
1.0
8.978273 0.271904 0.118771
4.428644 7.794382 0.153250
4.351673 2.651638 7.338097
Ca Na V P S O
2 2 4 4 2 24
direct
0.439880 0.205553 0.686414 Ca
0.000365 0.984760 0.013176 Ca
0.688761 0.441508 0.253869 Na
0.600624 0.890672 0.244043 Na
0.353315 0.354307 0.342990 V
0.648756 0.645813 0.635719 V
0.146626 0.154542 0.140848 V
0.851551 0.851363 0.854363 V
0.957753 0.543097 0.247766 P
0.757470 0.029834 0.443326 P
0.464491 0.750628 0.032483 P
0.543341 0.252505 0.954095 P
0.046573 0.456321 0.739308 S
0.243297 0.963741 0.552472 S
0.228778 0.431337 0.587051 O
0.769706 0.566019 0.409075 O
0.583289 0.214118 0.429725 O
0.410680 0.791614 0.550054 O
0.445978 0.571143 0.190768 O
0.558596 0.431711 0.796475 O
0.919053 0.072054 0.264193 O
0.093206 0.925473 0.731156 O
0.073162 0.268705 0.896298 O
0.930506 0.735562 0.086808 O
0.277271 0.919186 0.056238 O
0.732591 0.087301 0.925781 O
0.500937 0.252324 0.142497 O
0.512856 0.751695 0.841439 O
0.117576 0.503475 0.296108 O
0.898832 0.486259 0.689519 O
0.283364 0.111224 0.543003 O
0.724097 0.875915 0.446985 O
0.391254 0.208345 -0.033841 O
0.614769 0.785575 0.035648 O
0.189975 1.020172 0.396056 O
0.779361 0.986646 0.622237 O
0.984767 0.394276 0.188854 O
0.009504 0.600917 0.797888 O
