Ca16 Ni32 O64
1.0
   9.8912321791072433    0.0100749104906384   -0.6701297458137150
   1.4527475278172703   10.8552273014137821    3.6233712637604327
  -0.0469312408649052    0.0236454570229920   12.0463188719060970
Ca Ni O
15 32 64
direct
   0.6907062703257362    0.3422651004937043    0.2881322000351892 Ca
   0.1907062703257361    0.3422651004937043    0.2881322000351892 Ca
   0.1907062703257361    0.3422651004937043    0.7881322000351892 Ca
   0.1907062703257361    0.8422651004937043    0.2881322000351892 Ca
   0.1907062703257361    0.8422651004937043    0.7881322000351894 Ca
   0.6907062703257361    0.3422651004937043    0.7881322000351891 Ca
   0.6907062703257361    0.8422651004937045    0.2881322000351892 Ca
   0.6907062703257362    0.8422651004937044    0.7881322000351891 Ca
   0.3688018665248932    0.3483795555419825    0.0424559888077163 Ca
   0.3688018665248931    0.8483795555419825    0.0424559888077163 Ca
   0.3688018665248931    0.8483795555419826    0.5424559888077163 Ca
   0.8688018665248930    0.3483795555419825    0.0424559888077163 Ca
   0.8688018665248932    0.3483795555419825    0.5424559888077163 Ca
   0.8688018665248930    0.8483795555419826    0.0424559888077163 Ca
   0.8688018665248931    0.8483795555419825    0.5424559888077164 Ca
   0.1529955410159581    0.0948263241121045    0.4798766200855365 Ni
   0.1529955410159581    0.0948263241121045    0.9798766200855366 Ni
   0.1529955410159581    0.5948263241121045    0.4798766200855365 Ni
   0.1529955410159581    0.5948263241121045    0.9798766200855366 Ni
   0.6529955410159581    0.0948263241121045    0.4798766200855364 Ni
   0.6529955410159581    0.0948263241121045    0.9798766200855364 Ni
   0.6529955410159581    0.5948263241121045    0.4798766200855365 Ni
   0.6529955410159580    0.5948263241121046    0.9798766200855364 Ni
   0.1521353535877457    0.1024122929151280    0.2272612365598523 Ni
   0.1521353535877457    0.1024122929151280    0.7272612365598523 Ni
   0.1521353535877457    0.6024122929151280    0.2272612365598523 Ni
   0.1521353535877457    0.6024122929151281    0.7272612365598523 Ni
   0.6521353535877457    0.1024122929151280    0.2272612365598523 Ni
   0.6521353535877455    0.1024122929151280    0.7272612365598523 Ni
   0.6521353535877457    0.6024122929151281    0.2272612365598524 Ni
   0.6521353535877457    0.6024122929151281    0.7272612365598523 Ni
   0.4073833425864973    0.0882543290883918    0.1032881947010485 Ni
   0.4073833425864973    0.0882543290883918    0.6032881947010484 Ni
   0.4073833425864972    0.5882543290883918    0.1032881947010485 Ni
   0.4073833425864973    0.5882543290883918    0.6032881947010484 Ni
   0.9073833425864971    0.0882543290883918    0.1032881947010485 Ni
   0.9073833425864972    0.0882543290883918    0.6032881947010486 Ni
   0.9073833425864972    0.5882543290883918    0.1032881947010485 Ni
   0.9073833425864972    0.5882543290883918    0.6032881947010484 Ni
   0.4065470567384147    0.0957925619784300    0.3506870366867998 Ni
   0.4065470567384146    0.0957925619784300    0.8506870366867999 Ni
   0.4065470567384146    0.5957925619784300    0.3506870366867998 Ni
   0.4065470567384146    0.5957925619784300    0.8506870366867999 Ni
   0.9065470567384147    0.0957925619784300    0.3506870366867998 Ni
   0.9065470567384145    0.0957925619784300    0.8506870366867999 Ni
   0.9065470567384146    0.5957925619784300    0.3506870366867998 Ni
   0.9065470567384146    0.5957925619784300    0.8506870366867999 Ni
   0.0065939787060502    0.0010097184323904    0.4973637082901822 O
   0.0065939787060501    0.0010097184323904    0.9973637082901822 O
   0.0065939787060501    0.5010097184323905    0.4973637082901822 O
   0.0065939787060501    0.5010097184323904    0.9973637082901822 O
   0.5065939787060501    0.0010097184323904    0.4973637082901822 O
   0.5065939787060501    0.0010097184323904    0.9973637082901822 O
   0.5065939787060502    0.5010097184323904    0.4973637082901822 O
   0.5065939787060501    0.5010097184323905    0.9973637082901822 O
   0.0103916844243118    0.0026385748648232    0.2486434855670239 O
   0.0103916844243118    0.0026385748648231    0.7486434855670240 O
   0.0103916844243118    0.5026385748648232    0.2486434855670238 O
   0.0103916844243118    0.5026385748648232    0.7486434855670239 O
   0.5103916844243118    0.0026385748648232    0.2486434855670239 O
   0.5103916844243117    0.0026385748648232    0.7486434855670239 O
   0.5103916844243118    0.5026385748648232    0.2486434855670238 O
   0.5103916844243117    0.5026385748648233    0.7486434855670238 O
   0.0491230945182757    0.1880344996762749    0.0819043160668713 O
   0.0491230945182757    0.1880344996762750    0.5819043160668713 O
   0.0491230945182758    0.6880344996762749    0.0819043160668713 O
   0.0491230945182757    0.6880344996762751    0.5819043160668714 O
   0.5491230945182757    0.1880344996762749    0.0819043160668713 O
   0.5491230945182756    0.1880344996762750    0.5819043160668713 O
   0.5491230945182757    0.6880344996762751    0.0819043160668713 O
   0.5491230945182757    0.6880344996762751    0.5819043160668713 O
   0.0529524465368364    0.1896034721508052    0.3332389155639198 O
   0.0529524465368364    0.1896034721508052    0.8332389155639198 O
   0.0529524465368365    0.6896034721508053    0.3332389155639198 O
   0.0529524465368364    0.6896034721508052    0.8332389155639198 O
   0.5529524465368363    0.1896034721508053    0.3332389155639197 O
   0.5529524465368364    0.1896034721508053    0.8332389155639197 O
   0.5529524465368364    0.6896034721508052    0.3332389155639197 O
   0.5529524465368363    0.6896034721508053    0.8332389155639197 O
   0.2597325349958560    0.4928590439179406    0.1233012637510969 O
   0.2597325349958560    0.4928590439179406    0.6233012637510970 O
   0.2597325349958560    0.9928590439179407    0.1233012637510969 O
   0.2597325349958559    0.9928590439179404    0.6233012637510970 O
   0.7597325349958559    0.4928590439179406    0.1233012637510969 O
   0.7597325349958560    0.4928590439179406    0.6233012637510970 O
   0.7597325349958561    0.9928590439179407    0.1233012637510968 O
   0.7597325349958559    0.9928590439179407    0.6233012637510970 O
   0.2593480700213173    0.4985443425144532    0.3710513126331118 O
   0.2593480700213173    0.4985443425144532    0.8710513126331119 O
   0.2593480700213173    0.9985443425144532    0.3710513126331118 O
   0.2593480700213173    0.9985443425144532    0.8710513126331119 O
   0.7593480700213174    0.4985443425144532    0.3710513126331118 O
   0.7593480700213172    0.4985443425144531    0.8710513126331119 O
   0.7593480700213172    0.9985443425144533    0.3710513126331118 O
   0.7593480700213173    0.9985443425144532    0.8710513126331120 O
   0.3001639679861228    0.1920981915198544    0.4594959400368890 O
   0.3001639679861228    0.1920981915198544    0.9594959400368891 O
   0.3001639679861229    0.6920981915198544    0.4594959400368890 O
   0.3001639679861229    0.6920981915198544    0.9594959400368892 O
   0.8001639679861229    0.1920981915198544    0.4594959400368891 O
   0.8001639679861228    0.1920981915198544    0.9594959400368890 O
   0.8001639679861229    0.6920981915198545    0.4594959400368891 O
   0.8001639679861229    0.6920981915198544    0.9594959400368891 O
   0.2997747920319850    0.1977824927937182    0.2072502812147561 O
   0.2997747920319850    0.1977824927937182    0.7072502812147561 O
   0.2997747920319850    0.6977824927937183    0.2072502812147561 O
   0.2997747920319849    0.6977824927937182    0.7072502812147561 O
   0.7997747920319850    0.1977824927937182    0.2072502812147561 O
   0.7997747920319849    0.1977824927937182    0.7072502812147561 O
   0.7997747920319850    0.6977824927937182    0.2072502812147561 O
   0.7997747920319849    0.6977824927937183    0.7072502812147561 O
