La16 Mg8 Se32
1.0
       12.1524801254         0.0000000000         0.0000000000
        0.0000000000        12.1524801254         0.0000000000
        0.0000000000         0.0000000000        12.1524801254
 Mg  La   Mg   Se
 1  16    6   32
Direct
     0.500000000         0.500000000         0.000000000
     0.375000000         0.625000000         0.375000000
     0.375000000         0.875000000         0.125000000
     0.125000000         0.875000000         0.375000000
     0.125000000         0.625000000         0.125000000
     0.375000000         0.125000000         0.875000000
     0.375000000         0.375000000         0.625000000
     0.125000000         0.375000000         0.875000000
     0.125000000         0.125000000         0.625000000
     0.875000000         0.625000000         0.875000000
     0.875000000         0.875000000         0.625000000
     0.625000000         0.875000000         0.875000000
     0.625000000         0.625000000         0.625000000
     0.875000000         0.125000000         0.375000000
     0.875000000         0.375000000         0.125000000
     0.625000000         0.375000000         0.375000000
     0.625000000         0.125000000         0.125000000
     0.500000000         0.000000000         0.500000000
     0.250000000         0.250000000         0.250000000
     0.000000000         0.000000000         0.000000000
     0.750000000         0.250000000         0.750000000
     0.000000000         0.500000000         0.500000000
     0.750000000         0.750000000         0.250000000
     0.376821011         0.376821011         0.376821011
     0.376821011         0.123179004         0.123179004
     0.123179004         0.376821011         0.123179004
     0.123179004         0.123179004         0.376821011
     0.626820982         0.126820996         0.373178989
     0.126820996         0.873179018         0.126820996
     0.873179018         0.126820996         0.126820996
     0.373178989         0.873179018         0.373178989
     0.376821011         0.876820982         0.876820982
     0.376821011         0.623179018         0.623179018
     0.123179004         0.876820982         0.623179018
     0.123179004         0.623179018         0.876820982
     0.626820982         0.626820982         0.873179018
     0.126820996         0.373178989         0.626820982
     0.873179018         0.626820982         0.626820982
     0.373178989         0.373178989         0.873179018
     0.876820982         0.376821011         0.876820982
     0.876820982         0.123179004         0.623179018
     0.623179018         0.376821011         0.623179018
     0.623179018         0.123179004         0.876820982
     0.126820996         0.126820996         0.873179018
     0.626820982         0.873179018         0.626820982
     0.373178989         0.126820996         0.626820982
     0.873179018         0.873179018         0.873179018
     0.876820982         0.876820982         0.376821011
     0.876820982         0.623179018         0.123179004
     0.623179018         0.876820982         0.123179004
     0.623179018         0.623179018         0.376821011
     0.126820996         0.626820982         0.373178989
     0.626820982         0.373178989         0.126820996
     0.373178989         0.626820982         0.126820996
     0.873179018         0.373178989         0.373178989
