Li48 P16 S64
1.0
12.343532 0.000000 0.000000
0.000000 16.037197 0.000000
0.000000 0.000000 13.032818
Li P S
47 16 64
direct
0.305299 0.483251 0.332546 Li
0.194701 0.016749 0.667454 Li
0.194701 0.516749 0.667454 Li
0.694701 0.016749 0.667454 Li
0.694701 0.516749 0.667454 Li
0.305299 0.983251 0.332546 Li
0.805299 0.483251 0.332546 Li
0.805299 0.983251 0.332546 Li
0.444701 0.483251 0.832546 Li
0.444701 0.983251 0.832546 Li
0.944701 0.483251 0.832546 Li
0.944701 0.983251 0.832546 Li
0.055299 0.016749 0.167454 Li
0.055299 0.516749 0.167454 Li
0.555299 0.016749 0.167454 Li
0.305299 0.266749 0.332546 Li
0.305299 0.766749 0.332546 Li
0.805299 0.266749 0.332546 Li
0.805299 0.766749 0.332546 Li
0.194701 0.233251 0.667454 Li
0.194701 0.733251 0.667454 Li
0.694701 0.233251 0.667454 Li
0.694701 0.733251 0.667454 Li
0.055299 0.233251 0.167454 Li
0.055299 0.733251 0.167454 Li
0.555299 0.233251 0.167454 Li
0.555299 0.733251 0.167454 Li
0.444701 0.266749 0.832546 Li
0.444701 0.766749 0.832546 Li
0.944701 0.266749 0.832546 Li
0.944701 0.766749 0.832546 Li
0.250000 0.000000 0.000000 Li
0.250000 0.500000 0.000000 Li
0.750000 0.000000 0.000000 Li
0.750000 0.500000 0.000000 Li
0.000000 0.000000 0.500000 Li
0.000000 0.500000 0.500000 Li
0.500000 0.000000 0.500000 Li
0.500000 0.500000 0.500000 Li
0.250000 0.250000 0.000000 Li
0.250000 0.750000 0.000000 Li
0.750000 0.250000 0.000000 Li
0.750000 0.750000 0.000000 Li
0.000000 0.250000 0.500000 Li
0.000000 0.750000 0.500000 Li
0.500000 0.250000 0.500000 Li
0.500000 0.750000 0.500000 Li
0.076195 0.125000 0.910532 P
0.076195 0.625000 0.910532 P
0.576195 0.125000 0.910532 P
0.576195 0.625000 0.910532 P
0.423805 0.375000 0.089468 P
0.423805 0.875000 0.089468 P
0.923805 0.375000 0.089468 P
0.923805 0.875000 0.089468 P
0.326195 0.375000 0.589468 P
0.326195 0.875000 0.589468 P
0.826195 0.375000 0.589468 P
0.826195 0.875000 0.589468 P
0.173805 0.125000 0.410532 P
0.173805 0.625000 0.410532 P
0.673805 0.125000 0.410532 P
0.673805 0.625000 0.410532 P
0.412338 0.125000 0.899810 S
0.412338 0.625000 0.899810 S
0.912338 0.125000 0.899810 S
0.912338 0.625000 0.899810 S
0.087662 0.375000 0.100190 S
0.087662 0.875000 0.100190 S
0.587662 0.375000 0.100190 S
0.587662 0.875000 0.100190 S
0.162338 0.375000 0.600190 S
0.162338 0.875000 0.600190 S
0.662338 0.375000 0.600190 S
0.662338 0.875000 0.600190 S
0.337662 0.125000 0.399810 S
0.337662 0.625000 0.399810 S
0.837662 0.125000 0.399810 S
0.837662 0.625000 0.399810 S
0.136211 0.125000 0.059332 S
0.136211 0.625000 0.059332 S
0.636211 0.125000 0.059332 S
0.636211 0.625000 0.059332 S
0.363789 0.375000 0.940668 S
0.363789 0.875000 0.940668 S
0.863789 0.375000 0.940668 S
0.863789 0.875000 0.940668 S
0.386211 0.375000 0.440668 S
0.386211 0.875000 0.440668 S
0.886211 0.375000 0.440668 S
0.886211 0.875000 0.440668 S
0.113789 0.125000 0.559332 S
0.113789 0.625000 0.559332 S
0.613789 0.125000 0.559332 S
0.613789 0.625000 0.559332 S
0.135482 0.018262 0.846139 S
0.135482 0.518262 0.846139 S
0.635482 0.018262 0.846139 S
0.635482 0.518262 0.846139 S
0.364518 0.481738 0.153861 S
0.364518 0.981738 0.153861 S
0.864518 0.481738 0.153861 S
0.864518 0.981738 0.153861 S
0.385482 0.481738 0.653861 S
0.385482 0.981738 0.653861 S
0.885482 0.481738 0.653861 S
0.885482 0.981738 0.653861 S
0.114518 0.018262 0.346139 S
0.114518 0.518262 0.346139 S
0.614518 0.018262 0.346139 S
0.614518 0.518262 0.346139 S
0.364518 0.268262 0.153861 S
0.364518 0.768262 0.153861 S
0.864518 0.268262 0.153861 S
0.864518 0.768262 0.153861 S
0.135482 0.231738 0.846139 S
0.135482 0.731738 0.846139 S
0.635482 0.231738 0.846139 S
0.635482 0.731738 0.846139 S
0.114518 0.231738 0.346139 S
0.114518 0.731738 0.346139 S
0.614518 0.231738 0.346139 S
0.614518 0.731738 0.346139 S
0.385482 0.268262 0.653861 S
0.385482 0.768262 0.653861 S
0.885482 0.268262 0.653861 S
0.885482 0.768262 0.653861 S
