Ca9 Cr12 F42
1.0
7.463370 0.099694 -0.610782
-3.527716 6.605787 0.219047
0.702758 0.073084 18.736323
Ca Cr F
9 12 42
direct
0.365850 0.500213 0.327077 Ca
0.511346 0.838804 0.681570 Ca
0.597585 0.100892 0.004839 Ca
-0.009677 0.796111 0.664152 Ca
0.846715 0.048684 0.350517 Ca
0.121902 0.610119 0.983178 Ca
0.973303 0.817851 0.171857 Ca
0.840574 0.898728 0.846719 Ca
0.207542 0.199047 0.508438 Ca
0.301439 0.950391 0.322454 Cr
-0.012092 0.292816 0.661202 Cr
0.655521 0.645873 1.000242 Cr
0.337984 0.980878 0.829078 Cr
0.978201 0.321140 0.160567 Cr
0.665011 0.676059 0.500929 Cr
0.479130 0.822174 0.167074 Cr
0.163156 0.673303 0.496304 Cr
0.318388 0.468010 0.829597 Cr
0.814930 0.451753 0.823665 Cr
0.692036 0.172303 0.503208 Cr
0.479986 0.323581 0.164780 Cr
0.714215 0.115197 0.609009 F
0.880902 0.660710 0.919136 F
0.408145 0.225720 0.282821 F
0.201375 0.674277 0.356133 F
0.413349 0.759530 0.049498 F
0.238471 0.463242 0.724658 F
0.750905 0.925228 0.961121 F
1.015759 0.901193 0.289850 F
0.106411 0.124702 0.621602 F
0.923218 0.728394 0.056127 F
0.834338 0.960118 0.728593 F
0.169993 0.239475 0.392562 F
0.552507 0.370562 0.034111 F
0.687128 0.208634 0.400410 F
0.864674 0.454536 0.691835 F
0.402351 0.543735 0.933591 F
0.239285 0.751900 0.614227 F
0.538865 0.909075 0.290178 F
0.785530 0.446510 0.175898 F
0.546950 0.329294 0.521993 F
0.661503 0.221759 0.886337 F
0.508587 0.843102 0.812178 F
0.373919 0.581408 0.481045 F
0.190508 0.690210 0.181262 F
1.020441 0.300868 0.263283 F
0.655323 0.700377 0.608182 F
0.314209 0.916946 0.933673 F
0.337713 0.004049 0.725233 F
0.668016 0.692147 0.392280 F
0.933018 0.330265 0.053140 F
0.174279 0.200074 0.148274 F
0.852235 0.027493 0.478412 F
-0.004111 0.730025 0.787894 F
0.172582 0.122149 0.843409 F
0.947527 0.738476 0.527151 F
0.767658 0.956560 0.151137 F
0.055094 0.429806 0.865837 F
0.502273 0.578590 0.208950 F
0.290137 0.955574 0.463239 F
0.466575 0.070853 0.126855 F
0.595413 0.529732 0.802039 F
0.028842 0.395681 0.534106 F
