Li8 Ti16 O32
1.0
   7.8230411466479213   -0.0000000069037416    0.0000001834861496
  -0.0000000037831662    7.8265434069792121    0.0000001763671142
   0.0000002046079619    0.0000002152426416    9.3465586213095051
Li Ti O
1 16 32
direct
   0.2500000082677745    0.4999999831979114    0.2498134187426944 Li
   0.4999999828975433    0.0000000283012517    0.0001783535825315 Ti
   0.4999999828975433    0.5000000283012517    0.0001783535825315 Ti
   0.9999999828975432    0.0000000283012517    0.0001783535825315 Ti
   0.9999999828975433    0.5000000283012516    0.0001783535825315 Ti
   0.0000000994587775    0.2499999923970459    0.2396573730006261 Ti
   0.0000000994587775    0.7499999923970458    0.2396573730006261 Ti
   0.5000000994587774    0.2499999923970459    0.2396573730006261 Ti
   0.5000000994587775    0.7499999923970460    0.2396573730006261 Ti
   0.2499999789961965    0.2500000121769450    0.5000882338775097 Ti
   0.2499999789961965    0.7500000121769450    0.5000882338775098 Ti
   0.7499999789961964    0.2500000121769450    0.5000882338775097 Ti
   0.7499999789961965    0.7500000121769450    0.5000882338775097 Ti
   0.2500000067142723    0.4999999146651077    0.7602553144298241 Ti
   0.2500000067142724    0.9999999146651077    0.7602553144298242 Ti
   0.7500000067142724    0.4999999146651077    0.7602553144298241 Ti
   0.7500000067142724    0.9999999146651076    0.7602553144298241 Ti
   0.0000000051600188    0.0000000050963576    0.2150173325918243 O
   0.0000000051600187    0.5000000050963577    0.2150173325918243 O
   0.5000000051600187    0.0000000050963576    0.2150173325918243 O
   0.5000000051600187    0.5000000050963576    0.2150173325918243 O
   0.4999999759252584    0.2500000172179471    0.0354028809512221 O
   0.4999999759252584    0.7500000172179471    0.0354028809512221 O
   0.9999999759252584    0.2500000172179471    0.0354028809512221 O
   0.9999999759252585    0.7500000172179471    0.0354028809512221 O
   0.2499999851645707    0.0000000214883033    0.9645481989649792 O
   0.2499999851645707    0.5000000214883032    0.9645481989649792 O
   0.7499999851645707    0.0000000214883033    0.9645481989649793 O
   0.7499999851645708    0.5000000214883031    0.9645481989649792 O
   0.4999999982677682    0.4999999954041313    0.7850899998147639 O
   0.4999999982677681    0.9999999954041313    0.7850899998147639 O
   0.9999999982677680    0.4999999954041313    0.7850899998147638 O
   0.9999999982677683    0.9999999954041313    0.7850899998147639 O
   0.2499999987850856    0.2500000003890906    0.7112634237870434 O
   0.2499999987850857    0.7500000003890905    0.7112634237870434 O
   0.7499999987850856    0.2500000003890906    0.7112634237870433 O
   0.7499999987850856    0.7500000003890906    0.7112634237870433 O
   0.2499999933264769    0.0000000031480849    0.5331520892197286 O
   0.2499999933264770    0.5000000031480849    0.5331520892197286 O
   0.7499999933264768    0.0000000031480849    0.5331520892197285 O
   0.7499999933264769    0.5000000031480849    0.5331520892197286 O
   0.4999999922269701    0.2500000005693923    0.4668609796536081 O
   0.4999999922269702    0.7500000005693922    0.4668609796536081 O
   0.9999999922269701    0.2500000005693923    0.4668609796536081 O
   0.9999999922269701    0.7500000005693923    0.4668609796536081 O
   0.2499999968692964    0.2500000037930130    0.2887335174960432 O
   0.2499999968692964    0.7500000037930129    0.2887335174960431 O
   0.7499999968692963    0.2500000037930130    0.2887335174960432 O
   0.7499999968692963    0.7500000037930129    0.2887335174960432 O
