Ca8 Ni12 F42                            
   1.00000000000000     
     7.2736299999999998    0.0012030000000000   -0.0124150000000000
    -3.6599210000000002    6.3588990000000001    0.0061250000000000
    -0.0238130000000000    0.0005090000000000   18.3025410000000015
   Ca   Ni   F 
     8    12    42
Direct
  0.2284559253084703  0.7891258802450609  0.6964107034431172
  0.1476819764144796  0.6425551273985355  0.9871963489206866
  0.3547698466015159  0.5060409162235615  0.3219811104686727
  0.8407585625539253  0.0191558362904924  0.3461903823145830
  0.1773105635983721  0.1652640471883825  0.0038772558840778
  0.9805043165726739  0.7918426489009129  0.1744464291975127
  0.8020063539355812  0.9689114242383937  0.8334825178965602
  0.2047344022679986  0.1642816424891607  0.5096775375809020
  0.3349504425505397  0.0010159400022311  0.3325822952829620
  0.9764016866693596  0.3141473692435565  0.6626967217964791
  0.6678003822656392  0.6708171870452775  0.0015959875859650
  0.3429651091806329  0.0382027010650361  0.8383813615598179
  0.9935035587104676  0.3108736082158805  0.1616068790351574
  0.6801722132029312  0.6714218486628618  0.4957178519886953
  0.4950047508482919  0.8191951744238194  0.1639128650242851
  0.1734215710231146  0.6595475529673751  0.4905122982933035
  0.3224527999722311  0.5030988980871024  0.8304791205883079
  0.8292123719865908  0.5086689919926202  0.8289140789748799
  0.6825040725267283  0.1720670681752725  0.4970908266479913
  0.4912922072352981  0.3104312306638092  0.1618330709394310
  0.7331818023856540  0.1974994374410005  0.6002475887926308
  0.8208802643661460  0.5747572949009511  0.9369647753036472
  0.4393450917377002  0.2565758024107819  0.2701197038127920
  0.2376622790540734  0.7252563807514092  0.3833382021653980
  0.4833210925566990  0.7531881322905976  0.0584651389653072
  0.2414771029393852  0.4848242465560080  0.7260857989751338
  0.8311329495415584  0.9563278407609700  0.9551640986308338
  0.0438925515288550  0.8845051268413298  0.2879234068098373
  0.1140547054161228  0.1790753531322999  0.6181379864001428
  0.9746637360137448  0.7992030661499600  0.0534388693848803
  0.8338383446757738  0.0823833492798037  0.7267019061230011
  0.2040578848246855  0.1723416876566641  0.3863625871795801
  0.5193895485133517  0.3879281374602974  0.0532209903884098
  0.6061537632080742  0.1236017282340623  0.3882727597989163
  0.8925478728625386  0.4965388000463453  0.7231033475401082
  0.3914078915930028  0.5386086335828589  0.9423096921836075
  0.1207275871028954  0.5842042099164821  0.5970190928888978
  0.4995218012806386  0.8709809786511714  0.2751866414941945
  0.7957618026981258  0.4221185135148353  0.1707430165414140
  0.5727607871873768  0.3649442433468539  0.4978763284038902
  0.6504134126939553  0.2098038241622761  0.8532766717681808
  0.4260044877377371  0.8161231821853698  0.8134936355145871
  0.3665911115847161  0.5452824221655004  0.4846295299359517
  0.1872931096846343  0.6216421625925226  0.1732246478105348
  0.0261068608304356  0.3004740687251898  0.2719392256624558
  0.6733544312583795  0.7027973593920793  0.5940840336480201
  0.2990718076462633  0.9708701106873469  0.9457260113875952
  0.3753621939585359  0.1079723024344476  0.7360709751603329
  0.6623077520613496  0.6757802479636115  0.3811391533894595
  0.0175702541817850  0.3440178696949266  0.0501419469928564
  0.1862220250618208  0.1973714218717267  0.1412905569342714
  0.7995707753947642  0.9826459709348299  0.4769069537484190
  0.0373853944419674  0.8217578483557754  0.8106528179284677
  0.1967375713456026  0.2025934289461492  0.8619105600448549
  0.9866343304540066  0.7802201645197053  0.4881954376776641
  0.8033022473438455 -0.0003925108587658  0.1643581119876329
  0.0565685196514020  0.4653648474422745  0.8717129947267234
  0.5741204621367100  0.6049906728453636  0.1988754069372383
  0.3767354356053925  0.9596686241273877  0.5238022763605317
  0.3882648031039115  0.0108237860408242  0.1383659870974831
  0.6218009491398053  0.6010691398517393  0.8090622638343401
  0.9707384251267897  0.3686056074204183  0.4601885221734420
 
             NaN             NaN             NaN
             NaN             NaN             NaN
             NaN             NaN             NaN
             NaN             NaN             NaN
             NaN             NaN             NaN
             NaN             NaN             NaN
             NaN             NaN             NaN
             NaN             NaN             NaN
             NaN             NaN             NaN
             NaN             NaN             NaN
             NaN             NaN             NaN
             NaN             NaN             NaN
             NaN             NaN             NaN
             NaN             NaN             NaN
             NaN             NaN             NaN
             NaN             NaN             NaN
             NaN             NaN             NaN
             NaN             NaN             NaN
             NaN             NaN             NaN
             NaN             NaN             NaN
             NaN             NaN             NaN
             NaN             NaN             NaN
             NaN             NaN             NaN
             NaN             NaN             NaN
             NaN             NaN             NaN
             NaN             NaN             NaN
             NaN             NaN             NaN
             NaN             NaN             NaN
             NaN             NaN             NaN
             NaN             NaN             NaN
             NaN             NaN             NaN
             NaN             NaN             NaN
             NaN             NaN             NaN
             NaN             NaN             NaN
             NaN             NaN             NaN
             NaN             NaN             NaN
             NaN             NaN             NaN
             NaN             NaN             NaN
             NaN             NaN             NaN
             NaN             NaN             NaN
             NaN             NaN             NaN
             NaN             NaN             NaN
             NaN             NaN             NaN
             NaN             NaN             NaN
             NaN             NaN             NaN
             NaN             NaN             NaN
             NaN             NaN             NaN
             NaN             NaN             NaN
             NaN             NaN             NaN
             NaN             NaN             NaN
             NaN             NaN             NaN
             NaN             NaN             NaN
             NaN             NaN             NaN
             NaN             NaN             NaN
             NaN             NaN             NaN
             NaN             NaN             NaN
             NaN             NaN             NaN
             NaN             NaN             NaN
             NaN             NaN             NaN
             NaN             NaN             NaN
             NaN             NaN             NaN
             NaN             NaN             NaN
