Ca8 Ni12 F42
1.0
7.273630 0.001203 -0.012415
-3.659921 6.358899 0.006125
-0.023813 0.000509 18.302541
Ca Ni F
8 12 42
direct
0.245094 0.845906 0.664677 Ca
0.152738 0.646095 0.979655 Ca
0.350433 0.510840 0.322480 Ca
0.843023 0.016626 0.346484 Ca
0.170196 0.162901 0.009594 Ca
0.985032 0.791208 0.174443 Ca
0.797475 0.980928 0.835148 Ca
0.211941 0.176228 0.511269 Ca
0.341830 0.007978 0.333820 Ni
0.991245 0.341367 0.666851 Ni
0.661989 0.659012 0.001048 Ni
0.319138 0.006838 0.831724 Ni
0.995440 0.313154 0.162200 Ni
0.687333 0.679388 0.493652 Ni
0.497715 0.819381 0.162769 Ni
0.180532 0.670514 0.495197 Ni
0.313993 0.496048 0.829538 Ni
0.814246 0.498883 0.828128 Ni
0.692296 0.183967 0.496565 Ni
0.494684 0.311266 0.163307 Ni
0.747279 0.200634 0.600594 F
0.808480 0.554004 0.937514 F
0.440506 0.261696 0.270924 F
0.247696 0.735289 0.386502 F
0.478112 0.747394 0.056348 F
0.250076 0.503654 0.727578 F
0.828754 0.949324 0.955589 F
0.050439 0.888028 0.288154 F
0.127459 0.199729 0.619199 F
0.972937 0.791463 0.053077 F
0.841182 0.066268 0.722717 F
0.208752 0.178247 0.387656 F
0.521935 0.382905 0.055627 F
0.616468 0.135888 0.387750 F
0.859507 0.476760 0.723678 F
0.372104 0.497316 0.944101 F
0.126796 0.609307 0.601841 F
0.508059 0.876528 0.275423 F
0.798916 0.422844 0.173331 F
0.579758 0.374217 0.500427 F
0.626621 0.199169 0.843476 F
0.419757 0.799320 0.848905 F
0.375870 0.559845 0.491079 F
0.193916 0.620751 0.180419 F
0.024315 0.294677 0.272262 F
0.693313 0.719267 0.594893 F
0.282984 0.981857 0.943312 F
0.341252 0.006904 0.728513 F
0.660414 0.673849 0.380955 F
0.022432 0.358141 0.051599 F
0.188882 0.200030 0.142324 F
0.806134 0.991031 0.476114 F
0.009451 0.805758 0.820352 F
0.193014 0.193385 0.839562 F
0.994661 0.789659 0.488725 F
0.804998 0.001366 0.158778 F
0.032344 0.430341 0.869496 F
0.583274 0.610178 0.197533 F
0.388660 0.971537 0.524821 F
0.385627 0.008117 0.139642 F
0.614868 0.605064 0.806494 F
0.983322 0.380744 0.462984 F
