Mg8 V16 O32
1.0
        8.5756158829         0.0000000000         0.0000000000
        0.0000000000         8.5756158829         0.0000000000
        0.0000000000         0.0000000000         8.5756158829
   Mg    V    O
    7   16   32
Direct
   0.5000000000000000    0.5000000000000000    1.0000000000000000 Mg
     0.250000000         0.250000000         0.250000000
     0.500000000         0.000000000         0.500000000
     0.750000000         0.250000000         0.750000000
     0.000000000         0.000000000         0.000000000
     0.750000000         0.750000000         0.250000000
     0.000000000         0.500000000         0.500000000
     0.125000000         0.875000000         0.375000000
     0.125000000         0.625000000         0.125000000
     0.375000000         0.625000000         0.375000000
     0.375000000         0.875000000         0.125000000
     0.125000000         0.375000000         0.875000000
     0.125000000         0.125000000         0.625000000
     0.375000000         0.125000000         0.875000000
     0.375000000         0.375000000         0.625000000
     0.625000000         0.875000000         0.875000000
     0.625000000         0.625000000         0.625000000
     0.875000000         0.625000000         0.875000000
     0.875000000         0.875000000         0.625000000
     0.625000000         0.375000000         0.375000000
     0.625000000         0.125000000         0.125000000
     0.875000000         0.125000000         0.375000000
     0.875000000         0.375000000         0.125000000
     0.364863992         0.864863992         0.364863992
     0.385136008         0.114863999         0.114863999
     0.114863999         0.114863999         0.385136008
     0.114863999         0.385136008         0.114863999
     0.635136008         0.135135993         0.364863992
     0.135135993         0.864863992         0.135135993
     0.385136008         0.385136008         0.385136008
     0.864863992         0.135135993         0.135135993
     0.364863992         0.364863992         0.864863992
     0.385136008         0.614863992         0.614863992
     0.114863999         0.614863992         0.885136008
     0.114863999         0.885136008         0.614863992
     0.635136008         0.635136008         0.864863992
     0.135135993         0.364863992         0.635136008
     0.385136008         0.885136008         0.885136008
     0.864863992         0.635136008         0.635136008
     0.864863992         0.864863992         0.864863992
     0.885136008         0.114863999         0.614863992
     0.614863992         0.114863999         0.885136008
     0.614863992         0.385136008         0.614863992
     0.135135993         0.135135993         0.864863992
     0.635136008         0.864863992         0.635136008
     0.885136008         0.385136008         0.885136008
     0.364863992         0.135135993         0.635136008
     0.864863992         0.364863992         0.364863992
     0.885136008         0.614863992         0.114863999
     0.614863992         0.614863992         0.385136008
     0.614863992         0.885136008         0.114863999
     0.135135993         0.635136008         0.364863992
     0.635136008         0.364863992         0.135135993
     0.885136008         0.885136008         0.385136008
     0.364863992         0.635136008         0.135135993
