Na2 Ca2 V4 P2 S4 O24                    
   1.00000000000000     
     8.9697139999999997    0.3330790000000000    0.2045960000000000
     4.2451439999999998    7.9258230000000003    0.2478610000000000
     4.1742540000000004    2.6404269999999999    7.4529740000000002
   Ca   Na   V    P    S    O 
     2     2     4     2     4    24
Direct
  0.7130433026441898  0.4326660553298587  0.2322366313941898
  0.0055755268111829  0.9959228177719702  0.0100362801617876
  0.4128712913619505  0.1206939148960106  0.7431244223852056
  0.5885694903555149  0.8890014064292360  0.2530255913375926
  0.3403935396806478  0.3516044664041950  0.3652658262609429
  0.6439068326284718  0.6558806823103527  0.6381265665027273
  0.1558920180037501  0.1462824897669190  0.1454246801989918
  0.8481033508007639  0.8496866856265368  0.8541072880673217
  0.7542057611177825  0.0333536202891562  0.4422180590744623
  0.4555803767977193  0.7537440331637049  0.0332659105014076
  0.0383574072156902  0.4522336023974928  0.7499771160382643
  0.9561898654010724  0.5536916037406853  0.2508980727390611
  0.2359597341124081  0.9678077295644493  0.5650967006932588
  0.5426448932097322  0.2458896460697265  0.9644127797365259
  0.2106087585618717  0.4493969814912097  0.5933127669479433
  0.7719501590098674  0.5550554007519876  0.3959603007005734
  0.5792520562575230  0.2127886732426599  0.4399338374246030
  0.4043901220587937  0.8037170037772090  0.5531868985778694
  0.4479915752124315  0.5617456324334235  0.1707577065132267
  0.5460437247704610  0.4251929357373224  0.8282969353752165
  0.8998168284532332  0.1084837178526420  0.2564662598999923
  0.0896944497465494  0.9184926113942397  0.7431658668728630
  0.0777530290975206  0.2633980131849349  0.9000806847593422
  0.9268355683208388  0.7378152810900631  0.1005692148573307
  0.2686517255485880  0.9065205346541145  0.0826409017403630
  0.7295914108637354  0.0983561327395640  0.9276595272351019
  0.4939093301999709  0.2314956789701641  0.1555597328645765
  0.4992515197176150  0.7804464052552106  0.8346386185695819
  0.0899859031429263  0.5262702806385156  0.3165042729260304
  0.8885747488249313  0.4724601409633417  0.7076730050078710
  0.2674110886242343  0.1143670487959281  0.5682604317012625
  0.7324691284845171  0.8832437818004744  0.4261822566060702
  0.4105306532845934  0.1929467267996994  0.9615149600949537
  0.6124988745949297  0.7675206403557842  0.0538445383957259
  0.1784465881202376  0.0331882503682461  0.4081693943261864
  0.7945313799276092  0.9770906321007748  0.6126985516201684
  1.0113286054484123  0.4109779426003688  0.1770703677820605
 -0.0140431365814210  0.5890227096929236  0.8273341693553727
 
             NaN             NaN             NaN
             NaN             NaN             NaN
             NaN             NaN             NaN
             NaN             NaN             NaN
             NaN             NaN             NaN
             NaN             NaN             NaN
             NaN             NaN             NaN
             NaN             NaN             NaN
             NaN             NaN             NaN
             NaN             NaN             NaN
             NaN             NaN             NaN
             NaN             NaN             NaN
             NaN             NaN             NaN
             NaN             NaN             NaN
             NaN             NaN             NaN
             NaN             NaN             NaN
             NaN             NaN             NaN
             NaN             NaN             NaN
             NaN             NaN             NaN
             NaN             NaN             NaN
             NaN             NaN             NaN
             NaN             NaN             NaN
             NaN             NaN             NaN
             NaN             NaN             NaN
             NaN             NaN             NaN
             NaN             NaN             NaN
             NaN             NaN             NaN
             NaN             NaN             NaN
             NaN             NaN             NaN
             NaN             NaN             NaN
             NaN             NaN             NaN
             NaN             NaN             NaN
             NaN             NaN             NaN
             NaN             NaN             NaN
             NaN             NaN             NaN
             NaN             NaN             NaN
             NaN             NaN             NaN
             NaN             NaN             NaN
