Li24 Mn24 O48
1.0
  10.8814821243999997    0.0000000000000000    0.0000000000000000
   0.0000000000000000    8.4296236037999996    0.0000000000000000
  -4.7353767676000000    0.0000000000000000    9.6125112367999996
Li Mn O
22 24 48
direct
   0.7500000000000000    0.6666666666666665    0.2500000000000000 Li
   0.0000000000000000    0.1666666666666667    0.2500000000000000 Li
   0.0000000000000000    0.1666666666666667    0.7500000000000000 Li
   0.0000000000000000    0.5000000000000000    0.2500000000000000 Li
   0.0000000000000000    0.5000000000000000    0.7500000000000000 Li
   0.0000000000000000    0.8333333333333333    0.2500000000000000 Li
   0.0000000000000000    0.8333333333333333    0.7500000000000000 Li
   0.5000000000000000    0.1666666666666667    0.2500000000000000 Li
   0.4999999999999999    0.1666666666666667    0.7500000000000000 Li
   0.4999999999999999    0.5000000000000000    0.7500000000000000 Li
   0.4999999999999999    0.8333333333333333    0.7500000000000000 Li
   0.2500000000000000    0.0000000000000000    0.2500000000000000 Li
   0.2500000000000000    0.0000000000000000    0.7500000000000000 Li
   0.2500000000000000    0.3333333333333333    0.2500000000000000 Li
   0.2500000000000000    0.3333333333333333    0.7500000000000000 Li
   0.2500000000000000    0.6666666666666665    0.2500000000000000 Li
   0.2500000000000000    0.6666666666666665    0.7500000000000000 Li
   0.7500000000000000    0.0000000000000000    0.2500000000000000 Li
   0.7500000000000000    0.0000000000000000    0.7500000000000000 Li
   0.7500000000000000    0.3333333333333333    0.2500000000000000 Li
   0.7500000000000000    0.3333333333333333    0.7500000000000000 Li
   0.7500000000000000    0.6666666666666665    0.7500000000000000 Li
   0.0000000000000000    0.0000000000000000    0.0000000000000000 Mn
   0.0000000000000000    0.0000000000000000    0.5000000000000000 Mn
   0.0000000000000000    0.3333333333333333    0.0000000000000000 Mn
   0.0000000000000000    0.3333333333333333    0.5000000000000000 Mn
   0.0000000000000000    0.6666666666666665    0.0000000000000000 Mn
   0.0000000000000000    0.6666666666666665    0.5000000000000000 Mn
   0.5000000000000000    0.0000000000000000    0.0000000000000000 Mn
   0.5000000000000000    0.0000000000000000    0.5000000000000000 Mn
   0.5000000000000000    0.3333333333333333    0.0000000000000000 Mn
   0.5000000000000000    0.3333333333333333    0.5000000000000000 Mn
   0.5000000000000000    0.6666666666666665    0.0000000000000000 Mn
   0.5000000000000000    0.6666666666666665    0.5000000000000000 Mn
   0.2500000000000000    0.1666666666666667    0.0000000000000000 Mn
   0.2500000000000000    0.1666666666666667    0.5000000000000000 Mn
   0.2500000000000000    0.5000000000000000    0.0000000000000000 Mn
   0.2500000000000000    0.5000000000000000    0.5000000000000000 Mn
   0.2500000000000000    0.8333333333333333    0.0000000000000000 Mn
   0.2500000000000000    0.8333333333333333    0.5000000000000000 Mn
   0.7499999999999999    0.1666666666666667    0.0000000000000000 Mn
   0.7500000000000000    0.1666666666666667    0.5000000000000000 Mn
   0.7499999999999999    0.5000000000000000    0.0000000000000000 Mn
   0.7500000000000000    0.5000000000000000    0.5000000000000000 Mn
   0.7499999999999999    0.8333333333333333    0.0000000000000000 Mn
   0.7500000000000000    0.8333333333333333    0.5000000000000000 Mn
   0.1368137745000000    0.0000000000000000    0.3831173180000000 O
   0.1368137745000000    0.0000000000000000    0.8831173179999999 O
   0.1368137745000000    0.3333333333333333    0.3831173180000000 O
   0.1368137745000000    0.3333333333333333    0.8831173179999999 O
   0.1368137745000000    0.6666666666666665    0.3831173180000000 O
   0.1368137745000000    0.6666666666666665    0.8831173179999999 O
   0.6368137745000000    0.0000000000000000    0.3831173180000000 O
   0.6368137745000000    0.0000000000000000    0.8831173179999999 O
   0.6368137745000000    0.3333333333333333    0.3831173180000000 O
   0.6368137745000000    0.3333333333333333    0.8831173179999999 O
   0.6368137745000000    0.6666666666666665    0.3831173180000000 O
   0.6368137745000000    0.6666666666666665    0.8831173179999999 O
   0.3631862399999999    0.0000000000000000    0.1168826895000000 O
   0.3631862399999999    0.0000000000000000    0.6168826894999999 O
   0.3631862399999999    0.3333333333333333    0.1168826895000000 O
   0.3631862399999999    0.3333333333333333    0.6168826894999999 O
   0.3631862399999999    0.6666666666666665    0.1168826895000000 O
   0.3631862399999999    0.6666666666666665    0.6168826894999999 O
   0.8631862400000000    0.0000000000000000    0.1168826895000000 O
   0.8631862400000000    0.0000000000000000    0.6168826894999999 O
   0.8631862400000000    0.3333333333333333    0.1168826895000000 O
   0.8631862400000000    0.3333333333333333    0.6168826894999999 O
   0.8631862400000000    0.6666666666666665    0.1168826895000000 O
   0.8631862400000000    0.6666666666666665    0.6168826894999999 O
   0.3868137600000000    0.1666666666666667    0.3831173180000000 O
   0.3868137600000000    0.1666666666666667    0.8831173179999999 O
   0.3868137600000000    0.5000000000000000    0.3831173180000000 O
   0.3868137600000000    0.5000000000000000    0.8831173179999999 O
   0.3868137600000000    0.8333333333333333    0.3831173180000000 O
   0.3868137600000000    0.8333333333333333    0.8831173179999999 O
   0.8868137600000000    0.1666666666666667    0.3831173180000000 O
   0.8868137600000000    0.1666666666666667    0.8831173179999999 O
   0.8868137600000000    0.5000000000000000    0.3831173180000000 O
   0.8868137600000000    0.5000000000000000    0.8831173179999999 O
   0.8868137600000000    0.8333333333333333    0.3831173180000000 O
   0.8868137600000000    0.8333333333333333    0.8831173179999999 O
   0.1131862325000000    0.1666666666666667    0.1168826895000000 O
   0.1131862325000000    0.1666666666666667    0.6168826894999999 O
   0.1131862325000000    0.5000000000000000    0.1168826895000000 O
   0.1131862325000000    0.5000000000000000    0.6168826894999999 O
   0.1131862325000000    0.8333333333333333    0.1168826895000000 O
   0.1131862325000000    0.8333333333333333    0.6168826894999999 O
   0.6131862325000000    0.1666666666666667    0.1168826895000000 O
   0.6131862324999999    0.1666666666666667    0.6168826894999999 O
   0.6131862325000000    0.5000000000000000    0.1168826895000000 O
   0.6131862324999999    0.5000000000000000    0.6168826894999999 O
   0.6131862325000000    0.8333333333333333    0.1168826895000000 O
   0.6131862324999999    0.8333333333333333    0.6168826894999999 O
