Na2 Ca2 V4 Si4 P2 O24                   
   1.00000000000000     
     8.8472519999999992    0.1664390000000000    0.0201230000000000
     4.3082320000000003    7.6813419999999999    0.0369350000000000
     4.3856849999999996    2.5529480000000002    7.2182040000000001
   Ca   Na   V    Si   P    O 
     2     2     4     4     2    24
Direct
  0.3972426067926445  0.1572837028102266  0.7409425857079798
  0.9899499354749521  0.9964499037365303  0.0120440911987522
  0.3143128087496472  0.6753163413302420  0.4667890288948686
  0.8579170304886855  0.2569076058072625  0.5904669559441300
  0.3639104003833379  0.3695941862425680  0.3386728148059254
  0.6410169374917593  0.6456249670932767  0.6366380547184164
  0.1381860059182738  0.1546332552726579  0.1419041767630307
  0.8426774519495056  0.8554171344302384  0.8573507909425583
  0.0230590483167520  0.4696004713087151  0.7428645390792613
  0.7539831360479416  0.0343922255458956  0.4547209507994149
  0.4618204613509377  0.7496665570044551  0.0292361394472644
  0.5367874028268103  0.2596513615658803  0.9534690922240004
  0.9624563695743767  0.5472632409789279  0.2424119820844627
  0.2480793105353849  0.9782972886074857  0.5396093753874712
  0.2250875408036739  0.4355299863698013  0.5741309004246149
  0.7770329329637456  0.5714824110448807  0.4056219748666889
  0.5726827890167927  0.2242219526244903  0.4271713435118046
  0.4136254413072367  0.7949261455210221  0.5589128896017725
  0.4264464398260770  0.5841012321782689  0.2244816836670180
  0.5591697929943567  0.4301268512552882  0.7560221359237069
  0.9372215063782301  0.0533193294879916  0.2705794856742201
  0.0738286080951880  0.9605490032278526  0.7192101134067287
  0.0633710731447337  0.2750442425931574  0.9167102753434123
  0.9477840764214489  0.7252199629442738  0.0687290812708819
  0.2765320914068566  0.9384093252051861  0.0303667880878969
  0.7332002198454525  0.0827318258499593  0.9346129854189993
  0.4897498817839822  0.3048919743924733  0.1346220295678892
  0.5076279374315914  0.7073279898144446  0.8483734733363676
  0.1264379477272559  0.5133928445653850  0.2875507025973106
  0.8549862067082954  0.4843129867472663  0.7033711157699489
  0.2851595315317433  0.1432297800824329  0.5161739049087199
  0.7181785589475029  0.8498263893342747  0.4974826857158530
  0.3629632315099582  0.2078196367921398  0.9929853093974697
  0.6341800993451563  0.7971976541844532 -0.0000430856626928
  0.2041290490869157  0.0104251725335035  0.3744236330502120
  0.7581058595686826  0.0226760563716823  0.6455988249974407
 -0.0053696771893902  0.3750557832154739  0.2084894658784268
  0.9879984830343066  0.6589509972691653  0.7689083587593778
 
             NaN             NaN             NaN
             NaN             NaN             NaN
             NaN             NaN             NaN
             NaN             NaN             NaN
             NaN             NaN             NaN
             NaN             NaN             NaN
             NaN             NaN             NaN
             NaN             NaN             NaN
             NaN             NaN             NaN
             NaN             NaN             NaN
             NaN             NaN             NaN
             NaN             NaN             NaN
             NaN             NaN             NaN
             NaN             NaN             NaN
             NaN             NaN             NaN
             NaN             NaN             NaN
             NaN             NaN             NaN
             NaN             NaN             NaN
             NaN             NaN             NaN
             NaN             NaN             NaN
             NaN             NaN             NaN
             NaN             NaN             NaN
             NaN             NaN             NaN
             NaN             NaN             NaN
             NaN             NaN             NaN
             NaN             NaN             NaN
             NaN             NaN             NaN
             NaN             NaN             NaN
             NaN             NaN             NaN
             NaN             NaN             NaN
             NaN             NaN             NaN
             NaN             NaN             NaN
             NaN             NaN             NaN
             NaN             NaN             NaN
             NaN             NaN             NaN
             NaN             NaN             NaN
             NaN             NaN             NaN
             NaN             NaN             NaN
