Na2 Ca2 V4 Si4 P2 O24
1.0
8.847252 0.166439 0.020123
4.308232 7.681342 0.036935
4.385685 2.552948 7.218204
Ca Na V Si P O
2 2 4 4 2 24
direct
0.411752 0.221253 0.683322 Ca
-0.017607 0.995026 0.020141 Ca
0.382062 0.602812 0.449227 Na
0.870688 0.250911 0.605786 Na
0.355776 0.363219 0.345813 V
0.640831 0.649513 0.641606 V
0.139940 0.150650 0.139936 V
0.839351 0.852954 0.860550 V
0.027269 0.465005 0.746602 Si
0.748200 0.037408 0.459219 Si
0.457503 0.749256 0.037845 Si
0.531013 0.256218 0.955241 Si
0.958344 0.544262 0.245177 P
0.246124 0.966949 0.538969 P
0.226801 0.437760 0.575777 O
0.771590 0.557120 0.410542 O
0.565444 0.225857 0.436947 O
0.416193 0.787513 0.554048 O
0.432556 0.574054 0.224857 O
0.555648 0.432868 0.763367 O
0.927004 0.063694 0.272512 O
0.074765 0.946927 0.721486 O
0.059093 0.267786 0.919013 O
0.938956 0.726915 0.077658 O
0.263321 0.927688 0.053000 O
0.731763 0.084826 0.934209 O
0.473800 0.297216 0.143389 O
0.503747 0.725107 0.845494 O
0.114886 0.514126 0.299066 O
0.856096 0.489994 0.701869 O
0.277560 0.135069 0.519269 O
0.719867 0.852125 0.490643 O
0.363184 0.202231 -0.014893 O
0.626980 0.800488 1.009103 O
0.200930 1.008463 0.372155 O
0.763253 0.015212 0.648104 O
0.001539 0.376931 0.197741 O
0.979304 0.650054 0.787843 O
