Na2 Ca2 V4 Si4 P2 O24                   
   1.00000000000000     
     8.8400479999999995    0.1162330000000000    0.0754680000000000
     4.2619990000000003    7.6727990000000004    0.0744670000000000
     4.4134190000000002    2.5435319999999999    7.2323719999999998
   Ca   Na   V    Si   P    O 
     2     2     4     4     2    24
Direct
  0.6963391882428036  0.4695942608781586  0.2599284155053019
 -0.0037261794463984  0.9993279334962042  0.0061889471396218
  0.1369280073714577  0.7446538086221636  0.4104727572237175
  0.8802725102130247  0.2514637112116429  0.6127933963297961
  0.3587364958456863  0.3530345933984270  0.3633920964808129
  0.6286195655160284  0.6408527369263276  0.6526963219120776
  0.1556959661608928  0.1444812259853168  0.1340815110074620
  0.8543256479580198  0.8529983933385389  0.8491279583715882
  0.0234313694956040  0.4568523999813444  0.7559088561762515
  0.7433448351105046  0.0308552276827394  0.4714802129621571
  0.4550634419887982  0.7546491776320388  0.0305077592793363
  0.5390962006298778  0.2514222084956289  0.9628731147792602
  0.9764102405114280  0.5493659439301577  0.2446585605021791
  0.2568186285440857  0.9564097010052751  0.5334877736874364
  0.2155708949269933  0.4192419517377234  0.5787242009883007
  0.7827954477119359  0.5601626638638980  0.4057116018598318
  0.5783472535411692  0.2295140494768134  0.4287287881932923
  0.4228347085143305  0.7767813248391097  0.5546989787556478
  0.4237119335051544  0.5844445572095596  0.2308381241398511
  0.5644304982564963  0.4218465303713471  0.7644595291092059
  0.9283244881668206  0.0534059402621402  0.2824579224600007
  0.0835900350376093  0.9455157131238159  0.7191459952146990
  0.0326112127248167  0.2800917113376681  0.9474412480175239
  0.9522377693473923  0.7231926314064335  0.0711922172872620
  0.2639710222937819  0.9299661418628927  0.0527939997662025
  0.7345656426066369  0.0763580257507040  0.9425146086048760
  0.4809368992246622  0.3052471082789902  0.1425455657701934
  0.4885142921547689  0.7054964005760480  0.8589353180395952
  0.1243084976487984  0.5355967995628608  0.2941660513167554
  0.8490819928477322  0.4845997111966271  0.7145124699651022
  0.2902128751306444  0.1300019253110339  0.4951761849965455
  0.7129098693346310  0.8444096556771630  0.5114451908170539
  0.3636980246463661  0.1971009847043588  0.0041637006240106
  0.6449627022687184  0.7686724946887443  1.0071648638800410
  0.2075304456873193  0.9825311452654759  0.3750516188917040
  0.7799363645048762  0.0140863926299199  0.6448152693223755
  1.0144117061761648  0.3711921144616854  0.2137054513003706
  0.9970080197724586  0.6510653996202016  0.7672019436051756
 
             NaN             NaN             NaN
             NaN             NaN             NaN
             NaN             NaN             NaN
             NaN             NaN             NaN
             NaN             NaN             NaN
             NaN             NaN             NaN
             NaN             NaN             NaN
             NaN             NaN             NaN
             NaN             NaN             NaN
             NaN             NaN             NaN
             NaN             NaN             NaN
             NaN             NaN             NaN
             NaN             NaN             NaN
             NaN             NaN             NaN
             NaN             NaN             NaN
             NaN             NaN             NaN
             NaN             NaN             NaN
             NaN             NaN             NaN
             NaN             NaN             NaN
             NaN             NaN             NaN
             NaN             NaN             NaN
             NaN             NaN             NaN
             NaN             NaN             NaN
             NaN             NaN             NaN
             NaN             NaN             NaN
             NaN             NaN             NaN
             NaN             NaN             NaN
             NaN             NaN             NaN
             NaN             NaN             NaN
             NaN             NaN             NaN
             NaN             NaN             NaN
             NaN             NaN             NaN
             NaN             NaN             NaN
             NaN             NaN             NaN
             NaN             NaN             NaN
             NaN             NaN             NaN
             NaN             NaN             NaN
             NaN             NaN             NaN
