Na2 Ca2 V4 Si4 P2 O24
1.0
8.840048 0.116233 0.075468
4.261999 7.672799 0.074467
4.413419 2.543532 7.232372
Ca Na V Si P O
2 2 4 4 2 24
direct
0.588960 0.463872 0.356861 Ca
0.004619 0.991264 0.002265 Ca
0.228664 0.665293 0.444291 Na
0.883660 0.250698 0.601015 Na
0.359584 0.357824 0.349804 V
0.636991 0.647458 0.653504 V
0.150500 0.146669 0.135300 V
0.847761 0.856550 0.850123 V
0.029547 0.462868 0.749880 Si
0.742238 0.042779 0.465250 Si
0.455131 0.754552 0.036550 Si
0.541952 0.252554 0.958354 Si
0.963964 0.544034 0.243884 P
0.252652 0.960220 0.530807 P
0.215937 0.442840 0.567598 O
0.782680 0.559586 0.416079 O
0.567871 0.234681 0.438277 O
0.420495 0.780707 0.551628 O
0.436426 0.581608 0.232582 O
0.560434 0.422846 0.758430 O
0.918819 0.063957 0.268558 O
0.084695 0.947416 0.719716 O
0.054961 0.274405 0.929627 O
0.940097 0.723955 0.074765 O
0.262546 0.927023 0.059286 O
0.738494 0.080407 0.933894 O
0.502913 0.307728 0.129780 O
0.488841 0.703338 0.864850 O
0.128677 0.519081 0.279721 O
0.846658 0.487382 0.726109 O
0.288351 0.136035 0.484863 O
0.710563 0.851904 0.513493 O
0.361580 0.198790 0.013287 O
0.637132 0.796621 0.991588 O
0.198213 0.982272 0.378304 O
0.789269 0.018478 0.635226 O
-0.005243 0.369266 0.215293 O
0.993587 0.651638 0.777154 O
