Ca1 Ti12 F42                            
   1.00000000000000     
     7.4990589999999999   -0.0048010000000000    0.0178740000000000
    -3.7432880000000002    6.5267619999999997   -0.1001020000000000
    -0.0800650000000000   -0.2637090000000000   17.7627339999999982
   Ca   Ti   F 
     1    12    42
Direct
  0.8157250990560664  0.1531178340678824  0.9115727436619134
  0.2655899351883574 -0.0147996543228399  0.3341628162763513
  0.7041855117132207  0.6645633795907424  0.0103617577118581
  0.0078808546664205  0.3004341699457388  0.6664003155454269
  0.3636051453959885  0.0437812837227493  0.8293277584441475
  0.6478978901248298  0.6479963957916153  0.4997877112576462
  0.9806990786758431  0.3208881838206055  0.1618638548252656
  0.6438932667525359  0.1466324348527105  0.4991203591331621
  0.4749299106260957  0.3154637533421553  0.1668267568321458
  0.8696788755356597  0.5546421450210365  0.8219316890435852
  0.3677270500799753  0.5393937988414224  0.8313909396561424
  0.1463525410561902  0.6446456411957707  0.4985433223595527
  0.4805024587909215  0.8197953917109593  0.1702854122533306
  0.5680689713699051  0.7920557791701812  0.0677154865880493
  0.2628004773188040  0.4553647547180828  0.7291049613082051
  0.1653257638342775  0.7406923446256110  0.3950108158635892
  0.4148249330371719  0.2260413337149247  0.2715934016637216
  0.7916916229129615  0.5247628847665314  0.9326495175256291
  0.7555571729321695  0.1927127352229093  0.6048031225472580
  0.8945053995358448  0.1301121077464898  0.7465352685374447
  0.1769482584315545  0.1073176201425665  0.3982153920298009
  0.9117141550828077  0.7412079402676972  0.0751587858129325
  0.1109980201661594  0.1770777619371787  0.6103907727374417
  0.0589257370757167  0.8661340656593310  0.2678854141971556
  0.8488318164340384  0.9068499408312847  0.9502475464676298
  0.1255412631100293  0.5447326281441376  0.5994754214606544
  0.4145376077212899  0.8614859438969608  0.2714940895729546
  0.4621907983996478  0.5929968660606074  0.9372077765699671
  0.9346425374454299  0.5076334965007350  0.7222989969930544
  0.5329870158829341  0.0992875436572253  0.3966104369470730
  0.5281657202222154  0.4066034830672269  0.0617355308549587
  0.3568399910992585  0.5723843202591110  0.4764442010885653
  0.2012320424662053  0.6082215711972370  0.1412244747599152
  0.4477570827892852  0.8254305707053489  0.8172871745101236
  0.6647320016714036  0.2593152357861979  0.8181933631938493
  0.5683259838887320  0.3554892474928391  0.5189902229103194
  0.7632104009586671  0.3958103135424686  0.1791330975421312
  0.6865282832518719  0.6087889174188611  0.4014478404591502
  0.9100730865963054  0.2707106801360183  0.0561332164189257
  0.3369304120571617  0.0456592929805966  0.7295659115601828
  0.4795411692687395  1.0563734810081582  0.9288472818296478
  0.6121750197182324  0.6871873866800290  0.5988278571280777
  0.0596004024674442  0.3743371042663404  0.2591983420781067
  0.9395855453421138  0.7220449572550546  0.5214898425215484
  0.7671044912413224  0.0355597367511565  0.1860285149801170
  0.2770504722474739  0.2479367138761330  0.8551455639074695
  0.0777741511580010  0.8334487886434376  0.8449775688157132
  0.7247871413235428  0.9400157852320830  0.4822873635149941
  0.1881578439421939  0.2307044062248344  0.1454152503887793
  0.6445127398954643  0.6050117552919483  0.8023906860921606
  0.9187145150891687  0.3681947161481856  0.4690613885676345
  0.4233208931227478  0.0370943510443403  0.1384216006676101
  0.3698993923715249  0.9224563456769652  0.5281133862162218
  0.5290986841397166  0.5935940830348309  0.1968894019546776
  0.0717092850905834  0.4620845016037050  0.8635545125803403
 
             NaN             NaN             NaN
             NaN             NaN             NaN
             NaN             NaN             NaN
             NaN             NaN             NaN
             NaN             NaN             NaN
             NaN             NaN             NaN
             NaN             NaN             NaN
             NaN             NaN             NaN
             NaN             NaN             NaN
             NaN             NaN             NaN
             NaN             NaN             NaN
             NaN             NaN             NaN
             NaN             NaN             NaN
             NaN             NaN             NaN
             NaN             NaN             NaN
             NaN             NaN             NaN
             NaN             NaN             NaN
             NaN             NaN             NaN
             NaN             NaN             NaN
             NaN             NaN             NaN
             NaN             NaN             NaN
             NaN             NaN             NaN
             NaN             NaN             NaN
             NaN             NaN             NaN
             NaN             NaN             NaN
             NaN             NaN             NaN
             NaN             NaN             NaN
             NaN             NaN             NaN
             NaN             NaN             NaN
             NaN             NaN             NaN
             NaN             NaN             NaN
             NaN             NaN             NaN
             NaN             NaN             NaN
             NaN             NaN             NaN
             NaN             NaN             NaN
             NaN             NaN             NaN
             NaN             NaN             NaN
             NaN             NaN             NaN
             NaN             NaN             NaN
             NaN             NaN             NaN
             NaN             NaN             NaN
             NaN             NaN             NaN
             NaN             NaN             NaN
             NaN             NaN             NaN
             NaN             NaN             NaN
             NaN             NaN             NaN
             NaN             NaN             NaN
             NaN             NaN             NaN
             NaN             NaN             NaN
             NaN             NaN             NaN
             NaN             NaN             NaN
             NaN             NaN             NaN
             NaN             NaN             NaN
             NaN             NaN             NaN
             NaN             NaN             NaN
