Ca1 Ti12 F42
1.0
7.499059 -0.004801 0.017874
-3.743288 6.526762 -0.100102
-0.080065 -0.263709 17.762734
Ca Ti F
1 12 42
direct
0.750325 0.074677 0.916346 Ca
0.265715 1.000106 0.334277 Ti
0.714403 0.696797 0.007020 Ti
0.015850 0.297804 0.659262 Ti
0.354826 0.001688 0.828949 Ti
0.646643 0.655407 0.498200 Ti
-0.002823 0.341906 0.171222 Ti
0.646290 0.155593 0.496555 Ti
0.495196 0.340504 0.167784 Ti
0.860071 0.508067 0.829303 Ti
0.357912 0.505387 0.833147 Ti
0.147157 0.656269 0.499209 Ti
0.492699 0.839793 0.173110 Ti
0.561159 0.806127 0.066991 F
0.255509 0.441006 0.729214 F
0.171360 0.757274 0.395455 F
0.414628 0.238042 0.270493 F
0.831313 0.578107 0.934003 F
0.760575 0.190319 0.599841 F
0.898134 0.084229 0.725149 F
0.177388 0.121701 0.398488 F
0.921608 0.787630 0.072729 F
0.136716 0.206575 0.596305 F
0.058413 0.878778 0.268341 F
0.798511 0.932339 0.948034 F
0.117953 0.558558 0.601720 F
0.420622 0.882579 0.272552 F
0.457766 0.557286 0.937596 F
0.897887 0.441109 0.728405 F
0.536310 0.117406 0.395068 F
0.566391 0.423794 0.060648 F
0.353556 0.578548 0.477771 F
0.207426 0.630927 0.149369 F
0.461024 0.800492 0.818651 F
0.657299 0.216010 0.853805 F
0.573832 0.366166 0.519376 F
0.778825 0.416794 0.189612 F
0.678951 0.608861 0.399817 F
0.912647 0.295954 0.069344 F
0.398076 0.054131 0.731792 F
0.332673 0.946442 0.932224 F
0.613824 0.698780 0.597059 F
0.076359 0.384338 0.268737 F
0.940479 0.735661 0.519081 F
0.780299 0.052069 0.189491 F
0.263923 0.209578 0.846349 F
0.054081 0.803691 0.813479 F
0.721384 0.944620 0.477100 F
0.209681 0.263310 0.145991 F
0.635036 0.560138 0.802999 F
0.921061 0.379846 0.468783 F
0.449054 0.064132 0.133435 F
0.374050 0.933717 0.527590 F
0.544691 0.616464 0.196595 F
0.072480 0.437108 0.862794 F
