Fe12 S18 O72                            
   1.00000000000000     
     4.1936350554706801   -7.2634320137201254    0.0001466666923774
     4.1937093778048800    7.2634718684192379   -0.0000663866950159
     0.0002182829890143   -0.0003341609550979   22.7181040595335588
   Na   Fe   S    O 
     1    12    18    72
Direct
  -0.3333341202372691    0.3333326825924176    0.3333147611092419 Na
 -0.0000056739644620 -0.0000030668567910  0.1432513365987972
  0.6666602102313385  0.3333290791615907  0.1874370863080657
  0.3333337064889218  0.6666628591511903  0.0168550755257877
  0.3333338516715290  0.6666667604282478  0.3161667731490124
  0.6666665405946169  0.3333153989851351  0.4771925084967134
  0.3333334420896844  0.6666856428368237  0.5227436938299653
  0.0000099237100158  0.0000072326408775  0.3450741516816158
 -0.0000058335596565 -0.0000038425956209  0.6548641934762643
  0.3333381436663145  0.6666706529231894  0.8125908087350189
  0.0000051823993825  0.0000043290259284  0.8568155749319052
  0.6666664541338561  0.3333322655850628  0.6838022479560185
  0.6666657036011533  0.3333365039310534  0.9832485051551394
  0.2919283950544527  0.2888538588182722  0.2497468528743474
  0.7111449148939420  0.0030634590705704  0.2497509108974530
  0.9969306037185698  0.7080670623671230  0.2497486836146948
  0.3771907501478843  0.0460461151087445  0.0825925694835941
  0.9539457367622214  0.3311415703368834  0.0825895304729673
  0.6688524300442777  0.6228028700170425  0.0825915934438303
  0.9573184121020798  0.6234378026722627  0.5832505655838300
  0.3765691614196021  0.3338724773519033  0.5832519932756853
  0.6661305964896850  0.0427107744162682  0.5832498458061239
  0.0427314326856073  0.3765664009907346  0.4167237966031033
  0.6234249048595004  0.6661762930606377  0.4167224119739055
  0.3338221703249671  0.9572412335957163  0.4167246523718472
  0.6227981595511847  0.9540070150164569  0.9174609844148038
  0.0459978477562240  0.6687883784405648  0.9174643590195910
  0.3312132055760866  0.3772052679502680  0.9174622682841266
  0.7080737294512607  0.7111280013600109  0.7502446248949206
  0.2888649498793369  0.9969485672927344  0.7502389228377212
  0.0030544025140318  0.2919334971519238  0.7502426021039005
  0.1938223134040075  0.2051034929059002  0.1941583771515865
  0.7949055748796930  0.9887204926018694  0.1941571841343896
  0.0112771957037677  0.8061734235686664  0.1941610918901037
  0.4733765787248034  0.1272161272297608  0.1388924243782631
  0.8727749600403302  0.3461585229589596  0.1388930225951150
  0.6538417575580505  0.5266238025874296  0.1388918002605360
  0.2278122717698351  0.1471372960760672  0.2976725897391547
  0.8528654630194645  0.0806776770800070  0.2976711498277621
  0.9193224520115780  0.7721720460383305  0.2976698493532243
  0.4426252533059031  0.1883532982037335  0.0354560365645682
  0.8116355127044589  0.2542616745878382  0.0354572381104309
  0.7457361037000044  0.5573738706742425  0.0354565481631496
  0.4919950031507860  0.3639641774054466  0.2424042503913132
  0.6360435328329574  0.1280223215475248  0.2424068578737631
  0.8719816416760121  0.5080197603320894  0.2424064675908872
  0.1769475180804826  0.9714403365094776  0.0904630353293546
  0.0285612126000793  0.2055048494169717  0.0904647472175757
  0.7944798451586086  0.8230424129659681  0.0904619518758892
  0.2553402111364932  0.4387477070021648  0.2663230944633777
  0.5612477165772719  0.8165957686014895  0.2663240733784917
  0.1834019201092343  0.7446589308182135  0.2663228308618791
  0.4112201763856136  0.8938004252184850  0.0667648055141721
  0.1061882712738262  0.5174186675025992  0.0667629948536667
  0.4825808871369268  0.5887653363824633  0.0667673866515651
  0.8623786990940575  0.5403961959707814  0.5268672455508826
  0.4595940504678117  0.3219919079728341  0.5268762415859090
  0.6780172955126532  0.1376217481207970  0.5268712725324902
  0.1376266095044234  0.4596305551880380  0.4730986022432960
  0.5403821315791234  0.6779869226069554  0.4730883993019866
  0.3220149236620658  0.8623841551492573  0.4730926199919704
  0.8886248710042637  0.4862566453202222  0.6314064472939205
  0.5137283305422226  0.4023638735583799  0.6314004442969149
  0.5976171398679736  0.1113618667843193  0.6314011205466842
  0.1113842836940418  0.5137253682453646  0.3685810808579503
  0.4862953410803864  0.5976630564143611  0.3685901150506618
  0.4023580764683466  0.8886473335116296  0.3685866842510196
  0.1577533211545543  0.6957917878185690  0.5761646737056764
  0.3042094380246610  0.4619469372295893  0.5761654957569169
  0.5380708491062248  0.8422853956429858  0.5761737492244831
  0.8423207460504358  0.3042610047533130  0.4237999148705234
  0.6957351713012124  0.5380792305896649  0.4237995406340449
  0.4619131926953025  0.1576315917977393  0.4237913167598785
  0.9276387740590535  0.7817943458626874  0.5956308740721425
  0.2182097925420820  0.1458685740988715  0.5956270915791202
  0.8541262251397497  0.0723547232612612  0.5956253476073567
  0.0723532634974833  0.2182121476833451  0.4043356262001048
  0.7817821095708315  0.8541106728125943  0.4043399406626734
  0.1459034792344122  0.9276622334287075  0.4043416298831982
  0.5266035090737551  0.8727913958198600  0.8611524661889506
  0.1272105359825070  0.6538106811710082  0.8611505255906696
  0.3461905749377172  0.4733977948182471  0.8611530365656369
  0.8062083598015380  0.7949691948757059  0.8058550266582889
  0.2050336577508886  0.0112446774075419  0.8058537486989250
  0.9887611226043121  0.1937995820999708  0.8058522569215898
  0.5573712353698957  0.8116840104665652  0.9645819313721806
  0.1883255975274212  0.7456932757527228  0.9645815077301803
  0.2543046261171180  0.4426278688851404  0.9645818358656881
  0.7721694642929063  0.8528654550884277  0.7022964735527152
  0.1471239540376723  0.9192998094239396  0.7022970505048360
  0.0806952522330242  0.2278342171866682  0.7022986586361897
  0.8230899557493638  0.0285908980225243  0.9095723048628486
  0.9714134408083582  0.7945034133761526  0.9095700001317621
  0.2055078465774419  0.1769160275130678  0.9095727049196560
  0.5079564220857656  0.6360298851650414  0.7575671153817082
  0.3639671645980866  0.8719417303660518  0.7575652666629387
  0.1280587076702005  0.4920359706614180  0.7575648936084538
  0.5887139016592670  0.1062581367690611  0.9333099019413201
  0.8937370733017665  0.4824527718356729  0.9333101074021567
  0.5175433091489429  0.4112874351860951  0.9333083019787949
  0.7446258712543166  0.5611748456041689  0.7336310452622262
  0.4388173157731725  0.1834455646810302  0.7336304894954240
  0.8165552440741123  0.2553680060953565  0.7336341415218249
 
  0.00000000E+00  0.00000000E+00  0.00000000E+00
  0.00000000E+00  0.00000000E+00  0.00000000E+00
  0.00000000E+00  0.00000000E+00  0.00000000E+00
  0.00000000E+00  0.00000000E+00  0.00000000E+00
  0.00000000E+00  0.00000000E+00  0.00000000E+00
  0.00000000E+00  0.00000000E+00  0.00000000E+00
  0.00000000E+00  0.00000000E+00  0.00000000E+00
  0.00000000E+00  0.00000000E+00  0.00000000E+00
  0.00000000E+00  0.00000000E+00  0.00000000E+00
  0.00000000E+00  0.00000000E+00  0.00000000E+00
  0.00000000E+00  0.00000000E+00  0.00000000E+00
  0.00000000E+00  0.00000000E+00  0.00000000E+00
  0.00000000E+00  0.00000000E+00  0.00000000E+00
  0.00000000E+00  0.00000000E+00  0.00000000E+00
  0.00000000E+00  0.00000000E+00  0.00000000E+00
  0.00000000E+00  0.00000000E+00  0.00000000E+00
  0.00000000E+00  0.00000000E+00  0.00000000E+00
  0.00000000E+00  0.00000000E+00  0.00000000E+00
  0.00000000E+00  0.00000000E+00  0.00000000E+00
  0.00000000E+00  0.00000000E+00  0.00000000E+00
  0.00000000E+00  0.00000000E+00  0.00000000E+00
  0.00000000E+00  0.00000000E+00  0.00000000E+00
  0.00000000E+00  0.00000000E+00  0.00000000E+00
  0.00000000E+00  0.00000000E+00  0.00000000E+00
  0.00000000E+00  0.00000000E+00  0.00000000E+00
  0.00000000E+00  0.00000000E+00  0.00000000E+00
  0.00000000E+00  0.00000000E+00  0.00000000E+00
  0.00000000E+00  0.00000000E+00  0.00000000E+00
  0.00000000E+00  0.00000000E+00  0.00000000E+00
  0.00000000E+00  0.00000000E+00  0.00000000E+00
  0.00000000E+00  0.00000000E+00  0.00000000E+00
  0.00000000E+00  0.00000000E+00  0.00000000E+00
  0.00000000E+00  0.00000000E+00  0.00000000E+00
  0.00000000E+00  0.00000000E+00  0.00000000E+00
  0.00000000E+00  0.00000000E+00  0.00000000E+00
  0.00000000E+00  0.00000000E+00  0.00000000E+00
  0.00000000E+00  0.00000000E+00  0.00000000E+00
  0.00000000E+00  0.00000000E+00  0.00000000E+00
  0.00000000E+00  0.00000000E+00  0.00000000E+00
  0.00000000E+00  0.00000000E+00  0.00000000E+00
  0.00000000E+00  0.00000000E+00  0.00000000E+00
  0.00000000E+00  0.00000000E+00  0.00000000E+00
  0.00000000E+00  0.00000000E+00  0.00000000E+00
  0.00000000E+00  0.00000000E+00  0.00000000E+00
  0.00000000E+00  0.00000000E+00  0.00000000E+00
  0.00000000E+00  0.00000000E+00  0.00000000E+00
  0.00000000E+00  0.00000000E+00  0.00000000E+00
  0.00000000E+00  0.00000000E+00  0.00000000E+00
  0.00000000E+00  0.00000000E+00  0.00000000E+00
  0.00000000E+00  0.00000000E+00  0.00000000E+00
  0.00000000E+00  0.00000000E+00  0.00000000E+00
  0.00000000E+00  0.00000000E+00  0.00000000E+00
  0.00000000E+00  0.00000000E+00  0.00000000E+00
  0.00000000E+00  0.00000000E+00  0.00000000E+00
  0.00000000E+00  0.00000000E+00  0.00000000E+00
  0.00000000E+00  0.00000000E+00  0.00000000E+00
  0.00000000E+00  0.00000000E+00  0.00000000E+00
  0.00000000E+00  0.00000000E+00  0.00000000E+00
  0.00000000E+00  0.00000000E+00  0.00000000E+00
  0.00000000E+00  0.00000000E+00  0.00000000E+00
  0.00000000E+00  0.00000000E+00  0.00000000E+00
  0.00000000E+00  0.00000000E+00  0.00000000E+00
  0.00000000E+00  0.00000000E+00  0.00000000E+00
  0.00000000E+00  0.00000000E+00  0.00000000E+00
  0.00000000E+00  0.00000000E+00  0.00000000E+00
  0.00000000E+00  0.00000000E+00  0.00000000E+00
  0.00000000E+00  0.00000000E+00  0.00000000E+00
  0.00000000E+00  0.00000000E+00  0.00000000E+00
  0.00000000E+00  0.00000000E+00  0.00000000E+00
  0.00000000E+00  0.00000000E+00  0.00000000E+00
  0.00000000E+00  0.00000000E+00  0.00000000E+00
  0.00000000E+00  0.00000000E+00  0.00000000E+00
  0.00000000E+00  0.00000000E+00  0.00000000E+00
  0.00000000E+00  0.00000000E+00  0.00000000E+00
  0.00000000E+00  0.00000000E+00  0.00000000E+00
  0.00000000E+00  0.00000000E+00  0.00000000E+00
  0.00000000E+00  0.00000000E+00  0.00000000E+00
  0.00000000E+00  0.00000000E+00  0.00000000E+00
  0.00000000E+00  0.00000000E+00  0.00000000E+00
  0.00000000E+00  0.00000000E+00  0.00000000E+00
  0.00000000E+00  0.00000000E+00  0.00000000E+00
  0.00000000E+00  0.00000000E+00  0.00000000E+00
  0.00000000E+00  0.00000000E+00  0.00000000E+00
  0.00000000E+00  0.00000000E+00  0.00000000E+00
  0.00000000E+00  0.00000000E+00  0.00000000E+00
  0.00000000E+00  0.00000000E+00  0.00000000E+00
  0.00000000E+00  0.00000000E+00  0.00000000E+00
  0.00000000E+00  0.00000000E+00  0.00000000E+00
  0.00000000E+00  0.00000000E+00  0.00000000E+00
  0.00000000E+00  0.00000000E+00  0.00000000E+00
  0.00000000E+00  0.00000000E+00  0.00000000E+00
  0.00000000E+00  0.00000000E+00  0.00000000E+00
  0.00000000E+00  0.00000000E+00  0.00000000E+00
  0.00000000E+00  0.00000000E+00  0.00000000E+00
  0.00000000E+00  0.00000000E+00  0.00000000E+00
  0.00000000E+00  0.00000000E+00  0.00000000E+00
  0.00000000E+00  0.00000000E+00  0.00000000E+00
  0.00000000E+00  0.00000000E+00  0.00000000E+00
  0.00000000E+00  0.00000000E+00  0.00000000E+00
  0.00000000E+00  0.00000000E+00  0.00000000E+00
  0.00000000E+00  0.00000000E+00  0.00000000E+00
  0.00000000E+00  0.00000000E+00  0.00000000E+00
  0.00000000E+00  0.00000000E+00  0.00000000E+00
