Na2 Ca2 V4 Si4 P2 O24                   
   1.00000000000000     
     8.8458790000000000    0.1107110000000000    0.0780760000000000
     4.2601630000000004    7.6482799999999997    0.0537400000000000
     4.4172770000000003    2.5132629999999998    7.2359559999999998
   Ca   Na   V    Si   P    O 
     2     2     4     4     2    24
Direct
  0.4810989615077066  0.4286452074168466  0.5649661121460486
  1.0067494023288579  0.9879611772962882  0.0056088175071653
  0.1236279779898282  0.7488857639121080  0.3994486500152446
  0.9000269664736353  0.2477953013261505  0.6057544216700173
  0.3566833237362553  0.3539261646056330  0.3496387396988620
  0.6425845861635221  0.6419549545738432  0.6538526776089914
  0.1524082756761020  0.1440589655543758  0.1338909032037253
  0.8431005283256550  0.8554237978396572  0.8559520044841886
  0.0234875644623774  0.4566273616811212  0.7579667801270685
  0.7471921529221865  0.0351649078176196  0.4669153199871232
  0.4613410964060485  0.7413207381659243  0.0462017699850345
  0.5434126786384702  0.2429944522517251  0.9628000679471410
  0.9643787363713185  0.5409784786857306  0.2456896415247204
  0.2537963885568734  0.9552400857236226  0.5343956685234578
  0.2166521962138817  0.4338924099081412  0.5768705645344916
  0.7789096889616179  0.5487497509255167  0.4156745493181811
  0.5623311811674677  0.2134153262780237  0.4426089597890824
  0.4244870738368282  0.7793266947064272  0.5575084592556121
  0.4384205418063354  0.5719730636219261  0.2440536816821212
  0.5649676970422605  0.4175900431150178  0.7676778800733106
  0.9287268412917999  0.0504657435640664  0.2762492678478012
  0.0839011627886735  0.9363699426418117  0.7220405403238616
  0.0570336076318445  0.2689500304582503  0.9341567352814629
  0.9419044959352928  0.7175353828409163  0.0739842214318479
  0.2661135691493347  0.9154182757862076  0.0672470759511803
  0.7438613178801571  0.0765558032605163  0.9420344356360458
  0.4842920999635501  0.3024498372655522  0.1393419929167783
  0.5009716678795826  0.6962038893736978  0.8674995226051200
  0.1196708650822755  0.5321372956485114  0.2879896326016261
  0.8535562278803176  0.4713052340573055  0.7202868031761172
  0.2684091297396786  0.1411434731433042  0.4954403903654153
  0.7282210284971998  0.8367394613795931  0.5137114150015145
  0.3740979220786170  0.1924330150223699 -0.0103251998244623
  0.6359355995368926  0.7998200910386100  0.9971784811240922
  0.2104914054874526  0.9761088874326704  0.3746470354068702
  0.7754572056497930  0.0309142681043014  0.6400714379141564
  0.0183352009576244  0.3598596510974226  0.2120621873494239
  0.9862443170453293  0.6554942875931965  0.7673412834551846
 
             NaN             NaN             NaN
             NaN             NaN             NaN
             NaN             NaN             NaN
             NaN             NaN             NaN
             NaN             NaN             NaN
             NaN             NaN             NaN
             NaN             NaN             NaN
             NaN             NaN             NaN
             NaN             NaN             NaN
             NaN             NaN             NaN
             NaN             NaN             NaN
             NaN             NaN             NaN
             NaN             NaN             NaN
             NaN             NaN             NaN
             NaN             NaN             NaN
             NaN             NaN             NaN
             NaN             NaN             NaN
             NaN             NaN             NaN
             NaN             NaN             NaN
             NaN             NaN             NaN
             NaN             NaN             NaN
             NaN             NaN             NaN
             NaN             NaN             NaN
             NaN             NaN             NaN
             NaN             NaN             NaN
             NaN             NaN             NaN
             NaN             NaN             NaN
             NaN             NaN             NaN
             NaN             NaN             NaN
             NaN             NaN             NaN
             NaN             NaN             NaN
             NaN             NaN             NaN
             NaN             NaN             NaN
             NaN             NaN             NaN
             NaN             NaN             NaN
             NaN             NaN             NaN
             NaN             NaN             NaN
             NaN             NaN             NaN
