Na2 Ca2 V4 Si4 P2 O24
1.0
8.845879 0.110711 0.078076
4.260163 7.648280 0.053740
4.417277 2.513263 7.235956
Ca Na V Si P O
2 2 4 4 2 24
direct
0.483523 0.455610 0.529421 Ca
-0.001816 0.997126 0.005129 Ca
0.154059 0.725459 0.401172 Na
0.893648 0.250135 0.602435 Na
0.363344 0.356207 0.348461 V
0.645930 0.643426 0.651893 V
0.149174 0.146100 0.135952 V
0.844902 0.856969 0.854333 V
0.032133 0.458489 0.753422 Si
0.745728 0.041896 0.465610 Si
0.459734 0.749880 0.039483 Si
0.540344 0.251063 0.957333 Si
0.965750 0.543604 0.244628 P
0.253987 0.958234 0.533774 P
0.225690 0.443191 0.573525 O
0.776951 0.557979 0.412320 O
0.567213 0.229133 0.440731 O
0.424058 0.780186 0.554900 O
0.437550 0.580009 0.235390 O
0.561980 0.421177 0.758771 O
0.926971 0.057036 0.274226 O
0.085265 0.942661 0.721869 O
0.058565 0.269827 0.930218 O
0.943924 0.722205 0.074949 O
0.262651 0.920293 0.060014 O
0.740370 0.081813 0.936341 O
0.487838 0.308463 0.133724 O
0.504833 0.697615 0.863578 O
0.119485 0.526475 0.293893 O
0.861464 0.479419 0.709589 O
0.281659 0.137347 0.493199 O
0.720726 0.847759 0.510359 O
0.367357 0.191496 0.005241 O
0.631784 0.806685 0.997354 O
0.206198 0.977265 0.378312 O
0.784593 0.021437 0.639233 O
0.010266 0.364650 0.214249 O
0.984584 0.652578 0.780605 O
