Ca1 Ti12 F42                            
   1.00000000000000     
     7.5138129999999999    0.0005070000000000    0.0501910000000000
    -3.7460040000000001    6.4978410000000002   -0.0138570000000000
    -0.0052330000000000    0.0123530000000000   17.6825609999999998
   Ca   Ti   F 
     1    12    42
Direct
  0.8437528649582252  0.5273324620767309  0.3189677450413320
  0.2906351062526304  0.0132020545740948  0.3353434873820179
  0.7286301665292693  0.7323444097116685  0.9972222394537528
  0.0040380815772361  0.2730483239736970  0.6683111626716526
  0.3583373790585774  1.0037014981982402  0.8326731982318445
  0.6444599502312734  0.6600548156384868  0.5090414417548705
  0.9879337764184795  0.3416884694649568  0.1611242061684956
  0.6488073749485749  0.1595283238879215  0.5020906878377759
  0.4887469644752573  0.3474950107070603  0.1578036120911862
  0.8589366896832611  0.5020426289081262  0.8317507179560666
  0.3604846900891213  0.5052632011054747  0.8332914467436443
  0.1474723465128133  0.6573349254962845  0.5066258748175894
  0.4914668687791952  0.8464787940712222  0.1661079218603403
  0.5759346086404818  0.8224686559168840  0.0623019442139891
  0.2515619083707605  0.4229738392318686  0.7292095199021069
  0.1602579734171167  0.7464019236391400  0.3973309328883579
  0.4453590013801204  0.2653312346407615  0.2687122923585997
  0.8282276200105326  0.5820389911916319  0.9359353762945171
  0.7607845296482936  0.1841006167146550  0.6044841508503984
  0.8861806248200117  0.0622023631238289  0.7318091867800386
  0.1960082392941330  0.1349894221528689  0.3971833604066292
  0.9260737051518361  0.8086078236046003  0.0659413716732151
  0.1205823415315328  0.1865787036012783  0.6008681216358365
  0.0485427772881280  0.8526817341522372  0.2755242742831564
  0.8280342056700163  0.9467786195302177  0.9353125154126277
  0.1144265226789763  0.5424783655599863  0.6057023298108644
  0.4225056257964198  0.8849250122594904  0.2715305871906705
  0.4663637408892102  0.5827431178044601  0.9354048156605926
  0.8914606660308200  0.4270778361911559  0.7295885707172491
  0.5663300278485289  0.1481780079131884  0.3933184823636761
  0.5599839893739363  0.4559434998111313  0.0582310612096460
  0.3565556201280900  0.5821908303091837  0.4821249114143759
  0.2103180794956014  0.6339297947536282  0.1461968646711932
  0.4345762821787170  0.7876067188576465  0.8106253883109060
  0.6500870623550284  0.2191489153848629  0.8539784239029152
  0.5728326066047168  0.3667066745215535  0.5245273461486980
  0.7808893811300005  0.4427639063194043  0.1867118148130333
  0.6889840348423928  0.6175257533103937  0.4034340761564904
  0.9014974806523564  0.3104956383213108  0.0656514625455513
  0.3963581260702872  0.0805076187818944  0.7338625202497272
  0.3187868366913263  0.9275637631390572  0.9315671277534837
  0.6057710830220384  0.6974163889204337  0.6061007554308803
  0.0250986645740760  0.3918485116566185  0.2692803114325877
  0.9372529276154152  0.7330117965942661  0.5252274928048782
  0.7752103703054046  0.0541497411052801  0.1879511292307508
  0.2826041237310743  0.2204519167990333  0.8542667393758834
  0.0667188238566209  0.7875140470018471  0.8116957309148884
  0.7253164083579486  0.9499209659457485  0.4811196714743725
  0.1979772448208563  0.2613704685342675  0.1502057984769728
  0.6346451843728916  0.5531270355887701  0.8026579694510897
  0.9205244498972706  0.3907475260359957  0.4636621635165176
  0.4453903592563902  0.0733211700167630  0.1365942183909422
  0.3727198286490312  0.9338693471269759  0.5277941281135343
  0.5438453428527857  0.6207407794928993  0.1976067740681707
  0.0840144441506770  0.4539462665027689  0.8625197645872943
 
             NaN             NaN             NaN
             NaN             NaN             NaN
             NaN             NaN             NaN
             NaN             NaN             NaN
             NaN             NaN             NaN
             NaN             NaN             NaN
             NaN             NaN             NaN
             NaN             NaN             NaN
             NaN             NaN             NaN
             NaN             NaN             NaN
             NaN             NaN             NaN
             NaN             NaN             NaN
             NaN             NaN             NaN
             NaN             NaN             NaN
             NaN             NaN             NaN
             NaN             NaN             NaN
             NaN             NaN             NaN
             NaN             NaN             NaN
             NaN             NaN             NaN
             NaN             NaN             NaN
             NaN             NaN             NaN
             NaN             NaN             NaN
             NaN             NaN             NaN
             NaN             NaN             NaN
             NaN             NaN             NaN
             NaN             NaN             NaN
             NaN             NaN             NaN
             NaN             NaN             NaN
             NaN             NaN             NaN
             NaN             NaN             NaN
             NaN             NaN             NaN
             NaN             NaN             NaN
             NaN             NaN             NaN
             NaN             NaN             NaN
             NaN             NaN             NaN
             NaN             NaN             NaN
             NaN             NaN             NaN
             NaN             NaN             NaN
             NaN             NaN             NaN
             NaN             NaN             NaN
             NaN             NaN             NaN
             NaN             NaN             NaN
             NaN             NaN             NaN
             NaN             NaN             NaN
             NaN             NaN             NaN
             NaN             NaN             NaN
             NaN             NaN             NaN
             NaN             NaN             NaN
             NaN             NaN             NaN
             NaN             NaN             NaN
             NaN             NaN             NaN
             NaN             NaN             NaN
             NaN             NaN             NaN
             NaN             NaN             NaN
             NaN             NaN             NaN
