Ca1 Ti12 F42
1.0
7.513813 0.000507 0.050191
-3.746004 6.497841 -0.013857
-0.005233 0.012353 17.682561
Ca Ti F
1 12 42
direct
0.859514 0.561076 0.330724 Ca
0.285571 0.004936 0.334868 Ti
0.729099 0.729178 0.997501 Ti
0.000482 0.265127 0.668935 Ti
0.357877 0.996966 0.833202 Ti
0.649438 0.659153 0.505686 Ti
0.989191 0.344815 0.160767 Ti
0.649610 0.157025 0.500561 Ti
0.488194 0.347674 0.160165 Ti
0.857645 0.496561 0.832135 Ti
0.358051 0.497487 0.834539 Ti
0.152522 0.653688 0.507740 Ti
0.492216 0.847711 0.164875 Ti
0.571289 0.817492 0.061154 F
0.247208 0.414103 0.730685 F
0.177688 0.744226 0.398615 F
0.400131 0.243109 0.265236 F
0.830094 0.581054 0.935924 F
0.761894 0.178710 0.602584 F
0.878895 0.052955 0.731677 F
0.190462 0.117921 0.401556 F
0.931836 0.820154 0.064482 F
0.120930 0.180981 0.602118 F
0.043055 0.836231 0.279507 F
0.819406 0.938795 0.933379 F
0.113217 0.536461 0.606240 F
0.433168 0.892163 0.271432 F
0.463286 0.572178 0.936659 F
0.888753 0.420238 0.729958 F
0.571173 0.154427 0.389523 F
0.575586 0.459940 0.060767 F
0.358723 0.574130 0.482458 F
0.206483 0.639822 0.148779 F
0.432886 0.779968 0.811186 F
0.649003 0.213654 0.855057 F
0.576399 0.366381 0.522457 F
0.770592 0.423235 0.197711 F
0.694663 0.619318 0.400525 F
0.891754 0.323982 0.067655 F
0.398595 0.075309 0.734487 F
0.317657 0.918504 0.931844 F
0.615878 0.704899 0.602505 F
0.040175 0.374463 0.268512 F
0.941299 0.730277 0.522690 F
0.780254 0.051209 0.184608 F
0.280159 0.211822 0.855037 F
0.066737 0.781656 0.811099 F
0.726139 0.948665 0.475609 F
0.203059 0.274992 0.139529 F
0.631897 0.545675 0.803492 F
0.924106 0.388827 0.460735 F
0.446235 0.075185 0.135787 F
0.376279 0.930234 0.528294 F
0.540913 0.620418 0.196835 F
0.082047 0.448006 0.863624 F
