Mg16 Mn16 Si16 O64
1.0
   9.6683265645617222    0.0000000068868148   -0.0000002546766012
  -0.0000000168173658   10.6156298264679982   -0.0000003313529039
  -0.0000003133513960   -0.0000003728425136   12.3860109287449358
Mg Mn Si O
15 16 16 64
direct
   0.5000000003295604    0.9999999991822007    0.4999999998232810 Mg
   0.2499999998006075    0.5000000008949286    0.2499999995125073 Mg
   0.2499999998006075    0.5000000008949286    0.7499999995125073 Mg
   0.7499999998006076    0.5000000008949286    0.2499999995125073 Mg
   0.7499999998006074    0.5000000008949286    0.7499999995125074 Mg
   0.2499999999904751    0.5000000010376411    0.0000000002815277 Mg
   0.2499999999904751    0.5000000010376411    0.5000000002815278 Mg
   0.7499999999904752    0.5000000010376411    0.0000000002815277 Mg
   0.7499999999904752    0.5000000010376411    0.5000000002815277 Mg
   0.0000000003911574    0.9999999995287824    0.2500000003790782 Mg
   0.0000000003911574    0.9999999995287824    0.7500000003790782 Mg
   0.5000000003911572    0.9999999995287823    0.2500000003790781 Mg
   0.0000000003295604    0.9999999991822007    0.4999999998232810 Mg
   0.0000000003295604    0.9999999991822006    0.9999999998232811 Mg
   0.5000000003295604    0.9999999991822007    0.9999999998232810 Mg
   0.4932412401967987    0.2802682367497056    0.1249999968346067 Mn
   0.4932412401967988    0.2802682367497056    0.6249999968346067 Mn
   0.9932412401967988    0.2802682367497056    0.1249999968346067 Mn
   0.9932412401967987    0.2802682367497056    0.6249999968346067 Mn
   0.2432412392235364    0.2197317619582506    0.3750000055623702 Mn
   0.2432412392235363    0.2197317619582506    0.8750000055623702 Mn
   0.7432412392235362    0.2197317619582506    0.3750000055623702 Mn
   0.7432412392235364    0.2197317619582506    0.8750000055623701 Mn
   0.0067587602283226    0.7197317630316675    0.3750000023265763 Mn
   0.0067587602283226    0.7197317630316675    0.8750000023265764 Mn
   0.5067587602283226    0.7197317630316675    0.3750000023265763 Mn
   0.5067587602283226    0.7197317630316674    0.8750000023265765 Mn
   0.2567587607470152    0.7802682376110397    0.1249999944560365 Mn
   0.2567587607470151    0.7802682376110397    0.6249999944560366 Mn
   0.7567587607470152    0.7802682376110397    0.1249999944560365 Mn
   0.7567587607470152    0.7802682376110397    0.6249999944560366 Mn
   0.0384026640935779    0.5902142953916183    0.1250000039131756 Si
   0.0384026640935779    0.5902142953916182    0.6250000039131757 Si
   0.5384026640935778    0.5902142953916183    0.1250000039131756 Si
   0.5384026640935778    0.5902142953916183    0.6250000039131756 Si
   0.2115973337180783    0.0902142955454792    0.1250000021173961 Si
   0.2115973337180783    0.0902142955454792    0.6250000021173961 Si
   0.7115973337180782    0.0902142955454792    0.1250000021173961 Si
   0.7115973337180783    0.0902142955454792    0.6250000021173961 Si
   0.4615973368843562    0.4097857057791288    0.3749999952401987 Si
   0.4615973368843563    0.4097857057791288    0.8749999952401987 Si
   0.9615973368843561    0.4097857057791288    0.3749999952401986 Si
   0.9615973368843563    0.4097857057791288    0.8749999952401987 Si
   0.2884026661394934    0.9097857040257012    0.3749999988079474 Si
   0.2884026661394933    0.9097857040257011    0.8749999988079474 Si
   0.7884026661394934    0.9097857040257012    0.3749999988079474 Si
   0.7884026661394934    0.9097857040257012    0.8749999988079475 Si
   0.3697227359649133    0.5845702812630904    0.1250000013713084 O
   0.3697227359649133    0.5845702812630904    0.6250000013713085 O
   0.8697227359649132    0.5845702812630904    0.1250000013713084 O
   0.8697227359649133    0.5845702812630904    0.6250000013713085 O
   0.3802772673151544    0.0845702805330291    0.1250000017684272 O
   0.3802772673151544    0.0845702805330291    0.6250000017684273 O
   0.8802772673151544    0.0845702805330291    0.1250000017684272 O
   0.8802772673151544    0.0845702805330291    0.6250000017684273 O
   0.1302772589064815    0.4154297192293087    0.3749999991999218 O
   0.1302772589064815    0.4154297192293087    0.8749999991999219 O
   0.6302772589064816    0.4154297192293086    0.3749999991999218 O
   0.6302772589064816    0.4154297192293086    0.8749999991999219 O
   0.1197227318223640    0.9154297190964867    0.3749999980609396 O
   0.1197227318223640    0.9154297190964867    0.8749999980609398 O
   0.6197227318223639    0.9154297190964868    0.3749999980609396 O
   0.6197227318223639    0.9154297190964867    0.8749999980609396 O
   0.1338395619750017    0.9488497599842559    0.1249999966222824 O
   0.1338395619750017    0.9488497599842559    0.6249999966222824 O
   0.6338395619750016    0.9488497599842560    0.1249999966222824 O
   0.6338395619750017    0.9488497599842559    0.6249999966222824 O
   0.1161604378772054    0.4488497616887203    0.1249999958918906 O
   0.1161604378772054    0.4488497616887202    0.6249999958918907 O
   0.6161604378772053    0.4488497616887203    0.1249999958918906 O
   0.6161604378772054    0.4488497616887203    0.6249999958918907 O
   0.3661604395578699    0.0511502415392684    0.3750000037737067 O
   0.3661604395578699    0.0511502415392684    0.8750000037737068 O
   0.8661604395578699    0.0511502415392684    0.3750000037737067 O
   0.8661604395578699    0.0511502415392684    0.8750000037737067 O
   0.3838395628368901    0.5511502341834246    0.3750000038907936 O
   0.3838395628368900    0.5511502341834245    0.8750000038907936 O
   0.8838395628368898    0.5511502341834246    0.3750000038907935 O
   0.8838395628368901    0.5511502341834246    0.8750000038907937 O
   0.1104732838132562    0.6578086410421521    0.0181704691866003 O
   0.1104732838132562    0.6578086410421521    0.5181704691866004 O
   0.6104732838132562    0.6578086410421520    0.0181704691866003 O
   0.6104732838132562    0.6578086410421520    0.5181704691866003 O
   0.1395267152666335    0.1578086394847844    0.2318295432156639 O
   0.1395267152666335    0.1578086394847844    0.7318295432156640 O
   0.6395267152666334    0.1578086394847844    0.2318295432156638 O
   0.6395267152666334    0.1578086394847844    0.7318295432156640 O
   0.3895267115673455    0.3421913652424635    0.2681704521662205 O
   0.3895267115673455    0.3421913652424635    0.7681704521662206 O
   0.8895267115673454    0.3421913652424635    0.2681704521662205 O
   0.8895267115673455    0.3421913652424636    0.7681704521662205 O
   0.3604732889883237    0.8421913602833299    0.4818295402150810 O
   0.3604732889883237    0.8421913602833297    0.9818295402150812 O
   0.8604732889883238    0.8421913602833299    0.4818295402150810 O
   0.8604732889883236    0.8421913602833299    0.9818295402150811 O
   0.3895267166621394    0.3421913606498563    0.4818295294268752 O
   0.3895267166621394    0.3421913606498563    0.9818295294268752 O
   0.8895267166621394    0.3421913606498563    0.4818295294268751 O
   0.8895267166621396    0.3421913606498563    0.9818295294268753 O
   0.3604732849620582    0.8421913592019834    0.2681704560652918 O
   0.3604732849620582    0.8421913592019834    0.7681704560652919 O
   0.8604732849620582    0.8421913592019834    0.2681704560652918 O
   0.8604732849620583    0.8421913592019834    0.7681704560652918 O
   0.1104732893482776    0.6578086367704544    0.2318295492171281 O
   0.1104732893482776    0.6578086367704543    0.7318295492171282 O
   0.6104732893482776    0.6578086367704543    0.2318295492171281 O
   0.6104732893482775    0.6578086367704543    0.7318295492171282 O
   0.1395267113930992    0.1578086390712699    0.0181704606731685 O
   0.1395267113930992    0.1578086390712699    0.5181704606731685 O
   0.6395267113930990    0.1578086390712699    0.0181704606731685 O
   0.6395267113930990    0.1578086390712699    0.5181704606731685 O
