Mn64 O128
1.0
11.501602 0.000008 0.000011
0.000008 11.501629 -0.000026
0.000053 -0.000052 16.254789
Mg Mn O
1   64 128
direct
0.500000 0.750000 0.875000 Mg
0.125007 0.250000 0.187504 Mn
0.125007 0.250000 0.687504 Mn
0.125007 0.750000 0.187504 Mn
0.125007 0.750000 0.687504 Mn
0.625007 0.250000 0.187504 Mn
0.625007 0.250000 0.687504 Mn
0.625007 0.750000 0.187504 Mn
0.625007 0.750000 0.687504 Mn
0.374993 0.250000 0.187505 Mn
0.374993 0.250000 0.687505 Mn
0.374993 0.750000 0.187505 Mn
0.374993 0.750000 0.687505 Mn
0.874993 0.250000 0.187505 Mn
0.874993 0.250000 0.687505 Mn
0.874993 0.750000 0.187505 Mn
0.874993 0.750000 0.687505 Mn
0.124993 0.000000 0.437504 Mn
0.124993 0.000000 0.937504 Mn
0.124993 0.500000 0.437504 Mn
0.124993 0.500000 0.937504 Mn
0.624993 0.000000 0.437504 Mn
0.624993 0.000000 0.937504 Mn
0.624993 0.500000 0.437504 Mn
0.624993 0.500000 0.937504 Mn
0.375007 0.000000 0.437504 Mn
0.375007 0.000000 0.937504 Mn
0.375007 0.500000 0.437504 Mn
0.375007 0.500000 0.937504 Mn
0.875007 0.000000 0.437504 Mn
0.875007 0.000000 0.937504 Mn
0.875007 0.500000 0.437504 Mn
0.875007 0.500000 0.937504 Mn
0.000000 0.124993 0.062496 Mn
0.000000 0.124993 0.562496 Mn
0.000000 0.624993 0.062496 Mn
0.000000 0.624993 0.562496 Mn
0.500000 0.124993 0.062496 Mn
0.500000 0.124993 0.562496 Mn
0.500000 0.624993 0.062496 Mn
0.500000 0.624993 0.562496 Mn
0.000000 0.375007 0.062496 Mn
0.000000 0.375007 0.562496 Mn
0.000000 0.875007 0.062496 Mn
0.000000 0.875007 0.562496 Mn
0.500000 0.375007 0.062496 Mn
0.500000 0.375007 0.562496 Mn
0.500000 0.875007 0.062496 Mn
0.500000 0.875007 0.562496 Mn
0.250000 0.374993 0.312496 Mn
0.250000 0.374993 0.812496 Mn
0.250000 0.874993 0.312496 Mn
0.250000 0.874993 0.812496 Mn
0.750000 0.374993 0.312496 Mn
0.750000 0.374993 0.812496 Mn
0.750000 0.874993 0.312496 Mn
0.750000 0.874993 0.812496 Mn
0.250000 0.125007 0.312496 Mn
0.250000 0.125007 0.812496 Mn
0.250000 0.625007 0.312496 Mn
0.250000 0.625007 0.812496 Mn
0.750000 0.125007 0.312496 Mn
0.750000 0.125007 0.812496 Mn
0.750000 0.625007 0.312496 Mn
0.750000 0.625007 0.812496 Mn
0.139583 0.250000 0.305301 O
0.139583 0.250000 0.805301 O
0.139583 0.750000 0.305301 O
0.139583 0.750000 0.805301 O
0.639583 0.250000 0.305301 O
0.639583 0.250000 0.805301 O
0.639583 0.750000 0.305301 O
0.639583 0.750000 0.805301 O
0.360415 0.249999 0.305301 O
0.360415 0.249999 0.805301 O
0.360415 0.749999 0.305301 O
0.360415 0.749999 0.805301 O
0.860415 0.249999 0.305301 O
0.860415 0.249999 0.805301 O
0.860415 0.749999 0.305301 O
0.860415 0.749999 0.805301 O
0.139579 0.000000 0.319705 O
0.139579 0.000000 0.819705 O
0.139579 0.500000 0.319705 O
0.139579 0.500000 0.819705 O
0.639579 0.000000 0.319705 O
0.639579 0.000000 0.819705 O
0.639579 0.500000 0.319705 O
0.639579 0.500000 0.819705 O
0.360424 1.000000 0.319704 O
0.360424 1.000000 0.819704 O
0.360424 0.500000 0.319704 O
0.360424 0.500000 0.819704 O
0.860424 1.000000 0.319704 O
0.860424 1.000000 0.819704 O
0.860424 0.500000 0.319704 O
0.860424 0.500000 0.819704 O
0.999999 0.110414 0.444700 O
0.999999 0.110414 0.944700 O
0.999999 0.610414 0.444700 O
0.999999 0.610414 0.944700 O
0.499999 0.110414 0.444700 O
0.499999 0.110414 0.944700 O
0.499999 0.610414 0.444700 O
0.499999 0.610414 0.944700 O
0.999999 0.389582 0.444699 O
0.999999 0.389582 0.944699 O
0.999999 0.889582 0.444699 O
0.999999 0.889582 0.944699 O
0.499999 0.389582 0.444699 O
0.499999 0.389582 0.944699 O
0.499999 0.889582 0.444699 O
0.499999 0.889582 0.944699 O
0.000000 0.360424 0.180296 O
0.000000 0.360424 0.680296 O
0.000000 0.860424 0.180296 O
0.000000 0.860424 0.680296 O
0.500000 0.360424 0.180296 O
0.500000 0.360424 0.680296 O
0.500000 0.860424 0.180296 O
0.500000 0.860424 0.680296 O
0.000001 0.139579 0.180295 O
0.000001 0.139579 0.680295 O
0.000001 0.639579 0.180295 O
0.000001 0.639579 0.680295 O
0.500001 0.139579 0.180295 O
0.500001 0.139579 0.680295 O
0.500001 0.639579 0.180295 O
0.500001 0.639579 0.680295 O
0.389583 1.000000 0.055301 O
0.389583 1.000000 0.555301 O
0.389583 0.500000 0.055301 O
0.389583 0.500000 0.555301 O
0.889583 1.000000 0.055301 O
0.889583 1.000000 0.555301 O
0.889583 0.500000 0.055301 O
0.889583 0.500000 0.555301 O
0.110415 0.999999 0.055300 O
0.110415 0.999999 0.555300 O
0.110415 0.499999 0.055300 O
0.110415 0.499999 0.555300 O
0.610415 0.999999 0.055300 O
0.610415 0.999999 0.555300 O
0.610415 0.499999 0.055300 O
0.610415 0.499999 0.555300 O
0.389579 0.250001 0.069705 O
0.389579 0.250001 0.569705 O
0.389579 0.750001 0.069705 O
0.389579 0.750001 0.569705 O
0.889579 0.250001 0.069705 O
0.889579 0.250001 0.569705 O
0.889579 0.750001 0.069705 O
0.889579 0.750001 0.569705 O
0.110424 0.250000 0.069704 O
0.110424 0.250000 0.569704 O
0.110424 0.750000 0.069704 O
0.110424 0.750000 0.569704 O
0.610424 0.250000 0.069704 O
0.610424 0.250000 0.569704 O
0.610424 0.750000 0.069704 O
0.610424 0.750000 0.569704 O
0.249999 0.360415 0.194700 O
0.249999 0.360415 0.694700 O
0.249999 0.860415 0.194700 O
0.249999 0.860415 0.694700 O
0.749999 0.360415 0.194700 O
0.749999 0.360415 0.694700 O
0.749999 0.860415 0.194700 O
0.749999 0.860415 0.694700 O
0.250000 0.139583 0.194699 O
0.250000 0.139583 0.694699 O
0.250000 0.639583 0.194699 O
0.250000 0.639583 0.694699 O
0.750000 0.139583 0.194699 O
0.750000 0.139583 0.694699 O
0.750000 0.639583 0.194699 O
0.750000 0.639583 0.694699 O
0.250000 0.110423 0.430296 O
0.250000 0.110423 0.930296 O
0.250000 0.610423 0.430296 O
0.250000 0.610423 0.930296 O
0.750000 0.110423 0.430296 O
0.750000 0.110423 0.930296 O
0.750000 0.610423 0.430296 O
0.750000 0.610423 0.930296 O
0.250001 0.389578 0.430295 O
0.250001 0.389578 0.930295 O
0.250001 0.889578 0.430295 O
0.250001 0.889578 0.930295 O
0.750001 0.389578 0.430295 O
0.750001 0.389578 0.930295 O
0.750001 0.889578 0.430295 O
0.750001 0.889578 0.930295 O
