Li6 Ti12 P18 O72
1.0
        8.6227340698         0.0000000000         0.0000000000
       -4.3113670349         7.4675067545         0.0000000000
        0.0000000000         0.0000000000        21.0816402435
   Li   Ti    P    O
    5   12   18   72
Direct
   0.0000000000000000    1.0000000000000000    0.5000000000000000 Li
     0.000000000         0.000000000         0.000000000
     0.333333343         0.666666687         0.166666672
     0.666666687         0.333333343         0.333333343
     0.666666687         0.333333343         0.833333313
     0.333333343         0.666666687         0.808121681
     0.333333343         0.666666687         0.308121681
     0.333333343         0.666666687         0.525211692
     0.333333343         0.666666687         0.025211670
     0.000000000         0.000000000         0.141454995
     0.000000000         0.000000000         0.641454995
     0.000000000         0.000000000         0.858545005
     0.000000000         0.000000000         0.358545005
     0.666666687         0.333333343         0.474788338
     0.666666687         0.333333343         0.974788308
     0.666666687         0.333333343         0.191878334
     0.666666687         0.333333343         0.691878319
     0.290533990         0.290533990         0.250000000
     0.666666687         0.623867333         0.083333328
     0.376132667         0.042799331         0.083333328
     0.957200646         0.333333343         0.083333328
     0.000000000         0.709465981         0.250000000
     0.709465981         0.000000000         0.250000000
     0.957200646         0.623867333         0.583333313
     0.333333343         0.957200646         0.416666657
     0.042799331         0.376132667         0.416666657
     0.623867333         0.666666687         0.416666657
     0.666666687         0.042799331         0.583333313
     0.376132667         0.333333343         0.583333313
     0.623867333         0.957200646         0.916666687
     0.000000000         0.290533990         0.750000000
     0.709465981         0.709465981         0.750000000
     0.290533990         0.000000000         0.750000000
     0.333333343         0.376132667         0.916666687
     0.042799331         0.666666687         0.916666687
     0.145059332         0.664001644         0.856936693
     0.168746993         0.690540016         0.247089997
     0.309460014         0.478206992         0.247089997
     0.521793008         0.831252992         0.247089997
     0.831252992         0.521793008         0.252909988
     0.478206992         0.309460014         0.252909988
     0.690540016         0.168746993         0.252909988
     0.497919679         0.642793357         0.086243331
     0.357206672         0.855126321         0.086243331
     0.144873664         0.502080321         0.086243331
     0.521607339         0.669331670         0.476396680
     0.518942356         0.854940653         0.856936693
     0.335998327         0.481057674         0.856936693
     0.147724330         0.669331670         0.976396680
     0.521607339         0.852275670         0.976396680
     0.330668330         0.478392661         0.976396680
     0.147724330         0.478392661         0.476396680
     0.188459665         0.023873329         0.080423333
     0.330668330         0.852275670         0.476396680
     0.518942356         0.664001644         0.356936663
     0.145059332         0.481057674         0.356936663
     0.335998327         0.854940653         0.356936663
     0.976126671         0.164586335         0.080423333
     0.835413694         0.811540306         0.080423333
     0.811725974         0.997335017         0.190270007
     0.835413694         0.023873329         0.580423355
     0.976126671         0.811540306         0.580423355
     0.188459665         0.164586335         0.580423355
     0.497919679         0.855126321         0.586243331
     0.144873664         0.642793357         0.586243331
     0.357206672         0.502080321         0.586243331
     0.164586335         0.976126671         0.419576675
     0.023873329         0.188459665         0.419576675
     0.811540306         0.835413694         0.419576675
     0.188273996         0.002665000         0.809729993
     0.185608998         0.188273996         0.190270007
     0.002665000         0.814391017         0.190270007
     0.814391017         0.002665000         0.309729993
     0.188273996         0.185608998         0.309729993
     0.997335017         0.811725974         0.309729993
     0.814391017         0.811725974         0.809729993
     0.855126321         0.357206672         0.413756669
     0.997335017         0.185608998         0.809729993
     0.185608998         0.997335017         0.690270007
     0.811725974         0.814391017         0.690270007
     0.002665000         0.188273996         0.690270007
     0.642793357         0.497919679         0.413756669
     0.502080321         0.144873664         0.413756669
     0.478392661         0.330668330         0.523603320
     0.502080321         0.357206672         0.913756669
     0.642793357         0.144873664         0.913756669
     0.855126321         0.497919679         0.913756669
     0.164586335         0.188459665         0.919576645
     0.811540306         0.976126671         0.919576645
     0.023873329         0.835413694         0.919576645
     0.831252992         0.309460014         0.752910018
     0.690540016         0.521793008         0.752910018
     0.478206992         0.168746993         0.752910018
     0.854940653         0.335998327         0.143063337
     0.852275670         0.521607339         0.523603320
     0.669331670         0.147724330         0.523603320
     0.481057674         0.335998327         0.643063307
     0.854940653         0.518942356         0.643063307
     0.664001644         0.145059332         0.643063307
     0.481057674         0.145059332         0.143063337
     0.521793008         0.690540016         0.747089982
     0.664001644         0.518942356         0.143063337
     0.852275670         0.330668330         0.023603329
     0.478392661         0.147724330         0.023603329
     0.669331670         0.521607339         0.023603329
     0.309460014         0.831252992         0.747089982
     0.168746993         0.478206992         0.747089982
