Mg16 V16 Si16 O64
1.0
   9.5905658795461637   -0.0000001168313906   -0.0000005721669628
  -0.0000001278513720   10.4231478474583401   -0.0000005439930775
  -0.0000007282575458   -0.0000006390983034   12.3011306916051542
Mg V Si O
15 16 16 64
direct
   0.5000000201286051    0.9999999937128176    0.7500000009043519 Mg
   0.2499999826618680    0.4999999929637882    0.2500000021239795 Mg
   0.2499999826618680    0.4999999929637883    0.7500000021239795 Mg
   0.7499999826618680    0.4999999929637883    0.2500000021239795 Mg
   0.7499999826618681    0.4999999929637883    0.7500000021239795 Mg
   0.2499999806885168    0.4999999926844356    0.4999999981836966 Mg
   0.2499999806885168    0.4999999926844356    0.9999999981836967 Mg
   0.7499999806885167    0.4999999926844356    0.4999999981836966 Mg
   0.7499999806885169    0.4999999926844356    0.9999999981836966 Mg
   0.0000000201286051    0.9999999937128176    0.2500000009043519 Mg
   0.0000000201286051    0.9999999937128176    0.7500000009043519 Mg
   0.5000000201286051    0.9999999937128176    0.2500000009043519 Mg
   0.0000000229368059    0.9999999900760110    0.4999999968951763 Mg
   0.0000000229368059    0.9999999900760110    0.9999999968951763 Mg
   0.5000000229368060    0.9999999900760111    0.9999999968951764 Mg
   0.4969133411158785    0.2719233471247028    0.1249999974471874 V
   0.4969133411158786    0.2719233471247029    0.6249999974471874 V
   0.9969133411158786    0.2719233471247029    0.1249999974471874 V
   0.9969133411158785    0.2719233471247028    0.6249999974471875 V
   0.2469134028657050    0.2280766708363869    0.3749999997046412 V
   0.2469134028657050    0.2280766708363869    0.8749999997046412 V
   0.7469134028657051    0.2280766708363869    0.3749999997046412 V
   0.7469134028657052    0.2280766708363869    0.8749999997046413 V
   0.0030865834001072    0.7280766538184142    0.3750000013190423 V
   0.0030865834001072    0.7280766538184142    0.8750000013190423 V
   0.5030865834001071    0.7280766538184142    0.3750000013190423 V
   0.5030865834001073    0.7280766538184142    0.8750000013190423 V
   0.2530866609663869    0.7719233432432635    0.1249999998820723 V
   0.2530866609663869    0.7719233432432635    0.6249999998820723 V
   0.7530866609663869    0.7719233432432635    0.1249999998820723 V
   0.7530866609663871    0.7719233432432634    0.6249999998820723 V
   0.0368837494142401    0.5929630709788948    0.1250000011065474 Si
   0.0368837494142401    0.5929630709788948    0.6250000011065473 Si
   0.5368837494142401    0.5929630709788948    0.1250000011065474 Si
   0.5368837494142401    0.5929630709788949    0.6250000011065474 Si
   0.2131162671673693    0.0929630732431448    0.1250000029381093 Si
   0.2131162671673693    0.0929630732431448    0.6250000029381094 Si
   0.7131162671673693    0.0929630732431448    0.1250000029381093 Si
   0.7131162671673694    0.0929630732431448    0.6250000029381094 Si
   0.4631162244058893    0.4070369353830968    0.3749999960164189 Si
   0.4631162244058894    0.4070369353830968    0.8749999960164189 Si
   0.9631162244058893    0.4070369353830968    0.3749999960164189 Si
   0.9631162244058894    0.4070369353830968    0.8749999960164190 Si
   0.2868837648341566    0.9070369323104674    0.3749999944636997 Si
   0.2868837648341566    0.9070369323104674    0.8749999944636997 Si
   0.7868837648341566    0.9070369323104674    0.3749999944636997 Si
   0.7868837648341567    0.9070369323104673    0.8749999944636997 Si
   0.3667926134005832    0.5879216559281223    0.1250000015482690 O
   0.3667926134005832    0.5879216559281223    0.6250000015482691 O
   0.8667926134005832    0.5879216559281223    0.1250000015482690 O
   0.8667926134005833    0.5879216559281224    0.6250000015482691 O
   0.3832074037608443    0.0879216481237069    0.1250000044012315 O
   0.3832074037608443    0.0879216481237069    0.6250000044012315 O
   0.8832074037608443    0.0879216481237069    0.1250000044012315 O
   0.8832074037608443    0.0879216481237069    0.6250000044012315 O
   0.1332073766411012    0.4120783392452950    0.3749999993825628 O
   0.1332073766411012    0.4120783392452950    0.8749999993825628 O
   0.6332073766411013    0.4120783392452949    0.3749999993825628 O
   0.6332073766411013    0.4120783392452950    0.8749999993825628 O
   0.1167926179860537    0.9120783431152454    0.3749999991429881 O
   0.1167926179860537    0.9120783431152454    0.8749999991429881 O
   0.6167926179860537    0.9120783431152454    0.3749999991429881 O
   0.6167926179860538    0.9120783431152454    0.8749999991429880 O
   0.1377490876453745    0.9481007289266543    0.1249999982319226 O
   0.1377490876453746    0.9481007289266543    0.6249999982319226 O
   0.6377490876453745    0.9481007289266543    0.1249999982319226 O
   0.6377490876453746    0.9481007289266543    0.6249999982319226 O
   0.1122509170377366    0.4481007431225613    0.1249999973915868 O
   0.1122509170377366    0.4481007431225613    0.6249999973915867 O
   0.6122509170377366    0.4481007431225613    0.1249999973915868 O
   0.6122509170377367    0.4481007431225613    0.6249999973915867 O
   0.3622509485945377    0.0518992660629886    0.3749999992390607 O
   0.3622509485945375    0.0518992660629886    0.8749999992390607 O
   0.8622509485945377    0.0518992660629886    0.3749999992390607 O
   0.8622509485945377    0.0518992660629886    0.8749999992390607 O
   0.3877490433655207    0.5518992723764269    0.3750000026742003 O
   0.3877490433655207    0.5518992723764269    0.8750000026742003 O
   0.8877490433655207    0.5518992723764269    0.3750000026742004 O
   0.8877490433655207    0.5518992723764270    0.8750000026742003 O
   0.1116180941899303    0.6610110888221374    0.0173960845592950 O
   0.1116180941899303    0.6610110888221375    0.5173960845592950 O
   0.6116180941899303    0.6610110888221375    0.0173960845592950 O
   0.6116180941899304    0.6610110888221375    0.5173960845592950 O
   0.1383819062144342    0.1610110822837460    0.2326039341696944 O
   0.1383819062144342    0.1610110822837460    0.7326039341696944 O
   0.6383819062144342    0.1610110822837460    0.2326039341696944 O
   0.6383819062144341    0.1610110822837460    0.7326039341696945 O
   0.3883818555964565    0.3389889102445591    0.2673960654625656 O
   0.3883818555964565    0.3389889102445591    0.7673960654625656 O
   0.8883818555964564    0.3389889102445591    0.2673960654625656 O
   0.8883818555964565    0.3389889102445591    0.7673960654625657 O
   0.3616181308054058    0.8389889204816192    0.4826039341549067 O
   0.3616181308054058    0.8389889204816193    0.9826039341549068 O
   0.8616181308054058    0.8389889204816192    0.4826039341549067 O
   0.8616181308054058    0.8389889204816193    0.9826039341549067 O
   0.3883818721468041    0.3389889098025378    0.4826039266409130 O
   0.3883818721468041    0.3389889098025378    0.9826039266409130 O
   0.8883818721468041    0.3389889098025378    0.4826039266409130 O
   0.8883818721468042    0.3389889098025378    0.9826039266409129 O
   0.3616181282427195    0.8389889177932101    0.2673960664269134 O
   0.3616181282427195    0.8389889177932101    0.7673960664269135 O
   0.8616181282427194    0.8389889177932101    0.2673960664269134 O
   0.8616181282427195    0.8389889177932101    0.7673960664269134 O
   0.1116181024326559    0.6610110989167405    0.2326039236677379 O
   0.1116181024326559    0.6610110989167405    0.7326039236677379 O
   0.6116181024326559    0.6610110989167405    0.2326039236677379 O
   0.6116181024326560    0.6610110989167406    0.7326039236677380 O
   0.1383819013543060    0.1610110783790098    0.0173960719212297 O
   0.1383819013543060    0.1610110783790098    0.5173960719212296 O
   0.6383819013543061    0.1610110783790098    0.0173960719212297 O
   0.6383819013543061    0.1610110783790098    0.5173960719212296 O
