Ho16 Mg8 Se32
1.0
       11.5780811310         0.0000000000         0.0000000000
        0.0000000000        11.5780811310         0.0000000000
        0.0000000000         0.0000000000        11.5780811310
Mg   Ho   Mg   Se
1   16    6   32
Direct
     0.750000000         0.750000000         0.750000000
     0.125000000         0.375000000         0.375000000
     0.875000000         0.125000000         0.875000000
     0.875000000         0.375000000         0.625000000
     0.125000000         0.125000000         0.125000000
     0.125000000         0.875000000         0.875000000
     0.875000000         0.625000000         0.375000000
     0.875000000         0.875000000         0.125000000
     0.125000000         0.625000000         0.625000000
     0.625000000         0.375000000         0.875000000
     0.375000000         0.125000000         0.375000000
     0.375000000         0.375000000         0.125000000
     0.625000000         0.125000000         0.625000000
     0.625000000         0.875000000         0.375000000
     0.375000000         0.625000000         0.875000000
     0.375000000         0.875000000         0.625000000
     0.625000000         0.625000000         0.125000000
     0.250000000         0.250000000         0.750000000
     0.000000000         0.000000000         0.500000000
     0.250000000         0.750000000         0.250000000
     0.000000000         0.500000000         0.000000000
     0.750000000         0.250000000         0.250000000
     0.500000000         0.500000000         0.500000000
     0.879746497         0.120253488         0.120253488
     0.120253488         0.379746497         0.620253503
     0.120253488         0.120253488         0.879746497
     0.879746497         0.379746497         0.379746497
     0.870253503         0.129746512         0.629746497
     0.629746497         0.370253503         0.629746497
     0.629746497         0.129746512         0.870253503
     0.870253503         0.370253503         0.870253503
     0.879746497         0.620253503         0.620253503
     0.120253488         0.879746497         0.120253488
     0.120253488         0.620253503         0.379746497
     0.879746497         0.879746497         0.879746497
     0.870253503         0.629746497         0.129746512
     0.629746497         0.870253503         0.129746512
     0.629746497         0.629746497         0.370253503
     0.870253503         0.870253503         0.370253503
     0.379746497         0.120253488         0.620253503
     0.620253503         0.379746497         0.120253488
     0.620253503         0.120253488         0.379746497
     0.379746497         0.379746497         0.879746497
     0.370253503         0.129746512         0.129746512
     0.129746512         0.370253503         0.129746512
     0.129746512         0.129746512         0.370253503
     0.370253503         0.370253503         0.370253503
     0.379746497         0.620253503         0.120253488
     0.620253503         0.879746497         0.620253503
     0.620253503         0.620253503         0.879746497
     0.379746497         0.879746497         0.379746497
     0.370253503         0.629746497         0.629746497
     0.129746512         0.870253503         0.629746497
     0.129746512         0.629746497         0.870253503
     0.370253503         0.870253503         0.870253503
