Na2 Ca2 V4 P2 S4 O24                    
   1.00000000000000     
     8.9704490000000003    0.3423510000000000    0.1678270000000000
     4.2568239999999999    7.9061290000000000    0.1837790000000000
     4.1486380000000000    2.5916899999999998    7.4644079999999997
   Ca   Na   V    P    S    O 
     2     2     4     2     4    24
Direct
  0.7408274404986517  0.3060525116945129  0.5196695464294120
  0.0141492097451850  0.9859874174071718  0.0116081422849833
  0.4036996600034473  0.0938845560843326  0.7557704276766714
  0.5841881554876646  0.8709423251113404  0.2537086424948585
  0.3591172016941042  0.3658235514676162  0.3596170575777684
  0.6425678843170657  0.6561924118805347  0.6483147045938435
  0.1450923748289528  0.1491811414407542  0.1458894406802188
  0.8529926026267001  0.8438425371304544  0.8524907442083599
  0.7567977737106953  0.0322058912899831  0.4400002034884852
  0.4581833708662961  0.7499218719706813  0.0481791573182665
  0.0441727065226103  0.4475614165959061  0.7524418267374111
  0.9606546433689165  0.5539584898815233  0.2492404259938190
  0.2399309783563631  0.9727559271912467  0.5602138485131472
  0.5453074029529635  0.2512352993511071  0.9565054361853653
  0.2196350400407443  0.4378660726422484  0.6008306822642203
  0.7814594065524583  0.5786636820408377  0.4046870972295297
  0.5881335845051557  0.2153019870119839  0.4519377532791485
  0.4010282574459208  0.8007433092156797  0.5563962321486605
  0.4500393172409738  0.5800712529000498  0.2146485535227356
  0.5756188352272011  0.4029188452690712  0.7785142135023985
  0.9087690214938583  0.0782720723172407  0.2582621670157537
  0.0866174568981230  0.9384003398531546  0.7354137676356989
  0.0777264303880090  0.2596476277191432  0.9000416997323814
  0.9321513410478592  0.7282920660507837  0.0929735550494542
  0.2686575819463908  0.9145964363093728  0.0749717741247881
  0.7244237450836806  0.0893638992904211  0.9401820996115792
  0.5047726701814637  0.2937059062972095  0.1132148551347547
  0.4862294855695687  0.7389597551230170  0.8682516410704864
  0.1116619988524339  0.5256157074176846  0.2918598888667772
  0.8966102029276876  0.4760791019460656  0.6999602175395839
  0.2833676884697219  0.1159008910827829  0.5537131239945446
  0.7095507483335229  0.8860816807744849  0.4507977746183913
  0.4002398082453249  0.2037491367976822  0.9734839475047535
  0.6060255691246998  0.8104058101745302  0.0218233901455463
  0.1794816290072371  0.0379629294858321  0.4047018403856965
  0.8120725915168309  0.9890817321720217  0.6014439867018776
 -0.0200622662971616  0.3964006282475134  0.2171609959553290
  0.9971010863821166  0.5847381924776474  0.8273937815207792
 
             NaN             NaN             NaN
             NaN             NaN             NaN
             NaN             NaN             NaN
             NaN             NaN             NaN
             NaN             NaN             NaN
             NaN             NaN             NaN
             NaN             NaN             NaN
             NaN             NaN             NaN
             NaN             NaN             NaN
             NaN             NaN             NaN
             NaN             NaN             NaN
             NaN             NaN             NaN
             NaN             NaN             NaN
             NaN             NaN             NaN
             NaN             NaN             NaN
             NaN             NaN             NaN
             NaN             NaN             NaN
             NaN             NaN             NaN
             NaN             NaN             NaN
             NaN             NaN             NaN
             NaN             NaN             NaN
             NaN             NaN             NaN
             NaN             NaN             NaN
             NaN             NaN             NaN
             NaN             NaN             NaN
             NaN             NaN             NaN
             NaN             NaN             NaN
             NaN             NaN             NaN
             NaN             NaN             NaN
             NaN             NaN             NaN
             NaN             NaN             NaN
             NaN             NaN             NaN
             NaN             NaN             NaN
             NaN             NaN             NaN
             NaN             NaN             NaN
             NaN             NaN             NaN
             NaN             NaN             NaN
             NaN             NaN             NaN
