Na2 Ca2 V4 P2 S4 O24
1.0
8.970449 0.342351 0.167827
4.256824 7.906129 0.183779
4.148638 2.591690 7.464408
Ca Na V P S O
2 2 4 2 4 24
direct
0.721814 0.337394 0.548245 Ca
0.006134 0.980873 0.028946 Ca
0.415652 0.095929 0.752075 Na
0.588409 0.865590 0.257665 Na
0.357887 0.363257 0.356761 V
0.649958 0.654498 0.642012 V
0.146849 0.148991 0.144231 V
0.847973 0.841661 0.857293 V
0.754379 0.041176 0.443631 P
0.458247 0.750174 0.045786 P
0.042347 0.443325 0.750882 S
0.960076 0.550920 0.247104 S
0.241770 0.970524 0.561034 S
0.543698 0.255140 0.950092 S
0.218729 0.437321 0.599558 O
0.782932 0.560277 0.405523 O
0.583395 0.218739 0.447622 O
0.400604 0.795891 0.556296 O
0.441422 0.582953 0.214530 O
0.570729 0.408657 0.775644 O
0.912325 0.080589 0.264395 O
0.086564 0.940278 0.736247 O
0.077168 0.258810 0.899148 O
0.921604 0.733324 0.099763 O
0.270416 0.915328 0.067711 O
0.726740 0.096260 0.930030 O
0.502142 0.292191 0.110395 O
0.498523 0.733305 0.865795 O
0.104541 0.529825 0.295346 O
0.901723 0.461560 0.694562 O
0.290143 0.110393 0.552480 O
0.717744 0.887530 0.449896 O
0.402545 0.202524 0.967280 O
0.602384 0.807590 0.031378 O
0.177268 0.038781 0.407230 O
0.800496 0.992531 0.612269 O
1.000243 0.403096 0.191113 O
-0.014934 0.587018 0.820239 O
