Ca16 Cr32 O64
1.0
   9.8830465719657745    0.0000001710435074   -2.8716781023091476
   0.0000001810596098   11.8655494362544403   -0.0000000376411694
   0.0081837696531770   -0.0000000360665550   11.4895040756272593
Ca Cr O
15 32 64
direct
   0.6515098447794969    0.6249999580476242    0.4978204625629132 Ca
   0.1515098447794969    0.1249999580476242    0.4978204625629132 Ca
   0.1515098447794969    0.1249999580476242    0.9978204625629130 Ca
   0.1515098447794969    0.6249999580476241    0.4978204625629132 Ca
   0.1515098447794969    0.6249999580476243    0.9978204625629131 Ca
   0.6515098447794968    0.1249999580476242    0.4978204625629132 Ca
   0.6515098447794969    0.1249999580476242    0.9978204625629130 Ca
   0.6515098447794969    0.6249999580476242    0.9978204625629131 Ca
   0.3484901607782440    0.3750000472967585    0.0021794862883268 Ca
   0.3484901607782440    0.3750000472967586    0.5021794862883268 Ca
   0.3484901607782440    0.8750000472967586    0.0021794862883269 Ca
   0.8484901607782440    0.3750000472967586    0.0021794862883268 Ca
   0.8484901607782441    0.3750000472967585    0.5021794862883268 Ca
   0.8484901607782441    0.8750000472967586    0.0021794862883269 Ca
   0.8484901607782440    0.8750000472967585    0.5021794862883268 Ca
   0.4999999440896586    0.2500000088152844    0.2500000332745351 Cr
   0.4999999440896586    0.2500000088152845    0.7500000332745350 Cr
   0.4999999440896588    0.7500000088152845    0.2500000332745351 Cr
   0.4999999440896588    0.7500000088152846    0.7500000332745350 Cr
   0.9999999440896586    0.2500000088152845    0.2500000332745350 Cr
   0.9999999440896586    0.2500000088152844    0.7500000332745350 Cr
   0.9999999440896586    0.7500000088152845    0.2500000332745351 Cr
   0.9999999440896590    0.7500000088152845    0.7500000332745350 Cr
   0.4999999396207784    0.4999999918260300    0.2500000242674360 Cr
   0.4999999396207784    0.4999999918260301    0.7500000242674359 Cr
   0.4999999396207783    0.9999999918260301    0.2500000242674360 Cr
   0.4999999396207783    0.9999999918260301    0.7500000242674359 Cr
   0.9999999396207783    0.4999999918260301    0.2500000242674360 Cr
   0.9999999396207783    0.4999999918260300    0.7500000242674361 Cr
   0.9999999396207784    0.9999999918260301    0.2500000242674360 Cr
   0.9999999396207782    0.9999999918260299    0.7500000242674359 Cr
   0.2554669714893797    0.1249999754689384    0.2588478148028805 Cr
   0.2554669714893797    0.1249999754689384    0.7588478148028804 Cr
   0.2554669714893799    0.6249999754689383    0.2588478148028805 Cr
   0.2554669714893797    0.6249999754689384    0.7588478148028804 Cr
   0.7554669714893798    0.1249999754689384    0.2588478148028805 Cr
   0.7554669714893798    0.1249999754689384    0.7588478148028804 Cr
   0.7554669714893798    0.6249999754689384    0.2588478148028805 Cr
   0.7554669714893799    0.6249999754689384    0.7588478148028804 Cr
   0.2445331665654180    0.3750000138281350    0.2411522382141697 Cr
   0.2445331665654180    0.3750000138281350    0.7411522382141696 Cr
   0.2445331665654180    0.8750000138281350    0.2411522382141697 Cr
   0.2445331665654180    0.8750000138281351    0.7411522382141695 Cr
   0.7445331665654180    0.3750000138281351    0.2411522382141697 Cr
   0.7445331665654181    0.3750000138281350    0.7411522382141696 Cr
   0.7445331665654180    0.8750000138281351    0.2411522382141697 Cr
   0.7445331665654180    0.8750000138281352    0.7411522382141696 Cr
   0.0619625280230736    0.1250000091983096    0.1615708647663183 O
   0.0619625280230736    0.1250000091983096    0.6615708647663182 O
   0.0619625280230736    0.6250000091983097    0.1615708647663183 O
   0.0619625280230736    0.6250000091983097    0.6615708647663182 O
   0.5619625280230736    0.1250000091983097    0.1615708647663183 O
   0.5619625280230736    0.1250000091983097    0.6615708647663182 O
   0.5619625280230734    0.6250000091983097    0.1615708647663183 O
   0.5619625280230737    0.6250000091983097    0.6615708647663182 O
   0.4380374594131878    0.3749999998816591    0.3384291023864953 O
   0.4380374594131879    0.3749999998816591    0.8384291023864952 O
   0.4380374594131879    0.8749999998816590    0.3384291023864953 O
   0.4380374594131879    0.8749999998816591    0.8384291023864953 O
   0.9380374594131877    0.3749999998816591    0.3384291023864953 O
   0.9380374594131878    0.3749999998816591    0.8384291023864952 O
   0.9380374594131877    0.8749999998816592    0.3384291023864953 O
   0.9380374594131878    0.8749999998816591    0.8384291023864953 O
   0.4506505814355144    0.1250000034074965    0.3463291668051731 O
   0.4506505814355144    0.1250000034074965    0.8463291668051731 O
   0.4506505814355143    0.6250000034074965    0.3463291668051731 O
   0.4506505814355144    0.6250000034074965    0.8463291668051730 O
   0.9506505814355143    0.1250000034074965    0.3463291668051731 O
   0.9506505814355143    0.1250000034074965    0.8463291668051730 O
   0.9506505814355145    0.6250000034074965    0.3463291668051731 O
   0.9506505814355146    0.6250000034074966    0.8463291668051730 O
   0.0493494289628557    0.3749999947561342    0.1536708129585804 O
   0.0493494289628557    0.3749999947561342    0.6536708129585804 O
   0.0493494289628557    0.8749999947561342    0.1536708129585805 O
   0.0493494289628557    0.8749999947561342    0.6536708129585803 O
   0.5493494289628558    0.3749999947561342    0.1536708129585804 O
   0.5493494289628558    0.3749999947561341    0.6536708129585804 O
   0.5493494289628559    0.8749999947561341    0.1536708129585805 O
   0.5493494289628559    0.8749999947561342    0.6536708129585803 O
   0.1985883791530050    0.2518360759571828    0.3496156956081648 O
   0.1985883791530050    0.2518360759571827    0.8496156956081647 O
   0.1985883791530050    0.7518360759571827    0.3496156956081648 O
   0.1985883791530050    0.7518360759571827    0.8496156956081646 O
   0.6985883791530051    0.2518360759571828    0.3496156956081648 O
   0.6985883791530050    0.2518360759571827    0.8496156956081647 O
   0.6985883791530050    0.7518360759571827    0.3496156956081649 O
   0.6985883791530051    0.7518360759571828    0.8496156956081647 O
   0.3014115987208399    0.0018360783747546    0.1503842970937334 O
   0.3014115987208398    0.0018360783747546    0.6503842970937334 O
   0.3014115987208398    0.5018360783747546    0.1503842970937334 O
   0.3014115987208399    0.5018360783747546    0.6503842970937332 O
   0.8014115987208399    0.0018360783747546    0.1503842970937334 O
   0.8014115987208400    0.0018360783747546    0.6503842970937334 O
   0.8014115987208400    0.5018360783747547    0.1503842970937334 O
   0.8014115987208399    0.5018360783747547    0.6503842970937332 O
   0.3014116062553533    0.2481639181341642    0.1503843022690674 O
   0.3014116062553533    0.2481639181341642    0.6503843022690673 O
   0.3014116062553533    0.7481639181341642    0.1503843022690674 O
   0.3014116062553533    0.7481639181341642    0.6503843022690673 O
   0.8014116062553533    0.2481639181341642    0.1503843022690674 O
   0.8014116062553533    0.2481639181341642    0.6503843022690673 O
   0.8014116062553532    0.7481639181341643    0.1503843022690674 O
   0.8014116062553535    0.7481639181341642    0.6503843022690673 O
   0.1985883907131907    0.4981639250075283    0.3496156987022054 O
   0.1985883907131906    0.4981639250075283    0.8496156987022052 O
   0.1985883907131907    0.9981639250075283    0.3496156987022054 O
   0.1985883907131907    0.9981639250075282    0.8496156987022052 O
   0.6985883907131907    0.4981639250075283    0.3496156987022054 O
   0.6985883907131907    0.4981639250075283    0.8496156987022053 O
   0.6985883907131907    0.9981639250075283    0.3496156987022053 O
   0.6985883907131908    0.9981639250075284    0.8496156987022052 O
