Mg7 Cr12 Ga4 S32
1.0
10.348405 0.008423 -0.008424
0.008423 10.348405 -0.008425
-0.008424 -0.008425 10.348404
Mg Cr Ga S
7 12 4 32
direct
   0.9960040000000000    0.5021120000000000    0.4978880000000000 Mg
0.998062 0.998992 0.001008 Mg
0.498992 0.998992 0.501938 Mg
0.498992 0.498062 0.001008 Mg
0.755292 0.255292 0.744708 Mg
0.247901 0.747901 0.746051 Mg
0.247901 0.253949 0.252099 Mg
0.627533 0.625472 0.626043 Cr
0.625079 0.125079 0.124349 Cr
0.126907 0.626907 0.127411 Cr
0.125472 0.127533 0.626043 Cr
0.372589 0.626907 0.373093 Cr
0.375651 0.125079 0.874921 Cr
0.873957 0.625472 0.872467 Cr
0.873957 0.127533 0.374528 Cr
0.627533 0.373957 0.374528 Cr
0.625079 0.875651 0.874921 Cr
0.125472 0.373957 0.872467 Cr
0.126907 0.872589 0.373093 Cr
0.363868 0.377047 0.622954 Ga
0.376221 0.876221 0.123779 Ga
0.877047 0.377047 0.136132 Ga
0.877047 0.863868 0.622954 Ga
0.389125 0.390827 0.383764 S
0.389407 0.889407 0.883363 S
0.889666 0.389666 0.887814 S
0.890827 0.889125 0.383764 S
0.613153 0.611472 0.388528 S
0.612946 0.112946 0.887054 S
0.111472 0.611472 0.886847 S
0.111472 0.113153 0.388528 S
0.612187 0.389666 0.610334 S
0.616637 0.889407 0.110593 S
0.116236 0.390827 0.110875 S
0.116236 0.889125 0.609173 S
0.389125 0.616236 0.609173 S
0.389407 0.116638 0.110593 S
0.890827 0.616236 0.110875 S
0.889666 0.112187 0.610334 S
0.138843 0.137067 0.862933 S
0.141739 0.641740 0.358261 S
0.637067 0.137067 0.361157 S
0.637067 0.638843 0.862933 S
0.360774 0.359424 0.866545 S
0.361933 0.861933 0.363982 S
0.858655 0.358655 0.368306 S
0.859424 0.860774 0.866545 S
0.131694 0.358655 0.641345 S
0.136018 0.861933 0.138067 S
0.633455 0.359424 0.139226 S
0.633455 0.860774 0.640576 S
0.360774 0.133455 0.640576 S
0.361933 0.636018 0.138067 S
0.859424 0.133455 0.139226 S
0.858655 0.631694 0.641345 S
