Ca1 Co16 F48                            
   1.00000000000000     
    10.6851149999999997   -0.0041350000000000   -0.0366000000000000
    -0.0025630000000000    7.4628019999999999   -0.0046040000000000
    -0.0338210000000000   -0.0068530000000000   10.3845010000000002
   Ca   Co   F 
     1    16    48
Direct
  0.4577911153706589  0.0118864562254051  0.5176833451511409
  0.0014330225289961  0.5047098277017976  0.2477809302209932
  0.0025409102379886  0.4999104151969316  0.7515211296375101
  0.5029890727959421  0.5090768777068435  0.2462950696248408
  0.5052627719662729  0.4946826043613989  0.7587848940860841
  0.1923609216779142  0.0084943383914473  0.4675669484704834
  0.2427042053681430  0.9952575695708231  0.9921756929782340
  0.7662954402976944  1.0019448296487647  0.4982800095739621
  0.7565405633667117  0.0003974859399504  1.0026478940568571
  0.4864935065618069  1.0064165801353273  0.2187184785185119
  0.5099498808576116  0.9791470265881189  0.7823616583869240
 -0.0086303662667552  0.0076066645123411  0.2326396204576169
  0.9986862553578734  1.0014830506389973  0.7560343020991268
  0.2502951128775958  0.4941130155652425 -0.0010030311438540
  0.2551960617809090  0.5018171701390328  0.5014908049586194
  0.7546126587289276  0.5013903932350637  1.0021964854819199
  0.7535198242977859  0.5031251968772731  0.5007780267319580
  0.5066338069255778  0.2537534237603583  0.1883675678934337
  0.4937751955876729  0.2096510043011850  0.7040882665167139
  0.9757250624719120  0.2490696189086360  0.1866276318698993
  0.9951409781819861  0.2471767195913719  0.6997578360835287
  0.2404295014393682  0.2525890143938035  0.0492846507419019
  0.2569727825355035  0.2229272720305518  0.5439460822063147
  0.7459861130795119  0.2524077215975553  0.0554752997051190
  0.7480220537504593  0.2606218465873414  0.5480235380029733
  0.0180225581565161  0.7720513836267792  0.2919132353942249
  0.0088573158966345  0.7523594941273447  0.7993679464795447
  0.4989292518379010  0.7749285749829309  0.3023878216759599
  0.5225360864785489  0.7438161119830814  0.8358729894020827
  0.2842226363881202  0.7889533723672066  0.4675121083371804
  0.2548145789251210  0.7327361798965540  0.9443963854391859
  0.7618966669942282  0.7455244387916046  0.4507592636981329
  0.7671779155313239  0.7495494577750277  0.9476607226046949
  0.3507232283789593  0.5489851437440719  0.1418079184206870
  0.3661703262719189  0.5299144636523201  0.6491524964460375
  0.8557723563146743  0.5591332679348885  0.1529609846648529
  0.8546766034229376  0.5544464091735475  0.6430373378075541
  0.0812083868932541  0.9539209732222420  0.0837285206071629
  0.0799904069626090  0.9385381888121288  0.5910614997678549
  0.6074729923550570  0.9417870184026500  0.0964560787848311
  0.6119077625528978  0.9192427041184823  0.6391239606697875
  0.1383375280438033  0.0781404374980513  0.3056967597021484
  0.1589673417381234  0.0483434816916662  0.8388296196441771
  0.6278846098451268  0.0488848738914924  0.3866382518597885
  0.6540901872875119  0.0586659743187401  0.8579948053461631
  0.3992586230893950  0.4650091803257927  0.3936682819084596
  0.3924608257593377  0.4393643343684870  0.9024641070583700
  0.8959772259510880  0.4585778431403564  0.4016207752302374
  0.9002425364737421  0.4495089240719686  0.8970710735013679
  0.1456430398694982  0.4662555676744009  0.3546760187157233
  0.1518101201525414  0.4406740079664315  0.8561296811970003
  0.6499936334859018  0.4561490276411317  0.3583676954136001
  0.6487449766017683  0.4381799254572391  0.8528185873332792
  0.3644315308962774  0.0907575143568254  0.3457598101065142
  0.4102649635710919  0.0473954796546219  0.9166039290728326
  0.9058075061016849  0.0599593379884160  0.3860053561575402
  0.9030689503345153  0.0549626970566132  0.9058496854583947
  0.3357198309119914  0.9236830301314890  0.1371846349036346
  0.3695046755367968  0.9111759019635322  0.6943535940889116
  0.8435880633427876  0.9401216785075259  0.1596593053318914
  0.8502187899570782  0.9550883000558609  0.6497310861910037
  0.1086821005075112  0.5463929766393364  0.0967357276450008
  0.1126866721597310  0.5445399003048951  0.6069073605549861
  0.6067256423493169  0.5607030446717799  0.1043430273888814
  0.6109858956190147  0.5440288533464345  0.6021020878935922
 
             NaN             NaN             NaN
             NaN             NaN             NaN
             NaN             NaN             NaN
             NaN             NaN             NaN
             NaN             NaN             NaN
             NaN             NaN             NaN
             NaN             NaN             NaN
             NaN             NaN             NaN
             NaN             NaN             NaN
             NaN             NaN             NaN
             NaN             NaN             NaN
             NaN             NaN             NaN
             NaN             NaN             NaN
             NaN             NaN             NaN
             NaN             NaN             NaN
             NaN             NaN             NaN
             NaN             NaN             NaN
             NaN             NaN             NaN
             NaN             NaN             NaN
             NaN             NaN             NaN
             NaN             NaN             NaN
             NaN             NaN             NaN
             NaN             NaN             NaN
             NaN             NaN             NaN
             NaN             NaN             NaN
             NaN             NaN             NaN
             NaN             NaN             NaN
             NaN             NaN             NaN
             NaN             NaN             NaN
             NaN             NaN             NaN
             NaN             NaN             NaN
             NaN             NaN             NaN
             NaN             NaN             NaN
             NaN             NaN             NaN
             NaN             NaN             NaN
             NaN             NaN             NaN
             NaN             NaN             NaN
             NaN             NaN             NaN
             NaN             NaN             NaN
             NaN             NaN             NaN
             NaN             NaN             NaN
             NaN             NaN             NaN
             NaN             NaN             NaN
             NaN             NaN             NaN
             NaN             NaN             NaN
             NaN             NaN             NaN
             NaN             NaN             NaN
             NaN             NaN             NaN
             NaN             NaN             NaN
             NaN             NaN             NaN
             NaN             NaN             NaN
             NaN             NaN             NaN
             NaN             NaN             NaN
             NaN             NaN             NaN
             NaN             NaN             NaN
             NaN             NaN             NaN
             NaN             NaN             NaN
             NaN             NaN             NaN
             NaN             NaN             NaN
             NaN             NaN             NaN
             NaN             NaN             NaN
             NaN             NaN             NaN
             NaN             NaN             NaN
             NaN             NaN             NaN
             NaN             NaN             NaN
