Ca1 Co16 F48
1.0
10.685115 -0.004135 -0.036600
-0.002563 7.462802 -0.004604
-0.033821 -0.006853 10.384501
Ca Co F
1 16 48
direct
0.501876 1.001072 0.502093 Ca
0.000672 0.501616 0.249842 Co
0.000631 0.498531 0.750249 Co
0.497630 0.501189 0.237203 Co
0.496509 0.497813 0.762718 Co
0.240726 0.005532 0.498063 Co
0.246403 0.998627 -0.000469 Co
0.759749 -0.003214 0.497881 Co
0.753150 0.000526 -0.000224 Co
0.499722 -0.001784 0.238775 Co
0.499022 -0.000189 0.759113 Co
0.000728 0.001052 0.246567 Co
0.999701 -0.000281 0.752091 Co
0.245639 0.499168 0.000773 Co
0.244664 0.501282 0.500450 Co
0.754014 0.500487 -0.000726 Co
0.754083 0.500096 0.499123 Co
0.488642 0.250424 0.204135 F
0.483308 0.247237 0.707872 F
0.987293 0.249385 0.202607 F
0.993005 0.249921 0.699708 F
0.238966 0.258416 0.049432 F
0.250044 0.255063 0.549001 F
0.740982 0.249247 0.050044 F
0.745927 0.258556 0.546796 F
0.014959 0.753943 0.296050 F
0.008404 0.748199 0.797167 F
0.510932 0.747767 0.295794 F
0.514112 0.751926 0.798944 F
0.258718 0.747366 0.452625 F
0.254389 0.739699 0.951409 F
0.748994 0.740384 0.450988 F
0.762207 0.752017 0.949162 F
0.341904 0.551605 0.146615 F
0.355948 0.552056 0.645354 F
0.851528 0.552250 0.152684 F
0.849045 0.552639 0.644254 F
0.096244 0.955786 0.097008 F
0.100108 0.953242 0.598902 F
0.602519 0.948322 0.094540 F
0.600492 0.969836 0.602161 F
0.147819 0.054657 0.342797 F
0.153197 0.048063 0.846802 F
0.644872 0.049562 0.355728 F
0.646757 0.052689 0.847217 F
0.399298 0.461085 0.401936 F
0.392229 0.451411 0.910039 F
0.897590 0.458139 0.404991 F
0.900154 0.448293 0.898648 F
0.149219 0.447765 0.352176 F
0.153103 0.448724 0.853192 F
0.649099 0.445510 0.356696 F
0.648344 0.448457 0.849385 F
0.400206 0.034613 0.403851 F
0.400124 0.042693 0.905611 F
0.905825 0.044319 0.399298 F
0.901287 0.051872 0.902487 F
0.345864 0.949535 0.150307 F
0.359489 0.949268 0.650833 F
0.851581 0.950655 0.155453 F
0.850329 0.948141 0.650550 F
0.101575 0.546517 0.094492 F
0.102180 0.547860 0.599901 F
0.602149 0.550467 0.095176 F
0.604119 0.532894 0.595665 F
