Ca16 Mn32 O64
1.0
  10.1545100468488680   -0.0224014975803578    1.4451036315806540
   1.4500634706965927   10.9745216590332415    1.8959503734426182
   0.2076150644148400   -0.2517146734700598   12.9663572640351017
Ca Mn O
15 32 64
direct
   0.6960165712580948    0.3483168813599911    0.3002106582590827 Ca
   0.1960165712580947    0.3483168813599911    0.3002106582590827 Ca
   0.1960165712580947    0.3483168813599911    0.8002106582590826 Ca
   0.1960165712580947    0.8483168813599912    0.3002106582590827 Ca
   0.1960165712580948    0.8483168813599912    0.8002106582590827 Ca
   0.6960165712580948    0.3483168813599911    0.8002106582590828 Ca
   0.6960165712580949    0.8483168813599911    0.3002106582590827 Ca
   0.6960165712580947    0.8483168813599911    0.8002106582590827 Ca
   0.3634871820854028    0.3423290762303458    0.0303714818746443 Ca
   0.3634871820854028    0.8423290762303458    0.0303714818746443 Ca
   0.3634871820854029    0.8423290762303458    0.5303714818746442 Ca
   0.8634871820854029    0.3423290762303458    0.0303714818746443 Ca
   0.8634871820854029    0.3423290762303459    0.5303714818746442 Ca
   0.8634871820854029    0.8423290762303460    0.0303714818746443 Ca
   0.8634871820854030    0.8423290762303458    0.5303714818746442 Ca
   0.1490033660952771    0.0973759505707596    0.4705174071010930 Mn
   0.1490033660952771    0.0973759505707596    0.9705174071010930 Mn
   0.1490033660952771    0.5973759505707595    0.4705174071010930 Mn
   0.1490033660952771    0.5973759505707597    0.9705174071010929 Mn
   0.6490033660952771    0.0973759505707596    0.4705174071010930 Mn
   0.6490033660952772    0.0973759505707596    0.9705174071010930 Mn
   0.6490033660952772    0.5973759505707595    0.4705174071010930 Mn
   0.6490033660952772    0.5973759505707595    0.9705174071010930 Mn
   0.1461284124036576    0.1133388236175254    0.2124602883129335 Mn
   0.1461284124036576    0.1133388236175254    0.7124602883129335 Mn
   0.1461284124036577    0.6133388236175253    0.2124602883129335 Mn
   0.1461284124036577    0.6133388236175255    0.7124602883129334 Mn
   0.6461284124036577    0.1133388236175254    0.2124602883129335 Mn
   0.6461284124036577    0.1133388236175254    0.7124602883129335 Mn
   0.6461284124036578    0.6133388236175253    0.2124602883129335 Mn
   0.6461284124036577    0.6133388236175255    0.7124602883129335 Mn
   0.4133824700670797    0.0773093352478302    0.1181124146712321 Mn
   0.4133824700670797    0.0773093352478302    0.6181124146712320 Mn
   0.4133824700670798    0.5773093352478302    0.1181124146712321 Mn
   0.4133824700670798    0.5773093352478302    0.6181124146712321 Mn
   0.9133824700670798    0.0773093352478302    0.1181124146712321 Mn
   0.9133824700670798    0.0773093352478302    0.6181124146712320 Mn
   0.9133824700670798    0.5773093352478302    0.1181124146712321 Mn
   0.9133824700670800    0.5773093352478302    0.6181124146712321 Mn
   0.4105147233957047    0.0932616742138047    0.3600458445718505 Mn
   0.4105147233957047    0.0932616742138047    0.8600458445718505 Mn
   0.4105147233957047    0.5932616742138047    0.3600458445718505 Mn
   0.4105147233957047    0.5932616742138047    0.8600458445718505 Mn
   0.9105147233957047    0.0932616742138047    0.3600458445718505 Mn
   0.9105147233957047    0.0932616742138047    0.8600458445718504 Mn
   0.9105147233957048    0.5932616742138047    0.3600458445718505 Mn
   0.9105147233957048    0.5932616742138048    0.8600458445718505 Mn
   0.0076079793764282    0.4945808585510542    0.0023523982093605 O
   0.0076079793764282    0.4945808585510542    0.5023523982093605 O
   0.0076079793764282    0.9945808585510543    0.0023523982093605 O
   0.0076079793764282    0.9945808585510540    0.5023523982093604 O
   0.5076079793764283    0.4945808585510542    0.0023523982093605 O
   0.5076079793764283    0.4945808585510542    0.5023523982093605 O
   0.5076079793764283    0.9945808585510543    0.0023523982093605 O
   0.5076079793764283    0.9945808585510543    0.5023523982093604 O
   0.0161472333719587    0.0027263543066310    0.2552591248346949 O
   0.0161472333719587    0.0027263543066311    0.7552591248346949 O
   0.0161472333719587    0.5027263543066310    0.2552591248346949 O
   0.0161472333719587    0.5027263543066310    0.7552591248346948 O
   0.5161472333719588    0.0027263543066310    0.2552591248346949 O
   0.5161472333719588    0.0027263543066310    0.7552591248346948 O
   0.5161472333719588    0.5027263543066310    0.2552591248346948 O
   0.5161472333719589    0.5027263543066310    0.7552591248346948 O
   0.0433752860942150    0.1878933708446983    0.0752967352566953 O
   0.0433752860942150    0.1878933708446983    0.5752967352566953 O
   0.0433752860942150    0.6878933708446983    0.0752967352566953 O
   0.0433752860942150    0.6878933708446983    0.5752967352566952 O
   0.5433752860942151    0.1878933708446983    0.0752967352566953 O
   0.5433752860942150    0.1878933708446983    0.5752967352566952 O
   0.5433752860942151    0.6878933708446983    0.0752967352566953 O
   0.5433752860942151    0.6878933708446983    0.5752967352566952 O
   0.0519114127713204    0.1960846734643973    0.3281823797687259 O
   0.0519114127713204    0.1960846734643973    0.8281823797687260 O
   0.0519114127713204    0.6960846734643974    0.3281823797687259 O
   0.0519114127713204    0.6960846734643973    0.8281823797687259 O
   0.5519114127713205    0.1960846734643973    0.3281823797687259 O
   0.5519114127713205    0.1960846734643973    0.8281823797687259 O
   0.5519114127713205    0.6960846734643973    0.3281823797687259 O
   0.5519114127713206    0.6960846734643974    0.8281823797687259 O
   0.2669792052412812    0.4860594823296588    0.1451123923801315 O
   0.2669792052412812    0.4860594823296589    0.6451123923801315 O
   0.2669792052412812    0.9860594823296588    0.1451123923801315 O
   0.2669792052412812    0.9860594823296589    0.6451123923801315 O
   0.7669792052412813    0.4860594823296589    0.1451123923801315 O
   0.7669792052412814    0.4860594823296589    0.6451123923801314 O
   0.7669792052412814    0.9860594823296590    0.1451123923801315 O
   0.7669792052412814    0.9860594823296589    0.6451123923801315 O
   0.2737615288995938    0.4865426166384315    0.3938143998581588 O
   0.2737615288995938    0.4865426166384314    0.8938143998581588 O
   0.2737615288995938    0.9865426166384313    0.3938143998581588 O
   0.2737615288995938    0.9865426166384315    0.8938143998581587 O
   0.7737615288995938    0.4865426166384315    0.3938143998581588 O
   0.7737615288995940    0.4865426166384315    0.8938143998581588 O
   0.7737615288995940    0.9865426166384316    0.3938143998581587 O
   0.7737615288995939    0.9865426166384315    0.8938143998581588 O
   0.2857871178180743    0.2040987488134581    0.4367679626456216 O
   0.2857871178180743    0.2040987488134581    0.9367679626456216 O
   0.2857871178180743    0.7040987488134581    0.4367679626456216 O
   0.2857871178180743    0.7040987488134580    0.9367679626456217 O
   0.7857871178180743    0.2040987488134581    0.4367679626456216 O
   0.7857871178180744    0.2040987488134581    0.9367679626456216 O
   0.7857871178180744    0.7040987488134581    0.4367679626456216 O
   0.7857871178180743    0.7040987488134580    0.9367679626456216 O
   0.2925470111219077    0.2045831538114065    0.1854465122557770 O
   0.2925470111219077    0.2045831538114065    0.6854465122557770 O
   0.2925470111219077    0.7045831538114065    0.1854465122557770 O
   0.2925470111219078    0.7045831538114066    0.6854465122557769 O
   0.7925470111219078    0.2045831538114065    0.1854465122557770 O
   0.7925470111219077    0.2045831538114065    0.6854465122557769 O
   0.7925470111219077    0.7045831538114065    0.1854465122557770 O
   0.7925470111219078    0.7045831538114066    0.6854465122557769 O
