Ca1 Mn12 F42                            
   1.00000000000000     
     7.3276690000000002   -0.0358070000000000   -0.0683460000000000
    -3.6939510000000002    6.3792109999999997    0.0353020000000000
     0.0644840000000000   -0.0047920000000000   17.4741059999999990
   Ca   Mn   F 
     1    12    42
Direct
  0.4888919607490239  0.4249522247868726  0.6706286259537907
  0.3019001217617102  0.0109145045776157  0.3275891103367854
  0.7029771350012386  0.7170866806806508  0.0047458800721454
 -0.0193783010057186  0.2821802645641021  0.6680226167909993
  0.3239676229014424  0.9830070473780133  0.8403610700687730
  0.6788638798189269  0.6651862912442026  0.4870505918614240
  1.0094286337518570  0.3668523226319756  0.1677873784365227
  0.6666602255024415  0.1583278680760741  0.4872456556908270
  0.5093049712435251  0.3671545474197195  0.1682151661905578
  0.8224865784767987  0.4803257075869824  0.8379664900108365
  0.3185582602258141  0.4842679406909013  0.8526895325603457
  0.1727580225277041  0.6543107685112377  0.4955834025061925
  0.5095300002567459  0.8676666532470887  0.1675620954211590
  0.5697611734516316  0.8340751808371584  0.0657147966646753
  0.2142126961972251  0.4048043459678805  0.7483573866152370
  0.2072098960622825  0.7737886618652312  0.3869344945912657
  0.4428667733574925  0.2705905249126309  0.2696189479612219
  0.7877647374799448  0.5734233209841657  0.9411420548234641
  0.7677976414219670  0.1842640780892665  0.5884359075504756
  0.8372801570327044  0.0425499754343658  0.7173380367118930
  0.1950303067312004  0.1181912565560514  0.3886959540256329
  0.9273231874072879  0.8258294462193031  0.0619883010899887
  0.1604679923554705  0.2063527790004664  0.6228916477461278
  0.0917906299859753  0.8992485428567112  0.2635708763015968
  0.7913348297189894  0.9239304784028223  0.9402277063732977
  0.1402510409291620  0.5395089591311916  0.6120746145028018
  0.4532273021365983  0.9029028874505737  0.2692162463992298
  0.4283865736458720  0.5671656102580646  0.9519519248308769
  0.8330618584452231  0.3994855710691096  0.7209646880486036
  0.5656327277834543  0.1429924202299532  0.3866605709569575
  0.5728247027588382  0.4609046051337138  0.0670969763139938
  0.3817185573391336  0.5759064800059479  0.4757565153062238
  0.2227071074936261  0.6586338947601641  0.1502816852491497
  0.4004261782523606  0.7651420213474123  0.8196548932439679
  0.6172826102788569  0.1961411221533237  0.8602710082198651
  0.5914375080250908  0.3750064925088677  0.5184006597004425
  0.7953178369899013  0.4422262707407279  0.1869663934576092
  0.7039676405608892  0.6178385439332511  0.3910885691813048
  0.9455712964977682  0.3373047336315987  0.0690855881825734
  0.3679539475896918  0.0844023874125990  0.7412093920457070
  0.2855147266735369  0.8990858684244298  0.9358103819466504
  0.6489430797830199  0.7014643890710365  0.5914824371069867
  0.0733364303009339  0.3963286727713862  0.2664375831304183
  0.9647442619901503  0.7377154459622751  0.5110588325935081
  0.7974218281006784  0.0746344949230108  0.1847468065014703
  0.2554888180024898  0.2016544645485450  0.8684841045152345
  0.0341677862805565  0.7647349358057361  0.8140005260843659
  0.7442458855610680  0.9454610683858367  0.4659089195417387
  0.2228820432512051  0.2906071578954492  0.1492343220559833
  0.6034014458822470  0.5308072803348557  0.7968758781985885
  0.9525154382515432  0.3874264576482194  0.4624080617326100
  0.4518551253091043  0.1010787413222267  0.1376709254714785
  0.3918273412247914  0.9301045590967529  0.5247839863218837
  0.5669750729606535  0.6331506114170260  0.1981940481487662
  0.0283800381556177  0.4267459290840244  0.8755413469121841
 
             NaN             NaN             NaN
             NaN             NaN             NaN
             NaN             NaN             NaN
             NaN             NaN             NaN
             NaN             NaN             NaN
             NaN             NaN             NaN
             NaN             NaN             NaN
             NaN             NaN             NaN
             NaN             NaN             NaN
             NaN             NaN             NaN
             NaN             NaN             NaN
             NaN             NaN             NaN
             NaN             NaN             NaN
             NaN             NaN             NaN
             NaN             NaN             NaN
             NaN             NaN             NaN
             NaN             NaN             NaN
             NaN             NaN             NaN
             NaN             NaN             NaN
             NaN             NaN             NaN
             NaN             NaN             NaN
             NaN             NaN             NaN
             NaN             NaN             NaN
             NaN             NaN             NaN
             NaN             NaN             NaN
             NaN             NaN             NaN
             NaN             NaN             NaN
             NaN             NaN             NaN
             NaN             NaN             NaN
             NaN             NaN             NaN
             NaN             NaN             NaN
             NaN             NaN             NaN
             NaN             NaN             NaN
             NaN             NaN             NaN
             NaN             NaN             NaN
             NaN             NaN             NaN
             NaN             NaN             NaN
             NaN             NaN             NaN
             NaN             NaN             NaN
             NaN             NaN             NaN
             NaN             NaN             NaN
             NaN             NaN             NaN
             NaN             NaN             NaN
             NaN             NaN             NaN
             NaN             NaN             NaN
             NaN             NaN             NaN
             NaN             NaN             NaN
             NaN             NaN             NaN
             NaN             NaN             NaN
             NaN             NaN             NaN
             NaN             NaN             NaN
             NaN             NaN             NaN
             NaN             NaN             NaN
             NaN             NaN             NaN
             NaN             NaN             NaN
