Ca1 Mn12 F42
1.0
7.327669 -0.035807 -0.068346
-3.693951 6.379211 0.035302
0.064484 -0.004792 17.474106
Ca Mn F
1 12 42
direct
0.504290 0.485917 0.665375 Ca
0.293528 1.001886 0.329141 Mn
0.707047 0.710319 0.004923 Mn
0.000334 0.297417 0.666742 Mn
0.347957 0.997103 0.839283 Mn
0.653294 0.647020 0.494432 Mn
0.998688 0.352705 0.166824 Mn
0.650214 0.144986 0.491877 Mn
0.499964 0.354367 0.166514 Mn
0.849754 0.496877 0.837703 Mn
0.352403 0.501699 0.841310 Mn
0.151344 0.645103 0.495771 Mn
0.497431 0.853323 0.166912 Mn
0.561754 0.817678 0.064974 F
0.264005 0.443567 0.735657 F
0.189791 0.763145 0.392043 F
0.437413 0.255882 0.268517 F
0.811765 0.579003 0.941643 F
0.748941 0.179966 0.595681 F
0.872018 0.068578 0.723791 F
0.195462 0.117717 0.390554 F
0.920916 0.811729 0.067330 F
0.154342 0.209264 0.614410 F
0.077589 0.889741 0.267583 F
0.806272 0.926405 0.944114 F
0.126705 0.549723 0.606715 F
0.433978 0.884465 0.269065 F
0.446379 0.566812 0.943526 F
0.859450 0.417331 0.722459 F
0.555809 0.122023 0.389534 F
0.562855 0.449340 0.064314 F
0.362418 0.568184 0.478063 F
0.211459 0.644086 0.148095 F
0.434688 0.794713 0.816854 F
0.637013 0.207424 0.858108 F
0.565965 0.356348 0.521833 F
0.786689 0.431440 0.184845 F
0.683778 0.605066 0.398275 F
0.933864 0.319908 0.068193 F
0.389565 0.072918 0.736193 F
0.308577 0.922291 0.935278 F
0.618334 0.674501 0.598619 F
0.063438 0.385463 0.265440 F
0.939796 0.720982 0.517119 F
0.784482 0.061801 0.185338 F
0.271560 0.207321 0.856259 F
0.063246 0.786045 0.813630 F
0.730664 0.930611 0.477076 F
0.212143 0.275901 0.148834 F
0.627670 0.544073 0.797493 F
0.932127 0.373516 0.464681 F
0.442902 0.086208 0.136339 F
0.373600 0.919991 0.530473 F
0.554987 0.620725 0.197021 F
0.067706 0.443776 0.866306 F
