V24 Zn1 O60
1.0
11.539504 0.000279 -0.000428
0.000972 10.718164 -0.000927
-0.000208 -0.000878 9.482670
Zn V O
1 24 60
direct
0.250245 0.249852 0.182790 Zn
0.104782 0.088217 0.450225 V
0.104850 0.410961 0.449769 V
0.101601 0.749726 0.430461 V
0.100276 0.082116 0.947664 V
0.100300 0.418174 0.947701 V
0.101247 0.750086 0.947163 V
0.897620 0.250172 0.053030 V
0.899386 0.583254 0.058524 V
0.899376 0.917143 0.058312 V
0.899064 0.249809 0.559525 V
0.899521 0.583125 0.543379 V
0.899522 0.916241 0.543978 V
0.395241 0.088556 0.450260 V
0.395282 0.411314 0.450369 V
0.398422 0.749908 0.431079 V
0.399641 0.082317 0.947727 V
0.399653 0.418186 0.947477 V
0.398645 0.750277 0.946483 V
0.602342 0.250285 0.053162 V
0.600500 0.583370 0.057959 V
0.600497 0.917101 0.058074 V
0.601047 0.249859 0.559797 V
0.600524 0.583314 0.544320 V
0.600494 0.916499 0.544302 V
0.128372 0.117364 0.282307 O
0.128884 0.381147 0.281950 O
0.108646 0.750085 0.261760 O
0.111835 0.078175 0.779824 O
0.111639 0.422081 0.779841 O
0.104190 0.749894 0.778455 O
0.891820 0.250002 0.221741 O
0.896200 0.579035 0.227371 O
0.896249 0.921491 0.227149 O
0.894803 0.250190 0.728274 O
0.896749 0.585593 0.712012 O
0.896591 0.913535 0.712606 O
0.371505 0.118044 0.282348 O
0.371736 0.381997 0.282418 O
0.391678 0.749869 0.262373 O
0.388187 0.078792 0.779865 O
0.388304 0.421552 0.779590 O
0.395336 0.750360 0.777771 O
0.608291 0.250381 0.221863 O
0.603349 0.579364 0.226800 O
0.603484 0.921014 0.226927 O
0.605472 0.249816 0.728540 O
0.603821 0.585780 0.712956 O
0.603562 0.914227 0.712946 O
0.934228 0.086351 0.500004 O
0.934238 0.413022 0.499193 O
0.931577 0.749741 0.490887 O
0.931115 0.082670 0.999438 O
0.931086 0.417704 0.999802 O
0.932083 0.750174 0.007125 O
0.066713 0.250174 0.000632 O
0.072887 0.581826 0.003394 O
0.072912 0.918488 0.003188 O
0.076233 0.249736 0.518526 O
0.068825 0.581506 0.479117 O
0.068860 0.917805 0.480014 O
0.565819 0.086527 0.499897 O
0.565840 0.413224 0.500095 O
0.568419 0.749897 0.491810 O
0.568757 0.082774 0.999748 O
0.568819 0.417713 0.999529 O
0.567784 0.750257 0.006321 O
0.433113 0.250276 0.001189 O
0.427011 0.581946 0.002518 O
0.426958 0.918570 0.002826 O
0.423839 0.249888 0.518798 O
0.431224 0.581745 0.480338 O
0.431185 0.918066 0.480149 O
0.249940 0.105416 0.015375 O
0.250005 0.395251 0.015035 O
0.250033 0.750204 0.998689 O
0.250051 0.077528 0.513429 O
0.249932 0.422079 0.513297 O
0.249935 0.749733 0.487841 O
0.750019 0.249745 0.506190 O
0.749900 0.579387 0.491757 O
0.749963 0.920175 0.492094 O
0.749962 0.250209 0.995608 O
0.750008 0.584593 0.005889 O
0.749959 0.915905 0.005806 O
