Ca1 V16 F48
1.0
15.651459 0.000136 -0.000194
0.000100 7.823424 0.000094
-0.000116 -0.000055 7.821896
Ca V F
1 16 48
direct
0.749998 0.500003 0.500006 Ca
0.126017 0.250061 0.250034 V
0.622178 0.246710 0.246766 V
0.126017 0.250060 0.749966 V
0.622180 0.246707 0.753236 V
0.126016 0.749938 0.250034 V
0.622181 0.753295 0.246760 V
0.126016 0.749940 0.749966 V
0.622178 0.753295 0.753241 V
0.373984 0.250061 0.250033 V
0.877821 0.246705 0.246764 V
0.373982 0.250061 0.749967 V
0.877820 0.246709 0.753233 V
0.373981 0.749940 0.250033 V
0.877820 0.753289 0.246764 V
0.373984 0.749939 0.749966 V
0.877822 0.753289 0.753240 V
0.001231 0.250939 0.250992 F
0.498764 0.250938 0.250991 F
0.001240 0.250938 0.749010 F
0.498768 0.250938 0.749011 F
0.001240 0.749062 0.250984 F
0.498769 0.749061 0.250988 F
0.001231 0.749062 0.749011 F
0.498763 0.749061 0.749012 F
0.250004 0.249777 0.249777 F
0.749998 0.264847 0.264714 F
0.249997 0.249778 0.750221 F
0.749998 0.264846 0.735280 F
0.249993 0.750223 0.249783 F
0.749999 0.735153 0.264722 F
0.250005 0.750222 0.750218 F
0.750001 0.735152 0.735280 F
0.125486 0.250018 0.999997 F
0.625704 0.252647 0.000000 F
0.125448 0.250014 0.500003 F
0.631891 0.264944 0.499999 F
0.125487 0.749981 0.000008 F
0.625707 0.747353 0.000003 F
0.125444 0.749985 0.499992 F
0.631894 0.735051 0.499994 F
0.374514 0.250024 0.000009 F
0.874296 0.252649 0.000012 F
0.374552 0.250010 0.499991 F
0.868107 0.264944 0.499991 F
0.374512 0.749977 0.999992 F
0.874296 0.747352 0.999995 F
0.374554 0.749990 0.500007 F
0.868110 0.735055 0.500009 F
0.125491 0.999993 0.250010 F
0.625725 0.999998 0.252862 F
0.125492 0.000005 0.749992 F
0.625722 0.000001 0.747139 F
0.125442 0.500006 0.250017 F
0.631793 0.500005 0.264668 F
0.125442 0.499995 0.749981 F
0.631789 0.499998 0.735343 F
0.374507 0.000009 0.250003 F
0.874280 0.000005 0.252850 F
0.374508 0.999992 0.749995 F
0.874277 0.999988 0.747142 F
0.374556 0.499992 0.250023 F
0.868214 0.499997 0.264657 F
0.374558 0.500009 0.749977 F
0.868208 0.500009 0.735335 F
