Mg8 Ti16 O32
1.0
        8.4932918549         0.0000000000         0.0000000000
        0.0000000000         8.4932918549         0.0000000000
        0.0000000000         0.0000000000         8.4932918549
   Mg   Ti    O
    7   16   32
Direct
   0.0000000000000000    1.0000000000000000    0.5000000000000000 Mg
     0.250000000         0.250000000         0.750000000
     0.000000000         0.500000000         0.000000000
     0.750000000         0.250000000         0.250000000
     0.500000000         0.500000000         0.500000000
     0.750000000         0.750000000         0.750000000
     0.500000000         0.000000000         0.000000000
     0.875000000         0.875000000         0.125000000
     0.625000000         0.875000000         0.375000000
     0.625000000         0.625000000         0.125000000
     0.875000000         0.625000000         0.375000000
     0.875000000         0.375000000         0.625000000
     0.625000000         0.375000000         0.875000000
     0.625000000         0.125000000         0.625000000
     0.875000000         0.125000000         0.875000000
     0.375000000         0.875000000         0.625000000
     0.125000000         0.875000000         0.875000000
     0.125000000         0.625000000         0.625000000
     0.375000000         0.625000000         0.875000000
     0.375000000         0.375000000         0.125000000
     0.125000000         0.375000000         0.375000000
     0.125000000         0.125000000         0.125000000
     0.375000000         0.125000000         0.375000000
     0.867025554         0.632974446         0.132974446
     0.132974446         0.632974446         0.867025554
     0.867025554         0.367025554         0.867025554
     0.382974446         0.117025562         0.617025554
     0.117025562         0.382974446         0.617025554
     0.117025562         0.117025562         0.882974446
     0.132974446         0.367025554         0.132974446
     0.382974446         0.382974446         0.882974446
     0.867025554         0.132974446         0.632974446
     0.132974446         0.132974446         0.367025554
     0.867025554         0.867025554         0.367025554
     0.382974446         0.617025554         0.117025562
     0.117025562         0.882974446         0.117025562
     0.117025562         0.617025554         0.382974446
     0.132974446         0.867025554         0.632974446
     0.382974446         0.882974446         0.382974446
     0.367025554         0.632974446         0.632974446
     0.632974446         0.632974446         0.367025554
     0.367025554         0.367025554         0.367025554
     0.882974446         0.117025562         0.117025562
     0.617025554         0.382974446         0.117025562
     0.617025554         0.117025562         0.382974446
     0.632974446         0.367025554         0.632974446
     0.882974446         0.382974446         0.382974446
     0.367025554         0.132974446         0.132974446
     0.632974446         0.132974446         0.867025554
     0.367025554         0.867025554         0.867025554
     0.882974446         0.617025554         0.617025554
     0.617025554         0.882974446         0.617025554
     0.617025554         0.617025554         0.882974446
     0.632974446         0.867025554         0.132974446
     0.882974446         0.882974446         0.882974446
