Na2 Ca2 V4 Si4 P2 O24                   
   1.00000000000000     
     8.8599870000000003    0.1355290000000000    0.0698880000000000
     4.2880349999999998    7.6702230000000000    0.0544800000000000
     4.4241900000000003    2.5334560000000002    7.2527460000000001
   Ca   Na   V    Si   P    O 
     2     2     4     4     2    24
Direct
  0.5367665409476657  0.6645096170257109  0.3536996618690580
 -0.0047985701730231  1.0074853303697791  1.0001105977044029
  0.1071109776700735  0.7511084013995993  0.3917998513903397
  0.8767394698841402  0.2515985004650847  0.6002662935321963
  0.3675826631688044  0.3567112409763568  0.3538602660557921
  0.6562975857600067  0.6361909719447149  0.6569277537309036
  0.1545115364097031  0.1476205202574246  0.1315663675406031
  0.8467887191645406  0.8569289156243810  0.8544049481742106
  0.0377270687391280  0.4560725050112649  0.7530261408175487
  0.7486957795853476  0.0373944075937037  0.4690506348708291
  0.4577925930821554  0.7543633211858208  0.0327390869104210
  0.5390839654367408  0.2590918824131613  0.9549291140751266
  0.9800801434324938  0.5465686046893523  0.2397970733547903
  0.2531707504089780  0.9679211776900483  0.5347915462616694
  0.2213808802882539  0.4464232907331342  0.5660320679404554
  0.7945211116404503  0.5581387919442057  0.4136286524832569
  0.5637976458413578  0.2116469956753054  0.4388088987029625
  0.4365542555210711  0.8090213141648166  0.5544263420078890
  0.4398954939241964  0.5804266790958805  0.2285620246429773
  0.5623405837042457  0.4307718280016503  0.7585802564722230
  0.9300605346218861  0.0663459616482649  0.2778797942835691
  0.0865419404035810  0.9415449020663330  0.7206836432184810
  0.0650046590215139  0.2699339776793874  0.9306113730666343
  0.9360133230411553  0.7276844321086529  0.0783129340031328
  0.2587280285178291  0.9214507758141098  0.0604787973138834
  0.7369468551025218  0.0842234849648819  0.9367491320158874
  0.4819851924115857  0.3099900472301937  0.1368867157439468
  0.5077056756753779  0.7009756358957855  0.8595992411204672
  0.1331081401480340  0.5449364863461377  0.2744902998013676
  0.8644637284335643  0.4654913668471315  0.7220930856261579
  0.2514377552563984  0.1628041674146491  0.4861549728923925
  0.7512977712407539  0.8315024111224405  0.5104742823192688
  0.3675784074327678  0.1929675029553291  0.0077473611103285
  0.6230896115078778  0.8027608640420179  0.0174203139715538
  0.2324976693395392  0.9540776353386907  0.3769643219297319
  0.7805052321177424  0.0225826848222771  0.6432114386041443
  0.0212469336369607  0.3668778659811129  0.2145980718387304
  0.9816619430616753  0.6507833454099764  0.7851878908282740
 
             NaN             NaN             NaN
             NaN             NaN             NaN
             NaN             NaN             NaN
             NaN             NaN             NaN
             NaN             NaN             NaN
             NaN             NaN             NaN
             NaN             NaN             NaN
             NaN             NaN             NaN
             NaN             NaN             NaN
             NaN             NaN             NaN
             NaN             NaN             NaN
             NaN             NaN             NaN
             NaN             NaN             NaN
             NaN             NaN             NaN
             NaN             NaN             NaN
             NaN             NaN             NaN
             NaN             NaN             NaN
             NaN             NaN             NaN
             NaN             NaN             NaN
             NaN             NaN             NaN
             NaN             NaN             NaN
             NaN             NaN             NaN
             NaN             NaN             NaN
             NaN             NaN             NaN
             NaN             NaN             NaN
             NaN             NaN             NaN
             NaN             NaN             NaN
             NaN             NaN             NaN
             NaN             NaN             NaN
             NaN             NaN             NaN
             NaN             NaN             NaN
             NaN             NaN             NaN
             NaN             NaN             NaN
             NaN             NaN             NaN
             NaN             NaN             NaN
             NaN             NaN             NaN
             NaN             NaN             NaN
             NaN             NaN             NaN
