Na2 Ca2 V4 Si4 P2 O24
1.0
8.859987 0.135529 0.069888
4.288035 7.670223 0.054480
4.424190 2.533456 7.252746
Ca Na V Si P O
2 2 4 4 2 24
direct
0.538920 0.640585 0.407173 Ca
0.009052 0.999157 -0.006327 Ca
0.124681 0.751099 0.392999 Na
0.867611 0.253742 0.594537 Na
0.368529 0.354388 0.354773 V
0.646321 0.640758 0.654527 V
0.150831 0.148572 0.132562 V
0.849460 0.852904 0.852404 V
0.035402 0.456064 0.752635 Si
0.747936 0.037370 0.463713 Si
0.463065 0.749386 0.038515 Si
0.538738 0.252314 0.961369 Si
0.969424 0.542714 0.245588 P
0.251863 0.963072 0.536239 P
0.224863 0.445020 0.570726 O
0.778550 0.560996 0.410957 O
0.569284 0.226227 0.439724 O
0.422468 0.784649 0.558863 O
0.438799 0.575240 0.229634 O
0.562400 0.423870 0.766931 O
0.930784 0.057337 0.275522 O
0.080704 0.945242 0.719304 O
0.059226 0.268310 0.929675 O
0.942402 0.725373 0.078450 O
0.264485 0.917954 0.064221 O
0.737394 0.078690 0.940138 O
0.488335 0.291818 0.145607 O
0.510304 0.704453 0.858409 O
0.123876 0.524901 0.292293 O
0.862876 0.482916 0.708027 O
0.276193 0.140403 0.501957 O
0.722346 0.850235 0.496383 O
0.366263 0.194332 0.004875 O
0.632791 0.801182 1.006767 O
0.216350 0.979852 0.373884 O
0.785426 0.011388 0.639775 O
0.010421 0.366997 0.213127 O
0.988906 0.646591 0.784979 O
