Ca16 Ti32 O64
1.0
   9.9165398438393098   -0.0000009356568134   -2.5000798992102546
  -0.0000006978263916   11.8093010059152963    0.0000016321741792
   0.0041732797034186    0.0000016296177256   11.7431126972042890
Ca Ti O
15 32 64
direct
   0.3466203479730084    0.8750000672760869    0.5026063391546245 Ca
   0.1533740691914396    0.1249997181699385    0.4973932924773478 Ca
   0.1533740691914396    0.1249997181699385    0.9973932924773479 Ca
   0.1533740691914396    0.6249997181699385    0.4973932924773478 Ca
   0.1533740691914396    0.6249997181699385    0.9973932924773476 Ca
   0.6533740691914397    0.1249997181699385    0.4973932924773479 Ca
   0.6533740691914396    0.1249997181699385    0.9973932924773478 Ca
   0.6533740691914397    0.6249997181699384    0.9973932924773478 Ca
   0.3466203479730083    0.3750000672760869    0.0026063391546245 Ca
   0.3466203479730084    0.3750000672760869    0.5026063391546245 Ca
   0.3466203479730084    0.8750000672760868    0.0026063391546245 Ca
   0.8466203479730083    0.3750000672760869    0.0026063391546245 Ca
   0.8466203479730084    0.3750000672760869    0.5026063391546245 Ca
   0.8466203479730084    0.8750000672760868    0.0026063391546245 Ca
   0.8466203479730082    0.8750000672760869    0.5026063391546245 Ca
   0.0000024724232688    0.2500050154248186    0.2499994759997932 Ti
   0.0000024724232688    0.2500050154248186    0.7499994759997931 Ti
   0.0000024724232688    0.7500050154248186    0.2499994759997932 Ti
   0.0000024724232688    0.7500050154248186    0.7499994759997931 Ti
   0.5000024724232688    0.2500050154248186    0.2499994759997932 Ti
   0.5000024724232689    0.2500050154248186    0.7499994759997931 Ti
   0.5000024724232688    0.7500050154248186    0.2499994759997932 Ti
   0.5000024724232688    0.7500050154248186    0.7499994759997931 Ti
   0.0000024385170043    0.4999950488494775    0.2499994531576988 Ti
   0.0000024385170043    0.4999950488494775    0.7499994531576988 Ti
   0.0000024385170043    0.9999950488494777    0.2499994531576988 Ti
   0.0000024385170043    0.9999950488494775    0.7499994531576988 Ti
   0.5000024385170043    0.4999950488494775    0.2499994531576988 Ti
   0.5000024385170042    0.4999950488494775    0.7499994531576988 Ti
   0.5000024385170043    0.9999950488494775    0.2499994531576988 Ti
   0.5000024385170043    0.9999950488494774    0.7499994531576988 Ti
   0.2675280145562162    0.1250000871547847    0.2596756968125149 Ti
   0.2675280145562162    0.1250000871547847    0.7596756968125149 Ti
   0.2675280145562162    0.6250000871547846    0.2596756968125149 Ti
   0.2675280145562163    0.6250000871547847    0.7596756968125148 Ti
   0.7675280145562163    0.1250000871547847    0.2596756968125149 Ti
   0.7675280145562163    0.1250000871547847    0.7596756968125149 Ti
   0.7675280145562162    0.6250000871547846    0.2596756968125148 Ti
   0.7675280145562162    0.6250000871547847    0.7596756968125149 Ti
   0.2324710839756640    0.3749999511012305    0.2403243374444130 Ti
   0.2324710839756640    0.3749999511012305    0.7403243374444131 Ti
   0.2324710839756641    0.8749999511012305    0.2403243374444130 Ti
   0.2324710839756641    0.8749999511012305    0.7403243374444131 Ti
   0.7324710839756641    0.3749999511012305    0.2403243374444130 Ti
   0.7324710839756642    0.3749999511012305    0.7403243374444129 Ti
   0.7324710839756640    0.8749999511012305    0.2403243374444130 Ti
   0.7324710839756640    0.8749999511012305    0.7403243374444129 Ti
   0.0626466259900517    0.1250002089607208    0.1617262473895913 O
   0.0626466259900517    0.1250002089607208    0.6617262473895913 O
   0.0626466259900517    0.6250002089607207    0.1617262473895913 O
   0.0626466259900518    0.6250002089607208    0.6617262473895913 O
   0.5626466259900518    0.1250002089607208    0.1617262473895913 O
   0.5626466259900518    0.1250002089607208    0.6617262473895912 O
   0.5626466259900517    0.6250002089607207    0.1617262473895913 O
   0.5626466259900518    0.6250002089607207    0.6617262473895912 O
   0.4373512358553632    0.3749998441423514    0.3382718827064294 O
   0.4373512358553632    0.3749998441423514    0.8382718827064294 O
   0.4373512358553632    0.8749998441423513    0.3382718827064294 O
   0.4373512358553632    0.8749998441423514    0.8382718827064294 O
   0.9373512358553631    0.3749998441423513    0.3382718827064294 O
   0.9373512358553634    0.3749998441423514    0.8382718827064295 O
   0.9373512358553633    0.8749998441423513    0.3382718827064294 O
   0.9373512358553632    0.8749998441423513    0.8382718827064294 O
   0.4538182511701549    0.1249999432272659    0.3592168417393040 O
   0.4538182511701550    0.1249999432272659    0.8592168417393039 O
   0.4538182511701549    0.6249999432272659    0.3592168417393040 O
   0.4538182511701550    0.6249999432272660    0.8592168417393039 O
   0.9538182511701550    0.1249999432272659    0.3592168417393040 O
   0.9538182511701550    0.1249999432272659    0.8592168417393040 O
   0.9538182511701550    0.6249999432272659    0.3592168417393040 O
   0.9538182511701548    0.6249999432272659    0.8592168417393040 O
   0.0461884426864927    0.3750001055002308    0.1407849047201708 O
   0.0461884426864927    0.3750001055002308    0.6407849047201708 O
   0.0461884426864927    0.8750001055002308    0.1407849047201708 O
   0.0461884426864927    0.8750001055002309    0.6407849047201708 O
   0.5461884426864928    0.3750001055002307    0.1407849047201708 O
   0.5461884426864927    0.3750001055002307    0.6407849047201708 O
   0.5461884426864927    0.8750001055002308    0.1407849047201708 O
   0.5461884426864928    0.8750001055002308    0.6407849047201707 O
   0.1998653394077899    0.2517017248699389    0.3558498663819094 O
   0.1998653394077899    0.2517017248699389    0.8558498663819093 O
   0.1998653394077899    0.7517017248699389    0.3558498663819094 O
   0.1998653394077899    0.7517017248699389    0.8558498663819093 O
   0.6998653394077899    0.2517017248699389    0.3558498663819094 O
   0.6998653394077898    0.2517017248699389    0.8558498663819094 O
   0.6998653394077898    0.7517017248699389    0.3558498663819094 O
   0.6998653394077899    0.7517017248699389    0.8558498663819093 O
   0.3001331858920651    0.0016909984349134    0.1441510045181502 O
   0.3001331858920651    0.0016909984349134    0.6441510045181501 O
   0.3001331858920651    0.5016909984349134    0.1441510045181502 O
   0.3001331858920651    0.5016909984349133    0.6441510045181501 O
   0.8001331858920651    0.0016909984349134    0.1441510045181502 O
   0.8001331858920651    0.0016909984349134    0.6441510045181502 O
   0.8001331858920651    0.5016909984349133    0.1441510045181502 O
   0.8001331858920652    0.5016909984349133    0.6441510045181502 O
   0.3001331695202828    0.2483091531579084    0.1441509321952203 O
   0.3001331695202829    0.2483091531579084    0.6441509321952202 O
   0.3001331695202829    0.7483091531579084    0.1441509321952203 O
   0.3001331695202828    0.7483091531579084    0.6441509321952202 O
   0.8001331695202829    0.2483091531579084    0.1441509321952203 O
   0.8001331695202829    0.2483091531579084    0.6441509321952203 O
   0.8001331695202828    0.7483091531579084    0.1441509321952203 O
   0.8001331695202829    0.7483091531579084    0.6441509321952203 O
   0.1998653228412018    0.4982981337303372    0.3558497253028321 O
   0.1998653228412018    0.4982981337303372    0.8558497253028321 O
   0.1998653228412018    0.9982981337303372    0.3558497253028321 O
   0.1998653228412018    0.9982981337303373    0.8558497253028321 O
   0.6998653228412017    0.4982981337303372    0.3558497253028321 O
   0.6998653228412020    0.4982981337303372    0.8558497253028320 O
   0.6998653228412016    0.9982981337303370    0.3558497253028320 O
   0.6998653228412017    0.9982981337303373    0.8558497253028320 O
