Ca1 Mn12 F42
1.0
7.330625 -0.005818 -0.042390
-3.667678 6.436344 -0.116050
0.123047 -0.380402 17.437075
Ca Mn F
1 12 42
direct
0.864615 -0.000615 0.833341 Ca
0.290485 0.998968 0.333770 Mn
0.687853 0.665511 0.010124 Mn
0.022785 0.332635 0.656760 Mn
0.362750 -0.000918 0.833258 Mn
0.652228 0.665595 0.497012 Mn
0.984643 0.330904 0.169919 Mn
0.651353 0.165803 0.496356 Mn
0.485037 0.331597 0.170750 Mn
0.862781 0.497778 0.834416 Mn
0.364371 0.500882 0.832478 Mn
0.152485 0.665885 0.496428 Mn
0.483040 0.831264 0.170618 Mn
0.539102 0.782569 0.069113 F
0.263475 0.453214 0.728245 F
0.184769 0.758127 0.392423 F
0.424769 0.239038 0.274766 F
0.808034 0.544914 0.938641 F
0.757107 0.215392 0.597758 F
0.906384 0.098652 0.714956 F
0.192481 0.114468 0.397019 F
0.901140 0.769473 0.073844 F
0.133468 0.230241 0.592936 F
0.075571 0.883621 0.271178 F
0.806049 0.899238 0.951666 F
0.127666 0.580298 0.602215 F
0.430884 0.876804 0.273351 F
0.446719 0.544054 0.940501 F
0.902896 0.453871 0.726540 F
0.553928 0.119995 0.393569 F
0.546305 0.417890 0.064804 F
0.359798 0.588771 0.478968 F
0.197547 0.621330 0.154366 F
0.469362 0.801275 0.823570 F
0.667485 0.196062 0.843321 F
0.575582 0.375488 0.512585 F
0.769284 0.408286 0.188086 F
0.679100 0.628951 0.397910 F
0.922659 0.295454 0.070182 F
0.376860 0.026462 0.732560 F
0.347281 0.971543 0.933960 F
0.625584 0.701216 0.596795 F
0.048280 0.367307 0.269020 F
0.945173 0.743032 0.515287 F
0.769680 0.041620 0.185569 F
0.257780 0.198676 0.841952 F
0.057777 0.801058 0.824338 F
0.727296 0.955193 0.481532 F
0.200517 0.253811 0.151550 F
0.653516 0.580306 0.804698 F
0.919101 0.375325 0.467182 F
0.425112 0.038554 0.140555 F
0.385691 0.958510 0.526580 F
0.541012 0.621942 0.199670 F
0.072261 0.418064 0.862268 F
