Tm16 Mg8 Se32
1.0
       11.4993362427         0.0000000000         0.0000000000
        0.0000000000        11.4993362427         0.0000000000
        0.0000000000         0.0000000000        11.4993362427
Mg   Tm   Mg   Se
1   16    6   32
Direct
     0.750000000         0.750000000         0.250000000
     0.375000000         0.125000000         0.875000000
     0.625000000         0.125000000         0.125000000
     0.625000000         0.875000000         0.875000000
     0.375000000         0.375000000         0.625000000
     0.375000000         0.625000000         0.375000000
     0.625000000         0.625000000         0.625000000
     0.625000000         0.375000000         0.375000000
     0.375000000         0.875000000         0.125000000
     0.875000000         0.125000000         0.375000000
     0.125000000         0.125000000         0.625000000
     0.125000000         0.875000000         0.375000000
     0.875000000         0.375000000         0.125000000
     0.875000000         0.625000000         0.875000000
     0.125000000         0.625000000         0.125000000
     0.125000000         0.375000000         0.875000000
     0.875000000         0.875000000         0.625000000
     0.000000000         0.500000000         0.500000000
     0.750000000         0.250000000         0.750000000
     0.000000000         0.000000000         0.000000000
     0.250000000         0.750000000         0.750000000
     0.250000000         0.250000000         0.250000000
     0.500000000         0.000000000         0.500000000
     0.130271375         0.130271375         0.869728625
     0.619728625         0.880271375         0.119728617
     0.619728625         0.119728617         0.880271375
     0.369728625         0.369728625         0.869728625
     0.130271375         0.369728625         0.630271375
     0.380271375         0.119728617         0.119728617
     0.380271375         0.880271375         0.880271375
     0.369728625         0.130271375         0.630271375
     0.130271375         0.630271375         0.369728625
     0.619728625         0.380271375         0.619728625
     0.619728625         0.619728625         0.380271375
     0.369728625         0.869728625         0.369728625
     0.130271375         0.869728625         0.130271375
     0.380271375         0.619728625         0.619728625
     0.380271375         0.380271375         0.380271375
     0.369728625         0.630271375         0.130271375
     0.630271375         0.130271375         0.369728625
     0.119728617         0.880271375         0.619728625
     0.119728617         0.119728617         0.380271375
     0.869728625         0.369728625         0.369728625
     0.630271375         0.369728625         0.130271375
     0.880271375         0.119728617         0.619728625
     0.880271375         0.880271375         0.380271375
     0.869728625         0.130271375         0.130271375
     0.630271375         0.630271375         0.869728625
     0.119728617         0.380271375         0.119728617
     0.119728617         0.619728625         0.880271375
     0.869728625         0.869728625         0.869728625
     0.630271375         0.869728625         0.630271375
     0.880271375         0.619728625         0.119728617
     0.880271375         0.380271375         0.880271375
     0.869728625         0.630271375         0.630271375
