Li128 Fe128 B128 O384
1.0
  20.6946640013999996    0.0000000000000000    0.0000000000000000
   0.0000000000000000   18.0594463348000005    0.0000000000000000
  -0.4970251096000000    0.0000000000000000   20.9671227677999994
Li Fe B O
127 128 128 384
direct
   0.6693354994999999    0.6292220055000000    0.3967534899999999 Li
   0.1695764960000000    0.3798995020000000    0.2711130085000000 Li
   0.1695764960000000    0.3798995020000000    0.7711130085000001 Li
   0.1695764960000000    0.8798995020000000    0.2711130085000000 Li
   0.1695764960000000    0.8798995020000000    0.7711130085000001 Li
   0.6695764960000001    0.3798995020000000    0.2711130085000000 Li
   0.6695764960000000    0.3798995020000000    0.7711130085000001 Li
   0.6695764960000001    0.8798995020000000    0.2711130085000000 Li
   0.6695764960000000    0.8798995020000000    0.7711130085000001 Li
   0.4195764960000000    0.3701004980000000    0.2711130085000000 Li
   0.4195764960000001    0.3701004980000000    0.7711130085000001 Li
   0.4195764960000000    0.8701004980000000    0.2711130085000000 Li
   0.4195764960000001    0.8701004980000000    0.7711130085000001 Li
   0.9195764960000001    0.3701004980000000    0.2711130085000000 Li
   0.9195764960000001    0.3701004980000000    0.7711130085000001 Li
   0.9195764960000001    0.8701004980000000    0.2711130085000000 Li
   0.9195764960000001    0.8701004980000000    0.7711130085000001 Li
   0.0804234965000000    0.1298995020000000    0.2288870065000000 Li
   0.0804234965000000    0.1298995020000000    0.7288870064999999 Li
   0.0804234965000000    0.6298995020000000    0.2288870065000000 Li
   0.0804234965000000    0.6298995020000000    0.7288870064999999 Li
   0.5804234965000000    0.1298995020000000    0.2288870065000000 Li
   0.5804234965000000    0.1298995020000000    0.7288870064999999 Li
   0.5804234965000000    0.6298995020000000    0.2288870065000000 Li
   0.5804234965000000    0.6298995020000000    0.7288870064999999 Li
   0.3304235040000000    0.1201004980000000    0.2288870065000000 Li
   0.3304235040000000    0.1201004980000000    0.7288870064999999 Li
   0.3304235040000000    0.6201004980000000    0.2288870065000000 Li
   0.3304235040000000    0.6201004980000000    0.7288870064999999 Li
   0.8304235040000000    0.1201004980000000    0.2288870065000000 Li
   0.8304235040000000    0.1201004980000000    0.7288870064999999 Li
   0.8304235040000000    0.6201004980000000    0.2288870065000000 Li
   0.8304235040000000    0.6201004980000000    0.7288870064999999 Li
   0.2043959945000000    0.1220304965000000    0.1473824980000000 Li
   0.2043959945000000    0.1220304965000000    0.6473824980000000 Li
   0.2043959945000000    0.6220304965000000    0.1473824980000000 Li
   0.2043959945000000    0.6220304965000000    0.6473824980000000 Li
   0.7043959945000000    0.1220304965000000    0.1473824980000000 Li
   0.7043959945000000    0.1220304965000000    0.6473824980000000 Li
   0.7043959945000000    0.6220304965000000    0.1473824980000000 Li
   0.7043959945000000    0.6220304965000000    0.6473824980000000 Li
   0.4543960095000000    0.1279695035000000    0.1473824980000000 Li
   0.4543960095000000    0.1279695035000000    0.6473824980000000 Li
   0.4543960095000000    0.6279695035000000    0.1473824980000000 Li
   0.4543960095000000    0.6279695035000000    0.6473824980000000 Li
   0.9543960095000000    0.1279695035000000    0.1473824980000000 Li
   0.9543960095000000    0.1279695035000000    0.6473824980000000 Li
   0.9543960095000000    0.6279695035000000    0.1473824980000000 Li
   0.9543960095000000    0.6279695035000000    0.6473824980000000 Li
   0.0806645005000000    0.3792220055000000    0.1032465025000000 Li
   0.0806645005000000    0.3792220055000000    0.6032465025000000 Li
   0.0806645005000000    0.8792220055000000    0.1032465025000000 Li
   0.0806645005000000    0.8792220055000000    0.6032465025000000 Li
   0.5806645005000001    0.3792220055000000    0.1032465025000000 Li
   0.5806645005000001    0.3792220055000000    0.6032465025000000 Li
   0.5806645005000001    0.8792220055000000    0.1032465025000000 Li
   0.5806645005000001    0.8792220055000000    0.6032465025000000 Li
   0.3306644855000000    0.3707779945000000    0.1032465025000000 Li
   0.3306644855000000    0.3707779945000000    0.6032465025000000 Li
   0.3306644855000000    0.8707779944999999    0.1032465025000000 Li
   0.3306644855000000    0.8707779944999999    0.6032465025000000 Li
   0.8306644855000000    0.3707779945000000    0.1032465025000000 Li
   0.8306644855000002    0.3707779945000000    0.6032465025000000 Li
   0.8306644855000000    0.8707779944999999    0.1032465025000000 Li
   0.8306644855000002    0.8707779944999999    0.6032465025000000 Li
   0.2051724940000000    0.3716214895000000    0.0225079990000000 Li
   0.2051724940000000    0.3716214895000000    0.5225079990000000 Li
   0.2051724940000000    0.8716214895000000    0.0225079990000000 Li
   0.2051724940000000    0.8716214895000000    0.5225079990000000 Li
   0.7051724939999999    0.3716214895000000    0.0225079990000000 Li
   0.7051724940000001    0.3716214895000000    0.5225079990000000 Li
   0.7051724939999999    0.8716214895000000    0.0225079990000000 Li
   0.7051724940000001    0.8716214895000000    0.5225079990000000 Li
   0.4551725090000001    0.3783785104999999    0.0225079990000000 Li
   0.4551725090000001    0.3783785104999999    0.5225079990000000 Li
   0.4551725090000001    0.8783785105000000    0.0225079990000000 Li
   0.4551725090000001    0.8783785105000000    0.5225079990000000 Li
   0.9551725089999999    0.3783785104999999    0.0225079990000000 Li
   0.9551725090000002    0.3783785104999999    0.5225079990000000 Li
   0.9551725089999999    0.8783785105000000    0.0225079990000000 Li
   0.9551725090000002    0.8783785105000000    0.5225079990000000 Li
   0.0448274985000000    0.1216214970000000    0.4774920045000000 Li
   0.0448274985000000    0.1216214970000000    0.9774920045000000 Li
   0.0448274985000000    0.6216214970000000    0.4774920045000000 Li
   0.0448274985000000    0.6216214970000000    0.9774920045000000 Li
   0.5448274985000000    0.1216214970000000    0.4774920045000000 Li
   0.5448274985000000    0.1216214970000000    0.9774920045000000 Li
   0.5448274985000000    0.6216214970000000    0.4774920045000000 Li
   0.5448274985000000    0.6216214970000000    0.9774920045000000 Li
   0.2948274910000000    0.1283784955000000    0.4774920045000000 Li
   0.2948274910000000    0.1283784955000000    0.9774920045000000 Li
   0.2948274910000000    0.6283784955000000    0.4774920045000000 Li
   0.2948274910000000    0.6283784955000000    0.9774920045000000 Li
   0.7948274909999999    0.1283784955000000    0.4774920045000000 Li
   0.7948274910000001    0.1283784955000000    0.9774920045000000 Li
   0.7948274910000001    0.6283784955000000    0.9774920045000000 Li
   0.1693354995000000    0.1292220055000000    0.3967534899999999 Li
   0.1693354995000000    0.1292220055000000    0.8967534899999998 Li
   0.1693354995000000    0.6292220055000000    0.3967534899999999 Li
   0.1693354995000000    0.6292220055000000    0.8967534899999998 Li
   0.6693354994999999    0.1292220055000000    0.3967534899999999 Li
   0.6693354994999999    0.1292220055000000    0.8967534899999998 Li
   0.6693354994999999    0.6292220055000000    0.8967534899999998 Li
   0.4193355145000001    0.1207780020000000    0.3967534899999999 Li
   0.4193355145000001    0.1207780020000000    0.8967534899999998 Li
   0.4193355145000001    0.6207780020000000    0.3967534899999999 Li
   0.4193355145000001    0.6207780020000000    0.8967534899999998 Li
   0.9193355145000002    0.1207780020000000    0.3967534899999999 Li
   0.9193355145000001    0.1207780020000000    0.8967534899999998 Li
   0.9193355145000002    0.6207780020000000    0.3967534899999999 Li
   0.9193355145000001    0.6207780020000000    0.8967534899999998 Li
   0.0456040015000000    0.3720304965000000    0.3526175020000000 Li
   0.0456040015000000    0.3720304965000000    0.8526175020000000 Li
   0.0456040015000000    0.8720304965000000    0.3526175020000000 Li
   0.0456040015000000    0.8720304965000000    0.8526175020000000 Li
   0.5456040015000001    0.3720304965000000    0.3526175020000000 Li
   0.5456040015000001    0.3720304965000000    0.8526175020000000 Li
   0.5456040015000001    0.8720304965000000    0.3526175020000000 Li
   0.5456040015000001    0.8720304965000000    0.8526175020000000 Li
   0.2956039905000000    0.3779695035000000    0.3526175020000000 Li
   0.2956039905000001    0.3779695035000000    0.8526175020000000 Li
   0.2956039905000000    0.8779695035000000    0.3526175020000000 Li
   0.2956039905000001    0.8779695035000000    0.8526175020000000 Li
   0.7956039905000001    0.3779695035000000    0.3526175020000000 Li
   0.7956039905000002    0.3779695035000000    0.8526175020000000 Li
   0.7956039905000001    0.8779695035000000    0.3526175020000000 Li
   0.7956039905000002    0.8779695035000000    0.8526175020000000 Li
   0.1898764970000000    0.0431630015000000    0.2753379940000000 Fe
   0.1898764970000000    0.0431630015000000    0.7753379940000000 Fe
   0.1898764970000000    0.5431630015000000    0.2753379940000000 Fe
   0.1898764970000000    0.5431630015000000    0.7753379940000000 Fe
   0.6898764970000001    0.0431630015000000    0.2753379940000000 Fe
   0.6898764970000000    0.0431630015000000    0.7753379940000000 Fe
   0.6898764970000001    0.5431630015000000    0.2753379940000000 Fe
   0.6898764970000000    0.5431630015000000    0.7753379940000000 Fe
   0.4398764970000000    0.2068369985000000    0.2753379940000000 Fe
   0.4398764970000000    0.2068369985000000    0.7753379940000000 Fe
   0.4398764970000000    0.7068369984999999    0.2753379940000000 Fe
   0.4398764970000000    0.7068369984999999    0.7753379940000000 Fe
   0.9398764969999999    0.2068369985000000    0.2753379940000000 Fe
   0.9398764970000000    0.2068369985000000    0.7753379940000000 Fe
   0.9398764969999999    0.7068369984999999    0.2753379940000000 Fe
   0.9398764970000000    0.7068369984999999    0.7753379940000000 Fe
   0.0601234995000000    0.2931630015000000    0.2246620060000000 Fe
   0.0601234995000000    0.2931630015000000    0.7246620060000000 Fe
   0.0601234995000000    0.7931630015000000    0.2246620060000000 Fe
   0.0601234995000000    0.7931630015000000    0.7246620060000000 Fe
   0.5601234995000001    0.2931630015000000    0.2246620060000000 Fe
   0.5601234995000001    0.2931630015000000    0.7246620060000000 Fe
   0.5601234995000001    0.7931630015000000    0.2246620060000000 Fe
   0.5601234995000001    0.7931630015000000    0.7246620060000000 Fe
   0.3101235030000001    0.4568369985000000    0.2246620060000000 Fe
   0.3101235030000001    0.4568369985000000    0.7246620060000000 Fe
   0.3101235030000001    0.9568369985000000    0.2246620060000000 Fe
   0.3101235030000001    0.9568369985000000    0.7246620060000000 Fe
   0.8101235030000001    0.4568369985000000    0.2246620060000000 Fe
   0.8101235030000002    0.4568369985000000    0.7246620060000000 Fe
   0.8101235030000001    0.9568369985000000    0.2246620060000000 Fe
   0.8101235030000002    0.9568369985000000    0.7246620060000000 Fe
   0.1890089960000000    0.2921825050000000    0.1495765000000000 Fe
   0.1890089960000000    0.2921825050000000    0.6495765000000000 Fe
   0.1890089960000000    0.7921825050000000    0.1495765000000000 Fe
   0.1890089960000000    0.7921825050000000    0.6495765000000000 Fe
   0.6890089960000001    0.2921825050000000    0.1495765000000000 Fe
   0.6890089960000001    0.2921825050000000    0.6495765000000000 Fe
   0.6890089960000001    0.7921825050000000    0.1495765000000000 Fe
   0.6890089960000001    0.7921825050000000    0.6495765000000000 Fe
   0.4390090110000001    0.4578174950000000    0.1495765000000000 Fe
   0.4390090110000001    0.4578174950000000    0.6495765000000000 Fe
   0.4390090110000001    0.9578174950000001    0.1495765000000000 Fe
   0.4390090110000001    0.9578174950000001    0.6495765000000000 Fe
   0.9390090110000000    0.4578174950000000    0.1495765000000000 Fe
   0.9390090110000000    0.4578174950000000    0.6495765000000000 Fe
   0.9390090110000000    0.9578174950000001    0.1495765000000000 Fe
   0.9390090110000000    0.9578174950000001    0.6495765000000000 Fe
   0.0623660015000000    0.0446815005000000    0.1028375030000000 Fe
   0.0623660015000000    0.0446815005000000    0.6028375029999999 Fe
   0.0623660015000000    0.5446815005000000    0.1028375030000000 Fe
   0.0623660015000000    0.5446815005000000    0.6028375029999999 Fe
   0.5623660015000000    0.0446815005000000    0.1028375030000000 Fe
   0.5623660015000000    0.0446815005000000    0.6028375029999999 Fe
   0.5623660015000000    0.5446815005000000    0.1028375030000000 Fe
   0.5623660015000000    0.5446815005000000    0.6028375029999999 Fe
   0.3123660090000001    0.2053184955000000    0.1028375030000000 Fe
   0.3123660090000000    0.2053184955000000    0.6028375029999999 Fe
   0.3123660090000001    0.7053184955000000    0.1028375030000000 Fe
   0.3123660090000000    0.7053184955000000    0.6028375029999999 Fe
   0.8123660090000000    0.2053184955000000    0.1028375030000000 Fe
   0.8123660090000001    0.2053184955000000    0.6028375029999999 Fe
   0.8123660090000000    0.7053184955000000    0.1028375030000000 Fe
   0.8123660090000001    0.7053184955000000    0.6028375029999999 Fe
   0.1849240065000000    0.0420430005000000    0.0222759990000000 Fe
   0.1849240065000000    0.0420430005000000    0.5222759990000000 Fe
   0.1849240065000000    0.5420430005000000    0.0222759990000000 Fe
   0.1849240065000000    0.5420430005000000    0.5222759990000000 Fe
   0.6849240065000001    0.0420430005000000    0.0222759990000000 Fe
   0.6849240065000002    0.0420430005000000    0.5222759990000000 Fe
   0.6849240065000001    0.5420430005000000    0.0222759990000000 Fe
   0.6849240065000002    0.5420430005000000    0.5222759990000000 Fe
   0.4349240065000001    0.2079569995000000    0.0222759990000000 Fe
   0.4349240065000001    0.2079569995000000    0.5222759990000000 Fe
   0.4349240065000001    0.7079569994999999    0.0222759990000000 Fe
   0.4349240065000001    0.7079569994999999    0.5222759990000000 Fe
   0.9349240065000001    0.2079569995000000    0.0222759990000000 Fe
   0.9349240065000001    0.2079569995000000    0.5222759990000000 Fe
   0.9349240065000001    0.7079569994999999    0.0222759990000000 Fe
   0.9349240065000001    0.7079569994999999    0.5222759990000000 Fe
   0.0650760010000000    0.2920430005000000    0.4777239860000000 Fe
   0.0650760010000000    0.2920430005000000    0.9777239859999999 Fe
   0.0650760010000000    0.7920430005000000    0.4777239860000000 Fe
   0.0650760010000000    0.7920430005000000    0.9777239859999999 Fe
   0.5650760010000001    0.2920430005000000    0.4777239860000000 Fe
   0.5650760010000001    0.2920430005000000    0.9777239859999999 Fe
   0.5650760010000001    0.7920430005000000    0.4777239860000000 Fe
   0.5650760010000001    0.7920430005000000    0.9777239859999999 Fe
   0.3150759935000000    0.4579569995000000    0.4777239860000000 Fe
   0.3150759935000000    0.4579569995000000    0.9777239859999999 Fe
   0.3150759935000000    0.9579569994999999    0.4777239860000000 Fe
   0.3150759935000000    0.9579569994999999    0.9777239859999999 Fe
   0.8150759935000002    0.4579569995000000    0.4777239860000000 Fe
   0.8150759935000000    0.4579569995000000    0.9777239859999999 Fe
   0.8150759935000002    0.9579569994999999    0.4777239860000000 Fe
   0.8150759935000000    0.9579569994999999    0.9777239859999999 Fe
   0.1876340060000000    0.2946814895000000    0.3971624970000001 Fe
   0.1876340060000000    0.2946814895000000    0.8971624970000001 Fe
   0.1876340060000000    0.7946814894999999    0.3971624970000001 Fe
   0.1876340060000000    0.7946814894999999    0.8971624970000001 Fe
   0.6876340059999999    0.2946814895000000    0.3971624970000001 Fe
   0.6876340060000000    0.2946814895000000    0.8971624970000001 Fe
   0.6876340059999999    0.7946814894999999    0.3971624970000001 Fe
   0.6876340060000000    0.7946814894999999    0.8971624970000001 Fe
   0.4376339910000000    0.4553185105000000    0.3971624970000001 Fe
   0.4376339910000001    0.4553185105000000    0.8971624970000001 Fe
   0.4376339910000000    0.9553185104999998    0.3971624970000001 Fe
   0.4376339910000001    0.9553185104999998    0.8971624970000001 Fe
   0.9376339910000000    0.4553185105000000    0.3971624970000001 Fe
   0.9376339910000001    0.4553185105000000    0.8971624970000001 Fe
   0.9376339910000000    0.9553185104999998    0.3971624970000001 Fe
   0.9376339910000001    0.9553185104999998    0.8971624970000001 Fe
   0.0609910005000000    0.0421825015000000    0.3504235150000000 Fe
   0.0609910005000000    0.0421825015000000    0.8504235150000001 Fe
   0.0609910005000000    0.5421825015000000    0.3504235150000000 Fe
   0.0609910005000000    0.5421825015000000    0.8504235150000001 Fe
   0.5609910005000001    0.0421825015000000    0.3504235150000000 Fe
   0.5609910005000001    0.0421825015000000    0.8504235150000001 Fe
   0.5609910005000001    0.5421825015000000    0.3504235150000000 Fe
   0.5609910005000001    0.5421825015000000    0.8504235150000001 Fe
   0.3109909890000001    0.2078174950000000    0.3504235150000000 Fe
   0.3109909890000000    0.2078174950000000    0.8504235150000001 Fe
   0.3109909890000001    0.7078174949999999    0.3504235150000000 Fe
   0.3109909890000000    0.7078174949999999    0.8504235150000001 Fe
   0.8109909890000001    0.2078174950000000    0.3504235150000000 Fe
   0.8109909890000001    0.2078174950000000    0.8504235150000001 Fe
   0.8109909890000001    0.7078174949999999    0.3504235150000000 Fe
   0.8109909890000001    0.7078174949999999    0.8504235150000001 Fe
   0.1855165065000000    0.2081145050000000    0.2715975045000000 B
   0.1855165065000000    0.2081145050000000    0.7715975045000000 B
   0.1855165065000000    0.7081145049999999    0.2715975045000000 B
   0.1855165065000000    0.7081145049999999    0.7715975045000000 B
   0.6855165065000001    0.2081145050000000    0.2715975045000000 B
   0.6855165065000001    0.2081145050000000    0.7715975045000000 B
   0.6855165065000001    0.7081145049999999    0.2715975045000000 B
   0.6855165065000001    0.7081145049999999    0.7715975045000000 B
   0.4355165065000000    0.0418854990000000    0.2715975045000000 B
   0.4355165065000000    0.0418854990000000    0.7715975045000000 B
   0.4355165065000000    0.5418854990000000    0.2715975045000000 B
   0.4355165065000000    0.5418854990000000    0.7715975045000000 B
   0.9355165065000000    0.0418854990000000    0.2715975045000000 B
   0.9355165065000001    0.0418854990000000    0.7715975045000000 B
   0.9355165065000000    0.5418854990000000    0.2715975045000000 B
   0.9355165065000001    0.5418854990000000    0.7715975045000000 B
   0.0644835010000000    0.4581145049999999    0.2284024955000000 B
   0.0644835010000000    0.4581145049999999    0.7284024955000000 B
   0.0644835010000000    0.9581145049999998    0.2284024955000000 B
   0.0644835010000000    0.9581145049999998    0.7284024955000000 B
   0.5644835010000000    0.4581145049999999    0.2284024955000000 B
   0.5644835010000000    0.4581145049999999    0.7284024955000000 B
   0.5644835010000000    0.9581145049999998    0.2284024955000000 B
   0.5644835010000000    0.9581145049999998    0.7284024955000000 B
   0.3144834935000000    0.2918854950000000    0.2284024955000000 B
   0.3144834935000000    0.2918854950000000    0.7284024955000000 B
   0.3144834935000000    0.7918854949999999    0.2284024955000000 B
   0.3144834935000000    0.7918854949999999    0.7284024955000000 B
   0.8144834935000002    0.2918854950000000    0.2284024955000000 B
   0.8144834935000000    0.2918854950000000    0.7284024955000000 B
   0.8144834935000002    0.7918854949999999    0.2284024955000000 B
   0.8144834935000000    0.7918854949999999    0.7284024955000000 B
   0.1850460025000000    0.4585030079999999    0.1459545045000000 B
   0.1850460025000000    0.4585030079999999    0.6459545045000000 B
   0.1850460025000000    0.9585030080000000    0.1459545045000000 B
   0.1850460025000000    0.9585030080000000    0.6459545045000000 B
   0.6850460025000000    0.4585030079999999    0.1459545045000000 B
   0.6850460025000001    0.4585030079999999    0.6459545045000000 B
   0.6850460025000000    0.9585030080000000    0.1459545045000000 B
   0.6850460025000001    0.9585030080000000    0.6459545045000000 B
   0.4350459875000001    0.2914969920000000    0.1459545045000000 B
   0.4350459875000001    0.2914969920000000    0.6459545045000000 B
   0.4350459875000001    0.7914969919999999    0.1459545045000000 B
   0.4350459875000001    0.7914969919999999    0.6459545045000000 B
   0.9350459875000000    0.2914969920000000    0.1459545045000000 B
   0.9350459875000000    0.2914969920000000    0.6459545045000000 B
   0.9350459875000000    0.7914969919999999    0.1459545045000000 B
   0.9350459875000000    0.7914969919999999    0.6459545045000000 B
   0.0603710005000000    0.2082455010000000    0.1035149990000000 B
   0.0603710005000000    0.2082455010000000    0.6035149990000001 B
   0.0603710005000000    0.7082455009999999    0.1035149990000000 B
   0.0603710005000000    0.7082455009999999    0.6035149990000001 B
   0.5603710005000000    0.2082455010000000    0.1035149990000000 B
   0.5603710005000001    0.2082455010000000    0.6035149990000001 B
   0.5603710005000000    0.7082455009999999    0.1035149990000000 B
   0.5603710005000001    0.7082455009999999    0.6035149990000001 B
   0.3103710115000000    0.0417544990000000    0.1035149990000000 B
   0.3103710115000001    0.0417544990000000    0.6035149990000001 B
   0.3103710115000000    0.5417544989999999    0.1035149990000000 B
   0.3103710115000001    0.5417544989999999    0.6035149990000001 B
   0.8103710115000000    0.0417544990000000    0.1035149990000000 B
   0.8103710115000001    0.0417544990000000    0.6035149990000001 B
   0.8103710115000000    0.5417544989999999    0.1035149990000000 B
   0.8103710115000001    0.5417544989999999    0.6035149990000001 B
   0.1894560010000000    0.2080360055000000    0.0208530000000000 B
   0.1894560010000000    0.2080360055000000    0.5208530000000000 B
   0.1894560010000000    0.7080360055000000    0.0208530000000000 B
   0.1894560010000000    0.7080360055000000    0.5208530000000000 B
   0.6894560010000002    0.2080360055000000    0.0208530000000000 B
   0.6894560010000000    0.2080360055000000    0.5208530000000000 B
   0.6894560010000002    0.7080360055000000    0.0208530000000000 B
   0.6894560010000000    0.7080360055000000    0.5208530000000000 B
   0.4394559860000000    0.0419639980000000    0.0208530000000000 B
   0.4394559860000001    0.0419639980000000    0.5208530000000000 B
   0.4394559860000000    0.5419639979999999    0.0208530000000000 B
   0.4394559860000001    0.5419639979999999    0.5208530000000000 B
   0.9394559860000002    0.0419639980000000    0.0208530000000000 B
   0.9394559860000001    0.0419639980000000    0.5208530000000000 B
   0.9394559860000002    0.5419639979999999    0.0208530000000000 B
   0.9394559860000001    0.5419639979999999    0.5208530000000000 B
   0.0605439990000000    0.4580360055000000    0.4791469870000001 B
   0.0605439990000000    0.4580360055000000    0.9791469870000000 B
   0.0605439990000000    0.9580360055000000    0.4791469870000001 B
   0.0605439990000000    0.9580360055000000    0.9791469870000000 B
   0.5605439990000000    0.4580360055000000    0.4791469870000001 B
   0.5605439990000001    0.4580360055000000    0.9791469870000000 B
   0.5605439990000000    0.9580360055000000    0.4791469870000001 B
   0.5605439990000001    0.9580360055000000    0.9791469870000000 B
   0.3105440140000000    0.2919639945000000    0.4791469870000001 B
   0.3105440140000000    0.2919639945000000    0.9791469870000000 B
   0.3105440140000000    0.7919639945000000    0.4791469870000001 B
   0.3105440140000000    0.7919639945000000    0.9791469870000000 B
   0.8105440140000001    0.2919639945000000    0.4791469870000001 B
   0.8105440140000001    0.2919639945000000    0.9791469870000000 B
   0.8105440140000001    0.7919639945000000    0.4791469870000001 B
   0.8105440140000001    0.7919639945000000    0.9791469870000000 B
   0.1896290035000000    0.4582454860000000    0.3964850009999999 B
   0.1896290035000000    0.4582454860000000    0.8964850009999999 B
   0.1896290035000000    0.9582454859999999    0.3964850009999999 B
   0.1896290035000000    0.9582454859999999    0.8964850009999999 B
   0.6896290035000001    0.4582454860000000    0.3964850009999999 B
   0.6896290035000000    0.4582454860000000    0.8964850009999999 B
   0.6896290035000001    0.9582454859999999    0.3964850009999999 B
   0.6896290035000000    0.9582454859999999    0.8964850009999999 B
   0.4396289885000000    0.2917545140000000    0.3964850009999999 B
   0.4396289885000000    0.2917545140000000    0.8964850009999999 B
   0.4396289885000000    0.7917545140000000    0.3964850009999999 B
   0.4396289885000000    0.7917545140000000    0.8964850009999999 B
   0.9396289885000001    0.2917545140000000    0.3964850009999999 B
   0.9396289885000000    0.2917545140000000    0.8964850009999999 B
   0.9396289885000001    0.7917545140000000    0.3964850009999999 B
   0.9396289885000000    0.7917545140000000    0.8964850009999999 B
   0.0649539975000000    0.2085029930000000    0.3540455105000000 B
   0.0649539975000000    0.2085029930000000    0.8540455105000000 B
   0.0649539975000000    0.7085029930000000    0.3540455105000000 B
   0.0649539975000000    0.7085029930000000    0.8540455105000000 B
   0.5649539975000000    0.2085029930000000    0.3540455105000000 B
   0.5649539975000001    0.2085029930000000    0.8540455105000000 B
   0.5649539975000000    0.7085029930000000    0.3540455105000000 B
   0.5649539975000001    0.7085029930000000    0.8540455105000000 B
   0.3149540125000000    0.0414969995000000    0.3540455105000000 B
   0.3149540125000000    0.0414969995000000    0.8540455105000000 B
   0.3149540125000000    0.5414969995000000    0.3540455105000000 B
   0.3149540125000000    0.5414969995000000    0.8540455105000000 B
   0.8149540125000001    0.0414969995000000    0.3540455105000000 B
   0.8149540125000001    0.0414969995000000    0.8540455105000000 B
   0.8149540125000001    0.5414969995000000    0.3540455105000000 B
   0.8149540125000001    0.5414969995000000    0.8540455105000000 B
   0.0455784985000000    0.2063719930000000    0.2898690105000000 O
   0.0455784985000000    0.2063719930000000    0.7898690105000001 O
   0.0455784985000000    0.7063719930000000    0.2898690105000000 O
   0.0455784985000000    0.7063719930000000    0.7898690105000001 O
   0.5455784985000000    0.2063719930000000    0.2898690105000000 O
   0.5455784985000001    0.2063719930000000    0.7898690105000001 O
   0.5455784985000000    0.7063719930000000    0.2898690105000000 O
   0.5455784985000001    0.7063719930000000    0.7898690105000001 O
   0.2955785095000000    0.0436279995000000    0.2898690105000000 O
   0.2955785095000000    0.0436279995000000    0.7898690105000001 O
   0.2955785095000000    0.5436279995000000    0.2898690105000000 O
   0.2955785095000000    0.5436279995000000    0.7898690105000001 O
   0.7955785095000000    0.0436279995000000    0.2898690105000000 O
   0.7955785095000001    0.0436279995000000    0.7898690105000001 O
   0.7955785095000000    0.5436279995000000    0.2898690105000000 O
   0.7955785095000001    0.5436279995000000    0.7898690105000001 O
   0.0707919970000000    0.3940725030000000    0.2647509875000000 O
   0.0707919970000000    0.3940725030000000    0.7647509875000000 O
   0.0707919970000000    0.8940725029999999    0.2647509875000000 O
   0.0707919970000000    0.8940725029999999    0.7647509875000000 O
   0.5707919970000001    0.3940725030000000    0.2647509875000000 O
   0.5707919970000001    0.3940725030000000    0.7647509875000000 O
   0.5707919970000001    0.8940725029999999    0.2647509875000000 O
   0.5707919970000001    0.8940725029999999    0.7647509875000000 O
   0.3207919895000000    0.3559274970000000    0.2647509875000000 O
   0.3207919895000000    0.3559274970000000    0.7647509875000000 O
   0.3207919895000000    0.8559274969999999    0.2647509875000000 O
   0.3207919895000000    0.8559274969999999    0.7647509875000000 O
   0.8207919895000001    0.3559274970000000    0.2647509875000000 O
   0.8207919895000000    0.3559274970000000    0.7647509875000000 O
   0.8207919895000001    0.8559274969999999    0.2647509875000000 O
   0.8207919895000000    0.8559274969999999    0.7647509875000000 O
   0.0786219985000000    0.0263445005000000    0.2568280100000000 O
   0.0786219985000000    0.0263445005000000    0.7568280100000000 O
   0.0786219985000000    0.5263445004999999    0.2568280100000000 O
   0.0786219985000000    0.5263445004999999    0.7568280100000000 O
   0.5786219985000000    0.0263445005000000    0.2568280100000000 O
   0.5786219985000001    0.0263445005000000    0.7568280100000000 O
   0.5786219985000000    0.5263445004999999    0.2568280100000000 O
   0.5786219985000001    0.5263445004999999    0.7568280100000000 O
   0.3286220135000000    0.2236555070000000    0.2568280100000000 O
   0.3286220135000000    0.2236555070000000    0.7568280100000000 O
   0.3286220135000000    0.7236555069999999    0.2568280100000000 O
   0.3286220135000000    0.7236555069999999    0.7568280100000000 O
   0.8286220135000001    0.2236555070000000    0.2568280100000000 O
   0.8286220135000001    0.2236555070000000    0.7568280100000000 O
   0.8286220135000001    0.7236555069999999    0.2568280100000000 O
   0.8286220135000001    0.7236555069999999    0.7568280100000000 O
   0.1713780015000000    0.2763445080000000    0.2431720050000000 O
   0.1713780015000000    0.2763445080000000    0.7431720050000000 O