Na2 Ca2 V4 P4 S2 O24                    
   1.00000000000000     
     8.9434439999999995    0.2552320000000000    0.1188450000000000
     4.3971419999999997    7.7936030000000001    0.1528990000000000
     4.3296180000000000    2.6455129999999998    7.3301740000000004
   Ca   Na   V    P    S    O 
     2     2     4     4     2    24
Direct
  0.4726780667486296  0.2504432096087986  0.7030795398364605
  0.0142868834862816  0.9734087231656590  0.0135118418388334
  0.7399860299872559  0.4196490803053162  0.1611356299433375
  0.5920012786211958  0.8624248961211922  0.2435184928418366
  0.3491936521361699  0.3734345564562047  0.3411508899254413
  0.6427603957527531  0.6398364811603080  0.6354452941134898
  0.1477584254481827  0.1451890164820154  0.1495289891750752
  0.8542851889107953  0.8567205474212979  0.8509741562625054
  0.9572585735775355  0.5426861629042528  0.2497924499530001
  0.7489128087270368  0.0323173180994731  0.4480793742114763
  0.4598954516805442  0.7567742396249600  0.0266220904505837
  0.5561585219645004  0.2527716191311734  0.9670786681607871
  0.0333360958300622  0.4563114080821402  0.7459170893424356
  0.2427356954942026  0.9647659816635991  0.5451808132780838
  0.2193751833510006  0.4257963599712358  0.5978864513956349
  0.7682467772714281  0.5686497329028974  0.4065754679467515
  0.5794798113815870  0.2204915926957869  0.4258499419983888
  0.4057150735664961  0.7901027499715783  0.5561952976107062
  0.4223465690014901  0.5989150832192220  0.2128815096279903
  0.5648444155421496  0.4056881549809235  0.7730323332152621
  0.9143064785778098  0.0679330721060566  0.2680323319548974
  0.0895114727830835  0.9405314328191334  0.7269566005842616
  0.0527560874096324  0.2803349133965254  0.9125834276926379
  0.9345441166699483  0.7292346055798998  0.0820352857609104
  0.2851641572769312  0.9379253045694066  0.0314206337278655
  0.7380913824636528  0.0805147249860318  0.9511086997439058
  0.5305833203661698  0.3119768268603034  0.1123788618669384
  0.5024106643653078  0.7150940441544529  0.8597271562440119
  0.1136820202270901  0.5154991622399089  0.2971311477805923
  0.8913153771844367  0.4766126951065900  0.6938704626535703
  0.2863354958833015  0.1220120929597405  0.5058827402769863
  0.7145696676141523  0.8730456645868008  0.4651477518291144
  0.3983512358030312  0.1899615128757994  1.0162710411376157
  0.6239301718324883  0.7858808083933472  0.0130773166606892
  0.1856003000014823 -0.0069618045975262  0.4007509282068374
  0.7657709466794173  1.0097425442759460  0.6244048628002296
  0.9941830870639918  0.3844295233591602  0.1975000134736014
 -0.0052262177699093  0.6116152908348714  0.7903131128335791
 
             NaN             NaN             NaN
             NaN             NaN             NaN
             NaN             NaN             NaN
             NaN             NaN             NaN
             NaN             NaN             NaN
             NaN             NaN             NaN
             NaN             NaN             NaN
             NaN             NaN             NaN
             NaN             NaN             NaN
             NaN             NaN             NaN
             NaN             NaN             NaN
             NaN             NaN             NaN
             NaN             NaN             NaN
             NaN             NaN             NaN
             NaN             NaN             NaN
             NaN             NaN             NaN
             NaN             NaN             NaN
             NaN             NaN             NaN
             NaN             NaN             NaN
             NaN             NaN             NaN
             NaN             NaN             NaN
             NaN             NaN             NaN
             NaN             NaN             NaN
             NaN             NaN             NaN
             NaN             NaN             NaN
             NaN             NaN             NaN
             NaN             NaN             NaN
             NaN             NaN             NaN
             NaN             NaN             NaN
             NaN             NaN             NaN
             NaN             NaN             NaN
             NaN             NaN             NaN
             NaN             NaN             NaN
             NaN             NaN             NaN
             NaN             NaN             NaN
             NaN             NaN             NaN
             NaN             NaN             NaN
             NaN             NaN             NaN
