Na2 Ca2 V4 P4 S2 O24
1.0
8.943444 0.255232 0.118845
4.397142 7.793603 0.152899
4.329618 2.645513 7.330174
Ca Na V P S O
2 2 4 4 2 24
direct
0.461507 0.295796 0.631035 Ca
0.006972 0.981969 0.010359 Ca
0.707550 0.426211 0.204922 Na
0.602759 0.892332 0.244465 Na
0.353711 0.355653 0.345237 V
0.646737 0.647798 0.638407 V
0.145694 0.153635 0.141405 V
0.850904 0.853700 0.854452 V
0.955790 0.541669 0.248640 P
0.755115 0.032846 0.446200 P
0.462792 0.752408 0.037249 P
0.544482 0.253657 0.955818 P
0.045829 0.457408 0.740663 S
0.243355 0.962333 0.549794 S
0.228244 0.431924 0.589052 O
0.766614 0.567969 0.409350 O
0.584544 0.219584 0.431217 O
0.408810 0.787187 0.551588 O
0.443451 0.576764 0.205035 O
0.559835 0.428075 0.788871 O
0.916037 0.071950 0.262976 O
0.093124 0.927997 0.729824 O
0.066901 0.271955 0.899226 O
0.931772 0.733860 0.086881 O
0.276116 0.919750 0.058133 O
0.732899 0.087511 0.930025 O
0.510272 0.268321 0.133680 O
0.511567 0.735827 0.855457 O
0.116647 0.499348 0.297950 O
0.898159 0.489665 0.688290 O
0.289095 0.108957 0.532778 O
0.715012 0.880573 0.454299 O
0.388648 0.207059 -0.019822 O
0.615170 0.790514 0.033509 O
0.188778 1.012308 0.396218 O
0.786721 0.988236 0.619799 O
0.979431 0.392798 0.191522 O
0.010284 0.602150 0.798742 O
