Li54 V54 P54 O270
1.0
18.886456 0.000002 0.000065
-0.000000 19.078791 -0.524879
0.000046 -0.369084 13.873397
Li V P O
53 54 54 270
direct
0.499045 0.499996 0.333374 Li
0.165712 0.166663 0.000041 Li
0.165712 0.166663 0.333374 Li
0.165712 0.166663 0.666708 Li
0.165712 0.499996 0.000041 Li
0.165712 0.499996 0.333374 Li
0.165712 0.499996 0.666708 Li
0.165712 0.833330 0.000041 Li
0.165712 0.833330 0.333374 Li
0.165712 0.833330 0.666708 Li
0.499045 0.166663 0.000041 Li
0.499045 0.166663 0.333374 Li
0.499045 0.166663 0.666708 Li
0.499045 0.499996 0.000041 Li
0.499045 0.499996 0.666708 Li
0.499045 0.833330 0.000041 Li
0.499045 0.833330 0.333374 Li
0.499045 0.833330 0.666708 Li
0.832379 0.166663 0.000041 Li
0.832379 0.166663 0.333374 Li
0.832379 0.166663 0.666708 Li
0.832379 0.499996 0.000041 Li
0.832379 0.499996 0.333374 Li
0.832379 0.499996 0.666708 Li
0.832379 0.833330 0.000041 Li
0.832379 0.833330 0.333374 Li
0.832379 0.833330 0.666708 Li
0.332377 0.166670 0.333292 Li
0.332377 0.166670 0.666625 Li
0.332377 0.166670 0.999958 Li
0.332377 0.500004 0.666625 Li
0.332377 0.500004 0.999958 Li
0.332377 0.833337 0.333292 Li
0.332377 0.833337 0.666625 Li
0.332377 0.833337 0.999958 Li
0.665711 0.166670 0.333292 Li
0.665711 0.166670 0.666625 Li
0.665711 0.166670 0.999958 Li
0.665711 0.500004 0.333292 Li
0.665711 0.500004 0.666625 Li
0.665711 0.500004 0.999958 Li
0.665711 0.833337 0.333292 Li
0.665711 0.833337 0.666625 Li
0.665711 0.833337 0.999958 Li
0.999044 0.166670 0.333292 Li
0.999044 0.166670 0.666625 Li
0.999044 0.166670 0.999958 Li
0.999044 0.500004 0.333292 Li
0.999044 0.500004 0.666625 Li
0.999044 0.500004 0.999958 Li
0.999044 0.833337 0.333292 Li
0.999044 0.833337 0.666625 Li
0.999044 0.833337 0.999958 Li
0.248973 0.248364 0.192970 V
0.248973 0.248364 0.526303 V
0.248973 0.248364 0.859637 V
0.248973 0.581697 0.192970 V
0.248973 0.581697 0.526303 V
0.248973 0.581697 0.859637 V
0.248973 0.915030 0.192970 V
0.248973 0.915030 0.526303 V
0.248973 0.915030 0.859637 V
0.582307 0.248364 0.192970 V
0.582307 0.248364 0.526303 V
0.582307 0.248364 0.859637 V
0.582307 0.581697 0.192970 V
0.582307 0.581697 0.526303 V
0.582307 0.581697 0.859637 V
0.582307 0.915030 0.192970 V
0.582307 0.915030 0.526303 V
0.582307 0.915030 0.859637 V
0.915640 0.248364 0.192970 V
0.915640 0.248364 0.526303 V
0.915640 0.248364 0.859637 V
0.915640 0.581697 0.192970 V
0.915640 0.581697 0.526303 V
0.915640 0.581697 0.859637 V
0.915640 0.915030 0.192970 V
0.915640 0.915030 0.526303 V
0.915640 0.915030 0.859637 V
0.082307 0.084969 0.140365 V
0.082307 0.084969 0.473698 V
0.082307 0.084969 0.807032 V
0.082307 0.418303 0.140365 V
0.082307 0.418303 0.473698 V
0.082307 0.418303 0.807032 V
0.082307 0.751636 0.140365 V
0.082307 0.751636 0.473698 V
0.082307 0.751636 0.807032 V
0.415640 0.084969 0.140365 V
0.415640 0.084969 0.473698 V
0.415640 0.084969 0.807032 V
0.415640 0.418303 0.140365 V
0.415640 0.418303 0.473698 V
0.415640 0.418303 0.807032 V
0.415640 0.751636 0.140365 V
0.415640 0.751636 0.473698 V
0.415640 0.751636 0.807032 V
0.748973 0.084969 0.140365 V
0.748973 0.084969 0.473698 V
0.748973 0.084969 0.807032 V
0.748973 0.418303 0.140365 V
0.748973 0.418303 0.473698 V
0.748973 0.418303 0.807032 V
0.748973 0.751636 0.140365 V
0.748973 0.751636 0.473698 V
0.748973 0.751636 0.807032 V
0.082324 0.250470 0.171070 P
0.082324 0.250470 0.504404 P
0.082324 0.250470 0.837737 P
0.082324 0.583803 0.171070 P
0.082324 0.583803 0.504404 P
0.082324 0.583803 0.837737 P
0.082324 0.917137 0.171070 P
0.082324 0.917137 0.504404 P
0.082324 0.917137 0.837737 P
0.415658 0.250470 0.171070 P
0.415658 0.250470 0.504404 P
0.415658 0.250470 0.837737 P
0.415658 0.583803 0.171070 P
0.415658 0.583803 0.504404 P
0.415658 0.583803 0.837737 P
0.415658 0.917137 0.171070 P
0.415658 0.917137 0.504404 P
0.415658 0.917137 0.837737 P
0.748991 0.250470 0.171070 P
0.748991 0.250470 0.504404 P
0.748991 0.250470 0.837737 P
0.748991 0.583803 0.171070 P
0.748991 0.583803 0.504404 P
0.748991 0.583803 0.837737 P
0.748991 0.917137 0.171070 P
0.748991 0.917137 0.504404 P
0.748991 0.917137 0.837737 P
0.248990 0.082863 0.162261 P
0.248990 0.082863 0.495595 P
0.248990 0.082863 0.828928 P
0.248990 0.416197 0.162261 P
0.248990 0.416197 0.495595 P
0.248990 0.416197 0.828928 P
0.248990 0.749530 0.162261 P
0.248990 0.749530 0.495595 P
0.248990 0.749530 0.828928 P
0.582324 0.082863 0.162261 P
0.582324 0.082863 0.495595 P
0.582324 0.082863 0.828928 P
0.582324 0.416197 0.162261 P
0.582324 0.416197 0.495595 P
0.582324 0.416197 0.828928 P
0.582324 0.749530 0.162261 P
0.582324 0.749530 0.495595 P
0.582324 0.749530 0.828928 P
0.915657 0.082863 0.162261 P
0.915657 0.082863 0.495595 P
0.915657 0.082863 0.828928 P
0.915657 0.416197 0.162261 P
0.915657 0.416197 0.495595 P
0.915657 0.416197 0.828928 P
0.915657 0.749530 0.162261 P
0.915657 0.749530 0.495595 P
0.915657 0.749530 0.828928 P
0.249020 0.233526 0.076836 O
0.249020 0.233526 0.410170 O
0.249020 0.233526 0.743503 O
0.249020 0.566859 0.076836 O
0.249020 0.566859 0.410170 O
0.249020 0.566859 0.743503 O
0.249020 0.900193 0.076836 O
0.249020 0.900193 0.410170 O
0.249020 0.900193 0.743503 O
0.582353 0.233526 0.076836 O
0.582353 0.233526 0.410170 O
0.582353 0.233526 0.743503 O
0.582353 0.566859 0.076836 O
0.582353 0.566859 0.410170 O
0.582353 0.566859 0.743503 O
0.582353 0.900193 0.076836 O
0.582353 0.900193 0.410170 O
0.582353 0.900193 0.743503 O
0.915687 0.233526 0.076836 O
0.915687 0.233526 0.410170 O
0.915687 0.233526 0.743503 O
0.915687 0.566859 0.076836 O
0.915687 0.566859 0.410170 O
0.915687 0.566859 0.743503 O
0.915687 0.900193 0.076836 O
0.915687 0.900193 0.410170 O
0.915687 0.900193 0.743503 O
0.082352 0.099807 0.256499 O
0.082352 0.099807 0.589832 O
0.082352 0.099807 0.923165 O
0.082352 0.433141 0.256499 O
0.082352 0.433141 0.589832 O
0.082352 0.433141 0.923165 O
0.082352 0.766474 0.256499 O
0.082352 0.766474 0.589832 O
0.082352 0.766474 0.923165 O
0.415686 0.099807 0.256499 O
0.415686 0.099807 0.589832 O
0.415686 0.099807 0.923165 O
0.415686 0.433141 0.256499 O
0.415686 0.433141 0.589832 O
0.415686 0.433141 0.923165 O
0.415686 0.766474 0.256499 O
0.415686 0.766474 0.589832 O
0.415686 0.766474 0.923165 O
0.749019 0.099807 0.256499 O
0.749019 0.099807 0.589832 O
0.749019 0.099807 0.923165 O
0.749019 0.433141 0.256499 O
0.749019 0.433141 0.589832 O
0.749019 0.433141 0.923165 O
0.749019 0.766474 0.256499 O
0.749019 0.766474 0.589832 O
0.749019 0.766474 0.923165 O
0.148818 0.244900 0.236273 O
0.148818 0.244900 0.569606 O
0.148818 0.244900 0.902939 O
0.148818 0.578233 0.236273 O
0.148818 0.578233 0.569606 O
0.148818 0.578233 0.902939 O
0.148818 0.911567 0.236273 O
0.148818 0.911567 0.569606 O
0.148818 0.911567 0.902939 O
0.482151 0.244900 0.236273 O
0.482151 0.244900 0.569606 O
0.482151 0.244900 0.902939 O
0.482151 0.578233 0.236273 O
0.482151 0.578233 0.569606 O
0.482151 0.578233 0.902939 O
0.482151 0.911567 0.236273 O
0.482151 0.911567 0.569606 O
0.482151 0.911567 0.902939 O
0.815484 0.244900 0.236273 O
0.815484 0.244900 0.569606 O
0.815484 0.244900 0.902939 O
0.815484 0.578233 0.236273 O
0.815484 0.578233 0.569606 O
0.815484 0.578233 0.902939 O
0.815484 0.911567 0.236273 O
0.815484 0.911567 0.569606 O
0.815484 0.911567 0.902939 O
0.015800 0.244913 0.236210 O
0.015800 0.244913 0.569543 O
0.015800 0.244913 0.902877 O
0.015800 0.578246 0.236210 O
0.015800 0.578246 0.569543 O
0.015800 0.578246 0.902877 O
0.015800 0.911580 0.236210 O
0.015800 0.911580 0.569543 O
0.015800 0.911580 0.902877 O
0.349133 0.244913 0.236210 O
0.349133 0.244913 0.569543 O
0.349133 0.244913 0.902877 O
0.349133 0.578246 0.236210 O
0.349133 0.578246 0.569543 O
0.349133 0.578246 0.902877 O
0.349133 0.911580 0.236210 O
0.349133 0.911580 0.569543 O
0.349133 0.911580 0.902877 O
0.682466 0.244913 0.236210 O
0.682466 0.244913 0.569543 O
0.682466 0.244913 0.902877 O
0.682466 0.578246 0.236210 O
0.682466 0.578246 0.569543 O
0.682466 0.578246 0.902877 O
0.682466 0.911580 0.236210 O
0.682466 0.911580 0.569543 O
0.682466 0.911580 0.902877 O
0.248978 0.146984 0.238566 O
0.248978 0.146984 0.571899 O
0.248978 0.146984 0.905232 O
0.248978 0.480317 0.238566 O
0.248978 0.480317 0.571899 O
0.248978 0.480317 0.905232 O
0.248978 0.813651 0.238566 O
0.248978 0.813651 0.571899 O
0.248978 0.813651 0.905232 O
0.582312 0.146984 0.238566 O
0.582312 0.146984 0.571899 O
0.582312 0.146984 0.905232 O
0.582312 0.480317 0.238566 O
0.582312 0.480317 0.571899 O
0.582312 0.480317 0.905232 O
0.582312 0.813651 0.238566 O
0.582312 0.813651 0.571899 O
0.582312 0.813651 0.905232 O
0.915645 0.146984 0.238566 O
0.915645 0.146984 0.571899 O
0.915645 0.146984 0.905232 O
0.915645 0.480317 0.238566 O
0.915645 0.480317 0.571899 O
0.915645 0.480317 0.905232 O
0.915645 0.813651 0.238566 O
0.915645 0.813651 0.571899 O
0.915645 0.813651 0.905232 O
0.249043 0.015875 0.217871 O
0.249043 0.015875 0.551204 O
0.249043 0.015875 0.884537 O
0.249043 0.349208 0.217871 O
0.249043 0.349208 0.551204 O
0.249043 0.349208 0.884537 O
0.249043 0.682542 0.217871 O
0.249043 0.682542 0.551204 O
0.249043 0.682542 0.884537 O
0.582377 0.015875 0.217871 O
0.582377 0.015875 0.551204 O
0.582377 0.015875 0.884537 O
0.582377 0.349208 0.217871 O
0.582377 0.349208 0.551204 O
0.582377 0.349208 0.884537 O
0.582377 0.682542 0.217871 O
0.582377 0.682542 0.551204 O
0.582377 0.682542 0.884537 O
0.915710 0.015875 0.217871 O
0.915710 0.015875 0.551204 O
0.915710 0.015875 0.884537 O
0.915710 0.349208 0.217871 O
0.915710 0.349208 0.551204 O
0.915710 0.349208 0.884537 O
0.915710 0.682542 0.217871 O
0.915710 0.682542 0.551204 O
0.915710 0.682542 0.884537 O
0.182466 0.088419 0.097122 O
0.182466 0.088419 0.430455 O
0.182466 0.088419 0.763788 O
0.182466 0.421753 0.097122 O
0.182466 0.421753 0.430455 O
0.182466 0.421753 0.763788 O
0.182466 0.755086 0.097122 O
0.182466 0.755086 0.430455 O
0.182466 0.755086 0.763788 O
0.515800 0.088419 0.097122 O
0.515800 0.088419 0.430455 O
0.515800 0.088419 0.763788 O
0.515800 0.421753 0.097122 O
0.515800 0.421753 0.430455 O
0.515800 0.421753 0.763788 O
0.515800 0.755086 0.097122 O
0.515800 0.755086 0.430455 O
0.515800 0.755086 0.763788 O
0.849133 0.088419 0.097122 O
0.849133 0.088419 0.430455 O
0.849133 0.088419 0.763788 O
0.849133 0.421753 0.097122 O
0.849133 0.421753 0.430455 O
0.849133 0.421753 0.763788 O
0.849133 0.755086 0.097122 O
0.849133 0.755086 0.430455 O
0.849133 0.755086 0.763788 O
0.315484 0.088436 0.097060 O
0.315484 0.088436 0.430393 O
0.315484 0.088436 0.763727 O
0.315484 0.421769 0.097060 O
0.315484 0.421769 0.430393 O
0.315484 0.421769 0.763727 O
0.315484 0.755102 0.097060 O
0.315484 0.755102 0.430393 O
0.315484 0.755102 0.763727 O
0.648818 0.088436 0.097060 O
0.648818 0.088436 0.430393 O
0.648818 0.088436 0.763727 O
0.648818 0.421769 0.097060 O
0.648818 0.421769 0.430393 O
0.648818 0.421769 0.763727 O
0.648818 0.755102 0.097060 O
0.648818 0.755102 0.430393 O
0.648818 0.755102 0.763727 O
0.982151 0.088436 0.097060 O
0.982151 0.088436 0.430393 O
0.982151 0.088436 0.763727 O
0.982151 0.421769 0.097060 O
0.982151 0.421769 0.430393 O
0.982151 0.421769 0.763727 O
0.982151 0.755102 0.097060 O
0.982151 0.755102 0.430393 O
0.982151 0.755102 0.763727 O
0.082311 0.186348 0.094769 O
0.082311 0.186348 0.428102 O
0.082311 0.186348 0.761436 O
0.082311 0.519681 0.094769 O
0.082311 0.519681 0.428102 O
0.082311 0.519681 0.761436 O
0.082311 0.853015 0.094769 O
0.082311 0.853015 0.428102 O
0.082311 0.853015 0.761436 O
0.415644 0.186348 0.094769 O
0.415644 0.186348 0.428102 O
0.415644 0.186348 0.761436 O
0.415644 0.519681 0.094769 O
0.415644 0.519681 0.428102 O
0.415644 0.519681 0.761436 O
0.415644 0.853015 0.094769 O
0.415644 0.853015 0.428102 O
0.415644 0.853015 0.761436 O
0.748977 0.186348 0.094769 O
0.748977 0.186348 0.428102 O
0.748977 0.186348 0.761436 O
0.748977 0.519681 0.094769 O
0.748977 0.519681 0.428102 O
0.748977 0.519681 0.761436 O
0.748977 0.853015 0.094769 O
0.748977 0.853015 0.428102 O
0.748977 0.853015 0.761436 O
0.082376 0.317459 0.115462 O
0.082376 0.317459 0.448796 O
0.082376 0.317459 0.782129 O
0.082376 0.650792 0.115462 O
0.082376 0.650792 0.448796 O
0.082376 0.650792 0.782129 O
0.082376 0.984125 0.115462 O
0.082376 0.984125 0.448796 O
0.082376 0.984125 0.782129 O
0.415710 0.317459 0.115462 O
0.415710 0.317459 0.448796 O
0.415710 0.317459 0.782129 O
0.415710 0.650792 0.115462 O
0.415710 0.650792 0.448796 O
0.415710 0.650792 0.782129 O
0.415710 0.984125 0.115462 O
0.415710 0.984125 0.448796 O
0.415710 0.984125 0.782129 O
0.749043 0.317459 0.115462 O
0.749043 0.317459 0.448796 O
0.749043 0.317459 0.782129 O
0.749043 0.650792 0.115462 O
0.749043 0.650792 0.448796 O
0.749043 0.650792 0.782129 O
0.749043 0.984125 0.115462 O
0.749043 0.984125 0.448796 O
0.749043 0.984125 0.782129 O
