Ca1 Cr12 F42
1.0
7.253212 -0.038937 -0.031519
-3.610719 6.274975 0.021263
0.003160 0.088425 17.345610
Ca Cr F
1 12 42
direct
1.347024 0.497937 0.342987 Ca
0.298224 -0.002460 0.332564 Cr
0.713279 0.711128 0.997683 Cr
-0.001209 0.291186 0.668853 Cr
0.356099 1.000290 0.833574 Cr
0.651889 0.657633 0.507300 Cr
0.993764 0.342418 0.158943 Cr
0.649966 0.154731 0.502738 Cr
0.496560 0.342439 0.159725 Cr
0.855874 0.501832 0.833613 Cr
0.354277 0.498698 0.833442 Cr
0.146221 0.656969 0.506735 Cr
0.496617 0.844281 0.162878 Cr
0.566804 0.821428 0.059405 F
0.257494 0.431658 0.729140 F
0.189037 0.739709 0.396650 F
0.438705 0.259360 0.269284 F
0.826534 0.567189 0.938014 F
0.741711 0.183654 0.607817 F
0.883229 0.070696 0.729945 F
0.209672 0.152470 0.389996 F
0.921070 0.800173 0.064027 F
0.116528 0.202538 0.602510 F
0.074107 0.880724 0.270807 F
0.818383 0.930917 0.936183 F
0.118056 0.563379 0.609962 F
0.427179 0.853350 0.272853 F
0.451496 0.571081 0.937012 F
0.880354 0.431967 0.729943 F
0.559218 0.121294 0.396518 F
0.559200 0.439807 0.057106 F
0.351223 0.566568 0.481688 F
0.204377 0.636875 0.140715 F
0.439203 0.792478 0.812218 F
0.648449 0.207492 0.854303 F
0.567336 0.364139 0.521317 F
0.787977 0.429234 0.181492 F
0.665108 0.618880 0.399346 F
0.918590 0.300519 0.061044 F
0.391150 0.076057 0.735350 F
0.318986 0.924661 0.931812 F
0.614636 0.689106 0.605800 F
0.075984 0.386386 0.264222 F
0.946314 0.748441 0.521267 F
0.785725 0.051331 0.186482 F
0.270131 0.206816 0.854762 F
0.062305 0.794492 0.813032 F
0.733873 0.947625 0.483574 F
0.201573 0.254110 0.143406 F
0.633437 0.557760 0.801605 F
0.929798 0.379657 0.470558 F
0.434274 0.061904 0.131650 F
0.370379 0.935595 0.535486 F
0.540993 0.614192 0.200307 F
0.076251 0.442720 0.865455 F
