Ca2 Mn4 S6 O24                          
   1.00000000000000     
     8.0562600000000000    0.4249810000000000    4.3902840000000003
     3.0258650000000000    7.7563620000000002    4.4319340000000000
     0.1612260000000000    0.1706430000000000    8.6723649999999992
   Ca   Mn   S    O 
     2     4     6    24
Direct
  0.2566279624584250  0.8537599715999684  0.5360144452959313
  0.9866490659940453  0.0025526995814520  0.0001283369934646
  0.6591536931116938  0.6208217605806085  0.6493866453011967
  0.1555477260904136  0.2043737982974967  0.0979093419862622
  0.8267221147299816  0.7962509269915379  0.8766614477255190
  0.3655925091672005  0.3610944095403111  0.3599035672664949
  0.9900810596457712  0.2556839922810236  0.5134884867670794
  0.4221043318934993  0.0162777097486904  0.7670412094035264
  0.5653231014084312  0.9689796516415423  0.2314537481018974
  0.7426351960172564  0.4313192031482794  0.0703710279863512
  0.2562260315102320  0.5637452280041251  0.9318185083248903
  0.0245650372957610  0.7325644053863244  0.4728123187805321
  0.4011901151974709  0.5897069979189279  0.7454389456714795
  0.9099288097962526  0.2578690672246403  0.0641067433274412
  0.8015332412561129  0.3841969627788869  0.5666084872237489
  0.9812804830658715  0.8677436804093511  0.3015731872390813
  0.5930091340462627  0.7956149507697092  0.3844453983493677
  0.2568252190312845  0.0320156992857758  0.9427985907172562
  0.7261593875350193  0.9451262228466747  0.0579288493639327
  0.2209058924471081  0.6111728189728118  0.4316599596713944
  0.0893491487182849  0.7386291794750264  0.9108031678681204
  0.3910565458467545  0.1940001834604409  0.6297333141363743
  0.0309281840621611  0.0947662381977239  0.6809286730285485
  0.6029629557782537  0.4075049174739147  0.2533304298074083
  0.0164427262342281  0.1796461738470393  0.3800187295273076
  0.4362106670103063  0.8871661008684413  0.7037909506368198
  0.3929638033026583  0.0125061232436353  0.2067814842586896
  0.6755255368390922  0.4835951513851934  0.9196163361904434
  0.2145368082209268  0.4217450332067459  0.9565492995238283
  0.9031057846433304  0.6368979869569786  0.5817385837767005
  0.1239961779198906  0.3337506064631753  0.4308940875511192
  0.5855912785275701  0.9499256888797583  0.8160039501758658
  0.5489711093952266  0.1097180639047659  0.2750602653190002
  0.8042605086627913  0.5612652937636841  0.0435621306767842
  0.3077373869842961  0.5305335428160839  0.0840460337910855
 -0.0040574170927203  0.8248672097818889  0.5953089719775472
 
             NaN             NaN             NaN
             NaN             NaN             NaN
             NaN             NaN             NaN
             NaN             NaN             NaN
             NaN             NaN             NaN
             NaN             NaN             NaN
             NaN             NaN             NaN
             NaN             NaN             NaN
             NaN             NaN             NaN
             NaN             NaN             NaN
             NaN             NaN             NaN
             NaN             NaN             NaN
             NaN             NaN             NaN
             NaN             NaN             NaN
             NaN             NaN             NaN
             NaN             NaN             NaN
             NaN             NaN             NaN
             NaN             NaN             NaN
             NaN             NaN             NaN
             NaN             NaN             NaN
             NaN             NaN             NaN
             NaN             NaN             NaN
             NaN             NaN             NaN
             NaN             NaN             NaN
             NaN             NaN             NaN
             NaN             NaN             NaN
             NaN             NaN             NaN
             NaN             NaN             NaN
             NaN             NaN             NaN
             NaN             NaN             NaN
             NaN             NaN             NaN
             NaN             NaN             NaN
             NaN             NaN             NaN
             NaN             NaN             NaN
             NaN             NaN             NaN
             NaN             NaN             NaN
