Ca2 Mn4 S6 O24
1.0
8.056260 0.424981 4.390284
3.025865 7.756362 4.431934
0.161226 0.170643 8.672365
Ca Mn S O
2 4 6 24
direct
0.279016 0.832167 0.548069 Ca
0.972940 1.010448 1.011297 Ca
0.655050 0.629072 0.648803 Mn
0.155076 0.205598 0.102401 Mn
0.829867 0.798931 0.868677 Mn
0.364471 0.358237 0.356159 Mn
0.980283 0.266595 0.518185 S
0.417220 0.019173 0.767141 S
0.565779 0.969760 0.228921 S
0.740067 0.436391 0.070860 S
0.253878 0.566784 0.928427 S
0.029443 0.732087 0.475541 S
0.400922 0.588514 0.743736 O
0.908991 0.264373 0.067240 O
0.792114 0.400342 0.555548 O
-0.001853 0.867909 0.300222 O
0.586445 0.799008 0.384901 O
0.252599 0.039779 0.940655 O
0.726776 0.939608 0.057640 O
0.216954 0.594659 0.441909 O
0.093441 0.747150 0.910463 O
0.393414 0.194542 0.625444 O
1.007639 0.115663 0.694864 O
0.599451 0.409598 0.252931 O
1.017779 0.181069 0.388348 O
0.424784 0.892573 0.704992 O
0.392167 1.024469 0.202240 O
0.677480 0.484627 0.918081 O
0.198204 0.435367 0.950039 O
0.890551 0.658187 0.581781 O
0.113769 0.342796 0.439982 O
0.582667 -0.053859 0.814611 O
0.561065 0.106728 0.268966 O
0.793872 0.570306 0.047555 O
0.310605 0.520244 0.082774 O
0.010852 0.818766 0.596112 O
