Ca8 Ni12 F42                            
   1.00000000000000     
     7.2695619999999996    0.0228740000000000   -0.0404510000000000
    -3.6390820000000001    6.3419460000000001    0.0120760000000000
    -0.0943330000000000   -0.0234480000000000   18.3269449999999985
   Ca   Ni   F 
     8    12    42
Direct
  0.0338984445418022  0.8314599836614219  0.6738606840456437
  0.1520728168223571  0.6455623147223171  0.9837694625165631
  0.3546085566099032  0.5078010655374046  0.3155751631210515
  0.8412610889291692  0.0139479590366357  0.3475440309341640
  0.1785467782991322  0.1675977082448884  0.0042820271996658
  0.9883795662415682  0.7959652107675098  0.1744152520275737
  0.7892195493938404  0.9788437176354695  0.8355256036663770
  0.2180527591131937  0.1868903873297590  0.5066391834723680
  0.3406043422397742  0.0009556677370543  0.3341350119864670
  0.9959767481518632  0.3276486142880984  0.6652446550821861
  0.6671787787437488  0.6675746390410110  0.0012892464326914
  0.3267293528049145  0.0176368812320584  0.8322255164959652
  0.9939489912791628  0.3107472031332729  0.1613221997457021
  0.6954731360072339  0.6782386642899118  0.4965524086670512
  0.4974277429589003  0.8192091243856252  0.1633065203623024
  0.1853860783791379  0.6693133232877554  0.4949880015195359
  0.3152027273615339  0.4985613353514418  0.8284699160007125
  0.8206285958466558  0.5042775815295144  0.8288481070982442
  0.6920149673259000  0.1769184206773571  0.4991100965868122
  0.4943332708931087  0.3102097216718956  0.1618862058127920
  0.7536997148635906  0.2005237163566705  0.6014187142247908
  0.8180449924412176  0.5701431547021762  0.9365480648354737
  0.4394590017045584  0.2527235472880824  0.2694803491825433
  0.2524642888796853  0.7247833994991368  0.3859513934799209
  0.4809644947808172  0.7497820011794348  0.0576851823344743
  0.2438965212279758  0.4762311244944443  0.7267607359875824
  0.8316744145861232  0.9558979955924461  0.9556600793216697
  0.0464527903489033  0.8801017402513077  0.2895769208550057
  0.1243725369778072  0.1678456049271101  0.6178985221329106
  0.9758753411097554  0.7961511313129483  0.0532558958594145
  0.8790167763225577  0.0693998401085646  0.7246644827059026
  0.2101601214952057  0.1812430577335760  0.3848921366227449
  0.5224429218807791  0.3867740654550058  0.0540987054487955
  0.6150604455953523  0.1302778695091941  0.3894194058635982
  0.8749562222613400  0.4820557071409561  0.7233215222957561
  0.3844630146923002  0.5213788977110652  0.9429732916091750
  0.1122728357901111  0.6039459895912387  0.6018848793740122
  0.5071261058926919  0.8765938225356120  0.2751714875671023
  0.7991167853778433  0.4247920922113487  0.1707619742412555
  0.5849821807934538  0.3720783899591789  0.4988674801474799
  0.6372236596116957  0.2041135285878693  0.8472055503589898
  0.4234812391699179  0.8062639173799971  0.8347210742667455
  0.3846859114964924  0.5635880213144904  0.5026046367444107
  0.1928263030448392  0.6199967082560975  0.1791732360350215
  0.0196430888098390  0.2910663060149148  0.2714526073952528
  0.7543767531316138  0.7184669404661235  0.5984752777579130
  0.2917324343759358  0.9745717414331065  0.9431718994878944
  0.3441784239033559  0.0485743445208050  0.7293333246826587
  0.6493167622360159  0.6706051728015223  0.3831545522250430
  0.0221653604414156  0.3519499283157994  0.0505844105573714
  0.1884487804906357  0.1983940107116678  0.1414280157248131
  0.8049734983388119  0.9852355007572505  0.4782853403870050
  1.0152893879966332  0.8143191600466883  0.8109278762248038
  0.1963389567663601  0.1979194430727549  0.8537795047812534
 -0.0008438545280199  0.7875527632243248  0.4805074619027230
  0.8046617747276950  0.9982489302857900  0.1606824909200884
  0.0445072299934329  0.4487533679940188  0.8707614369437230
  0.5760569065399451  0.6050469093407217  0.1999959686362708
  0.3831016514044768  0.9733510557671331  0.5216737246789581
  0.3868208834597816  0.0082087235928187  0.1377485148981542
  0.6158884934973053  0.6013317256641828  0.8069457040984510
  0.9895871026156570  0.3713706279281538  0.4665786148020664
 
             NaN             NaN             NaN
             NaN             NaN             NaN
             NaN             NaN             NaN
             NaN             NaN             NaN
             NaN             NaN             NaN
             NaN             NaN             NaN
             NaN             NaN             NaN
             NaN             NaN             NaN
             NaN             NaN             NaN
             NaN             NaN             NaN
             NaN             NaN             NaN
             NaN             NaN             NaN
             NaN             NaN             NaN
             NaN             NaN             NaN
             NaN             NaN             NaN
             NaN             NaN             NaN
             NaN             NaN             NaN
             NaN             NaN             NaN
             NaN             NaN             NaN
             NaN             NaN             NaN
             NaN             NaN             NaN
             NaN             NaN             NaN
             NaN             NaN             NaN
             NaN             NaN             NaN
             NaN             NaN             NaN
             NaN             NaN             NaN
             NaN             NaN             NaN
             NaN             NaN             NaN
             NaN             NaN             NaN
             NaN             NaN             NaN
             NaN             NaN             NaN
             NaN             NaN             NaN
             NaN             NaN             NaN
             NaN             NaN             NaN
             NaN             NaN             NaN
             NaN             NaN             NaN
             NaN             NaN             NaN
             NaN             NaN             NaN
             NaN             NaN             NaN
             NaN             NaN             NaN
             NaN             NaN             NaN
             NaN             NaN             NaN
             NaN             NaN             NaN
             NaN             NaN             NaN
             NaN             NaN             NaN
             NaN             NaN             NaN
             NaN             NaN             NaN
             NaN             NaN             NaN
             NaN             NaN             NaN
             NaN             NaN             NaN
             NaN             NaN             NaN
             NaN             NaN             NaN
             NaN             NaN             NaN
             NaN             NaN             NaN
             NaN             NaN             NaN
             NaN             NaN             NaN
             NaN             NaN             NaN
             NaN             NaN             NaN
             NaN             NaN             NaN
             NaN             NaN             NaN
             NaN             NaN             NaN
             NaN             NaN             NaN
