Ca8 Ni12 F42
1.0
7.269562 0.022874 -0.040451
-3.639082 6.341946 0.012076
-0.094333 -0.023448 18.326945
Ca Ni F
8 12 42
direct
0.065570 0.837451 0.673179 Ca
0.147827 0.642584 0.980456 Ca
0.352349 0.513107 0.316135 Ca
0.844906 0.015833 0.347572 Ca
0.167284 0.160638 0.008399 Ca
0.988934 0.794923 0.174741 Ca
0.781468 0.978789 0.835887 Ca
0.222130 0.194894 0.508319 Ca
0.346587 0.008521 0.334589 Ni
0.991893 0.335778 0.666052 Ni
0.658196 0.657738 0.001394 Ni
0.311114 0.004847 0.832268 Ni
0.993786 0.311368 0.161841 Ni
0.695770 0.686099 0.494609 Ni
0.497823 0.819369 0.162616 Ni
0.187698 0.678847 0.496957 Ni
0.305210 0.490700 0.829428 Ni
0.807324 0.496463 0.829026 Ni
0.696986 0.187441 0.497995 Ni
0.494821 0.310407 0.162508 Ni
0.751012 0.204664 0.601069 F
0.805256 0.554401 0.937546 F
0.440959 0.258666 0.269797 F
0.258851 0.735230 0.387413 F
0.473817 0.743817 0.056924 F
0.241339 0.484822 0.727672 F
0.823073 0.947254 0.955650 F
0.052088 0.884732 0.289626 F
0.123455 0.182481 0.618200 F
0.970762 0.789718 0.053346 F
0.866612 0.065127 0.723919 F
0.213389 0.187381 0.385770 F
0.518719 0.380344 0.055129 F
0.623359 0.141535 0.388005 F
0.862342 0.479573 0.723782 F
0.369049 0.499272 0.944328 F
0.110163 0.614079 0.603124 F
0.512681 0.881750 0.274878 F
0.799911 0.425263 0.171672 F
0.588553 0.381524 0.498088 F
0.620498 0.195420 0.843288 F
0.409561 0.794763 0.846909 F
0.386103 0.571869 0.502616 F
0.195730 0.619143 0.183163 F
0.019261 0.289359 0.271414 F
0.731645 0.724050 0.596349 F
0.279608 0.976492 0.943748 F
0.328338 0.011441 0.729158 F
0.650583 0.673696 0.382315 F
0.019901 0.355489 0.051634 F
0.188063 0.198391 0.142304 F
0.809120 0.994497 0.476954 F
-0.000170 0.804919 0.816740 F
0.185370 0.189575 0.845685 F
1.000627 0.795593 0.481777 F
0.804349 -0.000814 0.157053 F
0.026122 0.428408 0.870025 F
0.581764 0.609062 0.198878 F
0.388543 0.983359 0.521066 F
0.384004 0.006312 0.138290 F
0.606395 0.600142 0.806961 F
0.994362 0.382496 0.467694 F
