Ca9 Mn12 F42                            
   1.00000000000000     
     7.5891130000000002   -0.0545080000000000    0.0334730000000000
    -3.8466260000000001    6.6233339999999998    0.0052230000000000
     0.1001210000000000    0.0767940000000000   18.7346040000000009
   Ca   Mn   F 
     9    12    42
Direct
  0.7727062199991003  0.4781098391776957  0.3179567148668214
  0.5028119477794760  0.8646841331488540  0.6808166688208575
  0.1984911898916489  0.6640526814636021  0.0163804334419248
  0.5269902864118933  0.3741831716641307  0.6685016637520759
  0.8146838086547966  1.0023189513985296  0.3381988508702141
  0.1728619878520148  0.1481924862778537  0.0014969269930591
  0.8627493655787466  0.0554661279862854  0.8352875998912793
  0.0267299965328580  0.8335119722287935  0.1695768622712215
  0.1706041529405592  0.1902447332552437  0.4995774476321063
  0.2840317641519059  0.9519174972278390  0.3487112534092740
  0.0349622915440745  0.3720059443112924  0.6573943020882117
  0.6851541922613587  0.6615807818309287 -0.0004307139874114
  0.3461490200060912  0.0186241969172873  0.8420683139894364
  0.9769660635962403  0.3010732732637202  0.1636497539370396
  0.6619857485091152  0.6881178292362393  0.4996065519545056
  0.4877779653065291  0.7983017067921467  0.1820066997216831
  0.1483981608931258  0.6748592819177871  0.5038464464671455
  0.3572444755834790  0.5190381388548115  0.8344152671110909
  0.8531724528296420  0.5211005212789218  0.8301218019512250
  0.6611989290838014  0.1788067970561494  0.4991376518690057
  0.4836642060053511  0.3073476674748584  0.1645962002867006
  0.5860260424036964  0.1301220419576117  0.6069577049745234
  0.8657722447403652  0.5694673389184155  0.9435012631702145
  0.4526957249677794  0.2098972182383888  0.2759106932158844
  0.0694489886456761  0.6494407724186381  0.3933542634500571
  0.5259280541804192  0.7551471295032077  0.0699483524943561
  0.3057041601189175  0.5113704307385418  0.7210481771571062
  0.8475848681597796  0.9510330920273834  0.9493639458426620
 -0.0008381608447491  0.8215331074174768  0.2842026063486640
  0.2086102393182539  0.2446234147262492  0.6165080175024619
  0.9927273169750805  0.8122377655371613  0.0542956569394295
  0.8451735028565464  0.0888265028529662  0.7157123361701309
  0.1391347136918401  0.1155095017259500  0.3829820776760448
  0.4985727473505973  0.3699699179122335  0.0490187564815838
  0.6987478333495704  0.2148092478029815  0.3876983492768610
  0.8531457024268755  0.4618847284375928  0.7087569251866329
  0.3929877399567906  0.5758292211476109  0.9449431532528985
  0.2167018378095818  0.6881006121348590  0.6135028812691597
  0.4748534602741916  0.8654285753841562  0.2937998926186126
  0.8019215802465434  0.4588212989016092  0.1784252822270797
  0.5459190180082150  0.3731348374667447  0.5129082161011552
  0.6591068007112195  0.2052631792272415  0.8572699559208592
  0.5061151655366037  0.8322776769290650  0.8117755432606316
  0.3424145347041097  0.5591323748369897  0.4834828706037338
  0.1754089617206960  0.6205136128183957  0.1482261535678442
  0.9541766159013821  0.3082028566417723  0.2732149285726549
  0.6175609864264312  0.6860126055885944  0.6139000360506236
  0.2995849690155259  0.9478797205436946  0.9522062900641719
  0.3933656646764299  0.0752852247956716  0.7342138628106616
  0.6884135660818645  0.6744038225863324  0.3847696252105149
  0.0270901037818812  0.3298716668722491  0.0474108182917896
  0.1698725258923484  0.1763580794709009  0.1394585348662981
  0.7932662240380218  1.0021412496540039  0.4701742135083959
  0.0190045639937682  0.8390162467785061  0.8207148468594125
  0.2296900774497775  0.2120458175780515  0.8773993363162710
  0.9794306077922683  0.8191878713494944  0.5210568658865955
  0.8080773336699693  0.9790401356679707  0.1914807940410555
  0.0504791766675836  0.4115445097855139  0.8404992642641718
  0.5399657712445238  0.5719789235939758  0.2135078436288802
  0.3571350667646683  0.9785964151478248  0.4633228304264448
  0.3901123642773216  0.0013751429894132  0.1447862329924796
  0.5965281635921477  0.5088010908585924  0.7894124936374373
  0.9633666032746917  0.3553104550830376  0.5396660434060865
 
             NaN             NaN             NaN
             NaN             NaN             NaN
             NaN             NaN             NaN
             NaN             NaN             NaN
             NaN             NaN             NaN
             NaN             NaN             NaN
             NaN             NaN             NaN
             NaN             NaN             NaN
             NaN             NaN             NaN
             NaN             NaN             NaN
             NaN             NaN             NaN
             NaN             NaN             NaN
             NaN             NaN             NaN
             NaN             NaN             NaN
             NaN             NaN             NaN
             NaN             NaN             NaN
             NaN             NaN             NaN
             NaN             NaN             NaN
             NaN             NaN             NaN
             NaN             NaN             NaN
             NaN             NaN             NaN
             NaN             NaN             NaN
             NaN             NaN             NaN
             NaN             NaN             NaN
             NaN             NaN             NaN
             NaN             NaN             NaN
             NaN             NaN             NaN
             NaN             NaN             NaN
             NaN             NaN             NaN
             NaN             NaN             NaN
             NaN             NaN             NaN
             NaN             NaN             NaN
             NaN             NaN             NaN
             NaN             NaN             NaN
             NaN             NaN             NaN
             NaN             NaN             NaN
             NaN             NaN             NaN
             NaN             NaN             NaN
             NaN             NaN             NaN
             NaN             NaN             NaN
             NaN             NaN             NaN
             NaN             NaN             NaN
             NaN             NaN             NaN
             NaN             NaN             NaN
             NaN             NaN             NaN
             NaN             NaN             NaN
             NaN             NaN             NaN
             NaN             NaN             NaN
             NaN             NaN             NaN
             NaN             NaN             NaN
             NaN             NaN             NaN
             NaN             NaN             NaN
             NaN             NaN             NaN
             NaN             NaN             NaN
             NaN             NaN             NaN
             NaN             NaN             NaN
             NaN             NaN             NaN
             NaN             NaN             NaN
             NaN             NaN             NaN
             NaN             NaN             NaN
             NaN             NaN             NaN
             NaN             NaN             NaN
             NaN             NaN             NaN
