Ca9 Mn12 F42
1.0
7.589113 -0.054508 0.033473
-3.846626 6.623334 0.005223
0.100121 0.076794 18.734604
Ca Mn F
9 12 42
direct
0.754998 0.485425 0.322727 Ca
0.509334 0.851765 0.682472 Ca
0.172690 0.652200 1.007274 Ca
0.530679 0.357566 0.664980 Ca
0.821235 -0.005802 0.339548 Ca
0.186549 0.161603 0.000370 Ca
0.864153 0.064629 0.837398 Ca
1.009631 0.830549 0.168536 Ca
0.168574 0.166766 0.503584 Ca
0.307869 0.972534 0.345092 Mn
0.031525 0.366104 0.655124 Mn
0.680866 0.674444 0.001079 Mn
0.339071 0.013547 0.838228 Mn
-0.020286 0.307122 0.159612 Mn
0.665617 0.669383 0.502147 Mn
0.483869 0.808911 0.175486 Mn
0.167932 0.668530 0.498603 Mn
0.353696 0.515537 0.833886 Mn
0.845006 0.521785 0.827589 Mn
0.667468 0.169225 0.501192 Mn
0.484587 0.317064 0.171594 Mn
0.612023 0.122915 0.610077 F
0.848572 0.571736 0.942317 F
0.475065 0.245203 0.285622 F
0.118015 0.665005 0.386484 F
0.514803 0.776294 0.062244 F
0.284066 0.513371 0.724283 F
0.853911 0.960725 0.950216 F
0.014193 0.842962 0.283820 F
0.205420 0.235053 0.619612 F
0.999518 0.822315 0.052254 F
0.850530 0.089416 0.718168 F
0.138364 0.123173 0.386690 F
0.509145 0.384045 0.054606 F
0.724312 0.213390 0.392026 F
0.857749 0.463080 0.708045 F
0.384965 0.553334 0.946426 F
0.236889 0.686812 0.607219 F
0.492599 0.874360 0.292326 F
0.805196 0.460359 0.183046 F
0.547643 0.357936 0.526234 F
0.653679 0.206956 0.852372 F
0.513358 0.828955 0.814411 F
0.349704 0.537276 0.479419 F
0.170699 0.626402 0.140239 F
-0.026936 0.298655 0.270151 F
0.621937 0.673394 0.616680 F
0.298066 0.948850 0.948138 F
0.388284 0.056472 0.730540 F
0.706038 0.670158 0.387651 F
0.021805 0.325294 0.043681 F
0.176236 0.187400 0.140267 F
0.788331 0.981509 0.478702 F
0.010746 0.836014 0.818735 F
0.224167 0.207502 0.872358 F
0.983199 0.794958 0.518888 F
0.802571 -0.011035 0.177748 F
0.051795 0.428018 0.853276 F
0.554853 0.596863 0.206221 F
0.362775 -0.012012 0.463150 F
0.376700 1.007188 0.161895 F
0.582078 0.494127 0.783109 F
0.973779 0.353014 0.536674 F
