Ca1 Ni16 F48                            
   1.00000000000000     
    10.4533539999999991   -0.0000920000000000   -0.0275120000000000
    -0.0001800000000000    7.2694630000000000   -0.0058270000000000
    -0.0256640000000000    0.0133900000000000   10.0669179999999994
   Ca   Ni   F 
     1    16    48
Direct
  0.5175710981892563  0.2166133771880541  0.4979957211502492
 -0.0002729401118205  0.4976907736188796  0.2490098873343281
  0.0004674504798918  0.4982281088987675  0.7528304366248414
  0.4997792747358176  0.4994501576793403  0.2394868158870704
  0.4990040775213758  0.5035899619041670  0.7605407832290558
  0.2445619730969196  0.9963244375760280 -0.0021145385675698
  0.2393225672611255  0.9924313236618747  0.4973769434446826
  0.7553070412840168 -0.0004600010038199  1.0008368578833229
  0.7621025994054678  0.9855786296119076  0.5026607362942783
 -0.0021587223609196 -0.0018658900819954  0.2465426396208391
  0.0018167921627614  0.9976914256072050  0.7544354074695687
  0.4975299977286891  0.9901600214685747  0.2327596657413027
  0.5016247768393773  0.9890574058642472  0.7645624343403272
  0.2464332081697677  0.4969515771768724  1.0002078332538473
  0.2452965785533540  0.4996311907481126  0.5014236579735437
  0.7533699752521140  0.4999934034289044  1.0004540269512050
  0.7557743259540216  0.4983784758307109  0.5013480134056466
  0.4902934434162668  0.2457636638214322  0.1869135821911133
  0.4895688642372160  0.2462200656385590  0.7133100326781228
  0.9855135393794077  0.2461758824952111  0.1920682388006723
  0.9882258805731520  0.2451333804726216  0.6971526917614224
  0.2346602976995907  0.2478928648086837  0.0561692380578438
  0.2496338200867957  0.2479332102404792  0.5526924467732799
  0.7416860090518801  0.2523724873796184  0.0572280635095752
  0.7364561355802929  0.2430511572872662  0.5536058524477077
  0.0111837287836362  0.7509120546070991  0.3026743657449652
  0.0148204119324308  0.7501366475151909  0.8097266585074114
  0.5083117082374980  0.7465854561633425  0.2962961276261732
  0.5114832570791957  0.7456615362235861  0.8201843719534925
  0.2549988991062779  0.7435361073791398  0.4436034922046529
  0.2559882180825926  0.7450074982491171  0.9411346783742526
  0.7647085688146806  0.7416436943729346  0.4426089469254880
  0.7676007032143232  0.7472521349481833  0.9440502078275375
  0.3437151753828019  0.5530111684703702  0.1501941526203369
  0.3491883905644131  0.5528168593329055  0.6524912293251857
  0.8470271126689233  0.5553896298449829  0.1536133367918544
  0.8499451774459305  0.5527761454642341  0.6559502301734609
  0.0934579564523492  0.9423628720089072  0.0926803576328007
  0.0952412470550214  0.9386294424611399  0.6015812112592861
  0.6033079210807939  0.9372524035751096  0.0890331917151264
  0.6067877789490459  0.9451960331592283  0.6062472993350182
  0.1429095267593677  0.0558726790619986  0.3437858971482206
  0.1532688083280799  0.0573676713991577  0.8433031339130033
  0.6409055056564043  0.0471599300925645  0.3537309589815151
  0.6552026017330509  0.0553069927158604  0.8529778401292543
  0.3986492069824587  0.4440630214822529  0.4003117236871204
  0.3976019213213910  0.4421352574790118  0.9102835080661996
  0.9024612035855748  0.4417157872361666  0.4031225793213094
  0.9030104486294090  0.4434177968649368  0.9072049509085180
  0.1499300614806648  0.4416867318411630  0.3481907375264466
  0.1521049083353700  0.4397572350604902  0.8475489827963398
  0.6439730755649234  0.4324865639430352  0.3537278754758329
  0.6559243565032792  0.4455659514632215  0.8502035145113499
  0.3829096996965005  0.0479860756007146  0.3790481147966741
  0.3967503958312138  0.0527602472420395  0.9085638334287488
  0.9038028487264546  0.0545356256531060  0.4000605971403804
  0.9068243446494568  0.0562865654299493  0.9075983295182438
  0.3443175653351407  0.9319873685711005  0.1427609035370730
  0.3632437105197823  0.9488849583981206  0.6385583131060751
  0.8466515249938852  0.9414266962483876  0.1563341927151932
  0.8541411825327877  0.9377812166577695  0.6614619473030122
  0.0974073064013330  0.5527140773751595  0.0944131479792119
  0.0966454355343699  0.5509608190610117  0.5981966743993123
  0.6025596683120288  0.5574283212232837  0.0907021521756596
  0.5970207881706544  0.5342642441818493  0.5964856745687750
 
             NaN             NaN             NaN
             NaN             NaN             NaN
             NaN             NaN             NaN
             NaN             NaN             NaN
             NaN             NaN             NaN
             NaN             NaN             NaN
             NaN             NaN             NaN
             NaN             NaN             NaN
             NaN             NaN             NaN
             NaN             NaN             NaN
             NaN             NaN             NaN
             NaN             NaN             NaN
             NaN             NaN             NaN
             NaN             NaN             NaN
             NaN             NaN             NaN
             NaN             NaN             NaN
             NaN             NaN             NaN
             NaN             NaN             NaN
             NaN             NaN             NaN
             NaN             NaN             NaN
             NaN             NaN             NaN
             NaN             NaN             NaN
             NaN             NaN             NaN
             NaN             NaN             NaN
             NaN             NaN             NaN
             NaN             NaN             NaN
             NaN             NaN             NaN
             NaN             NaN             NaN
             NaN             NaN             NaN
             NaN             NaN             NaN
             NaN             NaN             NaN
             NaN             NaN             NaN
             NaN             NaN             NaN
             NaN             NaN             NaN
             NaN             NaN             NaN
             NaN             NaN             NaN
             NaN             NaN             NaN
             NaN             NaN             NaN
             NaN             NaN             NaN
             NaN             NaN             NaN
             NaN             NaN             NaN
             NaN             NaN             NaN
             NaN             NaN             NaN
             NaN             NaN             NaN
             NaN             NaN             NaN
             NaN             NaN             NaN
             NaN             NaN             NaN
             NaN             NaN             NaN
             NaN             NaN             NaN
             NaN             NaN             NaN
             NaN             NaN             NaN
             NaN             NaN             NaN
             NaN             NaN             NaN
             NaN             NaN             NaN
             NaN             NaN             NaN
             NaN             NaN             NaN
             NaN             NaN             NaN
             NaN             NaN             NaN
             NaN             NaN             NaN
             NaN             NaN             NaN
             NaN             NaN             NaN
             NaN             NaN             NaN
             NaN             NaN             NaN
             NaN             NaN             NaN
             NaN             NaN             NaN
