Ca1 Ni16 F48
1.0
10.453354 -0.000092 -0.027512
-0.000180 7.269463 -0.005827
-0.025664 0.013390 10.066918
Ca Ni F
1 16 48
direct
0.520446 0.187318 0.493929 Ca
0.000581 0.499981 0.247605 Ni
0.000549 0.500164 0.753411 Ni
0.500273 0.504174 0.236902 Ni
0.498109 0.505524 0.760152 Ni
0.246457 0.999357 1.000020 Ni
0.242402 0.997260 0.501764 Ni
0.753245 0.000260 0.999052 Ni
0.760740 0.994278 0.500464 Ni
0.000552 0.000330 0.247795 Ni
0.000390 0.999685 0.753369 Ni
0.500047 0.995478 0.238154 Ni
0.498140 0.995738 0.759559 Ni
0.246667 0.500337 0.999993 Ni
0.243582 0.502602 0.501405 Ni
0.753105 0.499917 0.998781 Ni
0.759788 0.505161 0.500332 Ni
0.484857 0.248294 0.193721 F
0.482057 0.249766 0.708586 F
0.988090 0.247946 0.193041 F
0.987712 0.247925 0.697618 F
0.235747 0.251733 0.055625 F
0.250142 0.251708 0.553542 F
0.739111 0.252725 0.054325 F
0.743680 0.250444 0.552982 F
0.012315 0.752324 0.301862 F
0.014213 0.751913 0.808722 F
0.515824 0.750779 0.294295 F
0.516224 0.751382 0.812227 F
0.253471 0.748488 0.446105 F
0.257772 0.747967 0.943251 F
0.762465 0.749254 0.442476 F
0.767309 0.747523 0.944304 F
0.343261 0.558303 0.150092 F
0.348620 0.557836 0.652238 F
0.846349 0.553501 0.153345 F
0.850760 0.558087 0.657375 F
0.094969 0.945070 0.094432 F
0.093149 0.945650 0.599454 F
0.600442 0.944239 0.088928 F
0.597084 0.964015 0.596787 F
0.149602 0.055286 0.343719 F
0.151792 0.056543 0.845051 F
0.647276 0.058041 0.349409 F
0.652953 0.054184 0.846807 F
0.397371 0.458947 0.398374 F
0.398995 0.447337 0.911385 F
0.906439 0.446848 0.402674 F
0.903620 0.443567 0.907285 F
0.150413 0.444483 0.347003 F
0.153022 0.442815 0.846743 F
0.647627 0.441587 0.349794 F
0.655650 0.446051 0.847650 F
0.397667 0.041050 0.397814 F
0.399786 0.051800 0.910105 F
0.907860 0.055121 0.401624 F
0.904832 0.056178 0.905568 F
0.344843 0.941142 0.150628 F
0.349620 0.943094 0.654925 F
0.848257 0.946995 0.155923 F
0.850699 0.942052 0.659621 F
0.096369 0.554569 0.092848 F
0.095277 0.552622 0.598370 F
0.601021 0.556564 0.086499 F
0.597999 0.536191 0.596050 F
