Ca8 Cu16 S16
1.0
   7.8799999999999999    0.0000000000000000    0.0000000000000005
  -3.9399999999999977    6.8242801818213774    0.0000000000000004
   0.0000000000000000    0.0000000000000000   13.0459999999999994
Ca Cu S
7 16 16
direct
   0.0000000000000000    0.5000000000000000    0.5000000000000000 Ca
   0.0000000000000000    0.0000000000000000    0.0000000000000000 Ca
   0.0000000000000000    0.5000000000000000    0.0000000000000000 Ca
   0.4999999999999998    0.0000000000000000    0.0000000000000000 Ca
   0.4999999999999998    0.5000000000000000    0.0000000000000000 Ca
   0.0000000000000000    0.0000000000000000    0.5000000000000000 Ca
   0.4999999999999998    0.0000000000000000    0.5000000000000000 Ca
   0.3333333333333334    0.1666666666666667    0.3117550000000001 Cu
   0.3333333333333334    0.6666666666666669    0.3117550000000001 Cu
   0.3333333333333334    0.1666666666666667    0.8117550000000000 Cu
   0.3333333333333334    0.6666666666666669    0.8117550000000000 Cu
   0.8333333333333333    0.1666666666666667    0.3117550000000001 Cu
   0.8333333333333333    0.6666666666666669    0.3117550000000001 Cu
   0.8333333333333333    0.1666666666666667    0.8117550000000000 Cu
   0.8333333333333333    0.6666666666666669    0.8117550000000000 Cu
   0.1666666666666666    0.3333333333333333    0.1882450000000000 Cu
   0.1666666666666666    0.8333333333333335    0.1882450000000000 Cu
   0.1666666666666666    0.3333333333333333    0.6882450000000000 Cu
   0.1666666666666666    0.8333333333333335    0.6882450000000000 Cu
   0.6666666666666665    0.3333333333333333    0.1882450000000000 Cu
   0.6666666666666666    0.8333333333333335    0.1882450000000000 Cu
   0.6666666666666665    0.3333333333333333    0.6882450000000000 Cu
   0.6666666666666666    0.8333333333333335    0.6882450000000000 Cu
   0.3333333333333334    0.1666666666666667    0.1268500000000000 S
   0.3333333333333334    0.6666666666666669    0.1268500000000000 S
   0.3333333333333334    0.1666666666666667    0.6268500000000001 S
   0.3333333333333334    0.6666666666666669    0.6268500000000001 S
   0.8333333333333333    0.1666666666666667    0.1268500000000000 S
   0.8333333333333333    0.6666666666666669    0.1268500000000000 S
   0.8333333333333333    0.1666666666666667    0.6268500000000001 S
   0.8333333333333333    0.6666666666666669    0.6268500000000001 S
   0.1666666666666666    0.3333333333333333    0.3731500000000000 S
   0.1666666666666666    0.8333333333333335    0.3731500000000000 S
   0.1666666666666666    0.3333333333333333    0.8731500000000002 S
   0.1666666666666666    0.8333333333333335    0.8731500000000002 S
   0.6666666666666665    0.3333333333333333    0.3731500000000000 S
   0.6666666666666666    0.8333333333333335    0.3731500000000000 S
   0.6666666666666665    0.3333333333333333    0.8731500000000002 S
   0.6666666666666666    0.8333333333333335    0.8731500000000002 S
