Na2 Ca2 V4 P4 S2 O24                    
   1.00000000000000     
     8.8823779999999992    0.2428420000000000    0.1532220000000000
     4.3559820000000000    7.8348019999999998    0.1966330000000000
     4.3224530000000003    2.6797130000000000    7.3524010000000004
   Ca   Na   V    P    S    O 
     2     2     4     4     2    24
Direct
  0.5924628921290523  0.3833815922282457  0.5444956749933189
  0.0288042956946844  0.9702537921132657  0.0049068401237765
  0.7523436363799431  0.3958098421643322  0.0985347013714687
  0.6013185568097905  0.8722315214192700  0.2414630150780961
  0.3566875183499721  0.3604547787527860  0.3508296842831293
  0.6444691099682278  0.6505900139517405  0.6511882923296088
  0.1490087042191633  0.1496348468948468  0.1460758642046271
  0.8573055731529280  0.8585882417902273  0.8486721891421545
  0.9556611270642575  0.5369686983743750  0.2535132801548025
  0.7586435202977591  0.0357691424359414  0.4475720559398090
  0.4598642570520683  0.7550298869574482  0.0425121004771008
  0.5524590142683461  0.2491852561918428  0.9693476425454305
  0.0550638156291274  0.4584291428115336  0.7432317453791856
  0.2501302026400619  0.9615870253235249  0.5475222755585260
  0.2355016117579761  0.4344032265691983  0.5907135073869956
  0.7691026510676261  0.5661416822078885  0.4199657350581206
  0.5905528097568844  0.2209632833306032  0.4231708682953566
  0.4149495275651849  0.7871281664114808  0.5554022736507529
  0.4469016013518340  0.5816645279420730  0.2220216235730691
  0.5688017262172026  0.4181027394387168  0.7863410542722443
  0.9182028947121827  0.0679338146172629  0.2579559292823223
  0.0976302906941986  0.9299379001719235  0.7297676560016106
  0.0673872458185905  0.2773354499857259  0.9066077531694962
  0.9325487926934442  0.7268843502921384  0.0902707359341336
  0.2764996733497129  0.9198078065428508  0.0697928930612767
  0.7388926832390051  0.0835421079290931  0.9410086178896685
  0.5345300957491841  0.2874421221760793  0.1270553805825489
  0.4887802708007992  0.7211446901558214  0.8761916173412879
  0.1228641492598171  0.4929341554511321  0.2951047831297298
  0.9006243060588824  0.4919444658446891  0.6966489194219808
  0.2932146189621961  0.1136558551072848  0.5210679383477866
  0.7170973441958571  0.8745106021497840  0.4793996953419618
  0.3903095216875150  0.2005315876100947  0.0105374237371229
  0.6254104296220988  0.7937201304951232  0.0133481034705539
  0.1951908184895141 -0.0009522778649760  0.3984795520975907
  0.7956664268007421  1.0231773935049504  0.6059930722291019
  0.9634131634050929  0.3837616831037283  0.2134167316235842
  0.0199074592514359  0.6053847328502743  0.7980083426627261
 
             NaN             NaN             NaN
             NaN             NaN             NaN
             NaN             NaN             NaN
             NaN             NaN             NaN
             NaN             NaN             NaN
             NaN             NaN             NaN
             NaN             NaN             NaN
             NaN             NaN             NaN
             NaN             NaN             NaN
             NaN             NaN             NaN
             NaN             NaN             NaN
             NaN             NaN             NaN
             NaN             NaN             NaN
             NaN             NaN             NaN
             NaN             NaN             NaN
             NaN             NaN             NaN
             NaN             NaN             NaN
             NaN             NaN             NaN
             NaN             NaN             NaN
             NaN             NaN             NaN
             NaN             NaN             NaN
             NaN             NaN             NaN
             NaN             NaN             NaN
             NaN             NaN             NaN
             NaN             NaN             NaN
             NaN             NaN             NaN
             NaN             NaN             NaN
             NaN             NaN             NaN
             NaN             NaN             NaN
             NaN             NaN             NaN
             NaN             NaN             NaN
             NaN             NaN             NaN
             NaN             NaN             NaN
             NaN             NaN             NaN
             NaN             NaN             NaN
             NaN             NaN             NaN
             NaN             NaN             NaN
             NaN             NaN             NaN
