Na2 Ca2 V4 P4 S2 O24
1.0
8.882378 0.242842 0.153222
4.355982 7.834802 0.196633
4.322453 2.679713 7.352401
Ca Na V P S O
2 2 4 4 2 24
direct
0.605064 0.388698 0.544196 Ca
0.025228 0.975727 0.002704 Ca
0.749487 0.398446 0.107286 Na
0.601205 0.879405 0.242943 Na
0.360299 0.358467 0.350891 V
0.639631 0.654391 0.647824 V
0.146631 0.150679 0.144552 V
0.857290 0.852123 0.852629 V
0.956482 0.538129 0.253065 P
0.755319 0.035278 0.447986 P
0.458575 0.757093 0.041391 P
0.549618 0.253942 0.965240 P
0.047680 0.458791 0.744841 S
0.247151 0.962495 0.545786 S
0.223569 0.436421 0.589562 O
0.770396 0.567463 0.418791 O
0.593019 0.226970 0.435011 O
0.409301 0.785237 0.553599 O
0.441046 0.585150 0.221406 O
0.559632 0.423868 0.782855 O
0.914205 0.069812 0.257378 O
0.094942 0.933096 0.728337 O
0.061517 0.276213 0.906170 O
0.932158 0.728906 0.090252 O
0.275653 0.922116 0.065578 O
0.736784 0.091855 0.925462 O
0.541686 0.286632 0.122470 O
0.493573 0.721579 0.874547 O
0.125265 0.491323 0.293008 O
0.889680 0.497397 0.701309 O
0.297163 0.110354 0.517556 O
0.701885 0.886210 0.469038 O
0.386371 0.201032 0.017646 O
0.622076 0.794431 0.018759 O
0.188847 1.002295 0.398329 O
0.809282 0.990973 0.608475 O
0.964322 0.384890 0.212852 O
0.019297 0.600395 0.802936 O
