Ca9 Mn12 F42
1.0
7.583697 -0.047257 0.041247
-3.837555 6.616023 -0.002713
0.119265 0.065356 18.762621
Ca Mn F
9 12 42
direct
0.813612 0.483738 0.319403 Ca
0.508612 0.850715 0.682426 Ca
0.176928 0.655855 1.008686 Ca
0.530731 0.358041 0.665232 Ca
0.818310 -0.007877 0.342014 Ca
0.187373 0.164897 -0.000353 Ca
0.863733 0.063423 0.837066 Ca
1.012627 0.838850 0.167175 Ca
0.172255 0.170551 0.502712 Ca
0.302424 0.971208 0.346045 Mn
0.031928 0.364301 0.655366 Mn
0.681439 0.675515 0.000759 Mn
0.339220 0.012271 0.838213 Mn
-0.023189 0.307890 0.160232 Mn
0.667040 0.668679 0.501617 Mn
0.482487 0.809630 0.176512 Mn
0.167974 0.667483 0.498955 Mn
0.353480 0.514621 0.833694 Mn
0.845306 0.521381 0.827914 Mn
0.668839 0.168636 0.502066 Mn
0.484955 0.319549 0.171186 Mn
0.613275 0.122455 0.610342 F
0.850495 0.572934 0.942463 F
0.480852 0.241612 0.284523 F
0.108271 0.663045 0.386928 F
0.511238 0.773280 0.062439 F
0.286428 0.511149 0.723735 F
0.853318 0.961875 0.950170 F
0.008517 0.836746 0.282938 F
0.205688 0.232871 0.619348 F
1.001403 0.825835 0.051492 F
0.849842 0.087173 0.718122 F
0.142173 0.114357 0.385587 F
0.510244 0.385577 0.054517 F
0.733163 0.225312 0.393633 F
0.857901 0.461845 0.708052 F
0.383974 0.551686 0.946337 F
0.235539 0.685333 0.607740 F
0.494755 0.883342 0.293313 F
0.806453 0.468264 0.184463 F
0.547325 0.356772 0.526343 F
0.653421 0.206691 0.852487 F
0.511253 0.828294 0.814493 F
0.351468 0.539197 0.479865 F
0.169537 0.626725 0.141328 F
-0.043663 0.292123 0.271189 F
0.622610 0.673821 0.616043 F
0.299122 0.950168 0.948162 F
0.388787 0.056947 0.730644 F
0.710688 0.664701 0.387420 F
0.021325 0.327249 0.044167 F
0.177120 0.192476 0.140814 F
0.789275 0.980588 0.474789 F
0.010754 0.835670 0.818782 F
0.224264 0.206932 0.872168 F
0.984985 0.796729 0.519380 F
0.802194 -0.013260 0.175200 F
0.051061 0.425417 0.851747 F
0.547026 0.595051 0.208325 F
0.366119 -0.014810 0.463252 F
0.377301 1.009604 0.158714 F
0.584088 0.495932 0.783271 F
0.976076 0.349739 0.537004 F
