Ca8 Mn12 F42                            
   1.00000000000000     
     7.7156880000000001   -0.0971480000000000   -0.0155060000000000
    -3.9479810000000000    6.7209899999999996    0.0642550000000000
    -0.0204820000000000    0.1772650000000000   18.3457049999999988
   Ca   Mn   F 
     8    12    42
Direct
  0.4956834590171154  0.8334021760784822  0.6574080396006562
  0.1671494518167148  0.6457525855791552  0.9903088008842285
  0.3459272372594057  0.4950477690699334  0.3501058627217533
  0.8316135513489076 -0.0041564803223058  0.3364965601078579
  0.1703320385525986  0.1543091844087242  0.0024330893841320
  0.8121819729426922  0.9399001821615282  0.8402995178333973
 -0.0052916681697345  0.7759495499508372  0.1747719516973746
  0.1795649928401890  0.1708671059131472  0.5170756914913334
  0.3392257989436396  0.0249901806814779  0.3244339564736726
  0.9929688702845338  0.3331166419370541  0.6726088295978762
  0.6574871925920581  0.6557516518216319  0.0153596821952889
  0.3216317501001451 -0.0095244596256695  0.8305361883898432
  0.0137475009923908  0.3138619584683632  0.1684215647833832
  0.7218444806806362  0.6286492117461608  0.5049646141177033
  0.5093639527387174  0.8170210855479788  0.1671024037068896
  0.1849584111108874  0.6796365260121718  0.4947963290768714
  0.3186430872640089  0.4981980052447220  0.8388578908239895
  0.8118678935533777  0.5054671085855392  0.8288107615436839
  0.6869867615980547  0.1786301751289047  0.4888582566028853
  0.4972308454752636  0.3064777625499177  0.1631148874646365
  0.7736466963021216  0.1958605100828138  0.5981145726084212
  0.7823556588749153  0.5803542611069397  0.9302166406539972
  0.4457660207179212  0.3307788870443055  0.2715133279884097
  0.2521870803961211  0.7530003314864172  0.3846347958506458
  0.4735832527551505  0.7836747016272255  0.0534393554155679
  0.2437858252445210  0.5113882129019091  0.7337269280450025
  0.8380592566005037  0.9473570798343567  0.9647716775020436
  0.0323740248093631  0.8855774847746958  0.2873339749180753
  0.1401354452244470  0.2226643859142939  0.6309111968347468
 -0.0001604440901403  0.7734063420363285  0.0537187574741051
  0.7925126797034684  0.0404340469775130  0.7286755035797748
  0.2330723060144133  0.1612305206506608  0.3933738395286057
  0.5031296732907049  0.3401072133742348  0.0498625600896171
  0.6173507324983331  0.1189919224589694  0.3744160387867106
  0.8592765609112429  0.4363982593458230  0.7312468445473886
  0.3637597700231830  0.4951742138656798  0.9532222953902089
  0.1667445754013891  0.6027141266440565  0.6035369259372275
  0.5273832341954829  0.7666550061192239  0.2783984165514177
  0.8043437996158972  0.4132905247350682  0.1766572321217494
  0.5213323460516563  0.3135329290586964  0.5144320823204566
  0.5956457813983381  0.2271237549195641  0.8462326861092783
  0.4635140326135176  0.8171307914114598  0.8567406239598708
  0.2825313127164171  0.4820562774931534  0.4726200570753482
  0.1961664127589657  0.6267039160855817  0.1670330131404490
  0.0547871415588842  0.3113073650187431  0.2843137312354764
  0.6425465545559987  0.7048980800419484  0.5947145261609240
  0.2628485994478320  0.9560466316196367  0.9400552861149265
  0.3693432144377686 -0.0272521559191653  0.7279323964497201
  0.6702589455628607  0.6872192840656743  0.4014048331448665
  0.0442672112573700  0.3471504350489010  0.0532950795752321
  0.1739789867325880  0.1393270691211030  0.1350476346241397
  0.8818501113000274  0.0854483668128929  0.4592916130653218
  0.0175604331918028  0.8034739507898830  0.8135398175268750
  0.1594574422322780  0.1843509504959624  0.8567540607426045
  0.0353397100466141  0.8372921464398405  0.5156772499661941
  0.8077577307674206  0.0203070487986610  0.1900715345289286
  0.0525651604600448  0.4862283189266225  0.8791890655219308
  0.6496692971731105  0.6422768730741375  0.1419103114870621
  0.4530675800131571  0.9141897849142071  0.5260724535725040
  0.3988541938602291  0.0061944173764172  0.2047438478814282
  0.6123400136904975  0.6068619146922055  0.8003062965659201
  0.8954481499020239  0.4717509430685983  0.4698515297483991
 
             NaN             NaN             NaN
             NaN             NaN             NaN
             NaN             NaN             NaN
             NaN             NaN             NaN
             NaN             NaN             NaN
             NaN             NaN             NaN
             NaN             NaN             NaN
             NaN             NaN             NaN
             NaN             NaN             NaN
             NaN             NaN             NaN
             NaN             NaN             NaN
             NaN             NaN             NaN
             NaN             NaN             NaN
             NaN             NaN             NaN
             NaN             NaN             NaN
             NaN             NaN             NaN
             NaN             NaN             NaN
             NaN             NaN             NaN
             NaN             NaN             NaN
             NaN             NaN             NaN
             NaN             NaN             NaN
             NaN             NaN             NaN
             NaN             NaN             NaN
             NaN             NaN             NaN
             NaN             NaN             NaN
             NaN             NaN             NaN
             NaN             NaN             NaN
             NaN             NaN             NaN
             NaN             NaN             NaN
             NaN             NaN             NaN
             NaN             NaN             NaN
             NaN             NaN             NaN
             NaN             NaN             NaN
             NaN             NaN             NaN
             NaN             NaN             NaN
             NaN             NaN             NaN
             NaN             NaN             NaN
             NaN             NaN             NaN
             NaN             NaN             NaN
             NaN             NaN             NaN
             NaN             NaN             NaN
             NaN             NaN             NaN
             NaN             NaN             NaN
             NaN             NaN             NaN
             NaN             NaN             NaN
             NaN             NaN             NaN
             NaN             NaN             NaN
             NaN             NaN             NaN
             NaN             NaN             NaN
             NaN             NaN             NaN
             NaN             NaN             NaN
             NaN             NaN             NaN
             NaN             NaN             NaN
             NaN             NaN             NaN
             NaN             NaN             NaN
             NaN             NaN             NaN
             NaN             NaN             NaN
             NaN             NaN             NaN
             NaN             NaN             NaN
             NaN             NaN             NaN
             NaN             NaN             NaN
             NaN             NaN             NaN
