Ca8 Mn12 F42
1.0
7.715688 -0.097148 -0.015506
-3.947981 6.720990 0.064255
-0.020482 0.177265 18.345705
Ca Mn F
8 12 42
direct
0.492048 0.795052 0.656838 Ca
0.164530 0.649987 0.987118 Ca
0.342932 0.503145 0.347739 Ca
0.835988 0.000814 0.341843 Ca
0.170819 0.148911 0.007498 Ca
0.816586 0.957449 0.837925 Ca
1.000890 0.774768 0.177107 Ca
0.170054 0.169210 0.516852 Ca
0.337764 1.028244 0.324542 Mn
-0.008953 0.344380 0.671659 Mn
0.648833 0.645003 0.012068 Mn
0.325640 0.004736 0.830513 Mn
0.016471 0.316552 0.166939 Mn
0.707314 0.636223 0.506949 Mn
0.509167 0.816270 0.164692 Mn
0.170171 0.678030 0.491941 Mn
0.324842 0.502825 0.834693 Mn
0.824458 0.507227 0.836283 Mn
0.673872 0.181485 0.491135 Mn
0.502997 0.310851 0.165743 Mn
0.749517 0.207164 0.601067 F
0.822111 0.567474 0.946974 F
0.451548 0.332217 0.275525 F
0.245456 0.750435 0.379521 F
0.469676 0.772834 0.052655 F
0.263226 0.528337 0.729299 F
0.841181 0.934283 0.962272 F
0.029313 0.890653 0.287177 F
0.134117 0.224615 0.629345 F
1.057224 0.819086 0.059941 F
0.794630 0.055420 0.727738 F
0.207295 0.161330 0.392438 F
0.501246 0.335442 0.052015 F
0.611749 0.115782 0.375779 F
0.866375 0.453764 0.733801 F
0.371602 0.491120 0.950062 F
0.144655 0.597434 0.600931 F
0.543465 0.777409 0.275031 F
0.810535 0.418808 0.177626 F
0.511506 0.322030 0.511849 F
0.611169 0.224491 0.848039 F
0.461150 0.819416 0.852258 F
0.273183 0.488097 0.470152 F
0.203776 0.622742 0.172278 F
0.048123 0.306802 0.282407 F
0.630612 0.705243 0.595823 F
0.274006 0.969214 0.939087 F
0.361803 0.006673 0.727848 F
0.659454 0.691681 0.402627 F
0.051290 0.354597 0.051450 F
0.184521 0.167629 0.142633 F
0.860424 1.074745 0.469106 F
0.020058 0.805393 0.820905 F
0.167838 0.188662 0.847116 F
1.020495 0.833725 0.511897 F
0.799463 0.029453 0.171466 F
0.059612 0.475070 0.876903 F
0.660138 0.644886 0.141012 F
0.427889 0.922992 0.524897 F
0.393656 0.004653 0.203987 F
0.622750 0.600973 0.813238 F
0.885958 0.465354 0.467071 F
