Ca1 Cr12 F42
1.0
7.231117 -0.027750 -0.017925
-3.589819 6.286020 0.068434
0.035887 0.235241 17.185916
Ca Cr F
1 12 42
direct
0.851118 0.007382 0.334694 Ca
0.299349 0.000953 0.333605 Cr
0.712832 0.713010 0.997483 Cr
0.998153 0.285609 0.669432 Cr
0.359219 0.998064 0.833660 Cr
0.646314 0.653732 0.502486 Cr
0.993873 0.347919 0.164476 Cr
0.646316 0.154934 0.504736 Cr
0.496708 0.349925 0.164789 Cr
0.858562 0.500834 0.834226 Cr
0.355775 0.495444 0.833226 Cr
0.146967 0.651268 0.502488 Cr
0.492582 0.846209 0.162477 Cr
0.562230 0.824288 0.057507 F
0.257738 0.422218 0.728616 F
0.172480 0.742240 0.395523 F
0.440326 0.260228 0.272254 F
0.826731 0.566338 0.939119 F
0.736011 0.184811 0.609870 F
0.877675 0.068940 0.734022 F
0.168642 0.111109 0.395670 F
0.922971 0.808376 0.062902 F
0.105818 0.182724 0.604143 F
0.058461 0.898754 0.271930 F
0.816415 0.929633 0.932769 F
0.123047 0.551280 0.606760 F
0.448387 0.881844 0.272207 F
0.452193 0.570083 0.937031 F
0.888041 0.436206 0.729777 F
0.569563 0.110941 0.394514 F
0.563237 0.447407 0.059937 F
0.357199 0.574017 0.477980 F
0.197281 0.644326 0.150490 F
0.438508 0.788366 0.809511 F
0.650614 0.205291 0.854812 F
0.550236 0.356017 0.512135 F
0.787434 0.432934 0.186200 F
0.702788 0.673427 0.394260 F
0.928048 0.318248 0.064895 F
0.396182 0.081068 0.734857 F
0.320252 0.914570 0.932308 F
0.601958 0.673739 0.602187 F
0.033463 0.339404 0.273196 F
0.937126 0.731474 0.522766 F
0.786513 0.045754 0.187114 F
0.274841 0.204670 0.857261 F
0.065722 0.794018 0.813109 F
0.746097 0.958119 0.484293 F
0.203801 0.264544 0.147648 F
0.636316 0.556704 0.800777 F
0.925843 0.373397 0.469369 F
0.437293 0.071759 0.133053 F
0.365384 0.929875 0.534125 F
0.552892 0.627318 0.197702 F
0.077598 0.439143 0.866730 F
