Ca1 Ti12 F42                            
   1.00000000000000     
     7.5123970000000000   -0.0017480000000000    0.0416460000000000
    -3.7472479999999999    6.5083219999999997    0.0071510000000000
    -0.0251400000000000    0.0576770000000000   17.6573190000000011
   Ca   Ti   F 
     1    12    42
Direct
  0.7933695556500222  0.6963820906491132  0.2859346816037083
  0.3039048607182885  0.0051402254621412  0.3328183463375667
  0.7306103173305566  0.7313057386905520  0.9974563870223493
  0.0082808979910110  0.2764905209620798  0.6690456108567161
  0.3615436758202320  1.0044747950014519  0.8338462464504062
  0.6519066167859308  0.6568302871651966  0.5100964896905756
  0.9818077891073271  0.3412497540453029  0.1695602030982684
  0.6502468410579226  0.1536189932476549  0.5051510953429910
  0.4800390021785002  0.3402195445477469  0.1581773481285475
  0.8621912777581087  0.5026611223054729  0.8326051192479657
  0.3634525988077703  0.5054913117629017  0.8336623971075757
  0.1521043858615325  0.6492131793992716  0.5039342885629077
  0.4848034733282744  0.8476595138915859  0.1624793811031506
  0.5727502879062628  0.8207777088156408  0.0608435373887935
  0.2578117417338260  0.4271279688602178  0.7294876271387798
  0.1899321805518123  0.7502148205279140  0.3977497763923635
  0.4316674488382787  0.2620715778239175  0.2693778886194599
  0.8320112879665260  0.5826544235287874  0.9370876039299368
  0.7577285570360378  0.1755726298409992  0.6079771663341565
  0.8945172162041835  0.0697057437005514  0.7348835519731723
  0.1095256090852700  0.0496713527278249  0.3750867450346970
  0.9227641154251371  0.8082033296530710  0.0690908974546009
  0.1237520394737226  0.1900107148129822  0.6013654663706082
  0.1064901142184458  0.8697677013672791  0.2505636853533776
  0.8314489820230146  0.9468293784878733  0.9357682994027945
  0.1163563517840912  0.5442563908721532  0.6063835343188745
  0.4511424475035157  0.8894406061168285  0.2735457379857323
  0.4690271750756279  0.5805688210367376  0.9359164782716879
  0.8949620240239416  0.4299580014844436  0.7305026947902770
  0.5424829956671742  0.1331757577533361  0.4012588873769946
  0.5617969923380424  0.4587790509622004  0.0600557603270188
  0.3611830293768784  0.5716867605348844  0.4848482800275975
  0.2042219094828592  0.6302079424853543  0.1483550811180036
  0.4376673166745373  0.7888848935167669  0.8122266592190941
  0.6530496677909133  0.2202575423438788  0.8552911275824143
  0.5784694223357655  0.3654807613177128  0.5261981469007744
  0.7722334472096507  0.4495030440137472  0.1945206266872864
  0.6864160991714636  0.6198437899697160  0.4012134815380580
  0.8721107232990293  0.3048449301416628  0.0759967737835536
  0.4001069190006853  0.0821179605017203  0.7349561836610488
  0.3215631324877181  0.9283899089885715  0.9331326385824570
  0.6218405736230558  0.7010573613068457  0.6069730481777434
  0.0239715051263487  0.3774895753630240  0.2717791120899723
  0.9451313213480567  0.7305112943505147  0.5203269221372817
  0.7780378889625583  0.0352967007261266  0.1905230474769903
  0.2855131796193810  0.2205631128394070  0.8549364506927231
  0.0702121393160720  0.7882957574995479  0.8130293968249505
  0.7248804751585000  0.9442642109297943  0.4809506634303039
  0.1922887421341909  0.2639595790286814  0.1478566019406783
  0.6379391784278924  0.5543046526569325  0.8032148959678677
  0.9258802904130732  0.3759132185252479  0.4732017187352713
  0.4444966561335823  0.0740728219834840  0.1357035548271062
  0.3749859772137157  0.9251251159334044  0.5328096499211339
  0.5398353590681286  0.6212386485598641  0.2012360118924129
  0.0872695674975699  0.4537007767427124  0.8631359547997897
 
             NaN             NaN             NaN
             NaN             NaN             NaN
             NaN             NaN             NaN
             NaN             NaN             NaN
             NaN             NaN             NaN
             NaN             NaN             NaN
             NaN             NaN             NaN
             NaN             NaN             NaN
             NaN             NaN             NaN
             NaN             NaN             NaN
             NaN             NaN             NaN
             NaN             NaN             NaN
             NaN             NaN             NaN
             NaN             NaN             NaN
             NaN             NaN             NaN
             NaN             NaN             NaN
             NaN             NaN             NaN
             NaN             NaN             NaN
             NaN             NaN             NaN
             NaN             NaN             NaN
             NaN             NaN             NaN
             NaN             NaN             NaN
             NaN             NaN             NaN
             NaN             NaN             NaN
             NaN             NaN             NaN
             NaN             NaN             NaN
             NaN             NaN             NaN
             NaN             NaN             NaN
             NaN             NaN             NaN
             NaN             NaN             NaN
             NaN             NaN             NaN
             NaN             NaN             NaN
             NaN             NaN             NaN
             NaN             NaN             NaN
             NaN             NaN             NaN
             NaN             NaN             NaN
             NaN             NaN             NaN
             NaN             NaN             NaN
             NaN             NaN             NaN
             NaN             NaN             NaN
             NaN             NaN             NaN
             NaN             NaN             NaN
             NaN             NaN             NaN
             NaN             NaN             NaN
             NaN             NaN             NaN
             NaN             NaN             NaN
             NaN             NaN             NaN
             NaN             NaN             NaN
             NaN             NaN             NaN
             NaN             NaN             NaN
             NaN             NaN             NaN
             NaN             NaN             NaN
             NaN             NaN             NaN
             NaN             NaN             NaN
             NaN             NaN             NaN
