Ca1 Ti12 F42
1.0
7.512397 -0.001748 0.041646
-3.747248 6.508322 0.007151
-0.025140 0.057677 17.657319
Ca Ti F
1 12 42
direct
0.852689 0.746830 0.331245 Ca
0.288159 0.002991 0.334224 Ti
0.728244 0.727854 0.997375 Ti
0.001089 0.268357 0.668908 Ti
0.358628 0.997434 0.833322 Ti
0.648142 0.658700 0.502636 Ti
0.988895 0.344086 0.164076 Ti
0.646574 0.156149 0.502140 Ti
0.492834 0.350689 0.161844 Ti
0.858257 0.497316 0.832379 Ti
0.358311 0.497583 0.834386 Ti
0.149301 0.650123 0.505551 Ti
0.490956 0.847046 0.163897 Ti
0.570227 0.817538 0.060713 F
0.248962 0.416187 0.730293 F
0.179394 0.747829 0.398135 F
0.410069 0.245219 0.266887 F
0.830235 0.580058 0.936386 F
0.757823 0.178817 0.604075 F
0.880599 0.057761 0.732797 F
0.174473 0.110750 0.397974 F
0.930682 0.818707 0.064566 F
0.119344 0.183505 0.601643 F
0.047592 0.860380 0.276546 F
0.817130 0.936124 0.932343 F
0.112471 0.538115 0.605659 F
0.438722 0.890276 0.272778 F
0.462263 0.570371 0.936719 F
0.890196 0.423799 0.730017 F
0.563568 0.140911 0.391491 F
0.574522 0.459659 0.061269 F
0.357350 0.574107 0.480233 F
0.204016 0.637735 0.152547 F
0.432879 0.780331 0.811451 F
0.649554 0.214375 0.855090 F
0.572815 0.367137 0.518739 F
0.773936 0.422815 0.194802 F
0.695604 0.643984 0.396144 F
0.897385 0.310020 0.069617 F
0.399347 0.076105 0.734402 F
0.318953 0.918963 0.932220 F
0.617165 0.711101 0.598861 F
0.029761 0.349823 0.271956 F
0.938487 0.727256 0.519895 F
0.779806 0.043681 0.188086 F
0.280988 0.211946 0.854846 F
0.067465 0.782606 0.811637 F
0.732130 0.955568 0.473494 F
0.206940 0.276781 0.143771 F
0.632460 0.546736 0.803525 F
0.922879 0.382307 0.464271 F
0.448046 0.077054 0.136794 F
0.374074 0.926103 0.528612 F
0.544702 0.623324 0.197322 F
0.082522 0.447754 0.863545 F
