Ca18 Co12 O36
1.0
        9.0425968170         0.0000000000         0.0000000000
       -4.5212984085         7.8311185597         0.0000000000
        0.0000000000         0.0000000000        10.4089326859
   Ca   Co    O
   17   12   36
Direct
     0.631238580         0.000000000         0.250000000
     0.035428111         0.702094793         0.583333313
     0.297905236         0.333333343         0.583333313
     0.964571893         0.297905236         0.416666657
     0.702094793         0.666666687         0.416666657
     0.333333343         0.035428111         0.416666657
     0.702094793         0.035428111         0.916666687
     0.333333343         0.297905236         0.916666687
     0.964571893         0.666666687         0.916666687
     0.631238580         0.631238580         0.750000000
     0.368761450         0.000000000         0.750000000
     0.000000000         0.368761450         0.750000000
     0.368761450         0.368761450         0.250000000
     0.000000000         0.631238580         0.250000000
     0.297905236         0.964571893         0.083333328
     0.035428111         0.333333343         0.083333328
     0.666666687         0.702094793         0.083333328
     0.000000000         0.000000000         0.000000000
     0.000000000         0.000000000         0.500000000
     0.000000000         0.000000000         0.250000000
     0.000000000         0.000000000         0.750000000
     0.666666687         0.333333343         0.333333343
     0.666666687         0.333333343         0.833333313
     0.666666687         0.333333343         0.583333313
     0.666666687         0.333333343         0.083333328
     0.333333343         0.666666687         0.666666687
     0.333333343         0.666666687         0.166666672
     0.333333343         0.666666687         0.916666687
     0.333333343         0.666666687         0.416666657
     0.174228042         0.021474600         0.614762425
     0.978525400         0.152753443         0.614762425
     0.847246587         0.825771987         0.614762425
     0.486086756         0.645192087         0.551904202
     0.354807943         0.840894699         0.551904202
     0.159105286         0.513913214         0.551904202
     0.825771987         0.978525400         0.385237545
     0.021474600         0.847246587         0.385237545
     0.152753443         0.174228042         0.385237545
     0.513913214         0.354807943         0.448095769
     0.840894699         0.486086756         0.448095769
     0.645192087         0.159105286         0.448095769
     0.840894699         0.354807943         0.948095798
     0.645192087         0.486086756         0.948095798
     0.513913214         0.159105286         0.948095798
     0.152753443         0.978525400         0.885237575
     0.021474600         0.174228042         0.885237575
     0.825771987         0.847246587         0.885237575
     0.492438644         0.311858743         0.718570888
     0.688141286         0.180579886         0.718570888
     0.819420099         0.507561386         0.718570888
     0.180579886         0.688141286         0.781429112
     0.507561386         0.819420099         0.781429112
     0.311858743         0.492438644         0.781429112
     0.507561386         0.688141286         0.281429112
     0.311858743         0.819420099         0.281429112
     0.180579886         0.492438644         0.281429112
     0.819420099         0.311858743         0.218570873
     0.688141286         0.507561386         0.218570873
     0.492438644         0.180579886         0.218570873
     0.159105286         0.645192087         0.051904220
     0.354807943         0.513913214         0.051904220
     0.486086756         0.840894699         0.051904220
     0.847246587         0.021474600         0.114762448
     0.174228042         0.152753443         0.114762448
     0.978525400         0.825771987         0.114762448
