Na14 P6 Se22                            
   1.00000000000000     
     6.9217970299215246   -0.1053615117707077   -0.0200781776917068
    -3.1479836749994905   14.7007090409317378   -0.0498294612085485
    -3.2954754365804502   -5.3617436818743975   12.5496446102065562
   Na   P    Se
    13     6    22
Direct
   1.2130723214351034    0.3412240548967525   -0.1054951291680266 Na
  0.9469386580836585  0.9872865427349472  0.6922927897512088
  0.7304228201576644  0.3584039064996817  0.5093352964914261
  0.6395277055926920  0.9180873888529210  0.9384089876557592
  0.5237819719402509  0.1575100376576945  0.6910303659914837
  0.4761402721316311  0.8424706196496106  0.3089833058787797
  0.0530950445714455  0.0127183047977043  0.3077130293761061
  0.7763229464678598  0.3476378988988837  0.1187077645716006
  0.8514151690481950  0.7137569112762900  0.7008716880617618
  0.2236547315429838  0.6523533777233016  0.8812893308759738
  0.3604795582651227  0.0819122348025334  0.0616071697937728
  0.2695623939318076  0.6415794476182468  0.4906545481813603
  0.1486029593555847  0.2862575800239651  0.2991204879024372
  0.4981634345253756  0.4778307172770517  0.2678916084246674
  0.8371256554019945  0.7680803104483392  0.4595779988681951
  0.8463822727800256  0.1494111514523785  0.9209372066889806
  0.1536330571676319  0.8505868706574767  0.0790709612851346
  0.5018218165662579  0.5221780984284558  0.7321090629283561
  0.1628720179176139  0.2319167023749375  0.5403986757255594
  0.8925984220570617  0.8086824877874543  0.3291168975140644
  0.1948326504538448  0.4847411542925505  0.2876177468431672
  0.7748253750272707  0.5978086596428720  0.4217498414276108
  0.4143310870851793  0.1830740102992164  0.4894969402638555
  0.5317847554035310  0.4845127909476161  0.1186030646688902
  0.4682050843705551  0.5154814519681701  0.8813946183349721
  0.5857033336947164  0.8169277999325240  0.5105326420054326
  0.1174789805175822  0.8152062221203921  0.6026142228991237
  0.3974247580423913  0.9855076837258155  0.2138489674484039
  0.1619901218721680  0.1490631250195131  0.9077339347872549
  0.5773309195601274  0.3477455576811094  0.2880638479665905
  0.8825593214319345  0.1847772689139671  0.3973494887488601
  0.2251910673189883  0.4021986735747287  0.5782289248517217
  0.8264668464092391  0.1415885578904381  0.0764254960144266
  0.6025924364970858  0.0144865629595865  0.7861667125833085
  0.8380433554383404  0.8509534839277784  0.0923033941764208
  0.1073539930703368  0.1913206185268660  0.6708561491319002
  0.7899105907532749  0.2857846595113945  0.9070597654440622
  0.8051635156316346  0.5152632021043650  0.7123711280225535
  0.4226608461952717  0.6522663589157617  0.7119467379266211
  0.1735638179312639  0.8584257206962190  0.9235811889645777
  0.2100822430609376  0.7142057598101187  0.0929431632315694
 
  0.00000000E+00  0.00000000E+00  0.00000000E+00
  0.00000000E+00  0.00000000E+00  0.00000000E+00
  0.00000000E+00  0.00000000E+00  0.00000000E+00
  0.00000000E+00  0.00000000E+00  0.00000000E+00
  0.00000000E+00  0.00000000E+00  0.00000000E+00
  0.00000000E+00  0.00000000E+00  0.00000000E+00
  0.00000000E+00  0.00000000E+00  0.00000000E+00
  0.00000000E+00  0.00000000E+00  0.00000000E+00
  0.00000000E+00  0.00000000E+00  0.00000000E+00
  0.00000000E+00  0.00000000E+00  0.00000000E+00
  0.00000000E+00  0.00000000E+00  0.00000000E+00
  0.00000000E+00  0.00000000E+00  0.00000000E+00
  0.00000000E+00  0.00000000E+00  0.00000000E+00
  0.00000000E+00  0.00000000E+00  0.00000000E+00
  0.00000000E+00  0.00000000E+00  0.00000000E+00
  0.00000000E+00  0.00000000E+00  0.00000000E+00
  0.00000000E+00  0.00000000E+00  0.00000000E+00
  0.00000000E+00  0.00000000E+00  0.00000000E+00
  0.00000000E+00  0.00000000E+00  0.00000000E+00
  0.00000000E+00  0.00000000E+00  0.00000000E+00
  0.00000000E+00  0.00000000E+00  0.00000000E+00
  0.00000000E+00  0.00000000E+00  0.00000000E+00
  0.00000000E+00  0.00000000E+00  0.00000000E+00
  0.00000000E+00  0.00000000E+00  0.00000000E+00
  0.00000000E+00  0.00000000E+00  0.00000000E+00
  0.00000000E+00  0.00000000E+00  0.00000000E+00
  0.00000000E+00  0.00000000E+00  0.00000000E+00
  0.00000000E+00  0.00000000E+00  0.00000000E+00
  0.00000000E+00  0.00000000E+00  0.00000000E+00
  0.00000000E+00  0.00000000E+00  0.00000000E+00
  0.00000000E+00  0.00000000E+00  0.00000000E+00
  0.00000000E+00  0.00000000E+00  0.00000000E+00
  0.00000000E+00  0.00000000E+00  0.00000000E+00
  0.00000000E+00  0.00000000E+00  0.00000000E+00
  0.00000000E+00  0.00000000E+00  0.00000000E+00
  0.00000000E+00  0.00000000E+00  0.00000000E+00
  0.00000000E+00  0.00000000E+00  0.00000000E+00
  0.00000000E+00  0.00000000E+00  0.00000000E+00
  0.00000000E+00  0.00000000E+00  0.00000000E+00
  0.00000000E+00  0.00000000E+00  0.00000000E+00
  0.00000000E+00  0.00000000E+00  0.00000000E+00
  0.00000000E+00  0.00000000E+00  0.00000000E+00
