Li24 Br8 O8
1.0
   7.8972859381999996    0.0000000000000000    0.0000000000000000
   0.0000000000000000    7.8972859381999996    0.0000000000000000
   0.0000000000000000    0.0000000000000000    7.8972859381999996
Li Br O
23 8 8
direct
   0.2500000000000000    0.4999999999999999    0.4999999999999999 Li
   0.2500000000000000    0.0000000000000000    0.0000000000000000 Li
   0.2500000000000000    0.0000000000000000    0.4999999999999999 Li
   0.2500000000000000    0.4999999999999999    0.0000000000000000 Li
   0.7499999999999999    0.0000000000000000    0.0000000000000000 Li
   0.7499999999999999    0.0000000000000000    0.4999999999999999 Li
   0.7499999999999999    0.4999999999999999    0.0000000000000000 Li
   0.7499999999999999    0.4999999999999999    0.4999999999999999 Li
   0.0000000000000000    0.0000000000000000    0.2500000000000000 Li
   0.0000000000000000    0.0000000000000000    0.7499999999999999 Li
   0.0000000000000000    0.4999999999999999    0.2500000000000000 Li
   0.0000000000000000    0.4999999999999999    0.7499999999999999 Li
   0.4999999999999999    0.0000000000000000    0.2500000000000000 Li
   0.4999999999999999    0.0000000000000000    0.7499999999999999 Li
   0.4999999999999999    0.4999999999999999    0.7499999999999999 Li
   0.0000000000000000    0.2500000000000000    0.0000000000000000 Li
   0.0000000000000000    0.2500000000000000    0.4999999999999999 Li
   0.0000000000000000    0.7499999999999999    0.0000000000000000 Li
   0.0000000000000000    0.7499999999999999    0.4999999999999999 Li
   0.4999999999999999    0.2500000000000000    0.0000000000000000 Li
   0.4999999999999999    0.2500000000000000    0.4999999999999999 Li
   0.4999999999999999    0.7499999999999999    0.0000000000000000 Li
   0.4999999999999999    0.7499999999999999    0.4999999999999999 Li
   0.2500000000000000    0.2500000000000000    0.2500000000000000 Br
   0.2500000000000000    0.2500000000000000    0.7499999999999999 Br
   0.2500000000000000    0.7499999999999999    0.2500000000000000 Br
   0.2500000000000000    0.7499999999999999    0.7499999999999999 Br
   0.7499999999999999    0.2500000000000000    0.2500000000000000 Br
   0.7499999999999999    0.2500000000000000    0.7499999999999999 Br
   0.7499999999999999    0.7499999999999999    0.2500000000000000 Br
   0.7499999999999999    0.7499999999999999    0.7499999999999999 Br
   0.0000000000000000    0.0000000000000000    0.0000000000000000 O
   0.0000000000000000    0.0000000000000000    0.4999999999999999 O
   0.0000000000000000    0.4999999999999999    0.0000000000000000 O
   0.0000000000000000    0.4999999999999999    0.4999999999999999 O
   0.4999999999999999    0.0000000000000000    0.0000000000000000 O
   0.4999999999999999    0.0000000000000000    0.4999999999999999 O
   0.4999999999999999    0.4999999999999999    0.0000000000000000 O
   0.4999999999999999    0.4999999999999999    0.4999999999999999 O
