Mg8 Ti16 S32
1.0
   3.4614453893963115   -5.9945836198453097   -0.0001747070504790
   6.7802562594943705   11.9069763445098733   -0.0726202868007300
  -0.0716258748996872   -0.0414939697929200   12.4687596798943527
Mg Ti S
1 16 32
direct
   0.5000000003550048    0.5000000001955947    0.7500000013474801 Mg
   0.4999996662133057    0.4999998811845003    0.4999999090630993 Ti
   0.4999996662133057    0.4999998811845003    0.9999999090630994 Ti
   0.4999996662133057    0.9999998811845002    0.4999999090630993 Ti
   0.4999996662133058    0.9999998811845003    0.9999999090630993 Ti
   0.9999996662133057    0.4999998811845003    0.4999999090630993 Ti
   0.9999996662133057    0.4999998811845003    0.9999999090630992 Ti
   0.9999996662133058    0.9999998811845003    0.4999999090630993 Ti
   0.9999996662133057    0.9999998811845002    0.9999999090630993 Ti
   0.0000000560644544    0.2500000228906920    0.0000000105708650 Ti
   0.0000000560644544    0.2500000228906920    0.5000000105708651 Ti
   0.0000000560644545    0.7500000228906919    0.0000000105708650 Ti
   0.0000000560644544    0.7500000228906920    0.5000000105708651 Ti
   0.5000000560644544    0.2500000228906920    0.0000000105708651 Ti
   0.5000000560644544    0.2500000228906920    0.5000000105708650 Ti
   0.5000000560644544    0.7500000228906919    0.0000000105708651 Ti
   0.5000000560644544    0.7500000228906920    0.5000000105708650 Ti
   0.1649450643727733    0.1649162256720515    0.3792317916046600 S
   0.1649450643727733    0.1649162256720516    0.8792317916046599 S
   0.1649450643727732    0.6649162256720514    0.3792317916046600 S
   0.1649450643727733    0.6649162256720516    0.8792317916046599 S
   0.6649450643727733    0.1649162256720515    0.3792317916046599 S
   0.6649450643727732    0.1649162256720515    0.8792317916046599 S
   0.6649450643727735    0.6649162256720514    0.3792317916046599 S
   0.6649450643727735    0.6649162256720514    0.8792317916046600 S
   0.1664291419206130    0.4164335744671419    0.3843114513234554 S
   0.1664291419206130    0.4164335744671419    0.8843114513234555 S
   0.1664291419206129    0.9164335744671419    0.3843114513234554 S
   0.1664291419206131    0.9164335744671418    0.8843114513234555 S
   0.6664291419206130    0.4164335744671419    0.3843114513234553 S
   0.6664291419206130    0.4164335744671419    0.8843114513234552 S
   0.6664291419206132    0.9164335744671419    0.3843114513234553 S
   0.6664291419206131    0.9164335744671419    0.8843114513234553 S
   0.3335709900188775    0.0835664670559098    0.1156885792713958 S
   0.3335709900188775    0.0835664670559097    0.6156885792713958 S
   0.3335709900188775    0.5835664670559098    0.1156885792713958 S
   0.3335709900188776    0.5835664670559098    0.6156885792713958 S
   0.8335709900188775    0.0835664670559097    0.1156885792713958 S
   0.8335709900188775    0.0835664670559097    0.6156885792713958 S
   0.8335709900188776    0.5835664670559098    0.1156885792713958 S
   0.8335709900188776    0.5835664670559098    0.6156885792713958 S
   0.3350550426932238    0.3350838130420826    0.1207682411601460 S
   0.3350550426932238    0.3350838130420826    0.6207682411601461 S
   0.3350550426932239    0.8350838130420826    0.1207682411601460 S
   0.3350550426932238    0.8350838130420825    0.6207682411601461 S
   0.8350550426932239    0.3350838130420826    0.1207682411601460 S
   0.8350550426932239    0.3350838130420826    0.6207682411601461 S
   0.8350550426932241    0.8350838130420826    0.1207682411601460 S
   0.8350550426932238    0.8350838130420827    0.6207682411601461 S
