Na2 Ca2 V4 P4 S2 O24
1.0
9.013101 0.288577 0.118697
4.460147 7.795162 0.153602
4.373728 2.657763 7.346020
Ca Na V P S O
2 2 4 4 2 24
direct
0.418253 0.115311 0.741793 Ca
-0.006243 0.987551 0.015994 Ca
0.669972 0.456805 0.302817 Na
0.598489 0.889013 0.243621 Na
0.352920 0.352961 0.340743 V
0.650774 0.643828 0.633032 V
0.147558 0.155449 0.140291 V
0.852197 0.849026 0.854275 V
0.959717 0.544525 0.246891 P
0.759825 0.026821 0.440452 P
0.466190 0.748848 0.027717 P
0.542199 0.251352 0.952372 P
0.047317 0.455234 0.737953 S
0.243240 0.965149 0.555150 S
0.229312 0.430751 0.585051 O
0.772797 0.564068 0.408799 O
0.582033 0.208651 0.428232 O
0.412551 0.796042 0.548519 O
0.448505 0.565523 0.176501 O
0.557356 0.435348 0.804079 O
0.922069 0.072157 0.265410 O
0.093289 0.922950 0.732487 O
0.079423 0.265455 0.893371 O
0.929240 0.737264 0.086735 O
0.278427 0.918622 0.054342 O
0.732282 0.087091 0.921536 O
0.491601 0.236327 0.151315 O
0.514144 0.767563 0.827421 O
0.118504 0.507603 0.294266 O
0.899505 0.482853 0.690749 O
0.277633 0.113492 0.553229 O
0.733182 0.871258 0.439670 O
0.393859 0.209631 -0.047859 O
0.614368 0.780636 0.037788 O
0.191171 1.028035 0.395894 O
0.772002 0.985057 0.624675 O
0.990103 0.395753 0.186185 O
0.008724 0.599684 0.797034 O
