Ca1 V12 F42
1.0
7.384984 -0.004138 -0.094860
-3.681543 6.375418 0.076669
0.293381 -0.012035 17.611800
Ca V F
1 12 42
direct
0.844596 0.506940 0.323814 Ca
0.298941 0.002001 0.334588 V
0.714176 0.714008 0.997659 V
0.000552 0.284684 0.668136 V
0.352213 0.998721 0.832892 V
0.647923 0.652477 0.507626 V
0.997179 0.343549 0.160813 V
0.650469 0.151608 0.502008 V
0.493525 0.345714 0.161079 V
0.852207 0.499019 0.832914 V
0.352396 0.498702 0.833675 V
0.150826 0.652141 0.505657 V
0.498307 0.846576 0.165624 V
0.569180 0.817945 0.061397 F
0.250127 0.425157 0.729387 F
0.172296 0.736169 0.396158 F
0.454302 0.260065 0.270704 F
0.828814 0.582362 0.934189 F
0.755767 0.178853 0.603435 F
0.878274 0.071871 0.730693 F
0.194480 0.120512 0.394058 F
0.922195 0.800454 0.063063 F
0.123729 0.199087 0.602798 F
0.053103 0.843126 0.277638 F
0.813216 0.935585 0.938113 F
0.107227 0.545716 0.607953 F
0.430656 0.883855 0.270057 F
0.460299 0.571201 0.936025 F
0.882983 0.431619 0.730142 F
0.573078 0.144139 0.391936 F
0.561100 0.447536 0.057951 F
0.358206 0.569080 0.487207 F
0.207330 0.632600 0.147026 F
0.434193 0.789844 0.813330 F
0.644554 0.209274 0.853630 F
0.571086 0.360889 0.521655 F
0.790970 0.438819 0.188117 F
0.683372 0.611266 0.402056 F
0.914623 0.317362 0.066616 F
0.392145 0.071719 0.736283 F
0.316058 0.928587 0.929803 F
0.619537 0.691236 0.604820 F
0.040510 0.383242 0.266173 F
0.940583 0.733940 0.519778 F
0.791099 0.056653 0.184307 F
0.268157 0.205977 0.853003 F
0.062303 0.790430 0.811851 F
0.727406 0.940484 0.480925 F
0.198430 0.258346 0.148443 F
0.623581 0.545834 0.803419 F
0.923860 0.382444 0.464972 F
0.447889 0.071204 0.135777 F
0.373567 0.929610 0.531131 F
0.549099 0.620796 0.197037 F
0.079983 0.450264 0.864022 F
