Ca1 Ti12 F42                            
   1.00000000000000     
     7.5130100000000004   -0.0064390000000000    0.0197370000000000
    -3.7516280000000002    6.5006789999999999   -0.0069600000000000
    -0.0766740000000000   -0.0104120000000000   17.6853820000000006
   Ca   Ti   F 
     1    12    42
Direct
  0.5321521750755994  0.4915154089370803  0.3221268408318484
  0.2618278254868996  0.9772427222519812  0.3308142247956535
  0.7398518767257516  0.7378752026475340  0.9950112654787884
  0.9983936027871904  0.2676373813910850  0.6693719571508693
  0.3642575330672773  1.0045965251490458  0.8313672468397665
  0.6608708316058710  0.6743334552350292  0.5233802192565062
  0.9724398097427607  0.3224787014425247  0.1627054513224453
  0.6520520419453523  0.1671944197229674  0.5007513846554454
  0.4761103799724716  0.3173035910924898  0.1431435650058989
  0.8646866610629806  0.5043252652255155  0.8307500483155995
  0.3650269291995871  0.5049415798532734  0.8321396350301389
  0.1573376101493243  0.6629108260779517  0.5136965372810243
  0.4727538655771424  0.8247702084060309  0.1615689697198324
  0.5727213984599516  0.8031169762527283  0.0611501590649496
  0.2494186349664244  0.4132327895141931  0.7291878965144462
  0.1774606414750910  0.7688943611889673  0.4104543644392508
  0.3967590644605352  0.2009743544229219  0.2503494097429929
  0.8416453508629389  0.5923813994353834  0.9336908077592092
  0.7610859959279199  0.1984075417797813  0.6064482022610733
  0.8807226623892120  0.0594709251093254  0.7335094882286302
  0.2632021704333786  0.2082268038826546  0.3785337095940153
  0.9362804419391363  0.8167036121370705  0.0649346779952057
  0.1050256357524512  0.1736150952162608  0.6013003537150743
  0.0095753861634617  0.8326275626741476  0.2888605913362889
  0.8345851786411486  0.9552908942283909  0.9351262611000848
  0.1339460644858727  0.5476722919012570  0.6115880798840152
  0.3947836559781199  0.8466784486003783  0.2695681343440166
  0.4756800122325796  0.5872349180133484  0.9330512766099734
  0.8928190813395323  0.4278711158757228  0.7288104094893265
  0.5528210405074835  0.1335498000551567  0.3924033662896159
  0.5795051710904607  0.4539379659767383  0.0501682657165367
  0.3727197652282297  0.5928611807422314  0.4871149195511694
  0.1917614036606965  0.6167454996333378  0.1409044090702079
  0.4371185274629505  0.7866742310309007  0.8083462190160655
  0.6560973222098705  0.2217731987766232  0.8534096393677334
  0.5757255406359210  0.3731908315840328  0.5258857962409101
  0.7540451520927710  0.4022992301573349  0.1878540368044589
  0.7172548611298191  0.6533896655981364  0.4157978720245780
  0.8823239250317836  0.2873822274769540  0.0659574462883375
  0.4002008148792367  0.0833520563712144  0.7328757344981650
  0.3252508513679664  0.9263310045607098  0.9299913694976083
  0.6107106147297120  0.7073972079538726  0.6190820013220504
  0.0753081730942377  0.3693198086141953  0.2606989416672381
  0.9498728733471636  0.7388427800995183  0.5404234580533761
  0.7563062588510392  0.0314951180565431  0.1886618296425635
  0.2883567088216870  0.2207162254147905  0.8542450133689057
  0.0712747163156610  0.7896761504045485  0.8096380910606047
  0.7371416249878202  0.9633924315787559  0.4903782514400558
  0.1929688535157322  0.2542603558503150  0.1325192841493941
  0.6383111141902440  0.5529562833244901  0.8010593551301918
  0.9315569751879524  0.3982613650740389  0.4748978016713320
  0.4302398797826454  0.0443916958582799  0.1219141739596573
  0.3812738007720350  0.9414904415003592  0.5344378988997438
  0.5244156727397011  0.5896962096793555  0.1996667763612480
  0.0898978592571637  0.4560851425074009  0.8610386639946958
 
             NaN             NaN             NaN
             NaN             NaN             NaN
             NaN             NaN             NaN
             NaN             NaN             NaN
             NaN             NaN             NaN
             NaN             NaN             NaN
             NaN             NaN             NaN
             NaN             NaN             NaN
             NaN             NaN             NaN
             NaN             NaN             NaN
             NaN             NaN             NaN
             NaN             NaN             NaN
             NaN             NaN             NaN
             NaN             NaN             NaN
             NaN             NaN             NaN
             NaN             NaN             NaN
             NaN             NaN             NaN
             NaN             NaN             NaN
             NaN             NaN             NaN
             NaN             NaN             NaN
             NaN             NaN             NaN
             NaN             NaN             NaN
             NaN             NaN             NaN
             NaN             NaN             NaN
             NaN             NaN             NaN
             NaN             NaN             NaN
             NaN             NaN             NaN
             NaN             NaN             NaN
             NaN             NaN             NaN
             NaN             NaN             NaN
             NaN             NaN             NaN
             NaN             NaN             NaN
             NaN             NaN             NaN
             NaN             NaN             NaN
             NaN             NaN             NaN
             NaN             NaN             NaN
             NaN             NaN             NaN
             NaN             NaN             NaN
             NaN             NaN             NaN
             NaN             NaN             NaN
             NaN             NaN             NaN
             NaN             NaN             NaN
             NaN             NaN             NaN
             NaN             NaN             NaN
             NaN             NaN             NaN
             NaN             NaN             NaN
             NaN             NaN             NaN
             NaN             NaN             NaN
             NaN             NaN             NaN
             NaN             NaN             NaN
             NaN             NaN             NaN
             NaN             NaN             NaN
             NaN             NaN             NaN
             NaN             NaN             NaN
             NaN             NaN             NaN
