Ca1 Ti12 F42
1.0
7.513010 -0.006439 0.019737
-3.751628 6.500679 -0.006960
-0.076674 -0.010412 17.685382
Ca Ti F
1 12 42
direct
0.550801 0.500371 0.334090 Ca
0.281115 -0.001008 0.332823 Ti
0.732412 0.731671 0.997738 Ti
-0.000083 0.268523 0.668568 Ti
0.358061 0.998508 0.833522 Ti
0.646635 0.658196 0.506820 Ti
0.989868 0.341286 0.160070 Ti
0.646990 0.155385 0.500762 Ti
0.494336 0.345126 0.158979 Ti
0.857952 0.497973 0.832284 Ti
0.358424 0.499091 0.834729 Ti
0.145187 0.655166 0.507507 Ti
0.492668 0.843781 0.166178 Ti
0.577909 0.817482 0.063346 F
0.247275 0.415354 0.730711 F
0.162638 0.753375 0.400712 F
0.421285 0.252117 0.266995 F
0.830607 0.582119 0.936091 F
0.757203 0.182771 0.603913 F
0.879816 0.056179 0.731194 F
0.206783 0.152803 0.392337 F
0.936803 0.819229 0.064445 F
0.115062 0.181689 0.600994 F
0.063292 0.862601 0.269832 F
0.822518 0.942474 0.934595 F
0.115087 0.539525 0.606033 F
0.420227 0.860159 0.275183 F
0.465654 0.575577 0.936823 F
0.889258 0.423152 0.729996 F
0.551515 0.126939 0.392999 F
0.576712 0.461170 0.060557 F
0.351596 0.577536 0.473373 F
0.209602 0.634935 0.144918 F
0.432703 0.781646 0.811703 F
0.650000 0.215273 0.855142 F
0.570895 0.363474 0.520636 F
0.779506 0.424636 0.189387 F
0.674483 0.616381 0.400344 F
0.904342 0.307786 0.064617 F
0.396378 0.075562 0.734850 F
0.320573 0.921343 0.932218 F
0.581852 0.684505 0.601152 F
0.068005 0.385173 0.265884 F
0.932949 0.728886 0.526789 F
0.778518 0.052590 0.187720 F
0.281410 0.213731 0.855371 F
0.065927 0.783630 0.811953 F
0.726591 0.947937 0.480491 F
0.207469 0.270156 0.141680 F
0.631611 0.547352 0.803485 F
0.921831 0.385623 0.466028 F
0.446220 0.070343 0.137555 F
0.373799 0.928899 0.529764 F
0.536295 0.612762 0.203253 F
0.083187 0.449664 0.863486 F
