Ca1 Mn4 S6 O24                          
   1.00000000000000     
     7.8487929999999997    0.0597070000000000    4.9932869999999996
     2.7902049999999998    7.0407460000000004    4.8646909999999997
     0.5540460000000000    0.1103330000000000    9.0863359999999993
   Ca   Mn   S    O 
     1     4     6    24
Direct
  0.4217892474440907  0.5921378510098106  0.4858480095699946
  0.6456367098531690  0.6476489537074066  0.6553728077504912
  0.1457150777849790  0.1555800844747644  0.1480032039813474
  0.8340678931432776  0.8563233264399696  0.8431229131082491
  0.3507188222833381  0.3460613330001333  0.3530811715820454
  0.9608681638621624  0.2378505893082467  0.5383472628129378
  0.4382543287214158  0.0597367160056081  0.7546437853405631
  0.5536564570146066  0.9456979334594477  0.2428252198202929
  0.7391232556066529  0.4762724009671186  0.0513560539383135
  0.2476281372139111  0.5272968138673338  0.9583613449306116
  0.0282890144859852  0.7667587678762052  0.4496503740759761
  0.3981948974814508  0.5906315049282768  0.7602906704460085
  0.9330559853014282  0.3490659836026848  0.0242786645733164
  0.7738021090250040  0.3694871341596740  0.6180881079344384
  0.0051222094453642  0.9717091755199876  0.3257543040899910
  0.6262340991784522  0.7495540031204637  0.3772398620610526
  0.2916171636503407  0.0308270089112838  0.9618641078480743
  0.6952192341919421  0.9734155973959585  0.0369031215747467
  0.2260969824487674  0.6432492867575201  0.3675454010191568
  0.0620925658503243  0.6594999489143628  0.9573619579972050
  0.3637595277407282  0.2579884757638450  0.6254074991258548
  0.9732285115936868  0.0318474864278089  0.6619893123469490
  0.6006491016153490  0.4093776856764942  0.2547005500360174
  0.9883290059771661  0.2766872273640363  0.3400090720661403
  0.4665591397964347  0.9129358763802350  0.7048960312285196
  0.3756176128159820  0.9480058982076777  0.2725115939061524
  0.6876168808517783  0.5031707217826781  0.9111722627839303
  0.2833425914538362  0.3315588638477558  0.9755314538299439
  0.8939324230305569  0.7161981862425953  0.4662754307909994
  0.1126275606080188  0.2604831012367622  0.5251859316239039
  0.6150013306705552  0.0413834735244155  0.7378397609383568
  0.5241961887808291  0.0958398076250889  0.2867439037689991
  0.7100231813744226  0.6713765891883857  0.0314980565091795
  0.2783779187445350  0.5085407667141083  0.1090361705149253
  0.0041610079825613  0.7271832874719535  0.6475126001925150
 
             NaN             NaN             NaN
             NaN             NaN             NaN
             NaN             NaN             NaN
             NaN             NaN             NaN
             NaN             NaN             NaN
             NaN             NaN             NaN
             NaN             NaN             NaN
             NaN             NaN             NaN
             NaN             NaN             NaN
             NaN             NaN             NaN
             NaN             NaN             NaN
             NaN             NaN             NaN
             NaN             NaN             NaN
             NaN             NaN             NaN
             NaN             NaN             NaN
             NaN             NaN             NaN
             NaN             NaN             NaN
             NaN             NaN             NaN
             NaN             NaN             NaN
             NaN             NaN             NaN
             NaN             NaN             NaN
             NaN             NaN             NaN
             NaN             NaN             NaN
             NaN             NaN             NaN
             NaN             NaN             NaN
             NaN             NaN             NaN
             NaN             NaN             NaN
             NaN             NaN             NaN
             NaN             NaN             NaN
             NaN             NaN             NaN
             NaN             NaN             NaN
             NaN             NaN             NaN
             NaN             NaN             NaN
             NaN             NaN             NaN
             NaN             NaN             NaN
