Ca1 Mn4 S6 O24
1.0
7.848793 0.059707 4.993287
2.790205 7.040746 4.864691
0.554046 0.110333 9.086336
Ca Mn S O
1 4 6 24
direct
0.438410 0.588164 0.529604 Ca
0.651753 0.646729 0.646507 Mn
0.152797 0.148426 0.145414 Mn
0.832311 0.849720 0.846464 Mn
0.351466 0.347869 0.347742 Mn
0.955434 0.241513 0.534460 S
0.442426 0.051604 0.751012 S
0.547838 0.946072 0.242992 S
0.747417 0.463401 0.044032 S
0.250048 0.528194 0.953125 S
0.041528 0.754049 0.456537 S
0.393233 0.596947 0.753870 O
0.940511 0.334710 0.017544 O
0.766278 0.375197 0.607933 O
0.023972 0.957102 0.324259 O
0.621967 0.752106 0.376713 O
0.304510 0.020175 0.959113 O
0.687258 0.971798 0.036995 O
0.235075 0.622660 0.383793 O
0.062074 0.663388 0.966693 O
0.363044 0.247177 0.623576 O
0.966348 0.039458 0.667788 O
0.610064 0.390722 0.246047 O
0.984971 0.272862 0.338946 O
0.469099 0.903225 0.704257 O
0.367951 0.956162 0.272788 O
0.695894 0.494975 0.901721 O
0.277748 0.339195 0.965027 O
0.900960 0.710269 0.474569 O
0.101228 0.273308 0.519524 O
0.621572 0.039273 0.722672 O
0.522048 0.096269 0.285131 O
0.718436 0.654600 0.030326 O
0.292061 0.499491 0.100433 O
0.009703 0.726124 0.652504 O
