Ca4 V4 P6 O24                           
   1.00000000000000     
     2.5876120000000000    7.3891289999999996    4.4318580000000001
    -0.0209590000000000    0.1041340000000000    8.8434050000000006
     7.7119299999999997    0.1079270000000000    4.3286590000000000
   Ca   V    P    O 
     4     4     6    24
Direct
  0.5104054305685835  0.5071555291152163  0.4982370856363704
  0.9492346378910680  1.0053925928096952  0.0268032193132299
  0.3848799912159763  0.7517754604621215  0.0870585972750270
  0.1005439011242849  0.3957820958511855  0.7513610013979239
  0.6475939190841803  0.6420811000128896  0.6429915256446846
  0.1479044747860263  0.1462758492427960  0.1548587062630742
  0.8463464554639758  0.8691513680614043  0.8508942187928784
  0.3415318787067523  0.3522527799185622  0.3501964147491172
  0.2406446665038578  0.5581578824228866  0.9481583583628482
  0.0358678524967294  0.7572188757900050  0.4542529500940932
  0.9530773951048567  0.2515202235046621  0.5541121238595259
  0.4599201440859840  0.0507309253233362  0.7461983463047092
  0.5300855364172499  0.9473046579330033  0.2520246168449409
  0.7486388644732014  0.4563648379586013  0.0404539606809146
  0.5536944012511449  0.7772479015350277  0.4239954543936650
  0.2641169091248622  0.0786069731906823  0.9083808229935498
  0.4117562294114930  0.5684956910220939  0.7697308509388462
  0.9145308218662836  0.2761694309322479  0.0730541475626537
  0.7711162857498425  0.4184415394123454  0.5523259677114812
  0.0733425624769422  0.9068720201440609  0.2602615307548893
  0.9200912820995689  0.0983747558480084  0.7434211023839910
  0.5722801499911975  0.4471248861670406  0.2142427394481976
  0.7181816932379280  0.9254651269315073  0.0931290606149339
  0.2272646114860565  0.5890735188090934  0.4356586856782734
  0.0792405396395365  0.7437881126765326  0.9273792169881231
  0.4230581326076137  0.2321842537895395  0.5839965446159743
  0.1918869763494246  0.3987779980314339  0.9759700295289758
  0.8828103120179557  0.7043021353537843  0.4870614404442501
  0.0147232114043366  0.1868518587781208  0.3944345577724230
  0.4962189013887074  0.8656890617582190  0.7358514966099485
  0.3882654252458758  0.9431511081750186  0.2026965795797796
  0.7392426659327115  0.4643330007523023  0.8667223927028388
  0.2831217014014612  0.5330866931860463  0.1110748901096057
  0.0068912226750923  0.7974369716666938  0.6183595500944848
  0.1000763611971782  0.3079741511315576  0.5397534298327288
  0.6088135646088371  0.0365218825071865  0.7926208924548729
  0.4724507358011932  0.1279383471733636  0.2801937081541049
  0.7738640652333046  0.6322359137722833  0.0019723237285324
 
             NaN             NaN             NaN
             NaN             NaN             NaN
             NaN             NaN             NaN
             NaN             NaN             NaN
             NaN             NaN             NaN
             NaN             NaN             NaN
             NaN             NaN             NaN
             NaN             NaN             NaN
             NaN             NaN             NaN
             NaN             NaN             NaN
             NaN             NaN             NaN
             NaN             NaN             NaN
             NaN             NaN             NaN
             NaN             NaN             NaN
             NaN             NaN             NaN
             NaN             NaN             NaN
             NaN             NaN             NaN
             NaN             NaN             NaN
             NaN             NaN             NaN
             NaN             NaN             NaN
             NaN             NaN             NaN
             NaN             NaN             NaN
             NaN             NaN             NaN
             NaN             NaN             NaN
             NaN             NaN             NaN
             NaN             NaN             NaN
             NaN             NaN             NaN
             NaN             NaN             NaN
             NaN             NaN             NaN
             NaN             NaN             NaN
             NaN             NaN             NaN
             NaN             NaN             NaN
             NaN             NaN             NaN
             NaN             NaN             NaN
             NaN             NaN             NaN
             NaN             NaN             NaN
             NaN             NaN             NaN
             NaN             NaN             NaN
