Ca4 V4 P6 O24
1.0
2.587612 7.389129 4.431858
-0.020959 0.104134 8.843405
7.711930 0.107927 4.328659
Ca V P O
4 4 6 24
direct
0.502309 0.521483 0.509875 Ca
0.957161 -0.000415 0.025685 Ca
0.390779 0.746335 0.097004 Ca
0.113039 0.401445 0.748243 Ca
0.647898 0.640409 0.633401 V
0.148878 0.146126 0.151529 V
0.847067 0.861645 0.854292 V
0.347050 0.345180 0.350729 V
0.247655 0.552516 0.945122 P
0.034463 0.752217 0.450164 P
0.962705 0.244030 0.556016 P
0.460006 0.044259 0.743557 P
0.533584 0.941171 0.252480 P
0.748062 0.456520 0.037925 P
0.562649 0.756888 0.410871 O
0.267154 0.069449 0.908747 O
0.412001 0.566254 0.761139 O
0.919210 0.278702 0.058919 O
0.779712 0.408056 0.559785 O
0.072390 0.909484 0.262732 O
0.932685 0.085458 0.741056 O
0.578099 0.433979 0.216105 O
0.716667 0.935727 0.087778 O
0.227219 0.587733 0.425552 O
0.082676 0.736536 0.930117 O
0.423809 0.231754 0.586915 O
0.196782 0.393251 0.975654 O
0.881254 0.707880 0.470326 O
0.024394 0.183778 0.393197 O
0.491461 0.869618 0.718459 O
0.388384 0.952721 0.196356 O
0.727901 0.480513 0.864277 O
0.297382 0.523721 0.104267 O
0.002458 0.776212 0.625977 O
0.107204 0.300677 0.545222 O
0.611991 1.021044 0.791352 O
0.474775 0.105442 0.309236 O
0.767727 0.630134 0.014909 O
