Ca8 Ti12 F42                            
   1.00000000000000     
     7.4650299999999996   -0.0318890000000000   -0.1002590000000000
    -3.7193589999999999    6.4834969999999998    0.0578880000000000
     0.2154510000000000    0.0393180000000000   18.8812609999999985
   Ca   Ti   F 
     8    12    42
Direct
  0.8508591302048051 -0.0016467848257309  0.3270659020847040
  0.5149979204811557  0.3506180243901965  0.6785276292495408
  0.1572199936444504  0.1667656789813962  0.9987416523977501
  0.0209082462011313  0.8361992843872512  0.6716231488147324
  0.6560111063939620  0.1600850892818673  0.9927679911231366
  0.0096924511460813  0.7918196490636352  0.1609110076622501
  0.8147049029840369  0.9961103970076692  0.8236895617620942
  0.1893154332072853  0.1959055223005096  0.4963895694789620
  0.3444719039543228  0.9857635308799326  0.3336467337418104
  0.0110010376327294  0.3395350375148566  0.6572049041422565
  0.6686543548736932  0.6673145913370283  0.9871236584050774
  0.3566158405292048  0.0565076379824488  0.8305886917421266
  0.9999306952927119  0.3040990448460237  0.1672160479220899
  0.7082887391683163  0.6727680634097298  0.5036462828411608
  0.5193964338245100  0.8349106981960394  0.1624900264942152
  0.1640739280748154  0.6594896520305767  0.5024899820481358
  0.3492028645285511  0.4828407418978228  0.8319109986869055
  0.7860430439999774  0.4832419286851904  0.8302294917960146
  0.7152281934891069  0.2071327386802922  0.4989027830649157
  0.4995974552687051  0.3015630547507903  0.1608213957187992
  0.7228043196616538  0.2434182512002258  0.6089633519474273
  0.8032094983406874  0.4955108323207295  0.9452745764090671
  0.4520667877332421  0.2092982746020863  0.2617814142663802
  0.2202416734981423  0.7467988097287014  0.4003173699328397
  0.5629823499039237  0.8301833262656704  0.0527779431397190
  0.2732814551752260  0.4418117479375837  0.7205578988860033
  0.8292617585298802  0.9959789756252095  0.9478911793128665
  0.0633782737003527  0.8653725505639052  0.2749095639715765
  0.1910464499873893  0.1860493646004144  0.6154144241783753
  0.9434602833166850  0.8272395837550282  0.0480771287579047
  0.8896591513277541  0.0529597973238116  0.7083088722253499
  0.1742518868941388  0.1024706945170254  0.3845340503125584
  0.5253217549057388  0.3603384499138046  0.0490576206131351
  0.6342592044334852  0.1061284894868501  0.3908198071774430
  0.8584046590548833  0.4838104033363360  0.7169525545385875
  0.3526014628257403  0.4886725439858725  0.9472734626428887
  0.1376182133065170  0.6376208532176284  0.6133432651630067
  0.5084130807504514  0.8770731940631824  0.2721992939796110
  0.8167718811438545  0.4340630878162311  0.1683132997395502
  0.5481220746856089  0.3597720715993348  0.4930057204158168
  0.6609082622454900  0.1705941282113649  0.8670946884273414
  0.4312956806462762  0.8040854319105307  0.8193881936240058
  0.3791032498757480  0.5698173278006426  0.5077896584391479
  0.2106167984088651  0.6148700800233003  0.1584726498695235
  0.0297259770642837  0.3038222128638581  0.2695268079859777
  0.7035275741839829  0.6491642546063513  0.6132478096551297
  0.3334566628555365  0.0269329050747829  0.9455922943704533
  0.3385889766382829  0.0250385371440258  0.7200774525647082
  0.7226243153353039  0.7316983796402222  0.4012473903575782
  0.9525435083089391  0.2810004084100123  0.0576105900975659
  0.1932152283194527  0.2003218799601391  0.1332034753028324
  0.8053782458746962 -0.0132412756603525  0.5138443607506846
  0.0065137390637589  0.8109003668092036  0.7996962146896387
  0.1610224439212194  0.1681804878342238  0.8590958230895285
  1.0290560709386141  0.8337351479939198  0.5209349388470533
  0.8326180489724780  0.9828135118612635  0.1891166665737714
  0.0337684297487261  0.4169672011076899  0.8293141223847416
  0.5918696615278110  0.6047990091010174  0.1716533000821484
  0.4176559691794439  0.9762811879458267  0.5203907206257772
  0.3706165570945145  0.9937785493165117  0.1304073111147804
  0.6610033886937391  0.6664269727154590  0.8699315846066031
  1.0059432464997546  0.3547230438384514  0.4545256658939729
 
             NaN             NaN             NaN
             NaN             NaN             NaN
             NaN             NaN             NaN
             NaN             NaN             NaN
             NaN             NaN             NaN
             NaN             NaN             NaN
             NaN             NaN             NaN
             NaN             NaN             NaN
             NaN             NaN             NaN
             NaN             NaN             NaN
             NaN             NaN             NaN
             NaN             NaN             NaN
             NaN             NaN             NaN
             NaN             NaN             NaN
             NaN             NaN             NaN
             NaN             NaN             NaN
             NaN             NaN             NaN
             NaN             NaN             NaN
             NaN             NaN             NaN
             NaN             NaN             NaN
             NaN             NaN             NaN
             NaN             NaN             NaN
             NaN             NaN             NaN
             NaN             NaN             NaN
             NaN             NaN             NaN
             NaN             NaN             NaN
             NaN             NaN             NaN
             NaN             NaN             NaN
             NaN             NaN             NaN
             NaN             NaN             NaN
             NaN             NaN             NaN
             NaN             NaN             NaN
             NaN             NaN             NaN
             NaN             NaN             NaN
             NaN             NaN             NaN
             NaN             NaN             NaN
             NaN             NaN             NaN
             NaN             NaN             NaN
             NaN             NaN             NaN
             NaN             NaN             NaN
             NaN             NaN             NaN
             NaN             NaN             NaN
             NaN             NaN             NaN
             NaN             NaN             NaN
             NaN             NaN             NaN
             NaN             NaN             NaN
             NaN             NaN             NaN
             NaN             NaN             NaN
             NaN             NaN             NaN
             NaN             NaN             NaN
             NaN             NaN             NaN
             NaN             NaN             NaN
             NaN             NaN             NaN
             NaN             NaN             NaN
             NaN             NaN             NaN
             NaN             NaN             NaN
             NaN             NaN             NaN
             NaN             NaN             NaN
             NaN             NaN             NaN
             NaN             NaN             NaN
             NaN             NaN             NaN
             NaN             NaN             NaN
