Ca8 Ti12 F42
1.0
7.465030 -0.031889 -0.100259
-3.719359 6.483497 0.057888
0.215451 0.039318 18.881261
Ca Ti F
8 12 42
direct
0.852549 0.055067 0.323948 Ca
0.513323 0.345579 0.676720 Ca
0.159498 0.167929 -0.000893 Ca
0.020641 0.832025 0.669479 Ca
0.654055 0.158139 0.993922 Ca
0.015077 0.797541 0.159901 Ca
0.817970 -0.000810 0.825220 Ca
0.194555 0.186646 0.495329 Ca
0.348309 0.989439 0.331582 Ti
0.010158 0.334680 0.660001 Ti
0.668968 0.668434 0.987055 Ti
0.350453 0.044427 0.830114 Ti
0.993785 0.303602 0.165928 Ti
0.690538 0.683927 0.503754 Ti
0.520587 0.838008 0.160735 Ti
0.196499 0.680167 0.504721 Ti
0.348277 0.485521 0.831707 Ti
0.795996 0.487463 0.831399 Ti
0.688746 0.172757 0.498854 Ti
0.503968 0.303776 0.158978 Ti
0.730594 0.237606 0.607723 F
0.803992 0.494534 0.944456 F
0.461510 0.219239 0.261153 F
0.237889 0.763417 0.402261 F
0.562443 0.828892 0.051515 F
0.278672 0.442738 0.721315 F
0.829045 -0.003230 0.947138 F
0.064606 0.858055 0.274841 F
0.185857 0.181114 0.614883 F
0.945010 0.829146 0.047235 F
0.890875 0.044759 0.710206 F
0.176971 0.107544 0.383397 F
0.523317 0.360898 0.047001 F
0.635348 0.110364 0.390006 F
0.854708 0.485382 0.717526 F
0.353382 0.489820 0.946057 F
0.139301 0.629423 0.613848 F
0.504638 0.877597 0.269921 F
0.820094 0.443182 0.169461 F
0.581119 0.373581 0.494498 F
0.658774 0.172659 0.865755 F
0.434107 0.804618 0.818277 F
0.373746 0.544620 0.511685 F
0.210245 0.615400 0.156340 F
0.022615 0.306423 0.269101 F
0.698025 0.650164 0.613983 F
0.332084 0.022302 0.945407 F
0.337642 0.021643 0.718213 F
0.707591 0.727617 0.401497 F
0.954754 0.282099 0.055637 F
0.194828 0.203713 0.133258 F
0.828864 1.001760 0.513409 F
0.012591 0.809847 0.801561 F
0.165329 0.169858 0.860488 F
-0.001278 0.792129 0.516402 F
0.834142 0.982499 0.187141 F
0.034977 0.417507 0.829543 F
0.588278 0.604076 0.170000 F
0.381496 0.993470 0.526276 F
0.370935 -0.003742 0.127440 F
0.660898 0.663159 0.867674 F
0.990599 0.380991 0.474991 F
