Ca1 Ni12 F42                            
   1.00000000000000     
     7.0320989999999997   -0.0075790000000000   -0.0128750000000000
    -3.5182020000000001    6.1266460000000000   -0.0659010000000000
    -0.1467270000000000   -0.1687410000000000   16.7834590000000006
   Ca   Ni   F 
     1    12    42
Direct
  0.8559055641095044  0.8147839547543400  0.7269090208775225
  0.3232294438355237  0.0147934563318403  0.3308832726764873
  0.6664279191653464  0.6520707820094163 -0.0002107875210255
  0.0155091891150480  0.3574507521643890  0.6611174491626228
  0.3176252201790040  0.9547305972666624  0.8390613388742042
  0.6814600019265442  0.7026407414843650  0.5020206739002298
  0.0112136621046612  0.3488385209612422  0.1683513991292288
  0.6747992772567156  0.2022070860427224  0.4963292431862952
  0.5091322979877881  0.3460462959364806  0.1708284351758080
  0.8156435462634771  0.4431873560562182  0.8422376596155432
  0.3119447181848954  0.4544608047166445  0.8406087368203491
  0.1802226950682703  0.6992563396520014  0.4999389095756601
  0.5125866883133409  0.8473141565399465  0.1668972462377724
  0.5874147746069097  0.8270251286605320  0.0609995794695297
  0.2409760003729102  0.3933717012807729  0.7304715505702566
  0.1829714403954253  0.7686332794471490  0.3888761510648428
  0.4797318228264134  0.2773151275970201  0.2774451731943666
  0.7249197473708306  0.4535376409351670  0.9455748944381365
  0.7697407317521989  0.3021139487495029  0.6002435229539957
  0.8379822181954231  0.1067240944416138  0.7107553541541615
  0.2243841455551268  0.1442926642544834  0.3934851645985986
  0.9193065662609441  0.7662215625327423  0.0503219294443886
  0.1076955615185979  0.2260100147074426  0.5957323936811861
  0.0979173659745241  0.9158146455589408  0.2656300447388261
  0.7679497199844141  0.8550017855497163  0.9273192623401402
  0.1818016873916748  0.6184538123910376  0.6119179906854298
  0.4417691700836837  0.8683833968615332  0.2724435733806279
  0.3887159602290527  0.5239821841340081  0.9493265473944960
  0.9173483207825734  0.5001932005231364  0.7314565656747584
  0.5866331802142635  0.1164119182119414  0.3909724476873286
  0.5301436654393253  0.4102243060181441  0.0653454347850267
  0.3956954054261558  0.6215028867212983  0.4750476576455973
  0.2254512558289588  0.6415336226045544  0.1397306247142698
  0.3923974577565569  0.7463015457417159  0.8114270710381927
  0.5974449213190588  0.1552248813820115  0.8125013715539166
  0.5734093734473580  0.4037008688923341  0.4994701063030015
  0.8082042883560588  0.4504009051361632  0.1840590521360232
  0.7354674237967548  0.7100788920316283  0.3997224064714307
  0.9380784294948441  0.2954502285305530  0.0670986804024468
  0.2204194121295682  0.9513294940734959  0.7360918425330752
  0.3999619321125544  0.9592785364528861  0.9384414169043988
  0.6398300235995391  0.6982316323716680  0.6113033189498716
  0.0851824134349627  0.4032725845323158  0.2694671601046237
  0.9658313071901251  0.7777080996953879  0.5303496047302487
  0.7995485817092410  0.0538731937278203  0.1944146498083317
  0.2356757289303940  0.1589964574793103  0.8633631191293104
  0.0288983858117807  0.7482704087535783  0.8590868401571060
  0.7759351591033021  0.9986546472793935  0.5010093481924531
  0.2117677340107960  0.2441768436549612  0.1552731430350490
  0.6107560109656167  0.5350665848588205  0.8054465481336447
  0.9479011682736593  0.4075124927037957  0.4621069958410999
  0.4514415754449558  0.0615506619406041  0.1351809049356546
  0.4048238114605150  0.9962465751720563  0.5333364660894528
  0.5742307336684257  0.6350224723085373  0.2016649111036510
  0.0141749597336523  0.3525607317402984  0.8704357108910474
 
             NaN             NaN             NaN
             NaN             NaN             NaN
             NaN             NaN             NaN
             NaN             NaN             NaN
             NaN             NaN             NaN
             NaN             NaN             NaN
             NaN             NaN             NaN
             NaN             NaN             NaN
             NaN             NaN             NaN
             NaN             NaN             NaN
             NaN             NaN             NaN
             NaN             NaN             NaN
             NaN             NaN             NaN
             NaN             NaN             NaN
             NaN             NaN             NaN
             NaN             NaN             NaN
             NaN             NaN             NaN
             NaN             NaN             NaN
             NaN             NaN             NaN
             NaN             NaN             NaN
             NaN             NaN             NaN
             NaN             NaN             NaN
             NaN             NaN             NaN
             NaN             NaN             NaN
             NaN             NaN             NaN
             NaN             NaN             NaN
             NaN             NaN             NaN
             NaN             NaN             NaN
             NaN             NaN             NaN
             NaN             NaN             NaN
             NaN             NaN             NaN
             NaN             NaN             NaN
             NaN             NaN             NaN
             NaN             NaN             NaN
             NaN             NaN             NaN
             NaN             NaN             NaN
             NaN             NaN             NaN
             NaN             NaN             NaN
             NaN             NaN             NaN
             NaN             NaN             NaN
             NaN             NaN             NaN
             NaN             NaN             NaN
             NaN             NaN             NaN
             NaN             NaN             NaN
             NaN             NaN             NaN
             NaN             NaN             NaN
             NaN             NaN             NaN
             NaN             NaN             NaN
             NaN             NaN             NaN
             NaN             NaN             NaN
             NaN             NaN             NaN
             NaN             NaN             NaN
             NaN             NaN             NaN
             NaN             NaN             NaN
             NaN             NaN             NaN
