Ca1 Ni12 F42                            
   1.00000000000000     
     7.0320989999999997   -0.0075790000000000   -0.0128750000000000
    -3.5182020000000001    6.1266460000000000   -0.0659010000000000
    -0.1467270000000000   -0.1687410000000000   16.7834590000000006
   Ca   Ni   F 
     1    12    42
Direct
  0.8641772825761230  0.8160949190077830  0.7245579049743173
  0.3178520307766749  1.0119053530483140  0.3309512273573110
  0.6692341411218293  0.6540039645161801  0.0015618580430493
  0.0164869183569329  0.3572964184921965  0.6610518037996775
  0.3248160634478254  0.9608733182245552  0.8383791603683803
  0.6790119398688241  0.7001063842260088  0.5016498296784103
  1.0054712315762848  0.3443701673140058  0.1681746488596897
  0.6727154597547836  0.1996005009977669  0.4964728044307331
  0.5033890741522075  0.3420249820684809  0.1706749884676700
  0.8238445247982019  0.4487707649311615  0.8437771466309537
  0.3204039481927687  0.4607717115495914  0.8393673620470434
  0.1776987937804011  0.6968969429264918  0.4993904304345320
  0.5070082217451847  0.8432302527878226  0.1669043915697163
  0.5830769678523345  0.8246001749498708  0.0602726168239926
  0.2465032806272072  0.4029282585636779  0.7285983408605807
  0.1792043437395492  0.7655544653226232  0.3888636559330136
  0.4724657837084645  0.2737597884135824  0.2773472680428428
  0.7341357035822065  0.4618336402516597  0.9481904637711404
  0.7672368677390209  0.2960800543126398  0.6012866296876028
  0.8452085936056156  0.1096231590609302  0.7132259262661421
  0.2191894889653079  0.1410536520530972  0.3939358591892637
  0.9185015690076531  0.7682137220453864  0.0545178175724824
  0.1055194604195405  0.2220356848633889  0.5960732447786603
  0.0922028663305188  0.9121027478374176  0.2660664758705102
  0.7757078418057911  0.8585734853022909  0.9297478321426141
  0.1797799533416375  0.6166491563591121  0.6106217962665077
  0.4366834229944022  0.8659263741750893  0.2725224252145582
  0.3959687379320608  0.5267671248671344  0.9488615228326528
  0.9213384365012169  0.5032712185125514  0.7308806892047901
  0.5824262173056844  0.1163012766400905  0.3909761247472562
  0.5272248855980455  0.4093109150150758  0.0654856555131165
  0.3931702490180093  0.6188780594819333  0.4746590830900220
  0.2195492633746493  0.6374142745007589  0.1396346422685642
  0.4007815260101609  0.7533703511480229  0.8122886300350127
  0.6032761231979163  0.1611690797450790  0.8124389699270416
  0.5709272702958922  0.4016382713376516  0.5019539343694942
  0.8024693691721260  0.4452319981068600  0.1846369144644599
  0.7312103046508396  0.7020097994023555  0.3994908025942291
  0.9312036547270202  0.2914018591929145  0.0668668357362624
  0.2293787079370818 -0.0457457637888862  0.7347976088030419
  0.4066898921950550  0.9690503926656956  0.9381272761443220
  0.6395059925248534  0.7019074269545993  0.6109062511850313
  0.0807319849266410  0.3984643758321927  0.2691039246825971
  0.9636220682973790  0.7755225128919616  0.5302100356932139
  0.7945258000758245  0.0494618292191599  0.1941042139317379
  0.2420525846945991  0.1644830601799036  0.8607144643951626
  0.0369813686444405  0.7565822936423918  0.8585395397718080
  0.7745621212326657  0.9959741231107058  0.4986358293932907
  0.2059938801039573  0.2403312748683586  0.1541622185054469
  0.6156275924241202  0.5432979959011961  0.8046578981556312
  0.9450343719430925  0.4052130581580842  0.4622787569595305
  0.4464581658510388  0.0590722177998582  0.1350894436188914
  0.4031839008128476  0.9931825667927027  0.5332205157192093
  0.5672671226966598  0.6291735005912383  0.2017045924561401
  0.0269424317702153  0.3598213650278057  0.8707088434254252
 
             NaN             NaN             NaN
             NaN             NaN             NaN
             NaN             NaN             NaN
             NaN             NaN             NaN
             NaN             NaN             NaN
             NaN             NaN             NaN
             NaN             NaN             NaN
             NaN             NaN             NaN
             NaN             NaN             NaN
             NaN             NaN             NaN
             NaN             NaN             NaN
             NaN             NaN             NaN
             NaN             NaN             NaN
             NaN             NaN             NaN
             NaN             NaN             NaN
             NaN             NaN             NaN
             NaN             NaN             NaN
             NaN             NaN             NaN
             NaN             NaN             NaN
             NaN             NaN             NaN
             NaN             NaN             NaN
             NaN             NaN             NaN
             NaN             NaN             NaN
             NaN             NaN             NaN
             NaN             NaN             NaN
             NaN             NaN             NaN
             NaN             NaN             NaN
             NaN             NaN             NaN
             NaN             NaN             NaN
             NaN             NaN             NaN
             NaN             NaN             NaN
             NaN             NaN             NaN
             NaN             NaN             NaN
             NaN             NaN             NaN
             NaN             NaN             NaN
             NaN             NaN             NaN
             NaN             NaN             NaN
             NaN             NaN             NaN
             NaN             NaN             NaN
             NaN             NaN             NaN
             NaN             NaN             NaN
             NaN             NaN             NaN
             NaN             NaN             NaN
             NaN             NaN             NaN
             NaN             NaN             NaN
             NaN             NaN             NaN
             NaN             NaN             NaN
             NaN             NaN             NaN
             NaN             NaN             NaN
             NaN             NaN             NaN
             NaN             NaN             NaN
             NaN             NaN             NaN
             NaN             NaN             NaN
             NaN             NaN             NaN
             NaN             NaN             NaN
