K64 Fe32 O80
1.0
12.764263 0.000000 0.000000
0.000000 11.878189 0.000000
-4.887404 0.000000 19.423822
K Fe O
63 32 80
direct
0.365507 0.938792 0.241411 K
0.365507 0.311208 0.491411 K
0.365507 0.311208 0.991411 K
0.365507 0.811208 0.491411 K
0.365507 0.811208 0.991411 K
0.865507 0.311208 0.491411 K
0.865507 0.311208 0.991411 K
0.865507 0.811208 0.491411 K
0.865507 0.811208 0.991411 K
0.452875 0.204473 0.331785 K
0.452875 0.204473 0.831785 K
0.452875 0.704473 0.831785 K
0.952875 0.204473 0.331785 K
0.952875 0.204473 0.831785 K
0.952875 0.704473 0.331785 K
0.952875 0.704473 0.831785 K
0.134493 0.188792 0.008589 K
0.134493 0.188792 0.508589 K
0.134493 0.688792 0.008589 K
0.134493 0.688792 0.508589 K
0.634493 0.188792 0.008589 K
0.634493 0.188792 0.508589 K
0.634493 0.688792 0.008589 K
0.634493 0.688792 0.508589 K
0.452875 0.045527 0.081785 K
0.452875 0.045527 0.581785 K
0.452875 0.545527 0.081785 K
0.452875 0.545527 0.581785 K
0.952875 0.045527 0.081785 K
0.952875 0.045527 0.581785 K
0.952875 0.545527 0.081785 K
0.952875 0.545527 0.581785 K
0.047125 0.295527 0.168215 K
0.047125 0.295527 0.668215 K
0.047125 0.795527 0.168215 K
0.047125 0.795527 0.668215 K
0.547125 0.295527 0.168215 K
0.547125 0.295527 0.668215 K
0.547125 0.795527 0.168215 K
0.547125 0.795527 0.668215 K
0.134493 0.061208 0.258589 K
0.134493 0.061208 0.758589 K
0.134493 0.561208 0.258589 K
0.134493 0.561208 0.758589 K
0.634493 0.061208 0.258589 K
0.634493 0.061208 0.758589 K
0.634493 0.561208 0.258589 K
0.634493 0.561208 0.758589 K
0.365507 0.438792 0.241411 K
0.365507 0.438792 0.741411 K
0.365507 0.938792 0.741411 K
0.865507 0.438792 0.241411 K
0.865507 0.438792 0.741411 K
0.865507 0.938792 0.241411 K
0.865507 0.938792 0.741411 K
0.047125 0.454473 0.418215 K
0.047125 0.454473 0.918215 K
0.047125 0.954473 0.418215 K
0.047125 0.954473 0.918215 K
0.547125 0.454473 0.418215 K
0.547125 0.454473 0.918215 K
0.547125 0.954473 0.418215 K
0.547125 0.954473 0.918215 K
0.296139 0.192340 0.172191 Fe
0.296139 0.192340 0.672191 Fe
0.296139 0.692340 0.172191 Fe
0.296139 0.692340 0.672191 Fe
0.796139 0.192340 0.172191 Fe
0.796139 0.192340 0.672191 Fe
0.796139 0.692340 0.172191 Fe
0.796139 0.692340 0.672191 Fe
0.296139 0.057660 0.422191 Fe
0.296139 0.057660 0.922191 Fe
0.296139 0.557660 0.422191 Fe
0.296139 0.557660 0.922191 Fe
0.796139 0.057660 0.422191 Fe
0.796139 0.057660 0.922191 Fe
0.796139 0.557660 0.422191 Fe
0.796139 0.557660 0.922191 Fe
0.203861 0.442340 0.077809 Fe
0.203861 0.442340 0.577809 Fe
0.203861 0.942340 0.077809 Fe
0.203861 0.942340 0.577809 Fe
0.703861 0.442340 0.077809 Fe
0.703861 0.442340 0.577809 Fe
0.703861 0.942340 0.077809 Fe
0.703861 0.942340 0.577809 Fe
0.203861 0.307660 0.327809 Fe
0.203861 0.307660 0.827809 Fe
0.203861 0.807660 0.327809 Fe
0.203861 0.807660 0.827809 Fe
0.703861 0.307660 0.327809 Fe
0.703861 0.307660 0.827809 Fe
0.703861 0.807660 0.327809 Fe
0.703861 0.807660 0.827809 Fe
0.195856 0.177293 0.384913 O
0.195856 0.177293 0.884913 O
0.195856 0.677293 0.384913 O
0.195856 0.677293 0.884913 O
0.695856 0.177293 0.384913 O
0.695856 0.177293 0.884913 O
0.695856 0.677293 0.384913 O
0.695856 0.677293 0.884913 O
0.304144 0.322707 0.115087 O
0.304144 0.322707 0.615087 O
0.304144 0.822707 0.115087 O
0.304144 0.822707 0.615087 O
0.804144 0.322707 0.115087 O
0.804144 0.322707 0.615087 O
0.804144 0.822707 0.115087 O
0.804144 0.822707 0.615087 O
0.431058 0.117883 0.451278 O
0.431058 0.117883 0.951278 O
0.431058 0.617883 0.451278 O
0.431058 0.617883 0.951278 O
0.931058 0.117883 0.451278 O
0.931058 0.117883 0.951278 O
0.931058 0.617883 0.451278 O
0.931058 0.617883 0.951278 O
0.195856 0.072707 0.134913 O
0.195856 0.072707 0.634913 O
0.195856 0.572707 0.134913 O
0.195856 0.572707 0.634913 O
0.695856 0.072707 0.134913 O
0.695856 0.072707 0.634913 O
0.695856 0.572707 0.134913 O
0.695856 0.572707 0.634913 O
0.068942 0.367883 0.298722 O
0.068942 0.367883 0.798722 O
0.068942 0.867883 0.298722 O
0.068942 0.867883 0.798722 O
0.568942 0.367883 0.298722 O
0.568942 0.367883 0.798722 O
0.568942 0.867883 0.298722 O
0.568942 0.867883 0.798722 O
0.250000 0.000000 0.000000 O
0.250000 0.000000 0.500000 O
0.250000 0.500000 0.000000 O
0.250000 0.500000 0.500000 O
0.750000 0.000000 0.000000 O
0.750000 0.000000 0.500000 O
0.750000 0.500000 0.000000 O
0.750000 0.500000 0.500000 O
0.068942 0.382117 0.048722 O
0.068942 0.382117 0.548722 O
0.068942 0.882117 0.048722 O
0.068942 0.882117 0.548722 O
0.568942 0.382117 0.048722 O
0.568942 0.382117 0.548722 O
0.568942 0.882117 0.048722 O
0.568942 0.882117 0.548722 O
0.304144 0.427293 0.365087 O
0.304144 0.427293 0.865087 O
0.304144 0.927293 0.365087 O
0.304144 0.927293 0.865087 O
0.804144 0.427293 0.365087 O
0.804144 0.427293 0.865087 O
0.804144 0.927293 0.365087 O
0.804144 0.927293 0.865087 O
0.250000 0.250000 0.250000 O
0.250000 0.250000 0.750000 O
0.250000 0.750000 0.250000 O
0.250000 0.750000 0.750000 O
0.750000 0.250000 0.250000 O
0.750000 0.250000 0.750000 O
0.750000 0.750000 0.250000 O
0.750000 0.750000 0.750000 O
0.431058 0.132117 0.201278 O
0.431058 0.132117 0.701278 O
0.431058 0.632117 0.201278 O
0.431058 0.632117 0.701278 O
0.931058 0.132117 0.201278 O
0.931058 0.132117 0.701278 O
0.931058 0.632117 0.201278 O
0.931058 0.632117 0.701278 O
