Na2 Ca2 V4 Si4 P2 O24                   
   1.00000000000000     
     8.8336959999999998    0.1413800000000000    0.0559760000000000
     4.2802699999999998    7.7154309999999997    0.0991040000000000
     4.4007180000000004    2.5975030000000001    7.2224729999999999
   Ca   Na   V    Si   P    O 
     2     2     4     4     2    24
Direct
  0.7392059748451275  0.4029745390284390  0.1397463632331360
  0.0025715256515874  0.9851133963826644  0.0100639533873135
  0.3578878597933889  0.6003711309470960  0.5148994745659885
  0.8481708289995555  0.2570305247343965  0.6029166114543074
  0.3501158102873035  0.3635353907427072  0.3568976464871000
  0.6212422392506957  0.6521799939391317  0.6558569494683306
  0.1496602258576868  0.1456962814834871  0.1427285317446128
  0.8497373173759956  0.8542267733116180  0.8505330278861926
  0.0206185361746075  0.4678176149231739  0.7489756947225961
  0.7366194742717012  0.0389655009531313  0.4697763988038033
  0.4472830510643702  0.7612879265403262  0.0345776828590105
  0.5384112597893080  0.2585070976749435  0.9642908101585907
  0.9581891268960913  0.5470119327250922  0.2482124725401217
  0.2439462522916690  0.9701172395943564  0.5343678291970504
  0.2019864539723280  0.4303327391928785  0.5695683981003933
  0.7819856696456224  0.5687598016287982  0.4202184400644095
  0.5676525135911983  0.2380517802722391  0.4357226918894345
  0.4101986526053995  0.7906688793806758  0.5578442968325231
  0.4286726455883086  0.5847154683296675  0.2311465436750840
  0.5508298431924662  0.4308543580052118  0.7644709505713329
  0.9079003452753908  0.0757027502976661  0.2683018593388912
  0.0751629640107622  0.9606708328239156  0.7213447811998331
  0.0393390452822388  0.2821378220423602  0.9372166625886095
  0.9371050106339029  0.7258836331765989  0.0747866553442153
  0.2627598398263558  0.9408843659599405  0.0554220233835889
  0.7281013742838016  0.0786654380579188  0.9377818182764546
  0.5168340715686592  0.3082823046568240  0.1308369486104769
  0.4698557699093718  0.7162875081957977  0.8646215872005175
  0.1351170921046242  0.5128485449114226  0.2698629817769282
  0.8258076734573393  0.4959934866277063  0.7438386807804613
  0.2890386270376267  0.1402929379796704  0.4812612598799308
  0.6990292665389698  0.8547692554861734  0.5155776396053305
  0.3485923495001021  0.2119839152955859  0.0278376702917999
  0.6465702332196375  0.7701052015407608  0.9943408310017336
  0.1892606059346287  0.9866973126558217  0.3839588261555527
  0.7843155405487642  0.0110804050499838  0.6404255610879502
  0.9724844598141530  0.3764287272986392  0.2220629098837616
  0.0064614320606897  0.6491718795943685  0.7715593976472633
 
             NaN             NaN             NaN
             NaN             NaN             NaN
             NaN             NaN             NaN
             NaN             NaN             NaN
             NaN             NaN             NaN
             NaN             NaN             NaN
             NaN             NaN             NaN
             NaN             NaN             NaN
             NaN             NaN             NaN
             NaN             NaN             NaN
             NaN             NaN             NaN
             NaN             NaN             NaN
             NaN             NaN             NaN
             NaN             NaN             NaN
             NaN             NaN             NaN
             NaN             NaN             NaN
             NaN             NaN             NaN
             NaN             NaN             NaN
             NaN             NaN             NaN
             NaN             NaN             NaN
             NaN             NaN             NaN
             NaN             NaN             NaN
             NaN             NaN             NaN
             NaN             NaN             NaN
             NaN             NaN             NaN
             NaN             NaN             NaN
             NaN             NaN             NaN
             NaN             NaN             NaN
             NaN             NaN             NaN
             NaN             NaN             NaN
             NaN             NaN             NaN
             NaN             NaN             NaN
             NaN             NaN             NaN
             NaN             NaN             NaN
             NaN             NaN             NaN
             NaN             NaN             NaN
             NaN             NaN             NaN
             NaN             NaN             NaN
