Na2 Ca2 V4 Si4 P2 O24
1.0
8.833696 0.141380 0.055976
4.280270 7.715431 0.099104
4.400718 2.597503 7.222473
Ca Na V Si P O
2 2 4 4 2 24
direct
0.710200 0.412389 0.167989 Ca
0.008857 0.982901 0.002625 Ca
0.388733 0.552353 0.514843 Na
0.864263 0.251666 0.599946 Na
0.352164 0.362132 0.350708 V
0.623874 0.654400 0.652855 V
0.149949 0.148350 0.135925 V
0.850215 0.854923 0.846017 V
0.024754 0.470458 0.743441 Si
0.738221 0.042703 0.463118 Si
0.448483 0.760673 0.032095 Si
0.541638 0.255885 0.959125 Si
0.959635 0.544727 0.243017 P
0.248778 0.965227 0.528153 P
0.203219 0.440832 0.560369 O
0.788905 0.561572 0.420520 O
0.567933 0.241018 0.434012 O
0.413945 0.783618 0.546993 O
0.433508 0.582114 0.226090 O
0.556626 0.428342 0.759129 O
0.907972 0.075037 0.260578 O
0.081151 0.954830 0.716686 O
0.050176 0.280217 0.926324 O
0.933766 0.727239 0.074811 O
0.262522 0.938122 0.056466 O
0.733736 0.079115 0.930199 O
0.518913 0.304051 0.126993 O
0.467324 0.718671 0.861488 O
0.139530 0.506557 0.262135 O
0.825558 0.500243 0.746443 O
0.295555 0.134153 0.480122 O
0.697619 0.858042 0.512413 O
0.352905 0.211000 0.018985 O
0.643206 0.781327 0.986903 O
0.186169 0.996681 0.376786 O
0.789570 0.013423 0.632147 O
-0.027638 0.378231 0.212812 O
1.004194 0.650202 0.773750 O
