Ca1 Co16 F48                            
   1.00000000000000     
    10.6732209999999998   -0.0035420000000000   -0.0359980000000000
    -0.0021920000000000    7.4557370000000001   -0.0053550000000000
    -0.0333030000000000   -0.0079300000000000   10.3727029999999996
   Ca   Co   F 
     1    16    48
Direct
  0.4673510426569499  0.9208808523928648  0.4995377002349293
  0.0011400640094853  0.5048554307198156  0.2476524034609554
  0.0019302323733337  0.5002730612237822  0.7517212214778154
  0.5027544061832803  0.5068983908177751  0.2456400757568499
  0.5046383662662057  0.4909432209054856  0.7589029935740158
  0.1987152280673076  0.0161792458182831  0.4715821692534048
  0.2424383608193242  0.9958838450317340  0.9929479718088955
  0.7668351239929900  1.0077749680631283  0.4988116825607928
  0.7565913295035711  0.0002817222797268  1.0029050761322473
  0.4860152352727536  1.0115184127062371  0.2190695722393919
  0.5088656565738126 -0.0123399809309489  0.7801003894761748
 -0.0075466917906720  0.0071920234665372  0.2338722201042814
  0.9994557851676826  1.0015725506402449  0.7551629565275690
  0.2499279014751407  0.4947824863813753 -0.0008282155238810
  0.2531249378015586  0.4978531786489412  0.5018749398828872
  0.7545992165477584  0.5014263372676374  1.0021720114482562
  0.7533702891232139  0.5046725872597478  0.5005324148278505
  0.5038817739688667  0.2569588684991146  0.1867196824251767
  0.4943744784717013  0.2202019480289452  0.7094423810567585
  0.9766860705752070  0.2487877295738513  0.1873576666886812
  0.9945270030309514  0.2488028946883951  0.6999340962062287
  0.2398653753339552  0.2531768590709389  0.0496344973343035
  0.2493119966432630  0.2335119205720636  0.5474649501204780
  0.7458961311542556  0.2523642003213561  0.0556962500655052
  0.7481970947082669  0.2630136508060124  0.5484312991370336
  0.0174499130303967  0.7711100733015510  0.2919646595517173
  0.0088476682941567  0.7513576405474252  0.7995957322051844
  0.4995215120403187  0.7714183576715729  0.3031529540008337
  0.5207411550458673  0.7475694643988060  0.8300263617039918
  0.2770044124980807  0.7818142334184501  0.4641575861586502
  0.2551044230312975  0.7337786486597677  0.9452733422645561
  0.7594507146445717  0.7475291126025975  0.4510726552013493
  0.7669076203017521  0.7504981792132074  0.9482649556101074
  0.3499555015649168  0.5495179326163905  0.1422126067926006
  0.3662022021197516  0.5367819901809833  0.6485609296926701
  0.8554215802902086  0.5592505452973654  0.1529073117758691
  0.8537122907312107  0.5555752295944132  0.6433394876233108
  0.0816796393067799  0.9538914896571659  0.0842866920208268
  0.0812062091934036  0.9403720540799165  0.5907104134151298
  0.6067845906009240  0.9428009349011590  0.0981550802667774
  0.6158597720515852  0.9310523716182472  0.6402733329302172
  0.1404267873427009  0.0756921078149064  0.3078365627635252
  0.1586772743031010  0.0483347571555967  0.8385190371114921
  0.6289379490429143  0.0479839866343104  0.3847712283573524
  0.6531505989348771  0.0609078849093804  0.8593358736259592
  0.3984415800179405  0.4671850743744324  0.3941170477936347
  0.3925577256960035  0.4401798196457896  0.9035933722446257
  0.8958879063172972  0.4592405504706277  0.4020250094417731
  0.9003016228536321  0.4487057876313231  0.8977827208421844
  0.1450188703259071  0.4644287225173286  0.3534677597864012
  0.1519641413365058  0.4413073414471376  0.8559106721588818
  0.6503601413118757  0.4567560830671668  0.3576695245564095
  0.6497350916336242  0.4413166328939077  0.8528399054798940
  0.3706762665728512  0.0871288191912992  0.3591397166358479
  0.4086456391439324  0.0476901144262373  0.9162540057618109
  0.9066338701061722  0.0605635569892292  0.3867914687541709
  0.9035319026252336  0.0543736327317188  0.9052895814174321
  0.3357142758016865  0.9264167037272607  0.1404248858787761
  0.3697236239375272  0.9225767212841505  0.6868868494827243
  0.8442549433640081  0.9412672216635923  0.1601816345521280
  0.8512063697686019  0.9544243111715220  0.6496280273888735
  0.1080171035429793  0.5470343549678705  0.0961884317706928
  0.1113618539327264  0.5461672422496004  0.6065970644660728
  0.6065302565536372  0.5621313439292738  0.1038005024942849
  0.6096494147622090  0.5485084485048598  0.6005902643997532
 
             NaN             NaN             NaN
             NaN             NaN             NaN
             NaN             NaN             NaN
             NaN             NaN             NaN
             NaN             NaN             NaN
             NaN             NaN             NaN
             NaN             NaN             NaN
             NaN             NaN             NaN
             NaN             NaN             NaN
             NaN             NaN             NaN
             NaN             NaN             NaN
             NaN             NaN             NaN
             NaN             NaN             NaN
             NaN             NaN             NaN
             NaN             NaN             NaN
             NaN             NaN             NaN
             NaN             NaN             NaN
             NaN             NaN             NaN
             NaN             NaN             NaN
             NaN             NaN             NaN
             NaN             NaN             NaN
             NaN             NaN             NaN
             NaN             NaN             NaN
             NaN             NaN             NaN
             NaN             NaN             NaN
             NaN             NaN             NaN
             NaN             NaN             NaN
             NaN             NaN             NaN
             NaN             NaN             NaN
             NaN             NaN             NaN
             NaN             NaN             NaN
             NaN             NaN             NaN
             NaN             NaN             NaN
             NaN             NaN             NaN
             NaN             NaN             NaN
             NaN             NaN             NaN
             NaN             NaN             NaN
             NaN             NaN             NaN
             NaN             NaN             NaN
             NaN             NaN             NaN
             NaN             NaN             NaN
             NaN             NaN             NaN
             NaN             NaN             NaN
             NaN             NaN             NaN
             NaN             NaN             NaN
             NaN             NaN             NaN
             NaN             NaN             NaN
             NaN             NaN             NaN
             NaN             NaN             NaN
             NaN             NaN             NaN
             NaN             NaN             NaN
             NaN             NaN             NaN
             NaN             NaN             NaN
             NaN             NaN             NaN
             NaN             NaN             NaN
             NaN             NaN             NaN
             NaN             NaN             NaN
             NaN             NaN             NaN
             NaN             NaN             NaN
             NaN             NaN             NaN
             NaN             NaN             NaN
             NaN             NaN             NaN
             NaN             NaN             NaN
             NaN             NaN             NaN
             NaN             NaN             NaN
