Ca1 Co16 F48
1.0
10.673221 -0.003542 -0.035998
-0.002192 7.455737 -0.005355
-0.033303 -0.007930 10.372703
Ca Co F
1 16 48
direct
0.495326 0.938653 0.504344 Ca
0.000868 0.501848 0.250170 Co
0.000949 0.498283 0.749918 Co
0.498048 0.499782 0.237653 Co
0.496809 0.495376 0.762924 Co
0.239955 0.007500 0.497635 Co
0.246506 0.998632 -0.000314 Co
0.759615 -0.000409 0.497313 Co
0.753181 0.000744 -0.000049 Co
0.499957 -0.000378 0.238973 Co
0.499147 0.000492 0.758950 Co
0.000821 0.001246 0.246427 Co
0.999545 -0.000205 0.752011 Co
0.245817 0.499039 0.001091 Co
0.244697 0.500435 0.500335 Co
0.754357 0.500507 -0.000531 Co
0.753667 0.499643 0.498947 Co
0.487814 0.250326 0.203028 F
0.482854 0.245725 0.708024 F
0.987182 0.248355 0.202156 F
0.993299 0.249998 0.698851 F
0.238704 0.258123 0.049673 F
0.248295 0.256365 0.549697 F
0.740878 0.249190 0.051353 F
0.746389 0.258679 0.546884 F
0.015412 0.755540 0.296186 F
0.008439 0.748020 0.796522 F
0.511095 0.747613 0.296338 F
0.513790 0.752326 0.797504 F
0.258942 0.746387 0.452625 F
0.254928 0.739639 0.951777 F
0.747629 0.740995 0.451515 F
0.762715 0.752215 0.948971 F
0.342036 0.551178 0.147286 F
0.355273 0.553077 0.644884 F
0.851834 0.552758 0.152975 F
0.849083 0.552424 0.644060 F
0.095535 0.955074 0.097264 F
0.099942 0.953361 0.598217 F
0.602362 0.947362 0.094647 F
0.600123 0.967732 0.603656 F
0.147771 0.055692 0.341348 F
0.153402 0.047844 0.846755 F
0.645167 0.048213 0.355347 F
0.646457 0.053236 0.847608 F
0.398981 0.462789 0.403293 F
0.392587 0.450846 0.910376 F
0.897457 0.458318 0.404615 F
0.900682 0.447731 0.898910 F
0.149545 0.447396 0.352526 F
0.153499 0.448832 0.852968 F
0.649080 0.446139 0.356093 F
0.649109 0.447691 0.849475 F
0.400079 0.032013 0.404895 F
0.400752 0.042957 0.904976 F
0.906758 0.045484 0.398332 F
0.901407 0.052671 0.902488 F
0.345767 0.949390 0.150671 F
0.359336 0.947776 0.650963 F
0.852126 0.950405 0.155922 F
0.850183 0.948705 0.649625 F
0.101582 0.546588 0.094901 F
0.102350 0.548165 0.598626 F
0.602002 0.551020 0.095071 F
0.604090 0.533946 0.596440 F
