K16 Mn8 P16 O56
1.0
   9.6977252959999998    0.0000000000000000    0.0000000000000000
   0.0000000000000000   11.2073955535999996    0.0000000000000000
  -6.4817628187000000    0.0000000000000000   12.4660708911999993
K Mn P O
15 8 16 56
direct
   0.9600000000000000    0.6100000000000000    0.8199999999999998 K
   0.5094069839999998    0.1166210025000000    0.6390060189999999 K
   0.9600000000000000    0.1100000000000000    0.8199999999999998 K
   0.4905929859999999    0.3666209875000000    0.8609939809999999 K
   0.4905929859999999    0.8666209875000001    0.8609939809999999 K
   0.4905929860000000    0.3833790125000000    0.3609940109999999 K
   0.4905929860000000    0.8833790124999999    0.3609940109999999 K
   0.9648969769999999    0.1365325005000000    0.3234669860000000 K
   0.9648969769999999    0.6365325005000000    0.3234669860000000 K
   0.5094069839999998    0.1333789975000000    0.1390060040000000 K
   0.5094069839999998    0.6333789975000000    0.1390060040000000 K
   0.0351030009999999    0.3634675145000000    0.6765329839999999 K
   0.0351030009999999    0.8634675144999999    0.6765329839999999 K
   0.0351030010000000    0.3865324855000000    0.1765329990000000 K
   0.0351030010000000    0.8865324855000001    0.1765329990000000 K
   0.2330839929999999    0.3788614870000000    0.9818670150000000 Mn
   0.2330839929999999    0.8788614870000001    0.9818670150000000 Mn
   0.7669159770000000    0.1288615020000000    0.5181329850000000 Mn
   0.7669159770000000    0.6288615020000000    0.5181329850000000 Mn
   0.2330839929999999    0.3711385129999999    0.4818669859999999 Mn
   0.2330839929999999    0.8711385130000000    0.4818669859999999 Mn
   0.7669159770000001    0.1211384980000000    0.0181330000000000 Mn
   0.7669159770000001    0.6211384980000000    0.0181330000000000 Mn
   0.6685640220000000    0.3703125120000000    0.6377580169999999 P
   0.6685640220000000    0.8703125120000000    0.6377580169999999 P
   0.6685640220000001    0.3796874880000000    0.1377580020000000 P
   0.6685640220000001    0.8796874880000001    0.1377580020000000 P
   0.8269429800000000    0.3876839875000000    0.3791249990000000 P
   0.8269429800000000    0.8876839875000000    0.3791249990000000 P
   0.3314360079999999    0.1203124970000000    0.8622419830000000 P
   0.3314360079999999    0.6203124970000000    0.8622419830000000 P
   0.1730570049999999    0.1123159975000000    0.6208750009999999 P
   0.1730570049999999    0.6123159975000000    0.6208750009999999 P
   0.8269429799999999    0.3623160125000001    0.8791249990000000 P
   0.8269429799999999    0.8623160125000001    0.8791249990000000 P
   0.1730570050000000    0.1376840025000000    0.1208750010000000 P
   0.1730570050000000    0.6376840025000000    0.1208750010000000 P
   0.3314360080000000    0.1296875030000000    0.3622420129999999 P
   0.3314360080000000    0.6296875030000000    0.3622420129999999 P
   0.7435600160000000    0.4773634970000000    0.6120830180000000 O
   0.7435600160000000    0.9773634970000001    0.6120830180000000 O
   0.7505360250000001    0.2512624860000000    0.6442810300000000 O
   0.7505360250000001    0.7512624860000001    0.6442810300000000 O
   0.2564400140000000    0.0226364995000000    0.3879170120000000 O
   0.2564400140000000    0.5226364995000000    0.3879170120000000 O
   0.2189770039999999    0.4865570069999999    0.6025239830000000 O
   0.2189770039999999    0.9865570069999999    0.6025239830000000 O
   0.7810230260000000    0.0134429995000000    0.3974759879999999 O
   0.7810230260000000    0.5134429995000001    0.3974759879999999 O
   0.0201990010000000    0.1338405015000000    0.1279920040000000 O
   0.0201990010000000    0.6338405015000000    0.1279920040000000 O
   0.4919529860000000    0.3854570090000000    0.0700239990000000 O
   0.4919529860000000    0.8854570090000001    0.0700239990000000 O
   0.9798009990000000    0.3661594985000000    0.8720080259999999 O
   0.9798009990000000    0.8661594984999998    0.8720080259999999 O
   0.7505360250000001    0.4987375140000000    0.1442810000000000 O
   0.7505360250000001    0.9987375140000000    0.1442810000000000 O
   0.6876869799999999    0.4002094865000000    0.7587220069999999 O
   0.6876869799999999    0.9002094865000000    0.7587220069999999 O
   0.1905120020000000    0.0428790005000000    0.0494569990000000 O
   0.1905120020000000    0.5428790005000000    0.0494569990000000 O
   0.0201990009999999    0.1161594985000000    0.6279919739999998 O
   0.0201990009999999    0.6161594985000000    0.6279919739999998 O
   0.2494640050000000    0.2487374990000000    0.3557190000000000 O
   0.2494640050000000    0.7487374990000000    0.3557190000000000 O
   0.9798009990000001    0.3838405015000000    0.3720079960000000 O
   0.9798009990000001    0.8838405014999999    0.3720079960000000 O
   0.6876869799999999    0.3497905135000000    0.2587220070000000 O
   0.6876869799999999    0.8497905135000000    0.2587220070000000 O
   0.3123129900000000    0.0997904985000000    0.2412779930000000 O
   0.3123129900000000    0.5997904985000000    0.2412779930000000 O
   0.4919529859999999    0.3645429910000000    0.5700240140000000 O
   0.4919529859999999    0.8645429910000000    0.5700240140000000 O
   0.2564400139999999    0.2273634970000000    0.8879169819999999 O
   0.2564400139999999    0.7273634969999999    0.8879169819999999 O
   0.5080469849999999    0.1145429985000000    0.9299759859999999 O
   0.5080469849999999    0.6145429984999999    0.9299759859999999 O
   0.5080469850000001    0.1354569940000000    0.4299759860000000 O
   0.5080469850000001    0.6354569940000000    0.4299759860000000 O
   0.2494640049999999    0.0012625000000000    0.8557189700000000 O
   0.2494640049999999    0.5012624999999999    0.8557189700000000 O
   0.3123129899999999    0.1502095015000000    0.7412779929999999 O
   0.3123129899999999    0.6502095015000000    0.7412779929999999 O
   0.1905120020000000    0.2071209995000000    0.5494570139999999 O
   0.1905120020000000    0.7071209995000000    0.5494570139999999 O
   0.2189770040000000    0.2634429930000000    0.1025239970000000 O
   0.2189770040000000    0.7634429930000000    0.1025239970000000 O
   0.8094879980000000    0.2928789855000000    0.4505429860000000 O
   0.8094879980000000    0.7928789855000001    0.4505429860000000 O
   0.7810230260000000    0.2365570070000000    0.8974760170000000 O
   0.7810230260000000    0.7365570070000000    0.8974760170000000 O
   0.7435600160000000    0.2726365030000000    0.1120830030000000 O
   0.7435600160000000    0.7726365030000000    0.1120830030000000 O
   0.8094879979999999    0.4571210145000000    0.9505429859999999 O
   0.8094879979999999    0.9571210145000000    0.9505429859999999 O
