Ca1 Mn4 P6 O24                          
   1.00000000000000     
     2.6944159999999999    6.9812659999999997    4.5113969999999997
     0.3931650000000000    0.2324780000000000    8.7183279999999996
     7.4714260000000001    0.2326590000000000    4.4599739999999999
   Ca   Mn   P    O 
     1     4     6    24
Direct
  0.2904034259330714  0.7333112648728886  0.5402261323491757
  0.6494609963077593  0.6360287314908248  0.6444024992401225
  0.1423602070850407  0.1574178377321829  0.1383065448781551
  0.8392216579259966  0.8522266517870278  0.8541049051222203
  0.3566324810257058  0.3507971010148339  0.3638131228383230
  0.2487680667251979  0.5226640266205109  0.9743285199012561
  0.0146029890438655  0.7524934483120518  0.4605502237090491
  0.9714081586588392  0.2477029693994695  0.5233366888576114
  0.4583515629745776  0.0317224111506960  0.7539582737884061
  0.5439209480899194  0.9729931508243297  0.2400633326667219
  0.7432547283824675  0.4718153471666895  0.0408794805155495
  0.5876215881105011  0.7648143839906325  0.4043027666722523
  0.2995395809482915  0.0164192183354501  0.9612491207706597
  0.4132792383172799  0.5853160049900339  0.7750205686889160
  0.9517331447282658  0.3148403278120853  0.0214935083482359
  0.7696835323464271  0.3911472212646387  0.6083837922053945
  0.0164596302792646  0.9603169609726478  0.3266425915631785
  0.9924847857930459  0.0285167320441815  0.6547764597182848
  0.5900528879655411  0.4035546529093779  0.2414353153909161
  0.7045241666572366  0.9802218175616062  0.0367387495178733
  0.2268142506948649  0.6035176650800551  0.4009047142573650
  0.0561041224091738  0.6890962926551083  0.9515229333528055
  0.3921021752851601  0.2385588478536746  0.6028523445477489
  0.2749542019770814  0.3330454676930401  0.9701193393183374
  0.8668294987519971  0.7097219390319296  0.4623006624220309
  0.9890718208479541  0.2917952399459125  0.3157176243758428
  0.4931470047369189  0.8728861861439583  0.6974202602840478
  0.3435637881783435  0.9965992081733859  0.2575429587086617
  0.7056374592054055  0.5029347903939154  0.8700616748555916
  0.2821385508454171  0.4974474059787823  0.1417592109694965
  0.9821516308709519  0.7151081832865529  0.6740668524823619
  0.1360430588896762  0.2766983614611149  0.5142080986389743
  0.6515938572394475  0.0174219287085009  0.7395910386637823
  0.5226192363421731  0.1267327161401752  0.2920409762529772
  0.7186730898591875  0.6669362378050891  0.0336849865056763
 
             NaN             NaN             NaN
             NaN             NaN             NaN
             NaN             NaN             NaN
             NaN             NaN             NaN
             NaN             NaN             NaN
             NaN             NaN             NaN
             NaN             NaN             NaN
             NaN             NaN             NaN
             NaN             NaN             NaN
             NaN             NaN             NaN
             NaN             NaN             NaN
             NaN             NaN             NaN
             NaN             NaN             NaN
             NaN             NaN             NaN
             NaN             NaN             NaN
             NaN             NaN             NaN
             NaN             NaN             NaN
             NaN             NaN             NaN
             NaN             NaN             NaN
             NaN             NaN             NaN
             NaN             NaN             NaN
             NaN             NaN             NaN
             NaN             NaN             NaN
             NaN             NaN             NaN
             NaN             NaN             NaN
             NaN             NaN             NaN
             NaN             NaN             NaN
             NaN             NaN             NaN
             NaN             NaN             NaN
             NaN             NaN             NaN
             NaN             NaN             NaN
             NaN             NaN             NaN
             NaN             NaN             NaN
             NaN             NaN             NaN
             NaN             NaN             NaN
