Zn27 Ni27 O54
1.0
   9.0686652660000000    0.0000000000000000    0.0000000000000000
  -4.5343326330000000    7.8536944988999995    0.0000000000000000
   0.0000000000000000    0.0000000000000000   14.8016824721999996
Zn Ni O
25 27 54
direct
   0.3333333333333333    0.3333333333333334    0.5000000000000000 Zn
   0.2222222290000000    0.1111111143333333    0.8333333130000001 Zn
   0.2222222290000000    0.4444444476666667    0.8333333130000001 Zn
   0.2222222290000000    0.7777777810000001    0.8333333130000001 Zn
   0.5555555623333335    0.1111111143333333    0.8333333130000001 Zn
   0.5555555623333333    0.4444444476666667    0.8333333130000001 Zn
   0.5555555623333334    0.7777777810000001    0.8333333130000001 Zn
   0.8888888956666667    0.1111111143333333    0.8333333130000001 Zn
   0.8888888956666667    0.4444444476666667    0.8333333130000001 Zn
   0.8888888956666667    0.7777777810000001    0.8333333130000001 Zn
   0.1111111143333333    0.2222222290000000    0.1666666720000000 Zn
   0.1111111143333334    0.5555555623333334    0.1666666720000000 Zn
   0.1111111143333334    0.8888888956666667    0.1666666720000000 Zn
   0.4444444476666666    0.2222222290000000    0.1666666720000000 Zn
   0.4444444476666667    0.5555555623333334    0.1666666720000000 Zn
   0.4444444476666667    0.8888888956666667    0.1666666720000000 Zn
   0.7777777809999999    0.2222222290000000    0.1666666720000000 Zn
   0.7777777810000001    0.5555555623333334    0.1666666720000000 Zn
   0.7777777810000001    0.8888888956666667    0.1666666720000000 Zn
   0.0000000000000000    0.0000000000000000    0.5000000000000000 Zn
   0.0000000000000000    0.3333333333333334    0.5000000000000000 Zn
   0.0000000000000000    0.6666666666666667    0.5000000000000000 Zn
   0.3333333333333333    0.0000000000000000    0.5000000000000000 Zn
   0.3333333333333334    0.6666666666666667    0.5000000000000000 Zn
   0.6666666666666666    0.0000000000000000    0.5000000000000000 Zn
   0.0000000000000000    0.0000000000000000    0.0000000000000000 Ni
   0.0000000000000000    0.3333333333333334    0.0000000000000000 Ni
   0.0000000000000000    0.6666666666666667    0.0000000000000000 Ni
   0.3333333333333333    0.0000000000000000    0.0000000000000000 Ni
   0.3333333333333333    0.3333333333333334    0.0000000000000000 Ni
   0.3333333333333334    0.6666666666666667    0.0000000000000000 Ni
   0.6666666666666666    0.0000000000000000    0.0000000000000000 Ni
   0.6666666666666666    0.3333333333333334    0.0000000000000000 Ni
   0.6666666666666666    0.6666666666666667    0.0000000000000000 Ni
   0.2222222290000000    0.1111111143333333    0.3333333430000000 Ni
   0.2222222290000000    0.4444444476666667    0.3333333430000000 Ni
   0.2222222290000000    0.7777777810000001    0.3333333430000000 Ni
   0.5555555623333335    0.1111111143333333    0.3333333430000000 Ni
   0.5555555623333333    0.4444444476666667    0.3333333430000000 Ni
   0.5555555623333334    0.7777777810000001    0.3333333430000000 Ni
   0.8888888956666667    0.1111111143333333    0.3333333430000000 Ni
   0.8888888956666667    0.4444444476666667    0.3333333430000000 Ni
   0.8888888956666667    0.7777777810000001    0.3333333430000000 Ni
   0.1111111143333333    0.2222222290000000    0.6666666870000000 Ni
   0.1111111143333334    0.5555555623333334    0.6666666870000000 Ni
   0.1111111143333334    0.8888888956666667    0.6666666870000000 Ni
   0.4444444476666666    0.2222222290000000    0.6666666870000000 Ni
   0.4444444476666667    0.5555555623333334    0.6666666870000000 Ni
   0.4444444476666667    0.8888888956666667    0.6666666870000000 Ni
   0.7777777809999999    0.2222222290000000    0.6666666870000000 Ni
   0.7777777810000001    0.5555555623333334    0.6666666870000000 Ni
   0.7777777810000001    0.8888888956666667    0.6666666870000000 Ni
   0.1111111143333333    0.2222222290000000    0.9184409980000000 O
   0.1111111143333334    0.5555555623333334    0.9184409980000000 O
   0.1111111143333334    0.8888888956666667    0.9184409980000000 O
   0.4444444476666666    0.2222222290000000    0.9184409980000000 O
   0.4444444476666667    0.5555555623333334    0.9184409980000000 O
   0.4444444476666667    0.8888888956666667    0.9184409980000000 O
   0.7777777809999999    0.2222222290000000    0.9184409980000000 O
   0.7777777810000001    0.5555555623333334    0.9184409980000000 O
   0.7777777810000001    0.8888888956666667    0.9184409980000000 O
   0.0000000000000000    0.0000000000000000    0.7482256890000000 O
   0.0000000000000000    0.3333333333333334    0.7482256890000000 O
   0.0000000000000000    0.6666666666666667    0.7482256890000000 O
   0.3333333333333333    0.0000000000000000    0.7482256890000000 O
   0.3333333333333333    0.3333333333333334    0.7482256890000000 O
   0.3333333333333334    0.6666666666666667    0.7482256890000000 O
   0.6666666666666666    0.0000000000000000    0.7482256890000000 O
   0.6666666666666666    0.3333333333333334    0.7482256890000000 O
   0.6666666666666666    0.6666666666666667    0.7482256890000000 O
   0.0000000000000000    0.0000000000000000    0.2517743410000000 O
   0.0000000000000000    0.3333333333333334    0.2517743410000000 O
   0.0000000000000000    0.6666666666666667    0.2517743410000000 O
   0.3333333333333333    0.0000000000000000    0.2517743410000000 O
   0.3333333333333333    0.3333333333333334    0.2517743410000000 O
   0.3333333333333334    0.6666666666666667    0.2517743410000000 O
   0.6666666666666666    0.0000000000000000    0.2517743410000000 O
   0.6666666666666666    0.3333333333333334    0.2517743410000000 O
   0.6666666666666666    0.6666666666666667    0.2517743410000000 O
   0.2222222290000000    0.1111111143333333    0.0815590020000000 O
   0.2222222290000000    0.4444444476666667    0.0815590020000000 O
   0.2222222290000000    0.7777777810000001    0.0815590020000000 O
   0.5555555623333335    0.1111111143333333    0.0815590020000000 O
   0.5555555623333333    0.4444444476666667    0.0815590020000000 O
   0.5555555623333334    0.7777777810000001    0.0815590020000000 O
   0.8888888956666667    0.1111111143333333    0.0815590020000000 O
   0.8888888956666667    0.4444444476666667    0.0815590020000000 O
   0.8888888956666667    0.7777777810000001    0.0815590020000000 O
   0.2222222290000000    0.1111111143333333    0.5851076840000000 O
   0.2222222290000000    0.4444444476666667    0.5851076840000000 O
   0.2222222290000000    0.7777777810000001    0.5851076840000000 O
   0.5555555623333335    0.1111111143333333    0.5851076840000000 O
   0.5555555623333333    0.4444444476666667    0.5851076840000000 O
   0.5555555623333334    0.7777777810000001    0.5851076840000000 O
   0.8888888956666667    0.1111111143333333    0.5851076840000000 O
   0.8888888956666667    0.4444444476666667    0.5851076840000000 O
   0.8888888956666667    0.7777777810000001    0.5851076840000000 O
   0.1111111143333333    0.2222222290000000    0.4148923160000000 O
   0.1111111143333334    0.5555555623333334    0.4148923160000000 O
   0.1111111143333334    0.8888888956666667    0.4148923160000000 O
   0.4444444476666666    0.2222222290000000    0.4148923160000000 O
   0.4444444476666667    0.5555555623333334    0.4148923160000000 O
   0.4444444476666667    0.8888888956666667    0.4148923160000000 O
   0.7777777809999999    0.2222222290000000    0.4148923160000000 O
   0.7777777810000001    0.5555555623333334    0.4148923160000000 O
   0.7777777810000001    0.8888888956666667    0.4148923160000000 O
