Ca8 Ti12 F42                            
   1.00000000000000     
     7.3198869999999996   -0.0506000000000000   -0.1295410000000000
    -3.6620520000000001    6.5067480000000000    0.0625600000000000
     0.1364970000000000    0.0187950000000000   18.9195680000000017
   Ca   Ti   F 
     8    12    42
Direct
  0.7952891379624195  0.9845129982535263  0.8439603750137366
  0.8497433246200460  0.5153861695684112  0.3620242306479114
  0.5107257407622207  0.3683646567610639  0.6818536275491379
  0.1686017231046115  0.1683117244652718  0.0091721464528211
  0.0147873557675561  0.8558959578554810  0.6875034869924507
  0.8094571561982782 -0.0008577784763530  0.3497734741488908
  0.9757866244187214  0.7975157334820323  0.1810254849293825
  0.1822219444753045  0.1955964608342673  0.5112762258381863
  0.3184339324757920  0.0068310624555782  0.3459299321888366
  1.0034283315250165  0.3474802502065638  0.6709192731024133
  0.6531283725779630  0.6872344489455651  0.0122721538002898
  0.3498829433455735  0.0690147082448766  0.8469813447116782
  0.9867638123815000  0.3288624755441899  0.1966202735486761
  0.6978552564397744  0.6707436731138844  0.5132899735557904
  0.5203570999946437  0.8882749901715699  0.1734487436952542
  0.1418347929155437  0.6728082944785282  0.5169170842686830
  0.3387891275992985  0.4999351008140350  0.8431596196935550
  0.7896671041020907  0.5039064842963596  0.8412238500684099
  0.6960290551832596  0.2275556319989651  0.5145111968332334
  0.4608213013512548  0.3429454855196829  0.1768047477436428
  0.6936913084720704  0.2132241231325261  0.6271601958616624
  0.7748375528844194  0.5853067221502140  0.9413309168241957
  0.4083906742030956  0.2521266501936042  0.2805119680298141
  0.1870729036133817  0.7425749563387689  0.4063970747428593
  0.5054581193431348  0.7860297692968780  0.0714319984177889
  0.2700363532611135  0.4604597823841626  0.7356001380360859
  0.8250211155978679  0.9767993500076962  0.9619832389361511
  0.0100100024460435  0.8268146577873463  0.3001669820318184
  0.1722013253434357  0.1873427081837969  0.6326933467613064
  0.9362519536014415  0.8388773221573329  0.0672966722516718
  0.8930962240899741  0.0776282228758666  0.7315870789960923
  0.1442580688384371  0.1159983222648565  0.3978447670401359
  0.5223275240316311  0.4051990291902096  0.0698048160794534
  0.6292925984668797  0.1763017773735880  0.3972803000471100
  0.8501396117202229  0.4884778674853942  0.7313608056475260
  0.3723074015858234  0.5078005300878634  0.9551040020859314
  0.1403961283853137  0.6630262066005314  0.6298611752598836
  0.4956786609011275  0.9182936860731692  0.2860965979990563
  0.7820514172834790  0.4553310741425342  0.2180340337968852
  0.5209075379582733  0.3655827632247583  0.5494600050158808
  0.6653793696293543  0.1976820306090301  0.8597235720767995
  0.4259946933645348  0.8157827669455162  0.8409852020304761
  0.3753824050014251  0.5884095412829230  0.5017138138935063
  0.1906361500998775  0.6428545255157893  0.1821813922423362
  0.9871949560647666  0.3390301462198211  0.3065047899692707
  0.6951964092088955  0.6852383365886449  0.6288001493151461
  0.3176577763939160  0.0267770020510093  0.9505466592295352
  0.3456647903073786  0.0554043126189061  0.7370376780275461
  0.6848797848162361  0.6830965022458491  0.3995264699523521
  0.7438840913217022  0.1665475804586640  0.1281819700019406
  0.1593940557956292  0.2603090462836417  0.1274904944896042
  0.7934754326870768  0.0065791451414919  0.4850194504112653
  0.0288331762812640  0.8304676681252295  0.8211319773632471
  0.1528623270500998  0.1907622160316460  0.8706967110481477
  1.0082252420690456  0.8543880070103445  0.5459223099746293
  0.8521923637422453  0.0121082539043984  0.2243979923466838
  0.0472286610227892  0.4707353944363199  0.8581561323172576
  0.5842639938944503  0.6511943073962484  0.1919073611289338
  0.3844284251303861  0.9903938112965202  0.5120491071082991
  0.3329061202455246  0.0294475409327011  0.1576624754828427
  0.6428251661214740  0.6548050148189533  0.7953497098947372
  1.0093993108486603  0.3595624788787059  0.5520731338206373
 
             NaN             NaN             NaN
             NaN             NaN             NaN
             NaN             NaN             NaN
             NaN             NaN             NaN
             NaN             NaN             NaN
             NaN             NaN             NaN
             NaN             NaN             NaN
             NaN             NaN             NaN
             NaN             NaN             NaN
             NaN             NaN             NaN
             NaN             NaN             NaN
             NaN             NaN             NaN
             NaN             NaN             NaN
             NaN             NaN             NaN
             NaN             NaN             NaN
             NaN             NaN             NaN
             NaN             NaN             NaN
             NaN             NaN             NaN
             NaN             NaN             NaN
             NaN             NaN             NaN
             NaN             NaN             NaN
             NaN             NaN             NaN
             NaN             NaN             NaN
             NaN             NaN             NaN
             NaN             NaN             NaN
             NaN             NaN             NaN
             NaN             NaN             NaN
             NaN             NaN             NaN
             NaN             NaN             NaN
             NaN             NaN             NaN
             NaN             NaN             NaN
             NaN             NaN             NaN
             NaN             NaN             NaN
             NaN             NaN             NaN
             NaN             NaN             NaN
             NaN             NaN             NaN
             NaN             NaN             NaN
             NaN             NaN             NaN
             NaN             NaN             NaN
             NaN             NaN             NaN
             NaN             NaN             NaN
             NaN             NaN             NaN
             NaN             NaN             NaN
             NaN             NaN             NaN
             NaN             NaN             NaN
             NaN             NaN             NaN
             NaN             NaN             NaN
             NaN             NaN             NaN
             NaN             NaN             NaN
             NaN             NaN             NaN
             NaN             NaN             NaN
             NaN             NaN             NaN
             NaN             NaN             NaN
             NaN             NaN             NaN
             NaN             NaN             NaN
             NaN             NaN             NaN
             NaN             NaN             NaN
             NaN             NaN             NaN
             NaN             NaN             NaN
             NaN             NaN             NaN
             NaN             NaN             NaN
             NaN             NaN             NaN
