Ca8 Ti12 F42                            
   1.00000000000000     
     7.3198869999999996   -0.0506000000000000   -0.1295410000000000
    -3.6620520000000001    6.5067480000000000    0.0625600000000000
     0.1364970000000000    0.0187950000000000   18.9195680000000017
   Ca   Ti   F 
     8    12    42
Direct
  0.7848216178563112  0.9921891682323707  0.8523747034940761
  0.8406176038403408  0.5228355954617846  0.3702983149768601
  0.5007300619465412  0.3763880775338275  0.6903866064509417
  0.1583951927314793  0.1764707313282794  0.0176502647466408
  0.0044337261682342  0.8637778296968847  0.6959550006194243
  0.8015263445747217  1.0067197545003868  0.3583909795577659
  0.9684884955221038  0.8054491496784402  0.1894925786746162
  0.1728034552825063  0.2034267360831754  0.5197463465776143
  0.3107366485300244  0.0147407954940807  0.3542459282807053
 -0.0063034420236267  0.3551055629721817  0.6797334124193319
  0.6437219390067376  0.6948701204639867  0.0207843745685403
  0.3385984214318951  0.0766200790778982  0.8556318008131831
  0.9788988704505055  0.3362338258462900  0.2053819140033502
  0.6887720514216160  0.6783132306033702  0.5215849725187297
  0.5122668086286402  0.8958028357510831  0.1826490603734190
  0.1329113864187378  0.6807729470605871  0.5255259683701095
  0.3287488145425321  0.5081747096159546  0.8518792504907796
  0.7789321106712023  0.5125502173811152  0.8500163075627667
  0.6870145187760581  0.2350938305895145  0.5229963417362600
  0.4537279002131616  0.3501206712333482  0.1854010225668757
  0.6836940573673707  0.2210577794646038  0.6357128671770419
  0.7649114490197538  0.5933101615295936  0.9495849789132983
  0.4031446553953536  0.2606322359148729  0.2893223806635454
  0.1781653260058862  0.7501228183879798  0.4148958474784954
  0.4955321744717538  0.7929552429644878  0.0798189872756614
  0.2591885515145069  0.4678712458773873  0.7441196221012528
  0.8147468540351093  0.9848343629837965  0.9707081128264832
  0.0020658741529847  0.8343123170837077  0.3086213370492205
  0.1623663593657470  0.1953974619313721  0.6412707312558954
  0.9269385795134941  0.8471280603673012  0.0758189662617565
  0.8827941771338552  0.0853810419180720  0.7400811877250076
  0.1368299405076462  0.1239615940362037  0.4063990589038915
  0.5139157836071381  0.4131329406841132  0.0782266776051795
  0.6210176135315436  0.1838448323055872  0.4059425128595461
  0.8399645239647526  0.4966529789368003  0.7397523833488413
  0.3622952965863186  0.5157875945177682  0.9637219461210136
  0.1308574367147586  0.6708836140692953  0.6385116948297267
  0.4876342194358712  0.9250286231890535  0.2948615658503876
  0.7752959807559882  0.4634443192488533  0.2263109064150378
  0.5116969801705640  0.3734618297791275  0.5579357140577861
  0.6551661623883205  0.2060580300808248  0.8678561937843134
  0.4152620219065698  0.8233397910222082  0.8496829021136756
  0.3663837832525170  0.5960966378167737  0.5102773257464471
  0.1833037799634104  0.6502785545940554  0.1909396342294825
  0.9791390381975572  0.3465847120702029  0.3150976667848344
  0.6849239177142850  0.6928951847449658  0.6372429078436566
  0.3071110942296036  0.0348797174602629  0.9590654814285963
  0.3352215910373372  0.0633231227042985  0.7455672553936041
  0.6763547538286403  0.6904275917297110  0.4080560181737205
  0.7368454441047521  0.1740861126241065  0.1367804057397144
  0.1516596704676785  0.2673743975072002  0.1362078876810189
  0.7850185476205668  0.0145507565224080  0.4935318926142859
  0.0185352980720066  0.8385517072203817  0.8296386107213389
  0.1427280629047374  0.1989528296418107  0.8793141181560816
 -0.0008436883139689  0.8623658748060177  0.5546644857006203
  0.8443921494960593  0.0196497536713354  0.2330635602022301
  0.0372624545448340  0.4787895439643565  0.8668224444501473
  0.5772940620290281  0.6584766651909197  0.2002857093372648
  0.3752739040165023  0.9980066843543559  0.5206122139081550
  0.3255940431221917  0.0371302781162807  0.1664494886698167
  0.6323261688449865  0.6627782734654324  0.8039711027298591
 -0.0002086180402354  0.3673877374815815  0.5606836273555592
 
             NaN             NaN             NaN
             NaN             NaN             NaN
             NaN             NaN             NaN
             NaN             NaN             NaN
             NaN             NaN             NaN
             NaN             NaN             NaN
             NaN             NaN             NaN
             NaN             NaN             NaN
             NaN             NaN             NaN
             NaN             NaN             NaN
             NaN             NaN             NaN
             NaN             NaN             NaN
             NaN             NaN             NaN
             NaN             NaN             NaN
             NaN             NaN             NaN
             NaN             NaN             NaN
             NaN             NaN             NaN
             NaN             NaN             NaN
             NaN             NaN             NaN
             NaN             NaN             NaN
             NaN             NaN             NaN
             NaN             NaN             NaN
             NaN             NaN             NaN
             NaN             NaN             NaN
             NaN             NaN             NaN
             NaN             NaN             NaN
             NaN             NaN             NaN
             NaN             NaN             NaN
             NaN             NaN             NaN
             NaN             NaN             NaN
             NaN             NaN             NaN
             NaN             NaN             NaN
             NaN             NaN             NaN
             NaN             NaN             NaN
             NaN             NaN             NaN
             NaN             NaN             NaN
             NaN             NaN             NaN
             NaN             NaN             NaN
             NaN             NaN             NaN
             NaN             NaN             NaN
             NaN             NaN             NaN
             NaN             NaN             NaN
             NaN             NaN             NaN
             NaN             NaN             NaN
             NaN             NaN             NaN
             NaN             NaN             NaN
             NaN             NaN             NaN
             NaN             NaN             NaN
             NaN             NaN             NaN
             NaN             NaN             NaN
             NaN             NaN             NaN
             NaN             NaN             NaN
             NaN             NaN             NaN
             NaN             NaN             NaN
             NaN             NaN             NaN
             NaN             NaN             NaN
             NaN             NaN             NaN
             NaN             NaN             NaN
             NaN             NaN             NaN
             NaN             NaN             NaN
             NaN             NaN             NaN
             NaN             NaN             NaN
