Ca48 Mn16 N48
1.0
16.729639 0.000000 0.000000
0.000000 10.221030 0.000000
0.000000 0.000000 10.039086
Ca Mn N
47 16 48
direct
   0.5000000000000000    0.3923810000000000    0.3750000000000000 Ca
0.393829 0.116254 0.375000 Ca
0.393829 0.116254 0.875000 Ca
0.893829 0.116254 0.375000 Ca
0.893829 0.116254 0.875000 Ca
0.250000 0.107619 0.125000 Ca
0.250000 0.107619 0.625000 Ca
0.750000 0.107619 0.125000 Ca
0.750000 0.107619 0.625000 Ca
0.393829 0.883746 0.125000 Ca
0.393829 0.883746 0.625000 Ca
0.893829 0.883746 0.125000 Ca
0.893829 0.883746 0.625000 Ca
0.250000 0.892381 0.375000 Ca
0.250000 0.892381 0.875000 Ca
0.750000 0.892381 0.375000 Ca
0.750000 0.892381 0.875000 Ca
0.106171 0.883746 0.125000 Ca
0.106171 0.883746 0.625000 Ca
0.606171 0.883746 0.125000 Ca
0.606171 0.883746 0.625000 Ca
0.106171 0.116254 0.375000 Ca
0.106171 0.116254 0.875000 Ca
0.606171 0.116254 0.375000 Ca
0.606171 0.116254 0.875000 Ca
0.143829 0.616254 0.375000 Ca
0.143829 0.616254 0.875000 Ca
0.643829 0.616254 0.375000 Ca
0.643829 0.616254 0.875000 Ca
0.000000 0.607619 0.125000 Ca
0.000000 0.607619 0.625000 Ca
0.500000 0.607619 0.125000 Ca
0.500000 0.607619 0.625000 Ca
0.143829 0.383746 0.125000 Ca
0.143829 0.383746 0.625000 Ca
0.643829 0.383746 0.125000 Ca
0.643829 0.383746 0.625000 Ca
0.000000 0.392381 0.375000 Ca
0.000000 0.392381 0.875000 Ca
0.500000 0.392381 0.875000 Ca
0.356171 0.383746 0.125000 Ca
0.356171 0.383746 0.625000 Ca
0.856171 0.383746 0.125000 Ca
0.856171 0.383746 0.625000 Ca
0.356171 0.616254 0.875000 Ca
0.856171 0.616254 0.375000 Ca
0.856171 0.616254 0.875000 Ca
0.250000 0.699425 0.125000 Mn
0.250000 0.699425 0.625000 Mn
0.750000 0.699425 0.125000 Mn
0.750000 0.699425 0.625000 Mn
0.250000 0.300576 0.375000 Mn
0.250000 0.300576 0.875000 Mn
0.750000 0.300576 0.375000 Mn
0.750000 0.300576 0.875000 Mn
0.000000 0.199424 0.125000 Mn
0.000000 0.199424 0.625000 Mn
0.500000 0.199424 0.125000 Mn
0.500000 0.199424 0.625000 Mn
0.000000 0.800575 0.375000 Mn
0.000000 0.800575 0.875000 Mn
0.500000 0.800575 0.375000 Mn
0.500000 0.800575 0.875000 Mn
0.403775 0.125970 0.125000 N
0.403775 0.125970 0.625000 N
0.903775 0.125970 0.125000 N
0.903775 0.125970 0.625000 N
0.250000 0.125582 0.375000 N
0.250000 0.125582 0.875000 N
0.750000 0.125582 0.375000 N
0.750000 0.125582 0.875000 N
0.250000 0.874418 0.125000 N
0.250000 0.874418 0.625000 N
0.750000 0.874418 0.125000 N
0.750000 0.874418 0.625000 N
0.403775 0.874030 0.375000 N
0.403775 0.874030 0.875000 N
0.903775 0.874030 0.375000 N
0.903775 0.874030 0.875000 N
0.096225 0.874030 0.375000 N
0.096225 0.874030 0.875000 N
0.596225 0.874030 0.375000 N
0.596225 0.874030 0.875000 N
0.096225 0.125970 0.125000 N
0.096225 0.125970 0.625000 N
0.596225 0.125970 0.125000 N
0.596225 0.125970 0.625000 N
0.153775 0.625970 0.125000 N
0.153775 0.625970 0.625000 N
0.653775 0.625970 0.125000 N
0.653775 0.625970 0.625000 N
0.000000 0.625582 0.375000 N
0.000000 0.625582 0.875000 N
0.500000 0.625582 0.375000 N
0.500000 0.625582 0.875000 N
0.000000 0.374418 0.125000 N
0.000000 0.374418 0.625000 N
0.500000 0.374418 0.125000 N
0.500000 0.374418 0.625000 N
0.153775 0.374030 0.375000 N
0.153775 0.374030 0.875000 N
0.653775 0.374030 0.375000 N
0.653775 0.374030 0.875000 N
0.346225 0.374030 0.375000 N
0.346225 0.374030 0.875000 N
0.846225 0.374030 0.375000 N
0.846225 0.374030 0.875000 N
0.346225 0.625970 0.125000 N
0.346225 0.625970 0.625000 N
0.846225 0.625970 0.125000 N
0.846225 0.625970 0.625000 N
