Na8 Mn8 P8 O32
1.0
10.129884 0.000000 0.000000
0.000000 6.407863 0.000000
0.000000 0.000000 10.645741
Na Mn P O
7 8 8 32
direct
0.500000 0.500000 0.500000 Na
0.000000 0.500000 0.500000 Na
0.250000 0.500000 0.000000 Na
0.750000 0.500000 0.000000 Na
0.000000 0.000000 0.500000 Na
0.250000 0.000000 0.000000 Na
0.750000 0.000000 0.000000 Na
0.491906 0.750000 0.783025 Mn
0.991906 0.750000 0.783025 Mn
0.258094 0.750000 0.283025 Mn
0.758094 0.750000 0.283025 Mn
0.241905 0.250000 0.716975 Mn
0.741905 0.250000 0.716975 Mn
0.008094 0.250000 0.216975 Mn
0.508095 0.250000 0.216975 Mn
0.214954 0.750000 0.604089 P
0.714954 0.750000 0.604089 P
0.035046 0.750000 0.104089 P
0.535046 0.750000 0.104089 P
0.464954 0.250000 0.895911 P
0.964954 0.250000 0.895911 P
0.285046 0.250000 0.395911 P
0.785046 0.250000 0.395911 P
0.150084 0.557071 0.671913 O
0.650084 0.557071 0.671913 O
0.099916 0.557071 0.171913 O
0.599916 0.557071 0.171913 O
0.082797 0.750000 0.964886 O
0.582797 0.750000 0.964886 O
0.167203 0.750000 0.464886 O
0.667203 0.750000 0.464886 O
0.367042 0.750000 0.612653 O
0.867042 0.750000 0.612653 O
0.382958 0.750000 0.112653 O
0.882958 0.750000 0.112653 O
0.150084 0.942929 0.671913 O
0.650084 0.942929 0.671913 O
0.099916 0.942929 0.171913 O
0.599916 0.942929 0.171913 O
0.349916 0.057071 0.328087 O
0.849916 0.057071 0.328087 O
0.400084 0.057071 0.828087 O
0.900084 0.057071 0.828087 O
0.332797 0.250000 0.535114 O
0.832797 0.250000 0.535114 O
0.117042 0.250000 0.887347 O
0.617042 0.250000 0.887347 O
0.417203 0.250000 0.035114 O
0.917203 0.250000 0.035114 O
0.132958 0.250000 0.387347 O
0.632958 0.250000 0.387347 O
0.400084 0.442929 0.828087 O
0.900084 0.442929 0.828087 O
0.349916 0.442929 0.328087 O
0.849916 0.442929 0.328087 O
