Ca8 Ti12 F42                            
   1.00000000000000     
     7.3581909999999997   -0.0456000000000000   -0.1125130000000000
    -3.6767150000000002    6.4830990000000002    0.0547290000000000
     0.1777220000000000    0.0208420000000000   18.7869279999999996
   Ca   Ti   F 
     8    12    42
Direct
  0.8199831407492896  0.0035748776913382  0.8158621442530827
  0.8807544076426623  0.4804640103094472  0.3376765519292715
  0.5301681547040331  0.3552671811537657  0.6540100018690971
  0.1790898535082286  0.1527666755378364  0.9887185079575823
  0.0431735196863846  0.8522221151819092  0.6558752959029225
  0.8432120650478024  0.9710661076037094  0.3285339745244147
  0.0394714777325394  0.8024915822127994  0.1532167277432464
  0.1992942403665318  0.1999589515704830  0.4816349040278769
  0.3611856020257623  0.9885352374290689  0.3180075523290234
  0.0220943627696669  0.3374435620382801  0.6331884885392441
  0.6747361380143490  0.6553651612943936  0.9890875736767685
  0.3303462249793843  0.9920838556647235  0.8263701916870616
  0.9708349706580433  0.2706280045746475  0.1587607722659385
  0.7372083148296801  0.6453846744225645  0.4911222532548117
  0.5291214252730458  0.8318505109274043  0.1586587148388017
  0.1679013221669952  0.6382151501253012  0.4964812534757220
  0.3469741005416166  0.4833784551021252  0.8174054369911329
  0.8258176575851552  0.4982006478739842  0.8146294460813313
  0.7463111672473628  0.2094208341119815  0.4960199122371260
  0.5252971603504665  0.2779997905598885  0.1555428182544065
  0.7095052558608275  0.1905289245224623  0.6057151949855918
  0.7894018470213445  0.5481776351615564  0.9166039622024987
  0.5465535715239603  0.2733155003654665  0.2681135915325737
  0.2076143773872751  0.7395511712490678  0.3872159687530924
  0.5667018646782219  0.7795265179841022  0.0558733522292237
  0.2829668999880978  0.4416137423476920  0.7071400232878998
  0.8391252450309358  0.9357891401969446  0.9293923019462965
  0.0369946975242272  0.8001476146074484  0.2737351407193447
  0.1986775260391040  0.1836815757116954  0.6026267379015438
  0.9634879970730028  0.8226632789221699  0.0409928175930769
  0.9109215050772317  0.0620971942458033  0.6996446570831619
  0.1895833568713332  0.1045048905590492  0.3677774275622560
  0.5146575473669075  0.3651577447377982  0.0472060647002865
  0.6517105847709906  0.1400157263358696  0.3810789807024721
  0.8718031154443836  0.4763345801851930  0.7031202630849256
  0.3944500453967544  0.4861736624094259  0.9288292199864195
  0.1804695607069964  0.6542598045817885  0.6077381574743111
  0.5187529819705904  0.8478261596866951  0.2732629007411934
  0.8391142875254036  0.4539136056301625  0.1572011179115817
  0.5479930923352774  0.3302038153949347  0.5181715202893949
  0.6450706791482510  0.1838331465595804  0.8262432226628829
  0.4406749591391977  0.7911604274643494  0.8162849512286192
  0.4076574419567791  0.5628904829873821  0.4835968443153617
  0.2158542126911122  0.5996671551388387  0.1598022819933700
  0.9720369116332004  0.2863951357183039  0.2692688535859850
  0.7227295772857601  0.6671061319979008  0.6030471587313057
  0.3128342379805964  0.9819044820746933  0.9289599669470444
  0.3587243640126275  0.0549298443108931  0.7164747981893964
  0.7278044343534152  0.6555672059182306  0.3797125012929928
  1.0030253553165112  0.2629152794953223  0.0552053267683539
  0.2094633369763771  0.1886066590036943  0.1586522701139845
  0.8274958517355911  0.9758366208729403  0.4654514204908640
  0.0342667569618918  0.8041155489890356  0.7881413358483699
  0.1870132488794030  0.1695457451747677  0.8396579682596802
  0.0534532231096778  0.8395337831894103  0.5191208870713511
  0.8408538641540843  0.9601038333506898  0.1859114916656060
  0.0391512021069601  0.4056105986499490  0.8325094204788680
  0.5784977490470431  0.5775427397396868  0.1763404118895407
  0.4431609968746545  0.9430968477503078  0.5049227641018389
  0.3763331033671404  0.9814244439251952  0.1122397451136852
  0.6510548954708175  0.6285455970873866  0.7765684786499822
  0.0255603071903772  0.3595281714217794  0.4278861022897663
 
             NaN             NaN             NaN
             NaN             NaN             NaN
             NaN             NaN             NaN
             NaN             NaN             NaN
             NaN             NaN             NaN
             NaN             NaN             NaN
             NaN             NaN             NaN
             NaN             NaN             NaN
             NaN             NaN             NaN
             NaN             NaN             NaN
             NaN             NaN             NaN
             NaN             NaN             NaN
             NaN             NaN             NaN
             NaN             NaN             NaN
             NaN             NaN             NaN
             NaN             NaN             NaN
             NaN             NaN             NaN
             NaN             NaN             NaN
             NaN             NaN             NaN
             NaN             NaN             NaN
             NaN             NaN             NaN
             NaN             NaN             NaN
             NaN             NaN             NaN
             NaN             NaN             NaN
             NaN             NaN             NaN
             NaN             NaN             NaN
             NaN             NaN             NaN
             NaN             NaN             NaN
             NaN             NaN             NaN
             NaN             NaN             NaN
             NaN             NaN             NaN
             NaN             NaN             NaN
             NaN             NaN             NaN
             NaN             NaN             NaN
             NaN             NaN             NaN
             NaN             NaN             NaN
             NaN             NaN             NaN
             NaN             NaN             NaN
             NaN             NaN             NaN
             NaN             NaN             NaN
             NaN             NaN             NaN
             NaN             NaN             NaN
             NaN             NaN             NaN
             NaN             NaN             NaN
             NaN             NaN             NaN
             NaN             NaN             NaN
             NaN             NaN             NaN
             NaN             NaN             NaN
             NaN             NaN             NaN
             NaN             NaN             NaN
             NaN             NaN             NaN
             NaN             NaN             NaN
             NaN             NaN             NaN
             NaN             NaN             NaN
             NaN             NaN             NaN
             NaN             NaN             NaN
             NaN             NaN             NaN
             NaN             NaN             NaN
             NaN             NaN             NaN
             NaN             NaN             NaN
             NaN             NaN             NaN
             NaN             NaN             NaN
