Ca8 Ti12 F42                            
   1.00000000000000     
     7.3581909999999997   -0.0456000000000000   -0.1125130000000000
    -3.6767150000000002    6.4830990000000002    0.0547290000000000
     0.1777220000000000    0.0208420000000000   18.7869279999999996
   Ca   Ti   F 
     8    12    42
Direct
  0.6845034785012106  0.1503200014810816  0.9806302965911051
  0.8582226324797000  0.4775321538108678  0.3282847826999760
  0.5252781100238320  0.3486193311656922  0.6584226356003224
  0.1853791539114641  0.1661453530752454 -0.0070504626431106
  1.0193878256504569  0.8491239443420371  0.6685405429437551
  0.8315480375614072  0.9662654419706169  0.3287160535211108
  0.0469668594143290  0.8136734964067017  0.1553599331255442
  0.1819479706180376  0.1922493699142967  0.4861032951500411
  0.3432646116979943  0.9825273381710646  0.3183806120163152
  1.0115824733485492  0.3277470218679056  0.6539129911794831
  0.6982363100992942  0.6752396550200646  0.9845257231272974
  0.3382396466168472 -0.0082662026065948  0.8295631751069892
  0.9638951715643191  0.2805780928127239  0.1617520592819798
  0.7188587678058445  0.6419839252666002  0.4935545573635897
  0.5393029466855870  0.8488055116788223  0.1556864742904936
  0.1502353198174761  0.6503925022012692  0.4930115231897711
  0.3575448403368296  0.4989513808753192  0.8264427595885935
  0.8404562150936270  0.5065563513823458  0.8283371141753698
  0.7094312452670951  0.2036766750038110  0.4896508677742710
  0.5369620216229515  0.2900605335788096  0.1551098513762215
  0.7258981273685920  0.2093614727390359  0.6014474899306040
  0.8250889007353259  0.5117611870868559  0.9400629565285211
  0.5057903996606126  0.2682670768926117  0.2675173500410606
  0.1879440769099592  0.7243647135610534  0.3837323515674857
  0.5879655198602037  0.8278839112645273  0.0477779302900807
  0.2706391257539112  0.4391292123332544  0.7179664763140468
  0.8520494390477723  0.9831647900258972  0.9399239424267691
  0.0246209892577806  0.8122145998603622  0.2761925218789738
  0.1859148389772836  0.1871432228879081  0.6073164030479716
  0.9698790322282397  0.8345476575102903  0.0434137351548007
  0.8980121226927752  0.0595980790920407  0.7025119391297172
  0.1759888977160116  0.0941344810310572  0.3743341209534962
  0.5416911134754155  0.3550082900057702  0.0411982566898417
  0.6437539219316217  0.1394798356566876  0.3762475096946821
  0.8698494978995548  0.4653161415654673  0.7132373011207124
  0.3996870738151491  0.5099921853932130  0.9384135477312854
  0.1373529816938209  0.6243439078308374  0.6064402485068171
  0.5054382002024256  0.8474675162826184  0.2704435560332438
  0.8438927170543891  0.4710228378916492  0.1936795734113615
  0.5270863422259234  0.3321177658372301  0.5234278342059531
  0.6418518833996258  0.2018028754887678  0.8542908484849109
  0.4317086077810247  0.7936871496232194  0.8176830419845503
  0.3864543910229831  0.5634605277237619  0.4873875456277536
  0.2144161876672620  0.6101697417721582  0.1513900174017176
  0.9850428480948663  0.2872797517618069  0.2748124462242573
  0.7106967322898866  0.6613535495487697  0.6067718638580785
  0.3393503819128142 -0.0104041461950329  0.9427384120946511
  0.3513483777319099  0.0520704818809844  0.7193439130133920
  0.7083417434252921  0.6476176979374973  0.3808660785193164
  0.9833098084177039  0.2838015854758416  0.0487369893960053
  0.2089175464372250  0.2012263562239768  0.1389392221054269
  0.8008275294839136  0.9672108245663594  0.4663440419235557
  0.0317991451677928  0.8039824845756144  0.7944945710539536
  0.2460205589088207  0.1943736718659778  0.8508850273240991
  0.0310705527355509  0.8411924017864547  0.5224139379187067
  0.8458014414919597  0.9697766824256577  0.1917651131729772
  0.0741912147746203  0.4552653496347585  0.8486353539151763
  0.5837577410749063  0.5910965968773406  0.1637855598947199
  0.4146300624673271  0.9509868808769226  0.5017372441215220
  0.3854150350226278  0.9942195724387910  0.1090915268634000
  0.6118746616036066  0.5261935971888727  0.7740442312186337
  1.0048348609644071  0.3543767641278845  0.4398608844225080
 
             NaN             NaN             NaN
             NaN             NaN             NaN
             NaN             NaN             NaN
             NaN             NaN             NaN
             NaN             NaN             NaN
             NaN             NaN             NaN
             NaN             NaN             NaN
             NaN             NaN             NaN
             NaN             NaN             NaN
             NaN             NaN             NaN
             NaN             NaN             NaN
             NaN             NaN             NaN
             NaN             NaN             NaN
             NaN             NaN             NaN
             NaN             NaN             NaN
             NaN             NaN             NaN
             NaN             NaN             NaN
             NaN             NaN             NaN
             NaN             NaN             NaN
             NaN             NaN             NaN
             NaN             NaN             NaN
             NaN             NaN             NaN
             NaN             NaN             NaN
             NaN             NaN             NaN
             NaN             NaN             NaN
             NaN             NaN             NaN
             NaN             NaN             NaN
             NaN             NaN             NaN
             NaN             NaN             NaN
             NaN             NaN             NaN
             NaN             NaN             NaN
             NaN             NaN             NaN
             NaN             NaN             NaN
             NaN             NaN             NaN
             NaN             NaN             NaN
             NaN             NaN             NaN
             NaN             NaN             NaN
             NaN             NaN             NaN
             NaN             NaN             NaN
             NaN             NaN             NaN
             NaN             NaN             NaN
             NaN             NaN             NaN
             NaN             NaN             NaN
             NaN             NaN             NaN
             NaN             NaN             NaN
             NaN             NaN             NaN
             NaN             NaN             NaN
             NaN             NaN             NaN
             NaN             NaN             NaN
             NaN             NaN             NaN
             NaN             NaN             NaN
             NaN             NaN             NaN
             NaN             NaN             NaN
             NaN             NaN             NaN
             NaN             NaN             NaN
             NaN             NaN             NaN
             NaN             NaN             NaN
             NaN             NaN             NaN
             NaN             NaN             NaN
             NaN             NaN             NaN
             NaN             NaN             NaN
             NaN             NaN             NaN
