Ca9 V12 F42
1.0
7.528361 -0.028499 0.004926
-3.794337 6.497384 -0.059623
-0.602955 0.518999 18.435066
Ca V F
9 12 42
direct
0.838504 0.482068 0.332181 Ca
0.485214 0.834954 0.665047 Ca
0.628599 0.146999 0.990318 Ca
0.981038 0.811126 0.662527 Ca
0.814344 0.978292 0.334896 Ca
0.149954 0.624905 0.005713 Ca
0.999687 0.853429 0.159283 Ca
0.857039 0.999531 0.837648 Ca
0.189757 0.185855 0.498628 Ca
0.320815 0.994228 0.329802 V
0.997579 0.317825 0.667216 V
0.656215 0.652628 0.998898 V
0.330429 0.988484 0.824869 V
0.989200 0.326327 0.171761 V
0.670412 0.666927 0.498722 V
0.491367 0.825377 0.168429 V
0.162685 0.664116 0.498758 V
0.333894 0.498309 0.831452 V
0.829846 0.490501 0.828768 V
0.667688 0.159280 0.498337 V
0.499176 0.329533 0.165856 V
0.727346 0.164118 0.608412 F
0.808376 0.509436 0.941975 F
0.485027 0.281326 0.277303 F
0.167299 0.723930 0.388698 F
0.511599 0.810277 0.054722 F
0.282568 0.483286 0.720280 F
0.767710 0.945923 0.950884 F
0.012658 0.832995 0.279685 F
0.102496 0.148578 0.613255 F
0.950679 0.764790 0.045809 F
0.836476 0.010916 0.717457 F
0.151809 0.099382 0.383994 F
0.543607 0.364490 0.051937 F
0.611256 0.135688 0.384453 F
0.871625 0.477291 0.718275 F
0.371167 0.541926 0.945329 F
0.138994 0.607451 0.612455 F
0.479064 0.864876 0.279347 F
0.815345 0.458846 0.194281 F
0.545216 0.347248 0.510660 F
0.635504 0.181027 0.857598 F
0.462647 0.814132 0.803311 F
0.350826 0.541619 0.486764 F
0.183274 0.629838 0.138174 F
0.984590 0.309936 0.287617 F
0.660881 0.706795 0.610120 F
0.313264 0.923583 0.939066 F
0.312826 0.981324 0.709054 F
0.710536 0.657705 0.387405 F
0.925250 0.309808 0.057254 F
0.183311 0.216560 0.150412 F
0.799198 0.983138 0.471763 F
0.018548 0.803686 0.802763 F
0.219151 0.182131 0.845344 F
0.986489 0.795526 0.525685 F
0.804360 0.014222 0.195061 F
0.023780 0.377250 0.851545 F
0.616307 0.640069 0.171433 F
0.389599 0.936732 0.540278 F
0.372435 0.016252 0.151971 F
0.642173 0.612213 0.819619 F
0.940292 0.385987 0.456910 F
