Mg15 Mo24 O64
1.0
11.630689 0.009760 -0.008793
-5.806860 10.099907 0.004153
-0.007582 -0.000239 10.034035
Mg Mo O
15 24 64
direct
0.333604 0.666033 0.437488 Mg
0.169298 0.339094 0.942175 Mg
0.169344 0.830893 0.944412 Mg
0.667573 0.335126 0.942587 Mg
0.664201 0.832169 0.942891 Mg
0.333502 0.164559 0.443390 Mg
0.833853 0.166479 0.441886 Mg
0.836136 0.667102 0.444487 Mg
0.164547 0.331899 0.508199 Mg
0.166781 0.833319 0.508476 Mg
0.667757 0.334947 0.508107 Mg
0.666994 0.834824 0.510149 Mg
0.332271 0.164933 0.007637 Mg
0.833171 0.167428 0.007618 Mg
0.835200 0.667155 0.006973 Mg
0.072481 0.428207 0.246277 Mo
0.073155 0.926617 0.246762 Mo
0.573617 0.426820 0.246926 Mo
0.572135 0.927931 0.246947 Mo
0.071551 0.145111 0.245556 Mo
0.073090 0.645106 0.246660 Mo
0.573457 0.146683 0.247480 Mo
0.579565 0.650213 0.248712 Mo
0.349932 0.420631 0.248216 Mo
0.355171 0.927405 0.246922 Mo
0.853734 0.427077 0.247301 Mo
0.854551 0.928166 0.246076 Mo
0.428422 0.075507 0.745765 Mo
0.424115 0.570685 0.743593 Mo
0.926784 0.072998 0.747962 Mo
0.927593 0.573287 0.745832 Mo
0.426714 0.354260 0.745737 Mo
0.423025 0.844250 0.750960 Mo
0.927194 0.354249 0.745450 Mo
0.927211 0.853931 0.748126 Mo
0.145895 0.072741 0.748109 Mo
0.146509 0.570881 0.743690 Mo
0.646356 0.075053 0.745355 Mo
0.645631 0.573118 0.745837 Mo
0.999628 0.000737 0.387819 O
0.999141 0.499500 0.389138 O
0.501141 0.001768 0.389701 O
0.496112 0.504222 0.387796 O
0.000249 0.000167 0.889711 O
0.002003 0.500088 0.886921 O
0.494445 0.991244 0.887512 O
0.498274 0.500110 0.887290 O
0.168804 0.333533 0.139756 O
0.166826 0.833340 0.140804 O
0.665433 0.334670 0.140645 O
0.665963 0.830986 0.140192 O
0.334442 0.166086 0.640660 O
0.333470 0.667108 0.635044 O
0.830867 0.165866 0.640195 O
0.833427 0.667336 0.641105 O
0.244971 0.255712 0.363258 O
0.243573 0.757317 0.364646 O
0.743598 0.257104 0.365060 O
0.744300 0.755130 0.363806 O
0.242131 0.484533 0.364338 O
0.241939 0.987378 0.364281 O
0.742005 0.488384 0.364179 O
0.746273 0.986979 0.363836 O
0.012822 0.253500 0.362616 O
0.012823 0.758571 0.363649 O
0.512552 0.258890 0.364135 O
0.515452 0.758251 0.364954 O
0.256678 0.244310 0.863579 O
0.253192 0.748438 0.842164 O
0.754104 0.242127 0.863275 O
0.756057 0.743695 0.863857 O
0.256959 0.012116 0.863758 O
0.253893 0.506862 0.845166 O
0.755381 0.012748 0.863750 O
0.756739 0.513421 0.864354 O
0.487631 0.241963 0.863676 O
0.496106 0.748617 0.843617 O
0.987546 0.244200 0.863612 O
0.988750 0.743880 0.863808 O
0.078776 0.413499 0.624563 O
0.083780 0.916405 0.631052 O
0.584785 0.415987 0.630510 O
0.586187 0.921730 0.630343 O
0.083205 0.166946 0.630672 O
0.079762 0.665045 0.626114 O
0.585103 0.171113 0.630393 O
0.584909 0.665330 0.626268 O
0.334322 0.413617 0.624176 O
0.335758 0.922381 0.631228 O
0.830608 0.416213 0.630669 O
0.832582 0.916415 0.631069 O
0.416816 0.085084 0.130615 O
0.417625 0.582276 0.146519 O
0.915971 0.083086 0.127780 O
0.915033 0.583318 0.130603 O
0.416536 0.331288 0.130120 O
0.418825 0.837492 0.131659 O
0.914724 0.332476 0.129745 O
0.915881 0.831792 0.130074 O
0.168034 0.083599 0.130073 O
0.162897 0.581436 0.131310 O
0.667750 0.085149 0.130057 O
0.668970 0.583880 0.130549 O
