Ca1 Mn12 F42                            
   1.00000000000000     
     7.3149449999999998   -0.0203640000000000   -0.0489630000000000
    -3.6735410000000002    6.4096019999999996   -0.0435280000000000
     0.1082660000000000   -0.1919910000000000   17.4464359999999985
   Ca   Mn   F 
     1    12    42
Direct
  0.6040772942063973  0.8119987722256388  0.7183775487691443
  0.3007559538056648  0.0085305224429787  0.3308120492797610
  0.6924852998409915  0.6785593366794538  0.0054308471069229
  0.0208789353879700  0.3388531470920790  0.6623572600522923
  0.3412053196582376  0.9765830229902226  0.8379362073608584
  0.6575393081564684  0.6762151647475554  0.4963368370200673
  0.9992849823338378  0.3418625391004046  0.1682987173829465
  0.6556445018580513  0.1763099601755276  0.4956398050014572
  0.5014291657884266  0.3450097765056296  0.1695215191116334
  0.8446568772686741  0.4770055303934073  0.8392487889900675
  0.3351814961193981  0.4661499731949713  0.8450224941901044
  0.1565075243570380  0.6778450388416658  0.4979741199561121
  0.4965175991061271  0.8429293979804736  0.1682430769712562
  0.5415162285072472  0.7837664987769987  0.0645670233591410
  0.2726177540287973  0.4917217543260727  0.7372098230668629
  0.1989306114233542  0.7716105012330357  0.3908061431239558
  0.4356849369514429  0.2572191514822224  0.2719135150343526
  0.8108118060530227  0.5507185965759916  0.9430183310645450
  0.7619572004714301  0.2067460836211819  0.5972528176792381
  0.9163570705682138  0.0958795052415587  0.7190733192789541
  0.1944012737662064  0.1192095491448385  0.3919304826591597
  0.9135319622634211  0.8061303236033536  0.0643968275129691
  0.1627514587262404  0.2618108317641502  0.6024681879722227
  0.0882047751748777  0.8912983193785996  0.2674312027267037
  0.7711358624847714  0.8783948563804842  0.9395389412495032
  0.1225390728592772  0.5921010215827800  0.6086354330292442
  0.4505708626981067  0.8964807130029285  0.2714212848445558
  0.4268579590655179  0.4957799882955682  0.9477423890824888
  0.8668094712931811  0.4220559428173700  0.7294244093760488
  0.5612878829300504  0.1401108238982736  0.3920916905634313
  0.5748274979350690  0.4324296117839905  0.0679412376453325
  0.3653162839750374  0.5975421104674824  0.4846722375072831
  0.2071908453738796  0.6339770780671562  0.1554308342408748
  0.4345612460557989  0.7800590412444837  0.8472542381563823
  0.6256819140142967  0.1926758275143524  0.8539790028001641
  0.5836084221756308  0.3906555582230083  0.5168008679391927
  0.7844837068576945  0.4167329453638097  0.1899835248363330
  0.6794283354341538  0.6372916591282477  0.3988726184827298
  0.9392171584946638  0.3191214373057749  0.0689917070612443
  0.4101044833241802 -0.0297303141245188  0.7347652088907096
  0.2883972821502295  0.9728623078731565  0.9357054594787888
  0.6344806513847040  0.7180343393646951  0.6017424366941501
  0.0599909137234329  0.3651867843613328  0.2672826793987978
  0.9498458548793652  0.7610270929771566  0.5145097196772117
  0.7874713962802726  0.0509595983631310  0.1800273624391933
  0.2604670359711067  0.1742147990526933  0.8199833305077104
  0.0604914377183552  0.7614033855760334  0.8172375202560039
  0.7304865232837701  0.9625576991670562  0.4797063279937495
  0.2174029314389306  0.2706109584028060  0.1478908186220393
  0.6179618945211175  0.5641185112294563  0.8048172792435110
  0.9315694549958786  0.3981334033252784  0.4688581136533035
  0.4392701666970441  0.0484503152321863  0.1372247887338217
  0.3832636457761577  0.9610631274164774  0.5280763324991036
  0.5566235842729913  0.6385521638071388  0.1992746831706768
  0.0619234047102173  0.4013594019124273  0.8700854517940927
 
             NaN             NaN             NaN
             NaN             NaN             NaN
             NaN             NaN             NaN
             NaN             NaN             NaN
             NaN             NaN             NaN
             NaN             NaN             NaN
             NaN             NaN             NaN
             NaN             NaN             NaN
             NaN             NaN             NaN
             NaN             NaN             NaN
             NaN             NaN             NaN
             NaN             NaN             NaN
             NaN             NaN             NaN
             NaN             NaN             NaN
             NaN             NaN             NaN
             NaN             NaN             NaN
             NaN             NaN             NaN
             NaN             NaN             NaN
             NaN             NaN             NaN
             NaN             NaN             NaN
             NaN             NaN             NaN
             NaN             NaN             NaN
             NaN             NaN             NaN
             NaN             NaN             NaN
             NaN             NaN             NaN
             NaN             NaN             NaN
             NaN             NaN             NaN
             NaN             NaN             NaN
             NaN             NaN             NaN
             NaN             NaN             NaN
             NaN             NaN             NaN
             NaN             NaN             NaN
             NaN             NaN             NaN
             NaN             NaN             NaN
             NaN             NaN             NaN
             NaN             NaN             NaN
             NaN             NaN             NaN
             NaN             NaN             NaN
             NaN             NaN             NaN
             NaN             NaN             NaN
             NaN             NaN             NaN
             NaN             NaN             NaN
             NaN             NaN             NaN
             NaN             NaN             NaN
             NaN             NaN             NaN
             NaN             NaN             NaN
             NaN             NaN             NaN
             NaN             NaN             NaN
             NaN             NaN             NaN
             NaN             NaN             NaN
             NaN             NaN             NaN
             NaN             NaN             NaN
             NaN             NaN             NaN
             NaN             NaN             NaN
             NaN             NaN             NaN
