Ca1 Mn12 F42
1.0
7.314945 -0.020364 -0.048963
-3.673541 6.409602 -0.043528
0.108266 -0.191991 17.446436
Ca Mn F
1 12 42
direct
0.632833 -0.093039 0.731475 Ca
0.290216 1.002231 0.330652 Mn
0.701006 0.691698 0.007085 Mn
0.009546 0.310505 0.663452 Mn
0.354822 -0.003125 0.836914 Mn
0.652688 0.655673 0.494675 Mn
0.993467 0.344641 0.168051 Mn
0.649055 0.156758 0.493591 Mn
0.494421 0.345989 0.168217 Mn
0.856118 0.496570 0.836779 Mn
0.357499 0.496955 0.838021 Mn
0.151816 0.654543 0.496239 Mn
0.491982 0.845204 0.168392 Mn
0.554450 0.803887 0.066591 F
0.259095 0.442725 0.733629 F
0.187575 0.766893 0.392946 F
0.431422 0.250691 0.270564 F
0.812528 0.562030 0.941188 F
0.745935 0.192089 0.597658 F
0.862730 0.068227 0.717324 F
0.192735 0.120176 0.392444 F
0.914568 0.795406 0.070203 F
0.123283 0.204236 0.602809 F
0.075147 0.888318 0.268360 F
0.807054 0.912267 0.946609 F
0.139829 0.568055 0.608553 F
0.431185 0.882241 0.270915 F
0.446860 0.557110 0.942720 F
0.890565 0.437261 0.728345 F
0.553140 0.121604 0.391209 F
0.558009 0.436601 0.064965 F
0.360065 0.577793 0.476410 F
0.210382 0.643475 0.149571 F
0.450378 0.793954 0.815814 F
0.651218 0.203356 0.850774 F
0.571393 0.364608 0.513025 F
0.775243 0.426825 0.187582 F
0.687693 0.623058 0.397104 F
0.928192 0.309458 0.069072 F
0.381905 0.040455 0.733546 F
0.330906 0.943628 0.935041 F
0.616992 0.691421 0.596491 F
0.059375 0.380266 0.266784 F
0.942415 0.730444 0.517882 F
0.774588 0.046584 0.186487 F
0.266841 0.201574 0.849977 F
0.061161 0.790218 0.819843 F
0.725553 0.945516 0.478642 F
0.212996 0.263988 0.148432 F
0.638293 0.562748 0.805841 F
0.929717 0.377796 0.467217 F
0.440944 0.068018 0.138173 F
0.377765 0.930112 0.534815 F
0.545005 0.621747 0.197890 F
0.075155 0.435846 0.866044 F
