Zn8 Cr16 O32
1.0
        8.3441352844         0.0000000000         0.0000000000
        0.0000000000         8.3441352844         0.0000000000
        0.0000000000         0.0000000000         8.3441352844
   Zn   Cr    O
    7   16   32
Direct
     0.500000000         0.500000000         1.000000000
     0.000000000         0.500000000         0.500000000
     0.000000000         0.000000000         0.000000000
     0.250000000         0.250000000         0.250000000
     0.750000000         0.750000000         0.250000000
     0.500000000         0.000000000         0.500000000
     0.750000000         0.250000000         0.750000000
     0.375000000         0.875000000         0.125000000
     0.375000000         0.125000000         0.875000000
     0.625000000         0.375000000         0.375000000
     0.625000000         0.125000000         0.125000000
     0.375000000         0.375000000         0.625000000
     0.375000000         0.625000000         0.375000000
     0.625000000         0.875000000         0.875000000
     0.625000000         0.625000000         0.625000000
     0.875000000         0.875000000         0.625000000
     0.875000000         0.125000000         0.375000000
     0.125000000         0.375000000         0.875000000
     0.125000000         0.125000000         0.625000000
     0.875000000         0.375000000         0.125000000
     0.875000000         0.625000000         0.875000000
     0.125000000         0.875000000         0.375000000
     0.125000000         0.625000000         0.125000000
     0.863423645         0.363423645         0.363423645
     0.386576355         0.113423660         0.113423660
     0.613423645         0.113423660         0.886576355
     0.613423645         0.886576355         0.113423660
     0.636576355         0.136576340         0.363423645
     0.636576355         0.363423645         0.136576340
     0.386576355         0.886576355         0.886576355
     0.863423645         0.136576340         0.136576340
     0.863423645         0.863423645         0.863423645
     0.386576355         0.613423645         0.613423645
     0.613423645         0.613423645         0.386576355
     0.613423645         0.386576355         0.613423645
     0.636576355         0.636576355         0.863423645
     0.636576355         0.863423645         0.636576355
     0.386576355         0.386576355         0.386576355
     0.863423645         0.636576355         0.636576355
     0.363423645         0.363423645         0.863423645
     0.886576355         0.113423660         0.613423645
     0.113423660         0.113423660         0.386576355
     0.113423660         0.886576355         0.613423645
     0.136576340         0.136576340         0.863423645
     0.136576340         0.363423645         0.636576355
     0.886576355         0.886576355         0.386576355
     0.363423645         0.136576340         0.636576355
     0.363423645         0.863423645         0.363423645
     0.886576355         0.613423645         0.113423660
     0.113423660         0.613423645         0.886576355
     0.113423660         0.386576355         0.113423660
     0.136576340         0.636576355         0.363423645
     0.136576340         0.863423645         0.136576340
     0.886576355         0.386576355         0.886576355
     0.363423645         0.636576355         0.136576340
