Mg11 V24 O60
1.0
11.510713 0.000000 0.000075
0.000000 10.194686 0.000862
0.000058 0.000815 9.690895
Mg V O
11 24 60
direct
   0.2499950000000000    0.5182460000000000    0.1766170000000000 Mg
0.249992 0.919133 0.176407 Mg
0.249963 0.246336 0.660173 Mg
0.249969 0.583031 0.654570 Mg
0.250036 0.919731 0.660267 Mg
0.749993 0.083468 0.340886 Mg
0.750001 0.412582 0.339299 Mg
0.750008 0.754403 0.339409 Mg
0.749995 0.083675 0.840959 Mg
0.750034 0.413214 0.836460 Mg
0.749960 0.754145 0.836641 Mg
0.098075 0.083261 0.448529 V
0.099387 0.408493 0.444074 V
0.099381 0.758063 0.444140 V
0.099855 0.083455 0.946956 V
0.102925 0.417100 0.950736 V
0.102926 0.749828 0.950808 V
0.900137 0.249818 0.054949 V
0.900337 0.583352 0.049593 V
0.900136 0.916941 0.054994 V
0.900571 0.249517 0.557332 V
0.902655 0.583209 0.547367 V
0.900572 0.916977 0.557374 V
0.401925 0.083272 0.448529 V
0.400618 0.408498 0.444085 V
0.400617 0.758064 0.444132 V
0.400147 0.083440 0.946954 V
0.397081 0.417105 0.950733 V
0.397074 0.749838 0.950811 V
0.599859 0.249821 0.054947 V
0.599661 0.583354 0.049595 V
0.599865 0.916950 0.055005 V
0.599428 0.249518 0.557339 V
0.597345 0.583228 0.547369 V
0.599428 0.916979 0.557372 V
0.134097 0.083305 0.281904 O
0.130190 0.374882 0.281883 O
0.130173 0.791801 0.281964 O
0.136689 0.083609 0.780594 O
0.133555 0.423055 0.782874 O
0.133553 0.744302 0.782941 O
0.864585 0.249432 0.221886 O
0.866808 0.583056 0.216619 O
0.864579 0.916881 0.221932 O
0.863809 0.251237 0.723975 O
0.868203 0.582839 0.714125 O
0.863814 0.914792 0.724007 O
0.365904 0.083341 0.281904 O
0.369829 0.374903 0.281891 O
0.369820 0.791813 0.281965 O
0.363313 0.083537 0.780594 O
0.366458 0.423061 0.782876 O
0.366455 0.744341 0.782939 O
0.635408 0.249444 0.221884 O
0.633186 0.583066 0.216620 O
0.635423 0.916913 0.221940 O
0.636190 0.251233 0.723978 O
0.631796 0.582920 0.714127 O
0.636181 0.914793 0.724005 O
0.924583 0.083283 0.468419 O
0.925265 0.413296 0.464859 O
0.925252 0.753257 0.464947 O
0.924618 0.083409 0.966845 O
0.925568 0.415437 0.966229 O
0.925549 0.751380 0.966312 O
0.071358 0.250050 0.029369 O
0.071974 0.583417 0.023973 O
0.071361 0.916802 0.029430 O
0.074595 0.247315 0.543527 O
0.075619 0.583252 0.516017 O
0.074578 0.919209 0.543583 O
0.575418 0.083284 0.468418 O
0.574738 0.413302 0.464881 O
0.574749 0.753265 0.464931 O
0.575383 0.083409 0.966842 O
0.574427 0.415439 0.966238 O
0.574460 0.751388 0.966310 O
0.428636 0.250043 0.029366 O
0.428027 0.583427 0.023968 O
0.428640 0.916802 0.029448 O
0.425407 0.247316 0.543533 O
0.424386 0.583258 0.516012 O
0.425419 0.919211 0.543578 O
0.249999 0.083390 0.040755 O
0.250003 0.400716 0.021141 O
0.249999 0.766025 0.021235 O
0.250000 0.083106 0.534926 O
0.249999 0.413530 0.536143 O
0.250000 0.752753 0.536188 O
0.750000 0.248842 0.466767 O
0.750001 0.583392 0.459115 O
0.750001 0.917979 0.466815 O
0.750000 0.249859 0.965424 O
0.749999 0.583540 0.957702 O
0.749999 0.917320 0.965464 O
