Ca8 Ni12 F42
1.0
7.267734 0.029739 -0.049353
-3.632214 6.336057 0.014074
-0.116728 -0.030725 18.336859
Ca Ni F
8 12 42
direct
0.005847 0.834767 0.675981 Ca
0.146532 0.641609 0.980639 Ca
0.352978 0.513865 0.313763 Ca
0.845400 0.015428 0.347998 Ca
0.166178 0.159845 0.008099 Ca
0.990449 0.796159 0.174846 Ca
0.776127 0.978210 0.836153 Ca
0.225219 0.201305 0.507300 Ca
0.348126 0.008653 0.334848 Ni
0.992073 0.334163 0.665783 Ni
0.657053 0.657172 0.001495 Ni
0.308443 0.004150 0.832481 Ni
0.993251 0.310735 0.161714 Ni
0.698429 0.688324 0.494960 Ni
0.497953 0.819314 0.162538 Ni
0.190020 0.681684 0.497518 Ni
0.302301 0.488879 0.829392 Ni
0.805001 0.495650 0.829260 Ni
0.698414 0.188628 0.498501 Ni
0.494980 0.310048 0.162232 Ni
0.752214 0.205913 0.601251 F
0.804276 0.554422 0.937525 F
0.441226 0.257543 0.269388 F
0.262658 0.735068 0.387678 F
0.472304 0.742437 0.057083 F
0.238354 0.478774 0.727730 F
0.821199 0.946476 0.955689 F
0.052530 0.883490 0.290119 F
0.122271 0.176953 0.617900 F
0.970172 0.789154 0.053429 F
0.875162 0.065014 0.724360 F
0.215002 0.190572 0.385088 F
0.517711 0.379447 0.054967 F
0.625544 0.143413 0.388155 F
0.863095 0.480777 0.723757 F
0.368066 0.499544 0.944387 F
0.104528 0.615830 0.603533 F
0.514523 0.883752 0.274686 F
0.800361 0.426117 0.171074 F
0.591428 0.384001 0.497384 F
0.618502 0.194081 0.843135 F
0.405884 0.793097 0.846539 F
0.389375 0.575921 0.506671 F
0.196504 0.618478 0.184347 F
0.017267 0.287208 0.271100 F
0.744930 0.725964 0.596882 F
0.278479 0.974981 0.943893 F
0.324034 0.012424 0.729407 F
0.646885 0.673486 0.382799 F
0.019337 0.354980 0.051677 F
0.187899 0.197873 0.142329 F
0.809963 0.995675 0.477277 F
-0.003401 0.804651 0.815567 F
0.182996 0.188328 0.847515 F
1.002511 0.797563 0.479269 F
0.804211 -0.001663 0.156215 F
0.023999 0.427617 0.870146 F
0.581242 0.608586 0.199421 F
0.388330 0.987302 0.519864 F
0.383381 0.005535 0.137812 F
0.603547 0.598630 0.807111 F
0.997947 0.383114 0.469305 F
