Ca9 V12 F42                             
   1.00000000000000     
     7.5313450000000000   -0.0004520000000000    0.0169340000000000
    -3.7718210000000001    6.4745010000000001   -0.0750010000000000
    -0.5715500000000000    0.4889030000000000   18.4553280000000015
   Ca   V    F 
     9    12    42
Direct
  0.0295318571340048  0.5492271031444222  0.3379787912378730
  0.5008786088596027  0.8514456899450474  0.6666118904908193
  0.6152055015471075  0.1314270082896018  0.9880338921369852
  0.9855837857360994  0.8154163990140867  0.6657806936350240
  0.8100767926034379  0.9727927600489251  0.3357226932817367
  0.1385563052907829  0.6135999696051435  0.0037853335005348
  0.9714431396179214  0.8140836812505579  0.1620041616807338
  0.8603467275513177  0.0011701212594867  0.8389664903738829
  0.2106667381126777  0.1846650067942921  0.5015121616127204
  0.3442373716113046  1.0376465523819698  0.3305976536140839
  1.0104863502029564  0.3240115300103212  0.6691280354047061
  0.6478351682351764  0.6415644781157253  0.9987638703744028
  0.3305317341181943  0.9878636773134567  0.8244582450525832
  0.9639892874026079  0.2926365288350975  0.1636363374131022
  0.6848819728882760  0.6798367903586130  0.4990707105366323
  0.4679313665744614  0.7991238219895714  0.1693854886398630
  0.1857420927430928  0.6800969888047982  0.5098256724061144
  0.3359127893755256  0.4985616470806785  0.8319227003980388
  0.8294515492235781  0.4892307917956757  0.8288131962435166
  0.6889347623538946  0.1781998759682882  0.4955340135528958
  0.4736955994035395  0.3042844005938102  0.1593085440009283
  0.7503376725500701  0.1816396258214473  0.6057456904447965
  0.8025599931337053  0.5062673545495400  0.9409006860438690
  0.4404541656522989  0.2852993268680422  0.2667619125826348
  0.2383170694501253  0.8047925727136328  0.4084412280893384
  0.4993031664849947  0.8066294623720472  0.0548971899471167
  0.2921063489049199  0.4806316367349400  0.7217745000978180
  0.7586351082798940  0.9326341049785474  0.9501221197851175
  0.0390104651079093  0.8320081002424805  0.2832069488056582
  0.1166692047526267  0.1557474840555832  0.6150101744011393
  0.9404038447949249  0.7511073031431452  0.0466518228378208
  0.8426130810067266  0.0171145524497432  0.7184099747576609
  0.1598959999910060  0.1352361317163109  0.3829435071756468
  0.5257745640247967  0.3430540084106878  0.0462188128242364
  0.6395813262023092  0.1516102198545681  0.3795238131690860
  0.8732935212493141  0.4755596470947399  0.7189688584919378
  0.3662459816010971  0.5367692530504430  0.9453546093781668
  0.1539145898985367  0.6193819366504552  0.6197843252544929
  0.4270416543057071  0.8224617265765224  0.2829530204079487
  0.7923731089895732  0.4294899757271292  0.1840356089492866
  0.5633369296537829  0.3616952079264150  0.5097233713584528
  0.6357381256442578  0.1779928258948830  0.8571294626878109
  0.4638753301289783  0.8143504185821706  0.8016423745313397
  0.3628453567173897  0.5502263983374153  0.4879479888758390
  0.1659067088401750  0.5996291480418779  0.1352044942913249
  0.0042663040005682  0.2977306338130344  0.2768999730145879
  0.6689584256130044  0.7141994212744921  0.6114351052038591
  0.3022271304642572  0.9114483397406309  0.9365497395804127
  0.3205826767981007  0.9918493330999196  0.7095312058530957
  0.7254097498001892  0.6731654955046084  0.3894691429948646
  0.9140430626493824  0.2919637375399119  0.0501559708189415
  0.1522462906822368  0.1772012311482459  0.1434199992519680
  0.8208741359473366  1.0004564234094901  0.4744569970267868
  0.0192682041781215  0.8039378939250674  0.8015766686857149
  0.2197902303365855  0.1817080764618028  0.8469820103538993
  1.0004226677395973  0.8046595598826027  0.5310360749409646
  0.7774138534933567 -0.0161018101662373  0.2013319610706736
  0.0252561118847456  0.3781451155757519  0.8522921670126189
  0.5965063587627877  0.6179729871677830  0.1609070980114073
  0.4112074622068129  0.9590481169889337  0.5451080863856077
  0.3456824815677049 -0.0138305295187208  0.1569811054239941
  0.6437676046111006  0.6132894056357084  0.8195585188162414
  0.9672923738284845  0.4157910466928960  0.4548329178235238
 
             NaN             NaN             NaN
             NaN             NaN             NaN
             NaN             NaN             NaN
             NaN             NaN             NaN
             NaN             NaN             NaN
             NaN             NaN             NaN
             NaN             NaN             NaN
             NaN             NaN             NaN
             NaN             NaN             NaN
             NaN             NaN             NaN
             NaN             NaN             NaN
             NaN             NaN             NaN
             NaN             NaN             NaN
             NaN             NaN             NaN
             NaN             NaN             NaN
             NaN             NaN             NaN
             NaN             NaN             NaN
             NaN             NaN             NaN
             NaN             NaN             NaN
             NaN             NaN             NaN
             NaN             NaN             NaN
             NaN             NaN             NaN
             NaN             NaN             NaN
             NaN             NaN             NaN
             NaN             NaN             NaN
             NaN             NaN             NaN
             NaN             NaN             NaN
             NaN             NaN             NaN
             NaN             NaN             NaN
             NaN             NaN             NaN
             NaN             NaN             NaN
             NaN             NaN             NaN
             NaN             NaN             NaN
             NaN             NaN             NaN
             NaN             NaN             NaN
             NaN             NaN             NaN
             NaN             NaN             NaN
             NaN             NaN             NaN
             NaN             NaN             NaN
             NaN             NaN             NaN
             NaN             NaN             NaN
             NaN             NaN             NaN
             NaN             NaN             NaN
             NaN             NaN             NaN
             NaN             NaN             NaN
             NaN             NaN             NaN
             NaN             NaN             NaN
             NaN             NaN             NaN
             NaN             NaN             NaN
             NaN             NaN             NaN
             NaN             NaN             NaN
             NaN             NaN             NaN
             NaN             NaN             NaN
             NaN             NaN             NaN
             NaN             NaN             NaN
             NaN             NaN             NaN
             NaN             NaN             NaN
             NaN             NaN             NaN
             NaN             NaN             NaN
             NaN             NaN             NaN
             NaN             NaN             NaN
             NaN             NaN             NaN
             NaN             NaN             NaN
