Ca9 V12 F42
1.0
7.531345 -0.000452 0.016934
-3.771821 6.474501 -0.075001
-0.571550 0.488903 18.455328
Ca V F
9 12 42
direct
1.025462 0.492453 0.335643 Ca
0.486200 0.830946 0.666435 Ca
0.626417 0.146113 0.989826 Ca
0.979885 0.806929 0.663114 Ca
0.822255 0.993052 0.334694 Ca
0.147080 0.624494 0.005425 Ca
0.992836 0.841386 0.162387 Ca
0.857275 1.000315 0.837881 Ca
0.196596 0.178745 0.502155 Ca
0.323556 0.999708 0.330641 V
0.995921 0.315185 0.667123 V
0.655062 0.652278 0.999483 V
0.329496 0.987526 0.824721 V
0.985859 0.323400 0.169796 V
0.674148 0.668746 0.497380 V
0.488414 0.824411 0.167910 V
0.166742 0.663647 0.498883 V
0.333337 0.497614 0.831702 V
0.828718 0.489646 0.828828 V
0.672683 0.160347 0.497469 V
0.492555 0.326678 0.165458 V
0.726062 0.159044 0.608108 F
0.806326 0.510164 0.941749 F
0.464282 0.285781 0.276841 F
0.186370 0.727070 0.389419 F
0.510527 0.813128 0.054546 F
0.279528 0.480190 0.720674 F
0.765871 0.943855 0.950470 F
0.022197 0.854936 0.281535 F
0.103557 0.145074 0.615128 F
0.947547 0.763496 0.047178 F
0.835019 0.008886 0.717834 F
0.166086 0.122531 0.385626 F
0.540564 0.361817 0.051761 F
0.612460 0.130665 0.384191 F
0.869824 0.474903 0.718193 F
0.371662 0.542696 0.945269 F
0.142521 0.607771 0.612589 F
0.469446 0.851907 0.279395 F
0.808122 0.452813 0.190328 F
0.552070 0.351105 0.510294 F
0.634720 0.179811 0.857138 F
0.462200 0.813032 0.802965 F
0.355625 0.540660 0.483002 F
0.181856 0.627615 0.136881 F
1.006179 0.319813 0.284600 F
0.661709 0.703477 0.609608 F
0.311510 0.923005 0.938468 F
0.312042 0.978546 0.708881 F
0.694296 0.667358 0.384796 F
0.922798 0.308255 0.055476 F
0.176939 0.209838 0.148890 F
0.805922 0.983595 0.472370 F
0.017962 0.802805 0.802866 F
0.217665 0.181367 0.845465 F
0.986664 0.791201 0.526073 F
0.797927 0.014201 0.196961 F
0.024152 0.378584 0.852824 F
0.613247 0.639057 0.170249 F
0.385847 0.946203 0.535834 F
0.366490 0.012413 0.155414 F
0.640222 0.610039 0.817845 F
0.953734 0.379062 0.462217 F
