Ca3 V8 F24                              
   1.00000000000000     
     7.8894799999999998    0.0001620000000000    0.0000190000000000
     0.0001500000000000    8.1141430000000003    0.0001150000000000
     0.0000160000000000    0.0001290000000000    7.9425929999999996
   Ca   V    F 
     3     8    24
Direct
  0.5000144544958374  0.9239370495222239  0.5000218577261509
  0.0000194611151879  0.4922707947301114  0.5000059471173155
  0.5000383484491091  0.0007039925646902  0.9999969262024228
  0.2465770128071293  0.2469604278676453  0.2492150675378463
  0.2466032007747221  0.2469467651053209  0.7507528962624236
  0.2422712858488233  0.7396230112570540  0.2437028331416754
  0.2423119533297823  0.7395730235828827  0.7562757615349428
  0.7534136894398362  0.2469557179916560  0.2492377654993676
  0.7533873593253220  0.2469447501591177  0.7507347343730859
  0.7576525619411267  0.7395891683583562  0.2437087071086399
  0.7575959708668173  0.7395768214787366  0.7562836528270556
  1.0000255934536677  0.1999667401341241  0.2178236881820911
  1.0000250647082582  0.1999161540790913  0.7821653311066710
  1.0000037714612908  0.7967281391556487  0.2144139582864244
  0.0000137385665894  0.7966969927475680  0.7856228710981913
  0.5000079621039630  0.2774680428867186  0.2852702243192164
  0.4999796176653688  0.2774021186306801  0.7146855932232864
  0.5001358642396194  0.7135631629215270  0.2988287296016560
  0.5000841466583101  0.7135859248863392  0.7011959426361197
  0.3021348795375995  0.2082317209581453  1.0000003431544069
  0.1960390627151888  0.2713728073873074  0.4999934237156864
  0.3073329757160810  0.7807357104131721  0.0000178438961801
  0.2019927928710566  0.7230977857245866  0.5000378697432594
  0.6978368298724088  0.2082111696476513  1.0000127370323377
  0.8039427775762249  0.2713211964244541  0.4999725764449746
  0.6927353654305075  0.7807436220177001  0.0000120586310678
  0.7979871076540064  0.7231558636979494  0.5000168888007188
  0.3192995628753059  0.9926147921383048  0.2707075318413526
  0.3192674687596759  0.9926791126593366  0.7292905421658865
  0.1843623080810526  0.4937764313825012  0.2536804559880880
  0.1843598473773007  0.4937488595923560  0.7463167660769366
  0.6807285666844703  0.9926665772581649  0.2706694321628284
  0.6807298849450248  0.9926555280259889  0.7293121070495615
  0.8156365319540956  0.4937600085922423  0.2537001678836120
  0.8156306299984191  0.4937704031383545  0.7463056867860365
 
             NaN             NaN             NaN
             NaN             NaN             NaN
             NaN             NaN             NaN
             NaN             NaN             NaN
             NaN             NaN             NaN
             NaN             NaN             NaN
             NaN             NaN             NaN
             NaN             NaN             NaN
             NaN             NaN             NaN
             NaN             NaN             NaN
             NaN             NaN             NaN
             NaN             NaN             NaN
             NaN             NaN             NaN
             NaN             NaN             NaN
             NaN             NaN             NaN
             NaN             NaN             NaN
             NaN             NaN             NaN
             NaN             NaN             NaN
             NaN             NaN             NaN
             NaN             NaN             NaN
             NaN             NaN             NaN
             NaN             NaN             NaN
             NaN             NaN             NaN
             NaN             NaN             NaN
             NaN             NaN             NaN
             NaN             NaN             NaN
             NaN             NaN             NaN
             NaN             NaN             NaN
             NaN             NaN             NaN
             NaN             NaN             NaN
             NaN             NaN             NaN
             NaN             NaN             NaN
             NaN             NaN             NaN
             NaN             NaN             NaN
             NaN             NaN             NaN
