Ca3 V8 F24                              
   1.00000000000000     
     7.8894799999999998    0.0001620000000000    0.0000190000000000
     0.0001500000000000    8.1141430000000003    0.0001150000000000
     0.0000160000000000    0.0001290000000000    7.9425929999999996
   Ca   V    F 
     3     8    24
Direct
  0.4999754973983243  0.8798502867775925  0.5001307035965831
  0.0000795350418497  0.4903807730972464  0.4999796323301732
  0.4999459297272722  1.0023461194135541  0.9999030661884730
  0.2479834181557169  0.2468811548939068  0.2497324183887790
  0.2481744393542501  0.2468525439489809  0.7504730847778610
  0.2404646734980072  0.7411420471806839  0.2412767691753942
  0.2405305267626578  0.7410447299406636  0.7589632485938878
  0.7519138357267552  0.2467922950668613  0.2495192394946516
  0.7517730396067391  0.2467597005282015  0.7505049420318936
  0.7594308358410385  0.7410975153185543  0.2413211002190390
  0.7594845534008752  0.7410937587876752  0.7591358206779130
  0.9999698465845899  0.2006852566302776  0.2225851799811528
  0.9998912287835975  0.2006460837459661  0.7773270151281928
  0.9997899820250089  0.8062218035902232  0.2373823453432619
  1.0001210122837527  0.8060970820377322  0.7626971809693516
  0.5000539278837637  0.2869349934973755  0.2784246976003980
  0.5001539005069319  0.2868718123903695  0.7215990642073655
  0.5004230626390863  0.7023262490511274  0.2710701964443605
  0.4999601760826694  0.7024359413883133  0.7289581524357125
  0.2996356476213491  0.2069897596692248 -0.0000483429662675
  0.1991633460854234  0.2763801431732918  0.4998382896823849
  0.2912525995319394  0.7930931931733842  1.0003748513819479
  0.2234769421149511  0.7179100042581980  0.4993269682936419
  0.7004249357992429  0.2070829086730006 -0.0001895487252539
  0.8008407680014057  0.2763735070559852  0.5001195353830930
  0.7087346565117117  0.7930944357791607  1.0004918668292444
  0.7765255167719257  0.7179870928310641  0.4990530003416299
  0.3228056428149437  0.9917982092220451  0.2727976814396093
  0.3227811986053852  0.9917606719856510  0.7271146492629421
  0.1821141784753653  0.4945124995857006  0.2518635564440453
  0.1821471094826546  0.4945804017999179  0.7482011230912583
  0.6772081925767991 -0.0082860510772764  0.2728077505625313
  0.6772262702969792  0.9918464088538272  0.7271407924392667
  0.8178646870118728  0.4947495173900642  0.2519392056124778
  0.8178565426853072  0.4946258023559105  0.7481736822230454
 
             NaN             NaN             NaN
             NaN             NaN             NaN
             NaN             NaN             NaN
             NaN             NaN             NaN
             NaN             NaN             NaN
             NaN             NaN             NaN
             NaN             NaN             NaN
             NaN             NaN             NaN
             NaN             NaN             NaN
             NaN             NaN             NaN
             NaN             NaN             NaN
             NaN             NaN             NaN
             NaN             NaN             NaN
             NaN             NaN             NaN
             NaN             NaN             NaN
             NaN             NaN             NaN
             NaN             NaN             NaN
             NaN             NaN             NaN
             NaN             NaN             NaN
             NaN             NaN             NaN
             NaN             NaN             NaN
             NaN             NaN             NaN
             NaN             NaN             NaN
             NaN             NaN             NaN
             NaN             NaN             NaN
             NaN             NaN             NaN
             NaN             NaN             NaN
             NaN             NaN             NaN
             NaN             NaN             NaN
             NaN             NaN             NaN
             NaN             NaN             NaN
             NaN             NaN             NaN
             NaN             NaN             NaN
             NaN             NaN             NaN
             NaN             NaN             NaN
