Ca3 V8 F24                              
   1.00000000000000     
     7.9087280000000000    0.0001830000000000    0.0000240000000000
     0.0001740000000000    8.1149839999999998    0.0000900000000000
     0.0000190000000000    0.0000990000000000    7.9229079999999996
   Ca   V    F 
     3     8    24
Direct
  0.5000012399095269  0.9315135795458774  0.5000287871644808
 -0.0000090770491829  0.4703575840339238  0.5000288948167138
  0.4999941809429712  0.0242210861943866 -0.0000786111374419
  0.2470089465795034  0.2468113397290419  0.2483444259896218
  0.2470121719253996  0.2468075372993258  0.7516393795042702
  0.2421096879249258  0.7399987467664324  0.2439330642426226
  0.2422002265766344  0.7400051130096047  0.7560667341340244
  0.7529771172847530  0.2468312071777340  0.2483550229292227
  0.7530070733717344  0.2468252449574223  0.7516304606466621
  0.7579156682030769  0.7400127286528967  0.2439174894686751
  0.7578480327343931  0.7399964496290500  0.7560706346491740
  0.0000073007534679  0.2196997088201412  0.2990896644447659
  0.9999884343777969  0.2197578314119467  0.7007515266088655
  0.9999857537415858  0.7940574498048149  0.2064713855243400
 -0.0000142145413326  0.7941861895411658  0.7935550454701057
  0.5000048319814941  0.2598291435454758  0.2030793097806062
  0.5000000122037102  0.2599428824012621  0.7969937938452238
  0.4999985697809156  0.7172855247672492  0.3052334547056387
  0.5000130493232106  0.7173378861915055  0.6948370149366084
  0.2414350697914967  0.1814767099014657  0.0000458004112332
  0.2660206538718229  0.2914906434177184  0.5000066242385379
  0.3133546576865686  0.7888110882872337 -0.0000168459235364
  0.1930115972414724  0.7122422915645936  0.4999909596570183
  0.7585535448600075  0.1814673568918238  0.0000381801849232
  0.7339774915921624  0.2915052603788501  0.5000112137818477
  0.6867043308321736  0.7888450140930551 -0.0000332114567195
  0.8070389357361585  0.7122288472004514  0.4999914431964351
  0.3143040125318812  0.9933951004422753  0.2801106792535705
  0.3143442246077077  0.9934326266752275  0.7199029612442135
  0.1872559482033010  0.4936475499310882  0.2443845121544737
  0.1871693566032853  0.4936315740837751  0.7556271983084691
  0.6857142889639753  0.9933782691554514  0.2801256209756011
  0.6856699493538053  0.9934243075760861  0.7198710236903578
  0.8127677650208248  0.4936703119777356  0.2443622137481284
  0.8128074799052739  0.4936231823621818  0.7556230985102771
 
             NaN             NaN             NaN
             NaN             NaN             NaN
             NaN             NaN             NaN
             NaN             NaN             NaN
             NaN             NaN             NaN
             NaN             NaN             NaN
             NaN             NaN             NaN
             NaN             NaN             NaN
             NaN             NaN             NaN
             NaN             NaN             NaN
             NaN             NaN             NaN
             NaN             NaN             NaN
             NaN             NaN             NaN
             NaN             NaN             NaN
             NaN             NaN             NaN
             NaN             NaN             NaN
             NaN             NaN             NaN
             NaN             NaN             NaN
             NaN             NaN             NaN
             NaN             NaN             NaN
             NaN             NaN             NaN
             NaN             NaN             NaN
             NaN             NaN             NaN
             NaN             NaN             NaN
             NaN             NaN             NaN
             NaN             NaN             NaN
             NaN             NaN             NaN
             NaN             NaN             NaN
             NaN             NaN             NaN
             NaN             NaN             NaN
             NaN             NaN             NaN
             NaN             NaN             NaN
             NaN             NaN             NaN
             NaN             NaN             NaN
             NaN             NaN             NaN
