Ca3 V8 F24                              
   1.00000000000000     
     7.9087280000000000    0.0001830000000000    0.0000240000000000
     0.0001740000000000    8.1149839999999998    0.0000900000000000
     0.0000190000000000    0.0000990000000000    7.9229079999999996
   Ca   V    F 
     3     8    24
Direct
  0.5001052781167040  0.9256586889638291  0.5007164713155632
  0.0000183669384430  0.4716183390559928  0.5003549282669391
  0.4999191323337876  1.0235125509590843  1.0000706143793652
  0.2469899071917024  0.2466556430482041  0.2483464477393649
  0.2471355571847486  0.2475047069723217  0.7507445028283163
  0.2417683815584545  0.7399626700974347  0.2431721457486857
  0.2428127800954765  0.7394877265193794  0.7565266644568446
  0.7537792788407774  0.2455528790958485  0.2486671690959338
  0.7533346092832364  0.2483477666559558  0.7510622048508224
  0.7584556904730494  0.7402643998913803  0.2430043544915352
  0.7570075999479079  0.7392737015129627  0.7562736485917381
  1.0013128659531179  0.2154900635180413  0.2928321656446926
 -0.0000525014096600  0.2149558642859270  0.7073880065927252
  0.9998950559493742  0.7956116127319193  0.2087685401002781
  1.0005133068474459  0.7959523901618619  0.7914183261225128
  0.4976901930769072  0.2634496276282078  0.2077516965649172
  0.4999177148849599  0.2632226909349180  0.7920930040470279
  0.5000981687161432  0.7146803706765554  0.3027442474883298
  0.5001239722979062  0.7153422520539414  0.6971164797553268
  0.2455297605024219  0.1817651419858785  0.0017197798179603
  0.2594453041625279  0.2929164617762112  0.4989412800691900
  0.3119780150736713  0.7894439278111395  1.0005909668095831
  0.1952632160069528  0.7125780837662118  0.4995451406627106
  0.7546138915880101  0.1820092305389777  0.0010093090987590
  0.7402792595418080  0.2929204468239220  0.4991531186377236
  0.6879501046739505  0.7894559264827011  1.0001621971561796
  0.8046540949414804  0.7126220143865631  0.5002460749456052
  0.3154195904521077  0.9936032623642793  0.2797798330028491
  0.3157587612197716  0.9933547869399462  0.7198503262890025
  0.1856510578955858  0.4940086441815392  0.2440790787678665
  0.1856439385745453  0.4939541813740004  0.7561397916977546
  0.6844995286514705 -0.0063429591473672  0.2798593489683484
  0.6840493934392656  0.9924958118524317  0.7196925971842878
  0.8143379246982805  0.4946362378666360  0.2440442320717201
  0.8142777194133204  0.4940845508975051  0.7561242208776034
 
             NaN             NaN             NaN
             NaN             NaN             NaN
             NaN             NaN             NaN
             NaN             NaN             NaN
             NaN             NaN             NaN
             NaN             NaN             NaN
             NaN             NaN             NaN
             NaN             NaN             NaN
             NaN             NaN             NaN
             NaN             NaN             NaN
             NaN             NaN             NaN
             NaN             NaN             NaN
             NaN             NaN             NaN
             NaN             NaN             NaN
             NaN             NaN             NaN
             NaN             NaN             NaN
             NaN             NaN             NaN
             NaN             NaN             NaN
             NaN             NaN             NaN
             NaN             NaN             NaN
             NaN             NaN             NaN
             NaN             NaN             NaN
             NaN             NaN             NaN
             NaN             NaN             NaN
             NaN             NaN             NaN
             NaN             NaN             NaN
             NaN             NaN             NaN
             NaN             NaN             NaN
             NaN             NaN             NaN
             NaN             NaN             NaN
             NaN             NaN             NaN
             NaN             NaN             NaN
             NaN             NaN             NaN
             NaN             NaN             NaN
             NaN             NaN             NaN
