Na2 Ca2 V4 P2 S4 O24
1.0
8.972369 0.380594 0.176056
4.291400 7.888744 0.181856
4.168786 2.594232 7.412518
Ca Na V P S O
2 2 4 2 4 24
direct
0.509217 0.496348 0.481651 Ca
0.003553 0.990828 0.018471 Ca
0.421990 0.077969 0.749851 Na
0.593383 0.906567 0.250027 Na
0.349445 0.355251 0.357129 V
0.652374 0.654402 0.638630 V
0.144726 0.150631 0.142823 V
0.845690 0.847535 0.861463 V
0.753362 0.040007 0.445515 P
0.459958 0.746699 0.054542 P
0.047658 0.452558 0.749978 S
0.952043 0.547826 0.250077 S
0.240520 0.960608 0.558865 S
0.539349 0.259446 0.941124 S
0.232932 0.428928 0.599884 O
0.766448 0.570020 0.400239 O
0.582954 0.226279 0.440509 O
0.404432 0.781366 0.556730 O
0.425433 0.585095 0.233198 O
0.572182 0.410045 0.764066 O
0.915090 0.074310 0.266964 O
0.089776 0.928181 0.735877 O
0.070624 0.267390 0.900281 O
0.930118 0.733425 0.099857 O
0.273772 0.917243 0.059279 O
0.718461 0.095399 0.943637 O
0.479138 0.310728 0.100409 O
0.517237 0.714876 0.877069 O
0.092274 0.510492 0.314943 O
0.906155 0.488676 0.687119 O
0.294194 0.097851 0.548689 O
0.706025 0.897220 0.443971 O
0.402160 0.205928 0.950978 O
0.602821 0.793912 0.056121 O
0.189370 0.020495 0.399583 O
0.785024 0.982800 0.623065 O
0.989027 0.407715 0.185320 O
0.012210 0.593937 0.812582 O
