Ca1 Ti12 F42                            
   1.00000000000000     
     7.4996229999999997   -0.0051640000000000    0.0195880000000000
    -3.7438680000000000    6.5337389999999997   -0.1376490000000000
    -0.0758350000000000   -0.3630430000000000   17.8015800000000013
   Ca   Ti   F 
     1    12    42
Direct
  0.8641372079906988  0.0931218545034701  0.8610359555048995
  0.2653888457777723 -0.0120486609632721  0.3336399759860615
  0.7052228506157280  0.6706070503276926  0.0126816593034954
  0.0156771173535494  0.3116781934689543  0.6615329771250142
  0.3607196717647650  1.0400658886122327  0.8338267318272052
  0.6476526585209188  0.6497218350126990  0.4993185598256908
  0.9812419400480966  0.3222278032873755  0.1656329594810571
  0.6445162341808152  0.1488959114437667  0.4980921565897958
  0.4770199227059943  0.3176271425448552  0.1672171603630992
  0.8641121451832964  0.5422521115586096  0.8260806109585497
  0.3660238947602606  0.5399131081576746  0.8332996701285824
  0.1469403331468216  0.6489502303367869  0.4970170367564864
  0.4808131674562482  0.8214996947189738  0.1713234626340777
  0.5619315751841509  0.7900098498796704  0.0691437973075090
  0.2610300482036782  0.4616161103045545  0.7309324510876956
  0.1665532646749882  0.7443521526068948  0.3940739261820321
  0.4140414548744519  0.2266625665004976  0.2717404378319516
  0.8025472733644169  0.5489068156871123  0.9347513870073976
  0.7576054370825307  0.1964960163829152  0.6024416113540032
  0.8944237429221376  0.1154932312419762  0.7386879605150846
  0.1771309581792807  0.1092264670464743  0.3984581027287021
  0.9108608989853152  0.7473525645516201  0.0779472673818218
  0.1218269316584615  0.1890419330457701  0.6066172525605917
  0.0578176020374688  0.8672489135886898  0.2676412303777922
  0.8374847913030617  0.9145170865531371  0.9553611477087580
  0.1257543519446350  0.5545762688421024  0.5988779368487115
  0.4153466643404674  0.8638795773376513  0.2722539535470820
  0.4585603804182115  0.5837404273270703  0.9378776358217634
  0.9228651181675672  0.4913843897511656  0.7244096692550542
  0.5341399045674674  0.1025611678651408  0.3960706379056107
  0.5331615415750092  0.4119771281188606  0.0632822451738340
  0.3556399857004928  0.5735372222821224  0.4765019051654413
  0.2005639861188830  0.6098361424701269  0.1450502175083555
  0.4807780050205453  0.8399586125530445  0.8229961427911408
  0.6711905438616224  0.2462583714196916  0.8327330561887820
  0.5700035821732825  0.3588143079189243  0.5184747156121906
  0.7641271369828773  0.3986710635544757  0.1832205227888790
  0.6839653750596820  0.6073059943472906  0.4011448711989326
  0.9132149414234062  0.2781377188240469  0.0650700074210102
  0.3592255192657893  0.0553098070547368  0.7323939384704959
  0.4109222086413937  1.0308362818508880  0.9340466854619014
  0.6134547044598455  0.6909625907238810  0.5983291149565483
  0.0635249341362485  0.3777535931841365  0.2633097924159583
  0.9404384108051730  0.7264810107645503  0.5204948292922640
  0.7677165131319106  0.0371808873762182  0.1883532641862390
  0.2473014564085556  0.2350569265563567  0.8516364408955308
  0.0613264933873838  0.8322231070750625  0.8341209202587027
  0.7235788607424017  0.9405322765923595  0.4814631035892425
  0.1906858803301845  0.2341180363656770  0.1475021258704914
  0.6368484594595846  0.5869917906969507  0.8037560054870578
  0.9189339249283821  0.3702938449543149  0.4685828091072209
  0.4254307303298608  0.0388941375655657  0.1395504427169253
  0.3713819356182160  0.9268672187377505  0.5271558584688060
  0.5310019747287961  0.5968270237407304  0.1977550540478088
  0.0717823902185321  0.4610754866899077  0.8638668843433823
 
             NaN             NaN             NaN
             NaN             NaN             NaN
             NaN             NaN             NaN
             NaN             NaN             NaN
             NaN             NaN             NaN
             NaN             NaN             NaN
             NaN             NaN             NaN
             NaN             NaN             NaN
             NaN             NaN             NaN
             NaN             NaN             NaN
             NaN             NaN             NaN
             NaN             NaN             NaN
             NaN             NaN             NaN
             NaN             NaN             NaN
             NaN             NaN             NaN
             NaN             NaN             NaN
             NaN             NaN             NaN
             NaN             NaN             NaN
             NaN             NaN             NaN
             NaN             NaN             NaN
             NaN             NaN             NaN
             NaN             NaN             NaN
             NaN             NaN             NaN
             NaN             NaN             NaN
             NaN             NaN             NaN
             NaN             NaN             NaN
             NaN             NaN             NaN
             NaN             NaN             NaN
             NaN             NaN             NaN
             NaN             NaN             NaN
             NaN             NaN             NaN
             NaN             NaN             NaN
             NaN             NaN             NaN
             NaN             NaN             NaN
             NaN             NaN             NaN
             NaN             NaN             NaN
             NaN             NaN             NaN
             NaN             NaN             NaN
             NaN             NaN             NaN
             NaN             NaN             NaN
             NaN             NaN             NaN
             NaN             NaN             NaN
             NaN             NaN             NaN
             NaN             NaN             NaN
             NaN             NaN             NaN
             NaN             NaN             NaN
             NaN             NaN             NaN
             NaN             NaN             NaN
             NaN             NaN             NaN
             NaN             NaN             NaN
             NaN             NaN             NaN
             NaN             NaN             NaN
             NaN             NaN             NaN
             NaN             NaN             NaN
             NaN             NaN             NaN
