Ca1 Ti12 F42
1.0
7.499623 -0.005164 0.019588
-3.743868 6.533739 -0.137649
-0.075835 -0.363043 17.801580
Ca Ti F
1 12 42
direct
0.807310 0.044125 0.875921 Ca
0.266200 1.000485 0.333753 Ti
0.711520 0.688061 0.009673 Ti
0.023219 0.310642 0.656884 Ti
0.354696 -0.002798 0.830318 Ti
0.649093 0.661147 0.497657 Ti
-0.008654 0.338565 0.170367 Ti
0.649035 0.161572 0.495751 Ti
0.489667 0.336697 0.168473 Ti
0.860379 0.505567 0.830822 Ti
0.359527 0.504380 0.833736 Ti
0.149913 0.662957 0.498334 Ti
0.488957 0.837202 0.172336 Ti
0.560083 0.798817 0.068038 F
0.259961 0.446257 0.729876 F
0.172650 0.759356 0.394719 F
0.413621 0.239032 0.271436 F
0.824407 0.565812 0.935266 F
0.764702 0.200139 0.598696 F
0.902162 0.091329 0.722148 F
0.178897 0.122252 0.398686 F
0.921216 0.779150 0.074090 F
0.144593 0.219060 0.594295 F
0.058003 0.878830 0.268083 F
0.804878 0.919761 0.948464 F
0.121780 0.568920 0.601028 F
0.419657 0.881212 0.272442 F
0.456128 0.552002 0.937561 F
0.904873 0.449620 0.728989 F
0.538266 0.119938 0.394582 F
0.556943 0.422946 0.063281 F
0.355733 0.583921 0.477690 F
0.204388 0.626729 0.149268 F
0.474924 0.804206 0.820835 F
0.659336 0.208801 0.848000 F
0.577030 0.372766 0.518507 F
0.774327 0.415008 0.189449 F
0.679530 0.611848 0.399471 F
0.910629 0.291929 0.069886 F
0.378089 0.026382 0.730958 F
0.330036 0.941687 0.931460 F
0.618441 0.706013 0.596631 F
0.071559 0.385459 0.268107 F
0.943521 0.742598 0.518177 F
0.776326 0.049918 0.189589 F
0.260140 0.204974 0.844634 F
0.045116 0.806490 0.817856 F
0.723399 0.949418 0.476984 F
0.203855 0.258095 0.147481 F
0.638522 0.563419 0.803295 F
0.923564 0.385079 0.468247 F
0.440961 0.059159 0.137164 F
0.377026 0.941071 0.526544 F
0.540814 0.614236 0.197751 F
0.069200 0.425678 0.862518 F
