Ca8 Ni12 F42                            
   1.00000000000000     
     7.2732180000000000    0.0091450000000000   -0.0226460000000000
    -3.6528190000000000    6.3537239999999997    0.0080780000000000
    -0.0495440000000000   -0.0088930000000000   18.3071160000000006
   Ca   Ni   F 
     8    12    42
Direct
  0.1647156089424095  0.7988959119731166  0.6882441145350525
  0.1500642735213902  0.6445095380406232  0.9854296606206143
  0.3535005696936072  0.5057182783813416  0.3173618444128038
  0.8405356996283782  0.0191400272613636  0.3467693079168874
  0.1786969794209708  0.1685257433177785  0.0041074296902498
  0.9856089489492059  0.7947465171287189  0.1744132751984102
  0.7967549566186967  0.9724902092419088  0.8351856327403462
  0.2048906865024854  0.1723439183980408  0.5093890615859692
  0.3351871595855040  0.0003762008853571  0.3332027789155296
  0.9830090255129418  0.3147273493295762  0.6633195390782265
  0.6679361999852910  0.6703295602955980  0.0016837617630033
  0.3419623307385410  0.0353424834238846  0.8374803212985963
  0.9934658307831095  0.3111210498736113  0.1614971249203083
  0.6826086433583851  0.6710939445170705  0.4920662936636827
  0.4963673842378282  0.8192883197664333  0.1639624432245295
  0.1750834402342511  0.6608481102777762  0.4903148316584963
  0.3203601864147104  0.5053901579828270  0.8286520119443036
  0.8258436380673414  0.5076372591916031  0.8286831901530479
  0.6829042916749384  0.1716684821237939  0.4976102099471887
  0.4928590409531795  0.3106129688069519  0.1617945371788778
  0.7386302522216470  0.1934400621676780  0.6002696580872073
  0.8227201257467526  0.5779493124381321  0.9362724541659894
  0.4382840651180592  0.2548127019667701  0.2703200353770487
  0.2412418822789856  0.7227165042669307  0.3834460524577681
  0.4810763866730406  0.7508557679294035  0.0585346433899233
  0.2390009833247153  0.5043142033514165  0.7251589856587121
  0.8327383394771735  0.9581769811685829  0.9563304787052824
  0.0407150182068853  0.8816050636855061  0.2893321077954578
  0.1213220037856440  0.1706224155302434  0.6204376720243285
  0.9756328211115636  0.7978317762526695  0.0536521112473252
  0.8528567257204395  0.0827318297679564  0.7274542798542617
  0.2050633924292410  0.1756961780709312  0.3863045352476063
  0.5215738902293564  0.3878688629147342  0.0536106167401388
  0.6074158180032698  0.1248102505819158  0.3889035344597007
  0.8752619879044913  0.4854347018998167  0.7218421848993711
  0.3893486145932155  0.5319154164599097  0.9425638062526743
  0.1147631720433245  0.5818740581033859  0.5958125302140028
  0.5051772004543643  0.8730772771462012  0.2762590118677414
  0.7977733099459428  0.4243661712168246  0.1711526975620546
  0.5719844485209279  0.3639854275471127  0.4975061954201620
  0.6490569910862788  0.2109473153388925  0.8538250924973839
  0.4299005993895437  0.8170560447467944  0.8239031240476021
  0.3770781702620600  0.5585134349982163  0.4923576562486469
  0.1904048336682418  0.6207514211365314  0.1780963895115784
  0.0220221968006337  0.2959674944618876  0.2723823892317574
  0.7051276542273265  0.6979747971844226  0.5892001945535037
  0.2960492509750696  0.9738854165328353  0.9454082710273480
  0.3812547826127372  0.0993200156950424  0.7350016194053884
  0.6561616018131400  0.6678986174624937  0.3853290986472130
  0.0203731516371426  0.3493394428212124  0.0506357516791035
  0.1872221157902223  0.1983409506871784  0.1414840303597198
  0.7989029655757572  0.9808468306471853  0.4773605047459792
  0.0343857819691868  0.8200529295149734  0.8080261568569819
  0.1971633154713454  0.2029011659664726  0.8577441761348402
  0.9831894544905502  0.7746790160393738  0.4849555964271136
  0.8042162613478113 -0.0011226578518789  0.1627956743781807
  0.0537239247855138  0.4622586632087520  0.8709106974210912
  0.5744157866290540  0.6047776283634537  0.2005022596490747
  0.3716462682256156  0.9617002427206817  0.5235658434798863
  0.3864534883697511  0.0088231209070992  0.1389697755160387
  0.6201892231960653  0.6022048023739544  0.8080156943565014
  0.9780637072401870  0.3650038007979118  0.4616683048351931
 
             NaN             NaN             NaN
             NaN             NaN             NaN
             NaN             NaN             NaN
             NaN             NaN             NaN
             NaN             NaN             NaN
             NaN             NaN             NaN
             NaN             NaN             NaN
             NaN             NaN             NaN
             NaN             NaN             NaN
             NaN             NaN             NaN
             NaN             NaN             NaN
             NaN             NaN             NaN
             NaN             NaN             NaN
             NaN             NaN             NaN
             NaN             NaN             NaN
             NaN             NaN             NaN
             NaN             NaN             NaN
             NaN             NaN             NaN
             NaN             NaN             NaN
             NaN             NaN             NaN
             NaN             NaN             NaN
             NaN             NaN             NaN
             NaN             NaN             NaN
             NaN             NaN             NaN
             NaN             NaN             NaN
             NaN             NaN             NaN
             NaN             NaN             NaN
             NaN             NaN             NaN
             NaN             NaN             NaN
             NaN             NaN             NaN
             NaN             NaN             NaN
             NaN             NaN             NaN
             NaN             NaN             NaN
             NaN             NaN             NaN
             NaN             NaN             NaN
             NaN             NaN             NaN
             NaN             NaN             NaN
             NaN             NaN             NaN
             NaN             NaN             NaN
             NaN             NaN             NaN
             NaN             NaN             NaN
             NaN             NaN             NaN
             NaN             NaN             NaN
             NaN             NaN             NaN
             NaN             NaN             NaN
             NaN             NaN             NaN
             NaN             NaN             NaN
             NaN             NaN             NaN
             NaN             NaN             NaN
             NaN             NaN             NaN
             NaN             NaN             NaN
             NaN             NaN             NaN
             NaN             NaN             NaN
             NaN             NaN             NaN
             NaN             NaN             NaN
             NaN             NaN             NaN
             NaN             NaN             NaN
             NaN             NaN             NaN
             NaN             NaN             NaN
             NaN             NaN             NaN
             NaN             NaN             NaN
             NaN             NaN             NaN
