Ca8 Ni12 F42
1.0
7.273218 0.009145 -0.022646
-3.652819 6.353724 0.008078
-0.049544 -0.008893 18.307116
Ca Ni F
8 12 42
direct
0.185017 0.842820 0.667574 Ca
0.150416 0.644535 0.980091 Ca
0.351089 0.511591 0.320880 Ca
0.843919 0.016642 0.346719 Ca
0.169496 0.162223 0.008998 Ca
0.985903 0.792449 0.174530 Ca
0.792150 0.979946 0.835355 Ca
0.215950 0.182073 0.510357 Ca
0.343510 0.008257 0.334069 Ni
0.991532 0.339008 0.666589 Ni
0.660481 0.658871 0.001193 Ni
0.316456 0.006241 0.831843 Ni
0.994856 0.312633 0.162093 Ni
0.690450 0.681650 0.493908 Ni
0.497564 0.819477 0.162772 Ni
0.183054 0.673175 0.495835 Ni
0.311027 0.494342 0.829499 Ni
0.811970 0.498089 0.828558 Ni
0.694130 0.185066 0.496983 Ni
0.494501 0.311126 0.163058 Ni
0.748606 0.202167 0.600705 F
0.807214 0.554358 0.937588 F
0.440426 0.260913 0.270616 F
0.251236 0.735552 0.386882 F
0.476845 0.746578 0.056606 F
0.247307 0.496918 0.727558 F
0.826822 0.948809 0.955574 F
0.051204 0.887214 0.288640 F
0.125824 0.193537 0.618799 F
0.971940 0.790845 0.053179 F
0.849512 0.065355 0.723038 F
0.210162 0.180999 0.387133 F
0.520737 0.382139 0.055454 F
0.618989 0.137779 0.387704 F
0.860838 0.477164 0.723831 F
0.371013 0.498727 0.944211 F
0.121432 0.610577 0.602306 F
0.508997 0.877747 0.275263 F
0.799012 0.423556 0.172869 F
0.582803 0.376571 0.499496 F
0.624490 0.198098 0.843594 F
0.416914 0.798096 0.847648 F
0.379559 0.563767 0.494507 F
0.194181 0.620474 0.180795 F
0.023249 0.293662 0.272041 F
0.705076 0.720223 0.595284 F
0.281865 0.979514 0.943457 F
0.336946 0.009474 0.728662 F
0.657980 0.674116 0.381346 F
0.021029 0.356506 0.051548 F
0.188391 0.199426 0.142253 F
0.807434 0.992141 0.476308 F
0.006293 0.805457 0.819084 F
0.190118 0.192067 0.842023 F
0.996858 0.791654 0.486793 F
0.804626 0.000884 0.158730 F
0.030368 0.429988 0.869782 F
0.582807 0.610012 0.197791 F
0.388968 0.975471 0.523470 F
0.385250 0.007865 0.139247 F
0.612089 0.603167 0.806663 F
0.987192 0.381260 0.464470 F
