Na14 P6 S22                             
   1.00000000000000     
     6.7984580921429210   -0.0976044282649587    0.0351596826144775
    -3.0776772099332690   13.7374499972119981   -0.2969261436183870
    -3.1222648193013232   -5.2126678569185501   12.0133919048123659
   Na   P    S 
    13     6    22
Direct
  0.7746972423068085  0.6547545682903069  0.0941460401095635
  0.9267031720071842  0.9979514841194923  0.6857522446829929
  0.7366535461521230  0.3472343576816328  0.5021345279470031
  0.6280503755988140  0.9114984090110648  0.9358202640470904
  0.5057605660489536  0.1649863728096346  0.7085205997277009
  0.4942361051686230  0.8350148013603176  0.2914807111401982
  0.0732905884894193  0.0020520939088670  0.3142454020635715
  0.8013005116618260  0.3626079702522999  0.1308894081040852
  0.8549374414194419  0.7236371148204359  0.7057954223314010
  0.1987029836486140  0.6373862299618627  0.8691118359090673
  0.3719439130734479  0.0884914817140808  0.0641721185235279
  0.2633479331086904  0.6527654717065704  0.4978675284803980
  0.1450737650080282  0.2763612789003138  0.2942025391535008
  0.5016152807873820  0.4763261554950449  0.2736420224602293
  0.8305878657433022  0.7662347670220572  0.4566413633537142
  0.8478653061426513  0.1518804017847352  0.9259695767761049
  0.1521297163915512  0.8481177317868852  0.0740282394645245
  0.4983608932626683  0.5236606162852990  0.7263435871014673
  0.1694236258636495  0.2337836369525422  0.5433623715203338
  0.8941610121976274  0.7979299327852516  0.3297105547437889
  0.2216288077283580  0.4858000431030038  0.2979136135986155
  0.7682403833890977  0.5966328664994154  0.4222599655466164
  0.4112671998080344  0.1846156016846568  0.5037509846523934
  0.5318159949185278  0.4885232226281109  0.1324853503804466
  0.4681914002677360  0.5114783640251833  0.8675159448394630
  0.5887318496722719  0.8153781255315433  0.4962499153896406
  0.0912474635115070  0.8223713424889737  0.5968913242121500
  0.3875872615481274  0.9802893469986348  0.2064823183257372
  0.1422745642290730  0.1465935402206487  0.9143064806354471
  0.5647722577149556  0.3436852256655044  0.2840871350127406
  0.9087470883737772  0.1776298961049474  0.4030937482100214
  0.2317818704916780  0.4033696296383265  0.5777488384072219
  0.8191008298937154  0.1458840895711112  0.0744765989847674
  0.6124038137364156  0.0197106508125323  0.7935240785289100
  0.8577256232845414  0.8534039148045207  0.0856901157174598
  0.1058293105708688  0.2020706023629430  0.6702876400564689
  0.8101974499825946  0.2902977390739790  0.9167770853216616
  0.7783657490784949  0.5142086281646439  0.7020894255565984
  0.4352313342063920  0.6563248834385919  0.7159203229233342
  0.1809055695235587  0.8541155844457624  0.9255277901003734
  0.1898007658425089  0.7096979132372122  0.0832252221980483
 
  0.00000000E+00  0.00000000E+00  0.00000000E+00
  0.00000000E+00  0.00000000E+00  0.00000000E+00
  0.00000000E+00  0.00000000E+00  0.00000000E+00
  0.00000000E+00  0.00000000E+00  0.00000000E+00
  0.00000000E+00  0.00000000E+00  0.00000000E+00
  0.00000000E+00  0.00000000E+00  0.00000000E+00
  0.00000000E+00  0.00000000E+00  0.00000000E+00
  0.00000000E+00  0.00000000E+00  0.00000000E+00
  0.00000000E+00  0.00000000E+00  0.00000000E+00
  0.00000000E+00  0.00000000E+00  0.00000000E+00
  0.00000000E+00  0.00000000E+00  0.00000000E+00
  0.00000000E+00  0.00000000E+00  0.00000000E+00
  0.00000000E+00  0.00000000E+00  0.00000000E+00
  0.00000000E+00  0.00000000E+00  0.00000000E+00
  0.00000000E+00  0.00000000E+00  0.00000000E+00
  0.00000000E+00  0.00000000E+00  0.00000000E+00
  0.00000000E+00  0.00000000E+00  0.00000000E+00
  0.00000000E+00  0.00000000E+00  0.00000000E+00
  0.00000000E+00  0.00000000E+00  0.00000000E+00
  0.00000000E+00  0.00000000E+00  0.00000000E+00
  0.00000000E+00  0.00000000E+00  0.00000000E+00
  0.00000000E+00  0.00000000E+00  0.00000000E+00
  0.00000000E+00  0.00000000E+00  0.00000000E+00
  0.00000000E+00  0.00000000E+00  0.00000000E+00
  0.00000000E+00  0.00000000E+00  0.00000000E+00
  0.00000000E+00  0.00000000E+00  0.00000000E+00
  0.00000000E+00  0.00000000E+00  0.00000000E+00
  0.00000000E+00  0.00000000E+00  0.00000000E+00
  0.00000000E+00  0.00000000E+00  0.00000000E+00
  0.00000000E+00  0.00000000E+00  0.00000000E+00
  0.00000000E+00  0.00000000E+00  0.00000000E+00
  0.00000000E+00  0.00000000E+00  0.00000000E+00
  0.00000000E+00  0.00000000E+00  0.00000000E+00
  0.00000000E+00  0.00000000E+00  0.00000000E+00
  0.00000000E+00  0.00000000E+00  0.00000000E+00
  0.00000000E+00  0.00000000E+00  0.00000000E+00
  0.00000000E+00  0.00000000E+00  0.00000000E+00
  0.00000000E+00  0.00000000E+00  0.00000000E+00
  0.00000000E+00  0.00000000E+00  0.00000000E+00
  0.00000000E+00  0.00000000E+00  0.00000000E+00
  0.00000000E+00  0.00000000E+00  0.00000000E+00
  0.00000000E+00  0.00000000E+00  0.00000000E+00
