Ca1 Ni12 F42                            
   1.00000000000000     
     7.0509899999999996    0.0051060000000000    0.0233860000000000
    -3.5176729999999998    6.0601929999999999   -0.0049690000000000
    -0.0610340000000000    0.0506650000000000   16.8880060000000007
   Ca   Ni   F 
     1    12    42
Direct
  0.8451828570666187  0.5629233732328867  0.3102332675609316
  0.3216171471276489 -0.0014099924250663  0.3289909192519525
  0.6954075253256353  0.6996155370771584  0.9951825029524667
 -0.0182647094021313  0.2944116333034032  0.6723165158315204
  0.3339730912571116 -0.0016367490798394  0.8338570816296190
  0.6286220994082236  0.6464083136072527  0.5091978158475867
  1.0184424729710011  0.3525741433522284  0.1624610915255348
  0.6316610919469572  0.1465549925950362  0.5094125431618047
  0.5100675941584444  0.3484550953378109  0.1583821813392031
  0.8348145797610365  0.4961047931472954  0.8341051235739446
  0.3367893604638322  0.5003858120021275  0.8332143586713456
  0.1316624768291720  0.6462914497716011  0.5065538348066825
  0.5205703210609708  0.8537744495401984  0.1653550140008809
  0.5862787737735354  0.8387969714304291  0.0551611054462903
  0.2479619539857961  0.4337412803783936  0.7275938233179348
  0.1636177419142151  0.7352816070627950  0.3956781330479401
  0.4894633102936399  0.2659800132948541  0.2666792071095890
  0.8100110043015089  0.5503355452363188  0.9396164994307632
  0.7228606176427379  0.1615521960936934  0.6164104567296198
  0.8771307084718708  0.0702594721383536  0.7373315193472556
  0.1659464468330832  0.0997474037688979  0.3748070881492670
  0.9224727792204451  0.7996990087372562  0.0578553664761411
  0.0939257991637547  0.1820572395706440  0.6084933672430588
  0.1104444587191677  0.8682837988035579  0.2546195451826600
  0.8207355855823143  0.9263309288800581  0.9316017281576752
  0.0958491094682830  0.5586500900247571  0.6129807088345158
  0.4735452938302679  0.8789693366750532  0.2788826434991584
  0.4286411770678440  0.5760733311557110  0.9375393612690374
  0.8549923130898924  0.4344367479145514  0.7295987601747395
  0.5524579172232614  0.1451927601410757  0.3993285266702989
  0.5376246321784471  0.4326147030855826  0.0528053270145988
  0.3349313991581362  0.5500534126031293  0.4884560682582859
  0.2308625348055045  0.6389982380766468  0.1372096491774767
  0.4243101171195328  0.7898859540622174  0.8076101580807792
  0.6353492913939226  0.2029732120069694  0.8562907747534015
  0.5485832356511043  0.3588453056337903  0.5371102589100841
  0.8205231261898025  0.4562051580133544  0.1722787038242704
  0.6528775475171439  0.5936880670242289  0.4045477402877522
  0.9602255171689856  0.2997981554265474  0.0610604335948293
  0.3688403807718247  0.0777192571236006  0.7341154590374773
  0.2985637170962588  0.9193572716206939  0.9336625940723179
  0.6027852351782095  0.6988967417826865  0.6087365361012014
  0.0632268010577595  0.4139881675558104  0.2687534644964120
  0.9254108864021675  0.7432629922528339  0.5232965753595294
  0.8110820802087665  0.0670170552701994  0.1908615476864443
  0.2490425816798046  0.2108781831983030  0.8596669344034029
  0.0341464343084621  0.7896032851910306  0.8114037796210455
  0.7090729869468058  0.9325922794619563  0.4797025994918514
  0.2060647881483079  0.2434679220864377  0.1560680012532059
  0.6147191758299942  0.5570060343696459  0.8008788707267939
  0.9135310796324139  0.3724839218131835  0.4706166140928192
  0.4546305249081695  0.0699192254458462  0.1278706686173529
  0.3431742635500923  0.9252631153326629  0.5389392213265239
  0.5862742426841840  0.6299637417499458  0.1994356786913866
  0.0576865347856632  0.4395594793122132  0.8664744886025709
 
             NaN             NaN             NaN
             NaN             NaN             NaN
             NaN             NaN             NaN
             NaN             NaN             NaN
             NaN             NaN             NaN
             NaN             NaN             NaN
             NaN             NaN             NaN
             NaN             NaN             NaN
             NaN             NaN             NaN
             NaN             NaN             NaN
             NaN             NaN             NaN
             NaN             NaN             NaN
             NaN             NaN             NaN
             NaN             NaN             NaN
             NaN             NaN             NaN
             NaN             NaN             NaN
             NaN             NaN             NaN
             NaN             NaN             NaN
             NaN             NaN             NaN
             NaN             NaN             NaN
             NaN             NaN             NaN
             NaN             NaN             NaN
             NaN             NaN             NaN
             NaN             NaN             NaN
             NaN             NaN             NaN
             NaN             NaN             NaN
             NaN             NaN             NaN
             NaN             NaN             NaN
             NaN             NaN             NaN
             NaN             NaN             NaN
             NaN             NaN             NaN
             NaN             NaN             NaN
             NaN             NaN             NaN
             NaN             NaN             NaN
             NaN             NaN             NaN
             NaN             NaN             NaN
             NaN             NaN             NaN
             NaN             NaN             NaN
             NaN             NaN             NaN
             NaN             NaN             NaN
             NaN             NaN             NaN
             NaN             NaN             NaN
             NaN             NaN             NaN
             NaN             NaN             NaN
             NaN             NaN             NaN
             NaN             NaN             NaN
             NaN             NaN             NaN
             NaN             NaN             NaN
             NaN             NaN             NaN
             NaN             NaN             NaN
             NaN             NaN             NaN
             NaN             NaN             NaN
             NaN             NaN             NaN
             NaN             NaN             NaN
             NaN             NaN             NaN
