Ca1 Ni12 F42
1.0
7.050990 0.005106 0.023386
-3.517673 6.060193 -0.004969
-0.061034 0.050665 16.888006
Ca Ni F
1 12 42
direct
0.792048 0.494516 0.327397 Ca
0.308724 0.000085 0.332252 Ni
0.696949 0.697866 0.996517 Ni
0.000413 0.301802 0.670843 Ni
0.347795 0.000383 0.833569 Ni
0.653932 0.658697 0.507144 Ni
0.998792 0.340232 0.159540 Ni
0.653386 0.156221 0.505827 Ni
0.493379 0.342435 0.158606 Ni
0.848466 0.500158 0.834409 Ni
0.348382 0.500398 0.832674 Ni
0.155303 0.657853 0.507890 Ni
0.497414 0.843619 0.161793 Ni
0.565919 0.823548 0.054370 F
0.265056 0.435323 0.726974 F
0.185772 0.743989 0.398499 F
0.449748 0.259621 0.267760 F
0.827214 0.563495 0.940189 F
0.744930 0.178814 0.613349 F
0.890595 0.071909 0.733387 F
0.195591 0.123673 0.391892 F
0.917450 0.803944 0.062405 F
0.113351 0.192804 0.605445 F
0.061749 0.856245 0.274763 F
0.819054 0.928422 0.934430 F
0.122805 0.569275 0.613846 F
0.433803 0.865752 0.272754 F
0.433857 0.566791 0.937383 F
0.870741 0.435964 0.729394 F
0.571777 0.142478 0.391344 F
0.549943 0.428204 0.052647 F
0.360820 0.565788 0.484488 F
0.202899 0.632652 0.136370 F
0.437788 0.792230 0.808405 F
0.645959 0.206577 0.858059 F
0.567070 0.366485 0.530492 F
0.797876 0.435265 0.183929 F
0.686794 0.614542 0.402294 F
0.918615 0.297493 0.059819 F
0.387999 0.081218 0.733792 F
0.307462 0.919837 0.933322 F
0.619637 0.702824 0.606933 F
0.073359 0.386812 0.264897 F
0.948124 0.752013 0.526215 F
0.790531 0.053421 0.187958 F
0.258207 0.208790 0.857686 F
0.049818 0.793683 0.810103 F
0.738030 0.947779 0.479563 F
0.191683 0.241364 0.140340 F
0.628869 0.560836 0.801031 F
0.930065 0.382951 0.465894 F
0.431554 0.060075 0.128499 F
0.372520 0.940654 0.539281 F
0.557812 0.621535 0.195925 F
0.068724 0.439658 0.866137 F
