Ca9 Mn12 F42
1.0
7.627023 -0.105260 -0.020945
-3.910125 6.674517 0.060777
-0.033890 0.156861 18.538485
Ca Mn F
9 12 42
direct
0.344701 0.497235 0.345994 Ca
0.514386 0.859115 0.682796 Ca
0.143025 0.626614 0.997394 Ca
0.530320 0.354240 0.663212 Ca
0.841704 0.008725 0.322289 Ca
0.180776 0.138542 0.005436 Ca
0.867092 0.073076 0.839725 Ca
0.988660 0.772439 0.178065 Ca
0.142812 0.140274 0.509685 Ca
0.345990 0.981819 0.338418 Mn
0.028703 0.378726 0.653432 Mn
0.676859 0.666945 0.003319 Mn
0.338027 0.022481 0.838333 Mn
0.000035 0.301753 0.155271 Mn
0.655657 0.674310 0.505852 Mn
0.493542 0.803884 0.168309 Mn
0.167633 0.675855 0.496140 Mn
0.355209 0.521944 0.835229 Mn
0.842907 0.524614 0.825319 Mn
0.657875 0.173352 0.495074 Mn
0.482008 0.299664 0.174452 Mn
0.603259 0.126135 0.608216 F
0.835113 0.563348 0.941292 F
0.434555 0.270340 0.293315 F
0.186219 0.678719 0.383377 F
0.539759 0.797392 0.060884 F
0.267530 0.528925 0.728120 F
0.858056 0.952676 0.950537 F
0.053932 0.886475 0.289992 F
0.203546 0.250329 0.621461 F
0.986323 0.797670 0.057589 F
0.855346 0.105116 0.718488 F
0.111698 0.184888 0.394412 F
0.501452 0.373321 0.055228 F
0.662350 0.129937 0.380775 F
0.856688 0.471725 0.707992 F
0.391905 0.564868 0.947051 F
0.246337 0.697166 0.603577 F
0.477511 0.811488 0.285417 F
0.796403 0.405025 0.173128 F
0.549870 0.366088 0.525476 F
0.655487 0.208812 0.851565 F
0.528093 0.833585 0.813836 F
0.337359 0.523833 0.476296 F
0.178836 0.624146 0.132616 F
0.090152 0.344377 0.262890 F
0.617227 0.670402 0.621139 F
0.290673 0.939624 0.947969 F
0.384760 0.053145 0.729813 F
0.673486 0.708354 0.389268 F
0.025160 0.311610 0.040278 F
0.170048 0.151873 0.136441 F
0.781717 0.987958 0.506093 F
0.010693 0.838422 0.818406 F
0.223485 0.211493 0.873690 F
0.970693 0.782563 0.515440 F
0.805209 0.004534 0.195583 F
0.056935 0.446221 0.863979 F
0.609639 0.609541 0.191490 F
0.339368 0.007572 0.462436 F
0.372498 0.990275 0.184162 F
0.568011 0.481494 0.781977 F
0.957698 0.375933 0.534363 F
