Ca1 Mn4 S6 O24
1.0
7.981285 -0.008531 4.929501
2.771966 7.177591 4.769462
0.510773 0.053519 9.035535
Ca Mn S O
1 4 6 24
direct
0.257694 0.870294 0.619757 Ca
0.662770 0.639068 0.646118 Mn
0.141295 0.156051 0.138970 Mn
0.815995 0.850952 0.843991 Mn
0.363300 0.354712 0.349058 Mn
0.963283 0.241481 0.526516 S
0.429901 0.039769 0.753961 S
0.547377 0.966022 0.237013 S
0.744901 0.462109 0.050230 S
0.261221 0.518306 0.954795 S
0.039029 0.756768 0.453103 S
0.424956 0.563373 0.772303 O
0.927517 0.319565 0.024904 O
0.801960 0.385226 0.599105 O
0.031005 0.952957 0.321662 O
0.593929 0.786339 0.391602 O
0.296283 0.019831 0.958756 O
0.686300 0.964115 0.040852 O
0.217781 0.622455 0.380525 O
0.098782 0.685367 0.928267 O
0.365596 0.228141 0.624504 O
0.945039 0.049144 0.662767 O
0.603325 0.402043 0.242996 O
0.981947 0.277047 0.335345 O
0.435213 0.895661 0.713226 O
0.361808 0.989626 0.267997 O
0.689184 0.515217 0.899807 O
0.256193 0.351884 0.961136 O
0.885595 0.726643 0.478564 O
0.135977 0.224612 0.515463 O
0.615476 -0.002242 0.731183 O
0.538709 0.121487 0.258217 O
0.746600 0.635619 0.039181 O
0.278429 0.479853 0.123874 O
0.015814 0.732698 0.645150 O
