Ca8 V16 P16 O80
1.0
  12.5512738687592851   -0.0485800278410512   -0.3975388277661916
  -0.0432614723795572   12.5512003586353629    0.3794292138678288
  -0.2379767213009775    0.2415272049899152    9.7452073020583470
Ca V P O
1 16 16 80
direct
   0.6249808713521653    0.8749770855853506    0.5000047081723997 Ca
   0.0104112198534246    0.2398697748235681    0.1717066950770736 V
   0.0104112198534246    0.7398697748235681    0.1717066950770736 V
   0.5104112198534244    0.2398697748235681    0.1717066950770736 V
   0.5104112198534244    0.7398697748235682    0.1717066950770736 V
   0.4874268030535317    0.2621543075079852    0.7300909721007938 V
   0.4874268030535316    0.7621543075079853    0.7300909721007938 V
   0.9874268030535317    0.2621543075079852    0.7300909721007938 V
   0.9874268030535318    0.7621543075079852    0.7300909721007939 V
   0.2626367062818346    0.4877832324093494    0.2699165848034800 V
   0.2626367062818346    0.9877832324093495    0.2699165848034800 V
   0.7626367062818346    0.4877832324093494    0.2699165848034800 V
   0.7626367062818346    0.9877832324093494    0.2699165848034800 V
   0.2395828479307856    0.0101302339831726    0.8283096297047047 V
   0.2395828479307856    0.5101302339831727    0.8283096297047048 V
   0.7395828479307857    0.0101302339831727    0.8283096297047047 V
   0.7395828479307857    0.5101302339831727    0.8283096297047048 V
   0.2599627603849839    0.2410529769442958    0.2282347115680396 P
   0.2599627603849839    0.7410529769442958    0.2282347115680396 P
   0.7599627603849839    0.2410529769442957    0.2282347115680396 P
   0.7599627603849839    0.7410529769442957    0.2282347115680396 P
   0.2407218066292351    0.2595959453993618    0.7720155759438498 P
   0.2407218066292351    0.7595959453993619    0.7720155759438497 P
   0.7407218066292351    0.2595959453993618    0.7720155759438497 P
   0.7407218066292351    0.7595959453993619    0.7720155759438498 P
   0.0092855652310620    0.4904103718815797    0.2279880475772255 P
   0.0092855652310620    0.9904103718815798    0.2279880475772255 P
   0.5092855652310621    0.4904103718815797    0.2279880475772255 P
   0.5092855652310621    0.9904103718815798    0.2279880475772255 P
   0.4900303844859561    0.0089406912975511    0.7717633048824937 P
   0.4900303844859561    0.5089406912975510    0.7717633048824937 P
   0.9900303844859560    0.0089406912975511    0.7717633048824937 P
   0.9900303844859561    0.5089406912975510    0.7717633048824938 P
   0.2531195575104786    0.4970991441443275    0.1065308119633397 O
   0.2531195575104786    0.9970991441443274    0.1065308119633397 O
   0.7531195575104787    0.4970991441443275    0.1065308119633397 O
   0.7531195575104785    0.9970991441443275    0.1065308119633397 O
   0.2281517023386439    0.0214402396026287    0.6618407462758350 O
   0.2281517023386439    0.5214402396026289    0.6618407462758350 O
   0.7281517023386439    0.0214402396026287    0.6618407462758350 O
   0.7281517023386439    0.5214402396026288    0.6618407462758351 O
   0.2606150355573773    0.3379550628261566    0.3205766243699745 O
   0.2606150355573774    0.8379550628261566    0.3205766243699746 O
   0.7606150355573773    0.3379550628261566    0.3205766243699745 O
   0.7606150355573773    0.8379550628261566    0.3205766243699745 O
   0.2404823698941859    0.3577239474224958    0.8592481614824357 O
   0.2404823698941859    0.8577239474224957    0.8592481614824358 O
   0.7404823698941858    0.3577239474224958    0.8592481614824357 O
   0.7404823698941859    0.8577239474224959    0.8592481614824355 O
   0.0218524769134507    0.2285589096695946    0.3381842478540813 O
   0.0218524769134507    0.7285589096695946    0.3381842478540813 O
   0.5218524769134506    0.2285589096695946    0.3381842478540813 O
   0.5218524769134506    0.7285589096695946    0.3381842478540813 O
   0.4968897561432694    0.2528937710736115    0.8934868803855534 O
   0.4968897561432694    0.7528937710736114    0.8934868803855535 O
   0.9968897561432692    0.2528937710736115    0.8934868803855535 O
   0.9968897561432694    0.7528937710736117    0.8934868803855534 O
   0.4125541046567365    0.4901067273666972    0.3204572169871244 O
   0.4125541046567365    0.9901067273666974    0.3204572169871244 O
   0.9125541046567365    0.4901067273666972    0.3204572169871244 O
   0.9125541046567365    0.9901067273666971    0.3204572169871244 O
   0.3920196173686940    0.0095312494948911    0.8590486537299798 O
   0.3920196173686940    0.5095312494948910    0.8590486537299798 O
   0.8920196173686940    0.0095312494948911    0.8590486537299798 O
   0.8920196173686941    0.5095312494948910    0.8590486537299797 O
   0.0095142822848455    0.3922946397909151    0.1407539822393921 O
   0.0095142822848455    0.8922946397909151    0.1407539822393921 O
   0.5095142822848455    0.3922946397909151    0.1407539822393921 O
   0.5095142822848455    0.8922946397909152    0.1407539822393921 O
   0.4893714068244217    0.4120601175309526    0.6794008185993727 O
   0.4893714068244217    0.9120601175309527    0.6794008185993727 O
   0.9893714068244217    0.4120601175309526    0.6794008185993727 O
   0.9893714068244218    0.9120601175309526    0.6794008185993728 O
   0.1581420610926557    0.2423263435037745    0.1316770225682959 O
   0.1581420610926557    0.7423263435037745    0.1316770225682959 O
   0.6581420610926556    0.2423263435037744    0.1316770225682959 O
   0.6581420610926556    0.7423263435037745    0.1316770225682959 O
   0.1390172391754926    0.2579767464592865    0.6698809104622131 O
   0.1390172391754926    0.7579767464592865    0.6698809104622131 O
   0.6390172391754926    0.2579767464592865    0.6698809104622131 O
   0.6390172391754926    0.7579767464592865    0.6698809104622132 O
   0.3579637829205597    0.2404691962584098    0.1409463801565084 O
   0.3579637829205597    0.7404691962584099    0.1409463801565084 O
   0.8579637829205595    0.2404691962584097    0.1409463801565084 O
   0.8579637829205597    0.7404691962584098    0.1409463801565084 O
   0.3374305670032713    0.2599102795942009    0.6795288730016493 O
   0.3374305670032713    0.7599102795942010    0.6795288730016493 O
   0.8374305670032712    0.2599102795942009    0.6795288730016493 O
   0.8374305670032713    0.7599102795942009    0.6795288730016494 O
   0.1109659537530724    0.4920245963914095    0.3300968534904552 O
   0.1109659537530724    0.9920245963914095    0.3300968534904552 O
   0.6109659537530724    0.4920245963914094    0.3300968534904552 O
   0.6109659537530725    0.9920245963914095    0.3300968534904552 O
   0.0918691413835851    0.0076736141070698    0.8683142726651000 O
   0.0918691413835851    0.5076736141070698    0.8683142726651001 O
   0.5918691413835850    0.0076736141070698    0.8683142726651001 O
   0.5918691413835849    0.5076736141070698    0.8683142726651000 O
   0.2582330060098876    0.1394904413399980    0.3303817841355312 O
   0.2582330060098876    0.6394904413399980    0.3303817841355312 O
   0.7582330060098876    0.1394904413399980    0.3303817841355312 O
   0.7582330060098875    0.6394904413399980    0.3303817841355312 O
   0.2418383466305301    0.1578406619681821    0.8685583794560995 O
   0.2418383466305301    0.6578406619681821    0.8685583794560996 O
   0.7418383466305299    0.1578406619681821    0.8685583794560996 O
   0.7418383466305302    0.6578406619681821    0.8685583794560995 O
   0.0081649892471133    0.0921459096580832    0.1314350360019652 O
   0.0081649892471133    0.5921459096580832    0.1314350360019652 O
   0.5081649892471132    0.0921459096580832    0.1314350360019652 O
   0.5081649892471132    0.5921459096580831    0.1314350360019652 O
   0.4917602396315338    0.1105272866314688    0.6695877774804718 O
   0.4917602396315338    0.6105272866314688    0.6695877774804718 O
   0.9917602396315339    0.1105272866314688    0.6695877774804718 O
   0.9917602396315338    0.6105272866314688    0.6695877774804718 O
