Ca4 V4 P6 O24                           
   1.00000000000000     
     2.5731609999999998    7.3399539999999996    4.3908319999999996
    -0.0068890000000000    0.0284510000000000    8.8800899999999992
     7.7371749999999997    0.0421600000000000    4.3589510000000002
   Ca   V    P    O 
     4     4     6    24
Direct
  0.2458755440491647  0.8413294250145280  0.5841430460967832
  0.9608733258682518  0.0015085625505030  0.0228799382679728
  0.4051353914632091  0.7384383961800443  0.1058857470607885
  0.1329109054467842  0.3812488833204938  0.7437894826120324
  0.6592069476358774  0.6203413500099560  0.6375837675548964
  0.1509926360745948  0.1411986799420912  0.1519638149823209
  0.8392079271191166  0.8587353120238458  0.8548456114056954
  0.3531652131353192  0.3473000467599888  0.3472952652506768
  0.2469836674937600  0.5479086926705647  0.9539469210342965
  0.0360128331535677  0.7472353360586177  0.4455208960008842
  0.9619047226610425  0.2458688551771453  0.5523540055894943
  0.4615509734534662  0.0300612420471412  0.7473849188474486
  0.5424984329587054  0.9504718199813389  0.2465593404884886
  0.7575623988138448  0.4473712101939977  0.0282788273436289
  0.5503881150535206  0.8003193458922413  0.4335787944346677
  0.2654818855006265  0.0651789212467331  0.9086563863027989
  0.4134935168685501  0.5662202055126200  0.7741730889900141
  0.9241222481210674  0.2722694358942465  0.0667686082559666
  0.7830163739794955  0.4052339492371074  0.5506944231005241
  0.0782474765930661  0.9016347592715195  0.2576335811111297
  0.9412447190155150  0.0794073634784228  0.7375633426335494
  0.5787132923622622  0.4299759687097212  0.1865699029786674
  0.7293325391583442  0.9119423226666525  0.0950898515273344
  0.2255679923069370  0.5848964622309695  0.4344997433807358
  0.0910115549279405  0.7370209094000887  0.9074137839199894
  0.4316857929075228  0.1984843104097641  0.5789153814953236
  0.1967486638156173  0.3895045814691930  0.9846939881746113
  0.8811036014655492  0.7035458693584716  0.4688363127755556
  0.0420319314683932  0.1617162662187849  0.4014980151569642
  0.4957557161649687  0.8406591457395586  0.7483301131511434
  0.3885005387015298  0.9374186803162012  0.2192533579222044
  0.7728830882489588  0.4567110155275348  0.8416644748605538
  0.2716483837134071  0.5369924674395992  0.1195137183006976
  0.0004628486925601  0.7905603707977906  0.6124412427038455
  0.1131631676563496  0.2977174639434721  0.5391822851391413
  0.6035427378444257  1.0172542429305949  0.8049460981853981
  0.4855824577829078  0.1400823069781724  0.2516642048839653
  0.7660667585924039  0.6275993400152013  0.0038890125626720
 
             NaN             NaN             NaN
             NaN             NaN             NaN
             NaN             NaN             NaN
             NaN             NaN             NaN
             NaN             NaN             NaN
             NaN             NaN             NaN
             NaN             NaN             NaN
             NaN             NaN             NaN
             NaN             NaN             NaN
             NaN             NaN             NaN
             NaN             NaN             NaN
             NaN             NaN             NaN
             NaN             NaN             NaN
             NaN             NaN             NaN
             NaN             NaN             NaN
             NaN             NaN             NaN
             NaN             NaN             NaN
             NaN             NaN             NaN
             NaN             NaN             NaN
             NaN             NaN             NaN
             NaN             NaN             NaN
             NaN             NaN             NaN
             NaN             NaN             NaN
             NaN             NaN             NaN
             NaN             NaN             NaN
             NaN             NaN             NaN
             NaN             NaN             NaN
             NaN             NaN             NaN
             NaN             NaN             NaN
             NaN             NaN             NaN
             NaN             NaN             NaN
             NaN             NaN             NaN
             NaN             NaN             NaN
             NaN             NaN             NaN
             NaN             NaN             NaN
             NaN             NaN             NaN
             NaN             NaN             NaN
             NaN             NaN             NaN
