Ca4 V4 P6 O24
1.0
2.573161 7.339954 4.390832
-0.006889 0.028451 8.880090
7.737175 0.042160 4.358951
Ca V P O
4 4 6 24
direct
0.318143 0.778940 0.571798 Ca
0.960552 0.004681 0.023734 Ca
0.403755 0.743422 0.111879 Ca
0.139993 0.400053 0.743363 Ca
0.646486 0.633133 0.631917 V
0.143409 0.149476 0.151629 V
0.843417 0.857885 0.856170 V
0.352655 0.348467 0.351936 V
0.245947 0.554132 0.951749 P
0.034713 0.752925 0.450501 P
0.961548 0.250639 0.554845 P
0.451648 0.035534 0.742866 P
0.536893 0.948825 0.248449 P
0.748304 0.455392 0.031903 P
0.557366 0.769251 0.412413 O
0.261337 0.065047 0.909197 O
0.402478 0.574181 0.763460 O
0.922927 0.281619 0.046702 O
0.781126 0.409513 0.556791 O
0.069523 0.911962 0.264958 O
0.937517 0.083746 0.737739 O
0.582159 0.428133 0.208579 O
0.717299 0.939232 0.084654 O
0.224112 0.590526 0.423741 O
0.084309 0.741591 0.925690 O
0.427951 0.222076 0.587795 O
0.191863 0.395951 0.986530 O
0.874105 0.712462 0.481221 O
0.037796 0.177086 0.397941 O
0.467597 0.873746 0.707437 O
0.383236 0.960512 0.201943 O
0.720880 0.485430 0.860313 O
0.293727 0.529970 0.108676 O
0.015603 0.780015 0.620312 O
0.110901 0.300550 0.547682 O
0.604369 0.985339 0.805904 O
0.476950 0.113119 0.303277 O
0.770811 0.626425 0.011438 O
